! Calibrated averaged scanner-service zoom
# Hz S RI R 50
222000000 0.178598685841 -0.0499677370935
222003000 0.177481269988 -0.0500227773881
222006000 0.178204710757 -0.0497996369077
222009000 0.177982760054 -0.04998128137
222012000 0.179103237035 -0.0498487577578
222015000 0.177828467666 -0.0496838201901
222018000 0.178089364876 -0.0498946309766
222021000 0.178328688458 -0.049819100503
222024000 0.17920312122 -0.0497237105394
222027000 0.177967903693 -0.0497818944038
222030000 0.178090476314 -0.0497319125938
222033000 0.178303216869 -0.0498248337497
222036000 0.178764948069 -0.0495793014523
222039000 0.178149817275 -0.0494880478483
222042000 0.177919752541 -0.04992292275
222045000 0.178308996613 -0.0496704487138
222048000 0.17848551856 -0.0494307626083
222051000 0.178080381237 -0.0496212404809
222054000 0.177778586054 -0.0497500717314
222057000 0.178352615702 -0.0497192896183
222060000 0.178197973763 -0.0496525506087
222063000 0.178394809164 -0.0495117157513
222066000 0.177434963049 -0.0498334277201
222069000 0.17841775229 -0.0496388703082
222072000 0.178338050128 -0.0495481454126
222075000 0.178815816867 -0.0497994306558
222078000 0.177646454214 -0.0497289408604
222081000 0.178498300019 -0.049602790503
222084000 0.178261087553 -0.0497515677664
222087000 0.179339655597 -0.0496256766304
222090000 0.178102647906 -0.0494661828863
222093000 0.178271111493 -0.0496741565755
222096000 0.178579056656 -0.0496357977095
222099000 0.17953005821 -0.0495750160446
222102000 0.178144196006 -0.0494803977179
222105000 0.178293704506 -0.0495129829125
222108000 0.178557568073 -0.0496352224753
222111000 0.17900102926 -0.0493539417825
222114000 0.178262322598 -0.0492606479765
222117000 0.178022981917 -0.0496995794485
222120000 0.178693618164 -0.0495329130396
222123000 0.17876602402 -0.0492215147656
222126000 0.178279683931 -0.0493954311563
222129000 0.177943318164 -0.0495667850714
222132000 0.178612473998 -0.0495792199313
222135000 0.178363642714 -0.0493877355896
222138000 0.178562322183 -0.0493120064024
222141000 0.17772679219 -0.0496159217171
222144000 0.178651928029 -0.0495193966365
222147000 0.178538664639 -0.0493734818688
222150000 0.178906350792 -0.049605580447
222153000 0.177849108695 -0.0494939844162
222156000 0.178600039027 -0.0493886127398
222159000 0.178329761035 -0.0495045003807
222162000 0.179398510381 -0.0494996162776
222165000 0.178147592942 -0.049287597475
222168000 0.178320531459 -0.0494657760954
222171000 0.178649524071 -0.0494374298743
222174000 0.179596245447 -0.0494413898601
222177000 0.178250810552 -0.0493338814586
222180000 0.178436524647 -0.0493689037727
222183000 0.178626706755 -0.0494821270434
222186000 0.179175811116 -0.0493135459991
222189000 0.178458036666 -0.0490881470529
222192000 0.178259800468 -0.049542733135
222195000 0.178676409806 -0.0493326528005
222198000 0.178885221904 -0.049066855919
222201000 0.178400289052 -0.0492703804477
222204000 0.178069793441 -0.0493786154468
222207000 0.178746229684 -0.0493101046974
222210000 0.178543013368 -0.0492105697054
222213000 0.178754596525 -0.0491534516413
222216000 0.17792300725 -0.0494454389584
222219000 0.178681408456 -0.0492737798016
222222000 0.178563555212 -0.049164907593
222225000 0.17900606632 -0.049381462489
222228000 0.177885219416 -0.0492623231378
222231000 0.178729937088 -0.0492554298171
222234000 0.178453129793 -0.0493787629705
222237000 0.179555086882 -0.0494148800361
222240000 0.178275422796 -0.0491140469175
222243000 0.178483005973 -0.0492692005745
222246000 0.178737807046 -0.0492980368878
222249000 0.179662735269 -0.0492834319637
222252000 0.178488975982 -0.0491796775973
222255000 0.178556807879 -0.0491786914249
222258000 0.178709414785 -0.0492860543325
222261000 0.179313501845 -0.049163183691
222264000 0.178648431429 -0.0490018081655
222267000 0.178371548664 -0.0493708920597
222270000 0.178796579659 -0.0492219596185
222273000 0.179035988444 -0.0489793019439
222276000 0.178538594232 -0.0491347037453
222279000 0.178179297829 -0.0492007252704
222282000 0.17874783792 -0.0492181452048
222285000 0.17857630819 -0.0490125656023
222288000 0.178831986862 -0.0489904626115
222291000 0.177900802784 -0.0492082224625
222294000 0.178742139406 -0.0491714376839
222297000 0.178681928891 -0.0490445092507
222300000 0.179011738653 -0.0492197838517
222303000 0.178090027222 -0.0489447511044
222306000 0.178467511468 -0.0493362120274
222309000 0.179433494532 -0.0492593198877
222312000 0.179862782914 -0.0489514850839
222315000 0.178264438479 -0.0489862007839
222318000 0.178168976988 -0.0490627672559
222321000 0.17928179743 -0.0491463819343
222324000 0.17936248707 -0.0489661781402
222327000 0.178693457767 -0.0488461383077
222330000 0.177780411205 -0.0491809431284
222333000 0.178972904141 -0.0490294213071
222336000 0.179196030306 -0.0488428229005
222339000 0.178712933062 -0.0489604658212
222342000 0.177568350328 -0.0489908050253
222345000 0.178815060364 -0.0491558000593
222348000 0.178753954618 -0.0489081042582
222351000 0.179063041255 -0.0490706978505
222354000 0.177499171104 -0.0489991578813
222357000 0.178790649701 -0.0492276666072
222360000 0.179016021719 -0.0490245940733
222363000 0.179356791121 -0.0491180127446
222366000 0.177749396015 -0.0489939729855
222369000 0.17881332604 -0.0491924659595
222372000 0.179244374501 -0.0491398202951
222375000 0.179679522163 -0.04909156874
222378000 0.178199719247 -0.0488274751377
222381000 0.178633576872 -0.0491695221341
222384000 0.179431014117 -0.0491439943646
222387000 0.179914374626 -0.0489233330978
222390000 0.17843031568 -0.0488852527266
222393000 0.178315171528 -0.0489425184364
222396000 0.179214256529 -0.0490119704332
222399000 0.179474318143 -0.0489235047139
222402000 0.178776667298 -0.048753212123
222405000 0.177836385016 -0.0490240372179
222408000 0.178895964119 -0.048926353554
222411000 0.17922176102 -0.048771993191
222414000 0.178652401768 -0.0488669230752
222417000 0.177569275038 -0.0488285697364
222420000 0.178792499048 -0.0490180661725
222423000 0.178730451109 -0.0488076083763
222426000 0.178987498716 -0.0489542496686
222429000 0.17755334543 -0.0488366303247
222432000 0.178869071471 -0.0491499643631
222435000 0.179115903062 -0.0489946143235
222438000 0.179442398427 -0.0490090572794
222441000 0.177893156349 -0.0488407875516
222444000 0.178850644453 -0.0490565201572
222447000 0.179259958605 -0.0490453847275
222450000 0.179754442512 -0.0490529348243
222453000 0.178179817881 -0.0486793583383
222456000 0.178586059713 -0.0490951171072
222459000 0.179470493549 -0.0490728164303
222462000 0.179904686525 -0.0488988034797
222465000 0.178282062894 -0.0486685962453
222468000 0.17824953974 -0.0488449371342
222471000 0.179272264887 -0.0490867482946
222474000 0.179446493339 -0.0488861577344
222477000 0.17868049382 -0.0485586958549
222480000 0.177714675132 -0.0488512610354
222483000 0.178976938602 -0.0488851624733
222486000 0.179224489881 -0.0487328882842
222489000 0.178745539411 -0.0488242542197
222492000 0.177614705224 -0.0487363098927
222495000 0.178841200173 -0.048974756471
222498000 0.178930150302 -0.0488202101616
222501000 0.179201934432 -0.0488897504432
222504000 0.177643255507 -0.0487777050829
222507000 0.178884609123 -0.0491086470594
222510000 0.179047071971 -0.0489371448044
222513000 0.179485272056 -0.0490609628711
222516000 0.177845137522 -0.0487314962695
222519000 0.178765348962 -0.0490425105637
222522000 0.179203142621 -0.0490316570842
222525000 0.179686820669 -0.0490181466528
222528000 0.178253763298 -0.0485843935444
222531000 0.17859019416 -0.0490185861881
222534000 0.179497947143 -0.049084696062
222537000 0.179954102306 -0.0489650110381
222540000 0.17838681599 -0.0487387640406
222543000 0.17828632706 -0.0487001231198
222546000 0.179286622675 -0.0490151273655
222549000 0.179442512127 -0.0488575177349
222552000 0.178800037574 -0.0485359985051
222555000 0.177799808671 -0.0487680882191
222558000 0.178969494696 -0.0488199836718
222561000 0.179333937483 -0.0486994807706
222564000 0.178715677197 -0.0486811665367
222567000 0.177633536085 -0.0486064016267
222570000 0.17883327642 -0.0488879723444
222573000 0.178897601725 -0.048757775082
222576000 0.1790589945 -0.0488540197364
222579000 0.177574712363 -0.0486484897804
222582000 0.178787254736 -0.0490562838183
222585000 0.179001383667 -0.0488068400792
222588000 0.179352023277 -0.0489652232674
222591000 0.177795699298 -0.0486609605907
222594000 0.178751001845 -0.0489748042791
222597000 0.179217248435 -0.049012534699
222600000 0.179646815058 -0.0489885780715
222603000 0.179846020076 -0.0492774919038
222606000 0.180678742447 -0.0489295190014
222609000 0.177674318399 -0.0482285046811
222612000 0.177310359275 -0.0487060833876
222615000 0.179219267946 -0.0490984610903
222618000 0.181055037962 -0.0490229279535
222621000 0.177854809792 -0.0482193778197
222624000 0.177318159648 -0.0486482895804
222627000 0.17852955685 -0.0489135177787
222630000 0.181254195024 -0.0492193109966
222633000 0.178297869021 -0.0483586542532
222636000 0.177409705107 -0.0484857396057
222639000 0.177682445844 -0.0487028311
222642000 0.181006107396 -0.0491433221155
222645000 0.178700196343 -0.0483837775103
222648000 0.177391884639 -0.0486503560278
222651000 0.177387181138 -0.0485870131465
222654000 0.180599878317 -0.0492729728047
222657000 0.179015384157 -0.0484932503502
222660000 0.177564193762 -0.0485184551894
222663000 0.177109950742 -0.0485547278297
222666000 0.179977329075 -0.0491910278389
222669000 0.179721014893 -0.0486996295972
222672000 0.177464227164 -0.0483493340967
222675000 0.1772390005 -0.0486908413325
222678000 0.179717322668 -0.0492306236619
222681000 0.180534159351 -0.0490881320029
222684000 0.177552192799 -0.0481314350566
222687000 0.177174823669 -0.0486318457886
222690000 0.179007863475 -0.0491381868908
222693000 0.180976471185 -0.0491806751989
222696000 0.177853607253 -0.0482297360081
222699000 0.177272791109 -0.0485898955567
222702000 0.17847850162 -0.0489669858171
222705000 0.181083752702 -0.0492739432284
222708000 0.178225784415 -0.0483087223137
222711000 0.177337784508 -0.0484363206919
222714000 0.177595077539 -0.048673718606
222717000 0.180857510863 -0.049301926631
222720000 0.17859281273 -0.0483743663137
222723000 0.177319003485 -0.048614340212
222726000 0.177260438536 -0.0485575289546
222729000 0.180447888414 -0.0493719249479
222732000 0.179101390976 -0.0485716730839
222735000 0.177481874658 -0.0485635350274
222738000 0.177123855715 -0.0486167795814
222741000 0.179902003565 -0.0493427412455
222744000 0.17966729909 -0.0487999390054
222747000 0.177425064178 -0.0483909955654
222750000 0.17715005708 -0.0486856156489
222753000 0.179638813649 -0.0493876940484
222756000 0.180338387318 -0.049153441462
222759000 0.177526535118 -0.0481364268942
222762000 0.177163533303 -0.0486323299561
222765000 0.178964542931 -0.0491803045521
222768000 0.180852042878 -0.0493045427211
222771000 0.177687417789 -0.0481685927973
222774000 0.177132880375 -0.0486491329919
222777000 0.17829651601 -0.0490538104155
222780000 0.180980635145 -0.0494418877315
222783000 0.178079963944 -0.048357009828
222786000 0.177109475015 -0.0485058020112
222789000 0.17743210104 -0.0487189710283
222792000 0.180679183628 -0.0493909837637
222795000 0.178479746669 -0.0483748774704
222798000 0.17720816791 -0.0486115253021
222801000 0.177156106656 -0.048607067407
222804000 0.180347426887 -0.0495087649231
222807000 0.178779112466 -0.0485876085261
222810000 0.177359683794 -0.0484820827024
222813000 0.176882633777 -0.0485996912959
222816000 0.179752437955 -0.0494156466473
222819000 0.179440693881 -0.0489109936472
222822000 0.177306624882 -0.0483667309971
222825000 0.176922876592 -0.0487896711034
222828000 0.179460323796 -0.0495242332533
222831000 0.180139242583 -0.0493407626811
222834000 0.177432333491 -0.0481353206107
222837000 0.176950195354 -0.0487165705734
222840000 0.178823972918 -0.0493572107176
222843000 0.180595773704 -0.0495218819269
222846000 0.177293049092 -0.0481164898871
222849000 0.176998852797 -0.0487125291241
222852000 0.178252690484 -0.049188330787
222855000 0.18071420128 -0.0496574644082
222858000 0.177728257728 -0.0483104187783
222861000 0.177017904699 -0.0485049474554
222864000 0.177340384246 -0.0487796561104
222867000 0.180533306388 -0.0496114235068
222870000 0.178289845045 -0.0484463724503
222873000 0.177027147684 -0.0486727604611
222876000 0.177068906027 -0.0486389493914
222879000 0.180079134525 -0.0496317282
222882000 0.178516819768 -0.0485719453311
222885000 0.177089909913 -0.0485241249582
222888000 0.176765407971 -0.0486070405373
222891000 0.179472883595 -0.0494838964099
222894000 0.179168716142 -0.0489040560507
222897000 0.177071701116 -0.0483795881619
222900000 0.176771598678 -0.0487981024385
222903000 0.177865943767 -0.0490251761176
222906000 0.180300729287 -0.049654929624
222909000 0.177509079772 -0.0483068539948
222912000 0.17692567173 -0.0486750068513
222915000 0.177400791811 -0.0489922716091
222918000 0.180301249343 -0.049915975027
222921000 0.178295360681 -0.048577618033
222924000 0.176845112872 -0.0483784096715
222927000 0.176901196814 -0.0487670061826
222930000 0.180122283543 -0.0498578493383
222933000 0.178717513769 -0.0489810486393
222936000 0.176784377084 -0.0482786595434
222939000 0.176680470998 -0.0487075631681
222942000 0.179425500621 -0.0497152327105
222945000 0.179216722705 -0.0490477602497
222948000 0.176743242215 -0.0482039398273
222951000 0.176438501573 -0.0485204640641
222954000 0.178613791891 -0.049329062622
222957000 0.179412759578 -0.0491402844048
222960000 0.176862181713 -0.0482019093592
222963000 0.17649826966 -0.0487390858571
222966000 0.178056065524 -0.0491426969566
222969000 0.17978372704 -0.0495049358248
222972000 0.17690155461 -0.048073727727
222975000 0.176515262651 -0.0487834788219
222978000 0.177657276428 -0.0490209484152
222981000 0.179950389306 -0.0497739055099
222984000 0.177206568715 -0.0483330038096
222987000 0.176696079775 -0.048733988927
222990000 0.177213665857 -0.0490307683015
222993000 0.179975083934 -0.0499820950281
222996000 0.17797169561 -0.048640468654
222999000 0.176565762766 -0.0483898421198
223002000 0.176727037327 -0.0487652880834
223005000 0.179731580447 -0.0498978021163
223008000 0.178436762865 -0.0490156745155
223011000 0.176559459566 -0.0483351670891
223014000 0.176355385097 -0.0486665937195
223017000 0.17917198365 -0.0497820940438
223020000 0.178825944394 -0.049062843287
223023000 0.176456932447 -0.0482387375931
223026000 0.176243793467 -0.0485709232469
223029000 0.178315182058 -0.0493967469268
223032000 0.179067356403 -0.0492426634516
223035000 0.176487159644 -0.0482025488478
223038000 0.176170539949 -0.0487780838061
223041000 0.177616197873 -0.0492098824069
223044000 0.179363488765 -0.0496181069707
223047000 0.17666680474 -0.0480901472462
223050000 0.176220414377 -0.0488288201802
223053000 0.17722341988 -0.0490928435954
223056000 0.179577125332 -0.049924173407
223059000 0.176855255028 -0.0483175721658
223062000 0.176373474184 -0.0487691318221
223065000 0.176814528524 -0.0490516706168
223068000 0.179501308235 -0.050122856517
223071000 0.177501755488 -0.0486609541426
223074000 0.176196213134 -0.0483922745731
223077000 0.176336028234 -0.0487654924789
223080000 0.179279867707 -0.0500711458863
223083000 0.17800445196 -0.0490256080491
223086000 0.176222570119 -0.0483254528343
223089000 0.17598879547 -0.0486445269608
223092000 0.178674494703 -0.0498700509522
223095000 0.178398708848 -0.0491229841524
223098000 0.176097188815 -0.0482054351419
223101000 0.175840251884 -0.048533488804
223104000 0.177924519899 -0.0494868730406
223107000 0.178616632825 -0.0493479405014
223110000 0.176144407868 -0.0481998974214
223113000 0.175859820865 -0.0487300676883
223116000 0.177174712382 -0.0492902476902
223119000 0.178981083477 -0.0497069097711
223122000 0.176263997398 -0.0480870438072
223125000 0.175837053683 -0.0487919484065
223128000 0.176825019298 -0.049070331803
223131000 0.179065683126 -0.049973529846
223134000 0.176443819835 -0.0482591546828
223137000 0.175976791433 -0.0487346331867
223140000 0.1764064867 -0.0490774771533
223143000 0.179008415458 -0.0502222519514
223146000 0.177107914409 -0.0486717893499
223149000 0.175888991768 -0.0484082013584
223152000 0.175978091131 -0.0487719534764
223155000 0.178849154278 -0.0500898564028
223158000 0.177604641833 -0.0490738996325
223161000 0.175909078649 -0.0483332957546
223164000 0.175677453209 -0.0486944218072
223167000 0.178266051432 -0.0500168818289
223170000 0.178030651524 -0.0491907338006
223173000 0.175704884065 -0.0482473822727
223176000 0.175427738897 -0.0484992103324
223179000 0.17753534313 -0.0495599756484
223182000 0.178140460068 -0.0493977947004
223185000 0.175768691646 -0.0481480378717
223188000 0.175476464877 -0.0487139651142
223191000 0.176779308088 -0.0493205931504
223194000 0.178488804579 -0.0497884783495
223197000 0.175857050632 -0.0480727787015
223200000 0.175399800117 -0.0487516992413
223203000 0.175927448245 -0.0485819697813
223206000 0.177371488113 -0.0495399612716
223209000 0.176623580534 -0.04874045981
223212000 0.17647574272 -0.0488490034533
223215000 0.175716238443 -0.0484673622154
223218000 0.176969892171 -0.0492249564207
223221000 0.176443208453 -0.0486996366163
223224000 0.176485121937 -0.0489779238396
223227000 0.175814552674 -0.0486498694007
223230000 0.176536453034 -0.0489353140459
223233000 0.176555744527 -0.0489098013668
223236000 0.176260700972 -0.0488770091774
223239000 0.176056571323 -0.0489119176738
223242000 0.176316296405 -0.0488128608164
223245000 0.176703311471 -0.0491559191536
223248000 0.176195558238 -0.0487512940154
223251000 0.176257873109 -0.0489681862266
223254000 0.175991407427 -0.048836887084
223257000 0.176894897012 -0.0494654398909
223260000 0.176171025805 -0.0486707521683
223263000 0.176171397238 -0.0488118324284
223266000 0.175785640457 -0.0486430608086
223269000 0.176936213705 -0.0496083315864
223272000 0.175971296734 -0.0485693356254
223275000 0.176159911103 -0.0486970687003
223278000 0.175340476569 -0.0484566130387
223281000 0.176742039871 -0.0495110883201
223284000 0.176129606852 -0.0486984095978
223287000 0.175936436679 -0.0487497558168
223290000 0.175258392239 -0.0483712365472
223293000 0.176493720965 -0.0492591999837
223296000 0.175922538089 -0.0485610117011
223299000 0.175951944287 -0.0488332474727
223302000 0.175301937777 -0.0485821207282
223305000 0.176042766031 -0.0489289598619
223308000 0.176105527754 -0.0488363654159
223311000 0.175798799465 -0.048843467625
223314000 0.175576143566 -0.0488060028055
223317000 0.17582683307 -0.0488217445449
223320000 0.176194822204 -0.0492075714637
223323000 0.175736870613 -0.0486991357802
223326000 0.175769037968 -0.0489294024275
223329000 0.175500324566 -0.0487989686943
223332000 0.176370982934 -0.0494900050531
223335000 0.175684353957 -0.0485916948987
223338000 0.175712680471 -0.0488003834511
223341000 0.175312997313 -0.0486470923654
223344000 0.176377206456 -0.0495896568898
223347000 0.175472663246 -0.0485452438364
223350000 0.175674310326 -0.0486468686873
223353000 0.174860176593 -0.0483798924978
223356000 0.176225858582 -0.0494669012414
223359000 0.175553579875 -0.0485780730835
223362000 0.175367834329 -0.0487193716851
223365000 0.174788118437 -0.0482858834418
223368000 0.175930373865 -0.0492166052922
223371000 0.175422825776 -0.0485702612804
223374000 0.175519625759 -0.0488635625511
223377000 0.174795193161 -0.048509627482
223380000 0.175516262964 -0.0489066726177
223383000 0.175601571321 -0.0487649625913
223386000 0.175243005871 -0.0487635679231
223389000 0.175059947296 -0.0488521527932
223392000 0.17532608418 -0.0487534405816
223395000 0.175594086758 -0.0490607429773
223398000 0.175134931679 -0.0485932104722
223401000 0.175175704131 -0.0488114861521
223404000 0.174983894711 -0.0487271615517
223407000 0.175747887278 -0.0493853733278
223410000 0.175084269063 -0.0485237209936
223413000 0.175050038439 -0.0487748731239
223416000 0.174802441434 -0.0485492739362
223419000 0.175878879297 -0.0495705200382
223422000 0.174890027125 -0.0484365762723
223425000 0.175077175496 -0.0485983467755
223428000 0.174363705385 -0.0483379978504
223431000 0.175685120647 -0.0494592078593
223434000 0.175018107453 -0.0485469444332
223437000 0.174767452532 -0.0486219714988
223440000 0.174237796244 -0.04823769481
223443000 0.175389253116 -0.0491993664773
223446000 0.174775631181 -0.0484283222261
223449000 0.174789505742 -0.0487848941741
223452000 0.174279594381 -0.0484861686235
223455000 0.174989291265 -0.0488875119185
223458000 0.175020124299 -0.0487479613701
223461000 0.174690320274 -0.0488168132628
223464000 0.174482218132 -0.0488024457155
223467000 0.174729723011 -0.048703972126
223470000 0.174959698386 -0.0489468857033
223473000 0.174607226559 -0.0485830321598
223476000 0.174521472682 -0.0487726760638
223479000 0.174382985475 -0.0486925581183
223482000 0.175073270054 -0.0492657327479
223485000 0.174478120825 -0.0484673717654
223488000 0.174414271814 -0.0486968862025
223491000 0.174177280024 -0.0485027408242
223494000 0.175107023642 -0.0494622519122
223497000 0.174300536862 -0.0483404509447
223500000 0.174482639876 -0.0485668875976
223503000 0.173714991718 -0.0483016742284
223506000 0.174874691868 -0.0492881396144
223509000 0.174332509864 -0.0485358262873
223512000 0.174252320537 -0.0487369105646
223515000 0.173628929847 -0.0482497069042
223518000 0.174556956389 -0.048886346641
223521000 0.174373352268 -0.0485955799085
223524000 0.174228098923 -0.0488235127139
223527000 0.173874748874 -0.0487891597815
223530000 0.174211940843 -0.0487227248267
223533000 0.174470225513 -0.048939972019
223536000 0.174053133219 -0.0485174775117
223539000 0.173906347228 -0.0486875416524
223542000 0.173914185336 -0.0485335402071
223545000 0.174495527448 -0.0490768222008
223548000 0.173952921582 -0.0484263049692
223551000 0.173975239516 -0.0487703600412
223554000 0.173736773107 -0.0485594793655
223557000 0.174524685954 -0.0493930026821
223560000 0.173759656174 -0.0483027731763
223563000 0.173958108049 -0.0485607612259
223566000 0.173290678186 -0.0481475405412
223569000 0.174429736003 -0.0493466606794
223572000 0.173699560967 -0.0484413726743
223575000 0.173825160999 -0.0486857212339
223578000 0.173128300787 -0.0481954660728
223581000 0.174138374325 -0.0491700804783
223584000 0.173696803217 -0.0484221854423
223587000 0.173606358921 -0.0486307511157
223590000 0.173041388607 -0.0481307855634
223593000 0.173831594916 -0.0487895212024
223596000 0.173686209131 -0.0484899213792
223599000 0.173506634208 -0.0486812884124
223602000 0.173191916849 -0.0486000383363
223605000 0.173508784871 -0.0486189262755
223608000 0.173718178774 -0.0488865770584
223611000 0.173447123439 -0.0484839256807
223614000 0.173211379015 -0.0485927651722
223617000 0.173297724395 -0.0483977368664
223620000 0.173800350397 -0.0490814044939
223623000 0.173250876605 -0.0482692549806
223626000 0.173230000006 -0.0486107705296
223629000 0.172999801696 -0.0484194386831
223632000 0.173734045093 -0.0492767606501
223635000 0.173141770683 -0.0482308422978
223638000 0.173161989914 -0.0483328248055
223641000 0.172571463722 -0.0479046269046
223644000 0.173686905489 -0.0492697983251
223647000 0.173105694394 -0.0483005420441
223650000 0.173071800005 -0.0484912146307
223653000 0.172478998522 -0.0480035541002
223656000 0.173416835065 -0.0490493931387
223659000 0.173036150648 -0.0482892652251
223662000 0.172854947252 -0.0484222404042
223665000 0.172335549895 -0.0478520363202
223668000 0.173072774571 -0.0485655952433
223671000 0.172976736751 -0.0482455951243
223674000 0.172831035873 -0.0484861843467
223677000 0.172464104565 -0.048388002434
223680000 0.172779552036 -0.0483758594375
223683000 0.17298269059 -0.0485964409304
223686000 0.172752260173 -0.0482264060114
223689000 0.172484692702 -0.0482913739961
223692000 0.17245001174 -0.0480910482722
223695000 0.173035511665 -0.0488433987632
223698000 0.172534391314 -0.0480786325528
223701000 0.172537255519 -0.0484341441627
223704000 0.172303260632 -0.0481952314896
223707000 0.172885950398 -0.049104006683
223710000 0.17240977321 -0.0480425290118
223713000 0.172515279293 -0.0481596706301
223716000 0.171915507143 -0.0477738885984
223719000 0.172881910254 -0.0490627950835
223722000 0.172315722964 -0.0480810933585
223725000 0.172455067077 -0.0482333293675
223728000 0.171694474973 -0.0476833319615
223731000 0.172617239036 -0.0487818772593
223734000 0.172308761404 -0.0479871331053
223737000 0.172154245588 -0.0480628458763
223740000 0.171576066652 -0.0475172460865
223743000 0.172331275151 -0.0483601495249
223746000 0.172231796922 -0.048042956118
223749000 0.172056667235 -0.0481264015878
223752000 0.171633495322 -0.0480719538567
223755000 0.171956910523 -0.048129490583
223758000 0.172199818292 -0.0483759487643
223761000 0.171942680834 -0.0479070533272
223764000 0.171725293348 -0.0480410800593
223767000 0.171668178468 -0.0478645106602
223770000 0.172234550812 -0.048610350234
223773000 0.171822961601 -0.0478386067969
223776000 0.17180572727 -0.0481344604259
223779000 0.171488009459 -0.0479250842947
223782000 0.172128340836 -0.0488936975776
223785000 0.171726208314 -0.0476553727294
223788000 0.171744129661 -0.0478055246063
223791000 0.171147535953 -0.0474656352098
223794000 0.172081914956 -0.0487558931308
223797000 0.171577810661 -0.047686189057
223800000 0.171592522035 -0.0478092472055
223803000 0.171163167556 -0.0471158193169
223806000 0.171428812425 -0.0479540649624
223809000 0.17098311268 -0.04729029877
223812000 0.172078814773 -0.0487726978226
223815000 0.17114542525 -0.0472298104516
223818000 0.171420878104 -0.0478580491324
223821000 0.170644064144 -0.0471176149534
223824000 0.171917221417 -0.0486915237576
223827000 0.171267402157 -0.0475552532623
223830000 0.171225360607 -0.047782253316
223833000 0.170722272049 -0.0473006082015
223836000 0.17157945322 -0.0482290534422
223839000 0.171216824034 -0.0476823333309
223842000 0.17117696446 -0.0475357042344
223845000 0.17067012406 -0.0474490556959
223848000 0.171188024328 -0.0478298529289
223851000 0.1714336513 -0.0480199541553
223854000 0.170872708326 -0.0471913569119
223857000 0.170617644863 -0.0476202885686
223860000 0.170871872749 -0.0475746147467
223863000 0.171384105833 -0.0482062633133
223866000 0.170694515299 -0.0468059974215
223869000 0.170723797922 -0.0476156549377
223872000 0.170464215869 -0.0471634438713
223875000 0.171408803014 -0.0483735644251
223878000 0.170444039814 -0.0467096640124
223881000 0.170623982104 -0.0475517528858
223884000 0.170245085546 -0.046961942544
223887000 0.171282031659 -0.048419890276
223890000 0.170406794821 -0.0468504533456
223893000 0.170557818659 -0.0474933669789
223896000 0.169869584533 -0.0467985863804
223899000 0.171176620206 -0.0484043512711
223902000 0.170446342116 -0.0470725490225
223905000 0.170385590831 -0.0473641035527
223908000 0.169891502395 -0.0469629381936
223911000 0.170876902218 -0.0479787613231
223914000 0.1704676421 -0.0472710976605
223917000 0.170355009088 -0.0472106081902
223920000 0.169906540907 -0.0471051820986
223923000 0.170449568737 -0.0474814203435
223926000 0.170650692669 -0.0475726979287
223929000 0.170142546843 -0.046845379098
223932000 0.169927903285 -0.0472751961866
223935000 0.17013598078 -0.0471821848485
223938000 0.170654472639 -0.047759570863
223941000 0.169950900232 -0.0463454506177
223944000 0.170024074425 -0.0472673435625
223947000 0.169787685022 -0.046826028451
223950000 0.170635321372 -0.0479927611971
223953000 0.169689544829 -0.0462065678004
223956000 0.16987878805 -0.0471436919636
223959000 0.169533476329 -0.0465020703575
223962000 0.170505025952 -0.0479269102506
223965000 0.169644696681 -0.0463261158583
223968000 0.169834240164 -0.0470501379037
223971000 0.169197106572 -0.0463083101673
223974000 0.170468266803 -0.0478820045353
223977000 0.169763565454 -0.0466058275554
223980000 0.169614416644 -0.0468776475874
223983000 0.169253994259 -0.0464981648195
223986000 0.170129433047 -0.047500175133
223989000 0.16973629841 -0.0467691398495
223992000 0.169551931405 -0.0467686372727
223995000 0.169174657067 -0.0466871562162
223998000 0.169746021363 -0.0470262876575
224001000 0.169871904993 -0.0471700950716
224004000 0.169340240804 -0.0464005126977
224007000 0.16915089282 -0.0468257942024
224010000 0.169403141196 -0.0467449211958
224013000 0.169810593561 -0.0473309822031
224016000 0.169209263921 -0.0459991897765
224019000 0.169167635753 -0.0468115782129
224022000 0.169086529036 -0.0463933359797
224025000 0.169736264375 -0.0474809894554
224028000 0.168844171403 -0.045787502717
224031000 0.169077948591 -0.046768628775
224034000 0.168817730302 -0.0460968134307
224037000 0.169664534827 -0.0474703209349
224040000 0.168894771112 -0.045914126332
224043000 0.169015381345 -0.0466842335981
224046000 0.16846070657 -0.0458700094959
224049000 0.169589038315 -0.0474170485879
224052000 0.168924918588 -0.0461826351936
224055000 0.16887263099 -0.0464929309616
224058000 0.168451836363 -0.046010217126
224061000 0.169333360725 -0.0470755546776
224064000 0.168892178313 -0.0463289656955
224067000 0.168854397965 -0.0463555996616
224070000 0.168410760204 -0.0462533986085
224073000 0.168977590357 -0.0466218350934
224076000 0.168975360748 -0.0466756311989
224079000 0.168583609127 -0.0460075122132
224082000 0.168337502357 -0.0463488398138
224085000 0.168658069113 -0.0462739061784
224088000 0.16893310148 -0.0468532318359
224091000 0.168466118364 -0.0455509486167
224094000 0.16844796823 -0.0463809677794
224097000 0.168340072133 -0.0458700323721
224100000 0.16896431658 -0.0470803018908
224103000 0.168281977043 -0.045468563322
224106000 0.168338678557 -0.0464127975117
224109000 0.168085143849 -0.0459398024252
224112000 0.169037503631 -0.0470463896126
224115000 0.168420956755 -0.0460171740345
224118000 0.168341903911 -0.0461348653556
224121000 0.167946339208 -0.046147536872
224124000 0.168719110982 -0.046829317735
224127000 0.168433750629 -0.046405971162
224130000 0.168129954114 -0.0454698998565
224133000 0.167895055011 -0.0459876141055
224136000 0.16833065398 -0.0464488204323
224139000 0.168504535283 -0.0467296719317
224142000 0.167878712839 -0.0450728006107
224145000 0.167793543721 -0.045926855384
224148000 0.167937855073 -0.0457831756382
224151000 0.168481390677 -0.0467136538242
224154000 0.167665824284 -0.0446411818006
224157000 0.167696858445 -0.0459425607301
224160000 0.167534850148 -0.04526775389
224163000 0.168542989438 -0.0468488915948
224166000 0.167489270782 -0.0447314600623
224169000 0.167540257184 -0.0459839243476
224172000 0.167323949837 -0.0453215976392
224175000 0.168419873195 -0.0467646134724
224178000 0.167482229524 -0.0449760092116
224181000 0.167571049738 -0.0459180788317
224184000 0.167217512845 -0.0454239888143
224187000 0.168248525444 -0.0465809332696
224190000 0.16757607735 -0.0454633016766
224193000 0.167538074298 -0.04562449851
224196000 0.167119171401 -0.0455817935907
224199000 0.167957734175 -0.0463065423579
224202000 0.167677128331 -0.045779971661
224205000 0.16735045593 -0.0449496596342
224208000 0.167072183018 -0.045492969728
224211000 0.16756965722 -0.0459022530587
224214000 0.167696161899 -0.0461252290076
224217000 0.167053346352 -0.0445986731244
224220000 0.166987343929 -0.0454761305006
224223000 0.167168208645 -0.0453221036059
224226000 0.167666944416 -0.0461895496045
224229000 0.166790106322 -0.0440873268058
224232000 0.166694469082 -0.0455257297221
224235000 0.167627122911 -0.0447125681409
224238000 0.167696268963 -0.0463216027768
224241000 0.167011379028 -0.044279364623
224244000 0.166935633551 -0.0457571245431
224247000 0.169029825099 -0.0464573230533
224250000 0.167599149363 -0.0461095286862
224253000 0.166971062481 -0.0457656043493
224256000 0.16699566378 -0.0455710230964
224259000 0.166535165025 -0.0448830385304
224262000 0.167388989465 -0.046006488526
224265000 0.166696962688 -0.0449155460677
224268000 0.166652898497 -0.0451747974884
224271000 0.166326460546 -0.0450715482957
224274000 0.167130338326 -0.0457260221649
224277000 0.166796583349 -0.0452894100652
224280000 0.166485055837 -0.0444445494885
224283000 0.166322034627 -0.0450093892107
224286000 0.166728060714 -0.0453087707481
224289000 0.16675380516 -0.0455695405791
224292000 0.166208414608 -0.0440760385977
224295000 0.166225818214 -0.0449530291216
224298000 0.166377784541 -0.0447752586018
224301000 0.166775357677 -0.045695088989
224304000 0.166059443697 -0.0437593154605
224307000 0.166053888825 -0.045059348325
224310000 0.166029582336 -0.0443299925482
224313000 0.166792138301 -0.0458414150142
224316000 0.165980161502 -0.0438739276229
224319000 0.165982889472 -0.0451237409522
224322000 0.165772553635 -0.0442332323421
224325000 0.166672813283 -0.0456557871756
224328000 0.16596527308 -0.0439483382081
224331000 0.165965278961 -0.0448833272092
224334000 0.165779210583 -0.0443455235169
224337000 0.166486821262 -0.045412053384
224340000 0.165857783676 -0.0444004457336
224343000 0.165891584476 -0.044636090982
224346000 0.165472005911 -0.0443547616548
224349000 0.166286842705 -0.0450738355165
224352000 0.165969746401 -0.0446697148755
224355000 0.165797189728 -0.0439292837778
224358000 0.16546279091 -0.0443282491857
224361000 0.165949536202 -0.0447267230431
224364000 0.166100521759 -0.0450547124394
224367000 0.16554883557 -0.0435806724862
224370000 0.165459230658 -0.0444018661236
224373000 0.16562199292 -0.0441506580196
224376000 0.165978909887 -0.0451476663057
224379000 0.165388411198 -0.0432201022723
224382000 0.165338179887 -0.0444257332899
224385000 0.165234331569 -0.0436706676144
224388000 0.165933145001 -0.0452528785445
224391000 0.165208812992 -0.0432779485658
224394000 0.16516677112 -0.0444603568932
224397000 0.165116965608 -0.0436220960333
224400000 0.165836715332 -0.0450234466157
224403000 0.165686501662 -0.0449779333753
224406000 0.165239691903 -0.043764325901
224409000 0.165197318626 -0.0440637551373
224412000 0.164777887718 -0.0436826706994
224415000 0.1654948145 -0.0446036746077
224418000 0.165288481982 -0.0440117175515
224421000 0.165094583522 -0.0437969518013
224424000 0.164656209849 -0.0438286421608
224427000 0.165156695462 -0.044145271026
224430000 0.16521574957 -0.044272095963
224433000 0.164968296594 -0.0433589549196
224436000 0.164636698316 -0.0438225936436
224439000 0.164821325668 -0.0437212195635
224442000 0.16509245337 -0.0444772364174
224445000 0.164783506607 -0.0429243570958
224448000 0.164495165317 -0.0438094684072
224451000 0.164550404209 -0.0433435651295
224454000 0.164990142537 -0.044436124077
224457000 0.164551760299 -0.0427587883539
224460000 0.164569421444 -0.0436634801546
224463000 0.164346246633 -0.0429837553729
224466000 0.164910137316 -0.0445415139333
224469000 0.164526340823 -0.0430087916164
224472000 0.164455857275 -0.0435684828279
224475000 0.16420847714 -0.0430005311827
224478000 0.164831088382 -0.0443546003555
224481000 0.164395496618 -0.0431689873793
224484000 0.164357528781 -0.0434450883487
224487000 0.164010595589 -0.0429598141853
224490000 0.164680020536 -0.0439463209873
224493000 0.164428771089 -0.0433741494526
224496000 0.164261573216 -0.0431860964941
224499000 0.16389337197 -0.0431664402971
224502000 0.164336639797 -0.0434190448552
224505000 0.164319730294 -0.0434864572427
224508000 0.164130884054 -0.042722189566
224511000 0.163845471212 -0.0431235669453
224514000 0.164075123645 -0.04293562693
224517000 0.16424641233 -0.0437240000099
224520000 0.164029331571 -0.0423176035618
224523000 0.163760798571 -0.0431661770009
224526000 0.163873221517 -0.0427385949323
224529000 0.164074138197 -0.0437419254102
224532000 0.163837758609 -0.042127187494
224535000 0.163777950724 -0.0429915190929
224538000 0.163611617976 -0.0423509507191
224541000 0.164036229042 -0.0437827862784
224544000 0.163701718939 -0.0423850924482
224547000 0.163673123595 -0.0428713028234
224550000 0.163359989696 -0.0422527202979
224553000 0.163900806622 -0.043586057522
224556000 0.163539784055 -0.0424225251022
224559000 0.163531498198 -0.0427309537076
224562000 0.163137907523 -0.0422359322849
224565000 0.163714613419 -0.0431449271385
224568000 0.163464681907 -0.0426734203668
224571000 0.163402093817 -0.0424578093452
224574000 0.163022225025 -0.042489352143
224577000 0.163427522961 -0.0426799412277
224580000 0.163441248255 -0.0427659600762
224583000 0.163336440916 -0.0420201448443
224586000 0.163056109704 -0.0424123272008
224589000 0.163226898552 -0.0422300449617
224592000 0.163382148296 -0.043060795682
224595000 0.163224898289 -0.0416018311281
224598000 0.162992500328 -0.0423958365792
224601000 0.16287165345 -0.0419255452232
224604000 0.163321073559 -0.0431152973128
224607000 0.163056179594 -0.0414521936428
224610000 0.162967230069 -0.0422124360343
224613000 0.162673486897 -0.0415339744459
224616000 0.16321928151 -0.0430817502623
224619000 0.163001769326 -0.0416012540089
224622000 0.1629396075 -0.0420789136972
224625000 0.162525141787 -0.0413528966364
224628000 0.163146460394 -0.0428469999722
224631000 0.162797188515 -0.0416039572803
224634000 0.162797274133 -0.0418755394537
224637000 0.162366403124 -0.041407905581
224640000 0.162913041011 -0.0423414087036
224643000 0.162732029396 -0.0417880257358
224646000 0.162647944673 -0.0416317676656
224649000 0.162207477001 -0.0414671842576
224652000 0.162593995181 -0.0418760507017
224655000 0.162650149731 -0.0419318773771
224658000 0.162576335617 -0.0412036111353
224661000 0.162125335012 -0.0415051013337
224664000 0.16240277768 -0.041499652036
224667000 0.162584490036 -0.0421339521209
224670000 0.162426559317 -0.0407609923804
224673000 0.162084932529 -0.0415442998037
224676000 0.162162621273 -0.0411404090296
224679000 0.162527749956 -0.0421820931037
224682000 0.162251162896 -0.0405512753679
224685000 0.162145957458 -0.0413714358089
224688000 0.161898744561 -0.0406884257302
224691000 0.162373293668 -0.042159791788
224694000 0.162082698868 -0.0406967188451
224697000 0.162016427424 -0.041202780692
224700000 0.161775717328 -0.0405567591645
224703000 0.161797933602 -0.041096079501
224706000 0.161697097245 -0.0409969635464
224709000 0.162303058168 -0.0417801878573
224712000 0.161908220111 -0.0409331711974
224715000 0.161790159944 -0.0405772936929
224718000 0.161592548239 -0.0409378791639
224721000 0.162055321183 -0.0416126664188
224724000 0.161845575089 -0.0412226624938
224727000 0.161711445921 -0.0398532693618
224730000 0.161459019822 -0.0408395502926
224733000 0.16181478287 -0.041096034995
224736000 0.161740072673 -0.0415797201219
224739000 0.161528964605 -0.0397773572853
224742000 0.161273981931 -0.0408234985861
224745000 0.161490719418 -0.0407122473813
224748000 0.161868482528 -0.0414405897745
224751000 0.161472898114 -0.0395796917008
224754000 0.161156054219 -0.0407403500133
224757000 0.161304864491 -0.0403175496596
224760000 0.161873383722 -0.0414004089772
224763000 0.16137509944 -0.0395176087161
224766000 0.160966779794 -0.0406808596934
224769000 0.161065645556 -0.0403015093326
224772000 0.161751857641 -0.0411771470057
224775000 0.161284810274 -0.0396712371132
224778000 0.161004407766 -0.0402219328088
224781000 0.160944183952 -0.040146299418
224784000 0.16149296284 -0.0409356451149
224787000 0.161128248188 -0.0400515722323
224790000 0.161069028062 -0.0398186000657
224793000 0.160792815149 -0.0400075302502
224796000 0.161285498395 -0.0406882106802
224799000 0.160966074035 -0.0403122478783
224802000 0.161010121187 -0.0390533010276
224805000 0.160711296837 -0.0399072682791
224808000 0.161048305183 -0.0402142017407
224811000 0.160948359123 -0.0406549639037
224814000 0.160819314879 -0.0388595658497
224817000 0.160616621261 -0.0399115446362
224820000 0.160766879397 -0.0398028605156
224823000 0.16109086671 -0.040553965162
224826000 0.160773418049 -0.038688094363
224829000 0.160470566118 -0.0397515877726
224832000 0.160559703073 -0.0393408663436
224835000 0.161105566957 -0.0404829863238
224838000 0.160667336867 -0.0386436584967
224841000 0.160246397091 -0.0396549058832
224844000 0.160270286478 -0.0392044598232
224847000 0.160966911086 -0.0402423600507
224850000 0.160536600677 -0.0387865639684
224853000 0.16032560409 -0.0392506239445
224856000 0.160112102985 -0.0391909579364
224859000 0.160644771271 -0.0400600990603
224862000 0.160376862885 -0.0392295668898
224865000 0.160303371495 -0.0388731240836
224868000 0.16003882776 -0.0391322450159
224871000 0.160415524467 -0.039836186207
224874000 0.160266558703 -0.0395450169213
224877000 0.160416693883 -0.0382416295335
224880000 0.160007870988 -0.0389398419796
224883000 0.160273513807 -0.0393080043435
224886000 0.160263931923 -0.039824785353
224889000 0.160185183044 -0.0380034557673
224892000 0.159788004691 -0.0388894710115
224895000 0.160033263537 -0.0389219117107
224898000 0.160424331814 -0.0396896506234
224901000 0.160124289863 -0.0376963498853
224904000 0.159669040896 -0.0386850957047
224907000 0.159751791531 -0.0384984107623
224910000 0.160306553236 -0.039616461514
224913000 0.160002120591 -0.0377471001462
224916000 0.159578231744 -0.0387530397587
224919000 0.159491164648 -0.0383629832677
224922000 0.160205489256 -0.0393785439271
224925000 0.159815494757 -0.037845310627
224928000 0.159603123503 -0.03837564334
224931000 0.159318699951 -0.0383142144413
224934000 0.159887909514 -0.0391709564815
224937000 0.159725587921 -0.038318203747
224940000 0.159598401404 -0.0378862887212
224943000 0.15921718788 -0.0381688667201
224946000 0.159713450066 -0.0388994650947
224949000 0.159575292102 -0.0385261250725
224952000 0.159691755353 -0.0373111276539
224955000 0.159154469401 -0.038116696199
224958000 0.159514711894 -0.0385069949025
224961000 0.159484937284 -0.0388697442481
224964000 0.159436630031 -0.0369931754071
224967000 0.158981596202 -0.0379889834509
224970000 0.159206455067 -0.0380231294751
224973000 0.159532296695 -0.0387496706557
224976000 0.159348996827 -0.0368632946819
224979000 0.158828952943 -0.0378236186981
224982000 0.159033885486 -0.0376252171388
224985000 0.159547976576 -0.0386593047527
224988000 0.159247082096 -0.0367970933778
224991000 0.158633991892 -0.0377910714386
224994000 0.158700386056 -0.0375053273566
224997000 0.159404459098 -0.0383577497297
225000000 0.159134089327 -0.0368406102209
