! Calibrated averaged scanner-service zoom
# Hz S RI R 50
144000000 -0.278458931852 -0.412632903201
144004000 -0.278931958709 -0.412314110519
144008000 -0.278445599353 -0.412598703335
144012000 -0.278175189918 -0.412102568687
144016000 -0.27819986119 -0.411731632904
144020000 -0.278802003341 -0.411301127132
144024000 -0.278524225084 -0.411715600445
144028000 -0.277859385978 -0.411495657819
144032000 -0.278180247586 -0.410908582468
144036000 -0.278475945119 -0.410571038431
144040000 -0.278259196874 -0.411009045798
144044000 -0.277219781789 -0.411576927895
144048000 -0.277946972347 -0.410222142763
144052000 -0.27821858898 -0.410026531528
144056000 -0.278081593991 -0.410127165747
144060000 -0.276974062855 -0.410782418266
144064000 -0.277806121515 -0.409356551087
144068000 -0.277902128459 -0.409392976908
144072000 -0.27754222266 -0.410111957681
144076000 -0.276903559072 -0.410157038101
144080000 -0.277402567045 -0.408834261445
144084000 -0.277388491207 -0.40919474877
144088000 -0.277440919415 -0.408489096025
144092000 -0.277015132959 -0.4090385562
144096000 -0.27704208171 -0.408146611361
144100000 -0.276881638549 -0.40842432122
144104000 -0.277275109796 -0.407716662831
144108000 -0.276949905464 -0.408246604247
144112000 -0.276528141039 -0.407892652944
144116000 -0.276655033178 -0.407526496278
144120000 -0.277093810821 -0.406983212124
144124000 -0.276940052756 -0.407309808715
144128000 -0.27629768531 -0.407266686184
144132000 -0.27649942284 -0.406589984852
144136000 -0.276890823709 -0.406277839523
144140000 -0.276621233789 -0.406813087077
144144000 -0.275661761981 -0.407368356732
144148000 -0.276209761114 -0.406059415797
144152000 -0.276552674677 -0.405720314228
144156000 -0.276414576057 -0.405962515402
144160000 -0.275226243768 -0.406748048453
144164000 -0.276072507892 -0.405193352019
144168000 -0.276270072061 -0.40533266612
144172000 -0.275911732833 -0.405205795647
144176000 -0.275182293863 -0.406233713395
144180000 -0.275667965471 -0.404683555305
144184000 -0.275754186942 -0.404808987654
144188000 -0.275797292895 -0.404323122811
144192000 -0.275172533103 -0.405217070264
144196000 -0.275414034141 -0.403897696809
144200000 -0.275255719629 -0.404434877298
144204000 -0.275431552962 -0.403589275443
144208000 -0.275190646466 -0.404452901572
144212000 -0.274896149049 -0.403829883521
144216000 -0.275069723001 -0.4036941643
144220000 -0.275450785386 -0.403076794537
144224000 -0.275204914372 -0.403488557493
144228000 -0.274552518252 -0.403383990877
144232000 -0.274882628831 -0.402669931355
144236000 -0.275251336144 -0.402360639435
144240000 -0.275050122763 -0.402759580541
144244000 -0.274042142114 -0.403302635076
144248000 -0.274723566676 -0.402019929842
144252000 -0.274958397328 -0.401709813471
144256000 -0.274785055444 -0.402012616615
144260000 -0.273825227622 -0.402904399995
144264000 -0.274407408193 -0.401175765923
144268000 -0.274568234967 -0.401229506449
144272000 -0.274285376251 -0.401555545858
144276000 -0.273663419142 -0.402357081893
144280000 -0.274058641869 -0.400704043565
144284000 -0.274197717383 -0.401014629862
144288000 -0.274149219538 -0.400351826746
144292000 -0.273817580987 -0.401189630598
144296000 -0.27371020291 -0.399962030183
144300000 -0.273735896182 -0.400534692104
144304000 -0.273859072365 -0.399647166507
144308000 -0.273729171122 -0.400405415507
144312000 -0.273264453923 -0.399684893581
144316000 -0.273357093288 -0.399744219525
144320000 -0.273764409268 -0.398948383551
144324000 -0.273763452612 -0.399339378169
144328000 -0.272922620568 -0.399395445566
144332000 -0.273183905015 -0.398865492815
144336000 -0.273538177098 -0.398280294192
144340000 -0.27337438115 -0.398963476795
144344000 -0.27231218207 -0.399424281551
144348000 -0.272924972775 -0.398104533557
144352000 -0.273154381176 -0.397794327377
144356000 -0.273043507318 -0.398027454596
144360000 -0.272169341082 -0.398788149247
144364000 -0.272588194812 -0.397269015222
144368000 -0.272971585611 -0.397248725303
144372000 -0.272646445544 -0.397360377279
144376000 -0.272043700573 -0.398316494168
144380000 -0.272093471082 -0.397661785318
144384000 -0.272486747563 -0.397052512949
144388000 -0.272487357044 -0.396442119547
144392000 -0.271876692781 -0.397466034355
144396000 -0.272064686741 -0.396152072112
144400000 -0.272076491158 -0.396646287628
144404000 -0.272465734079 -0.395635958231
144408000 -0.272172487318 -0.396178365256
144412000 -0.271269720976 -0.397004076649
144416000 -0.271366397776 -0.395903548502
144420000 -0.272208843689 -0.39487098711
144424000 -0.272139252685 -0.39532248925
144428000 -0.271251557292 -0.396073051726
144432000 -0.270949671164 -0.395898881065
144436000 -0.271880230529 -0.394154381228
144440000 -0.271891956879 -0.394836993645
144444000 -0.270979174919 -0.395478832955
144448000 -0.270809566661 -0.395096923245
144452000 -0.271430200364 -0.393629668204
144456000 -0.271684778898 -0.393934794516
144460000 -0.27109093281 -0.394389266001
144464000 -0.270494129174 -0.394417357126
144468000 -0.271071696771 -0.392885559522
144472000 -0.271314264939 -0.393289947986
144476000 -0.270853848826 -0.393815269598
144480000 -0.270147721822 -0.394219377261
144484000 -0.27066399242 -0.392564196504
144488000 -0.271156365949 -0.392505397368
144492000 -0.270790859572 -0.392865236668
144496000 -0.270057150399 -0.393466595005
144500000 -0.270252548666 -0.392132966078
144504000 -0.270865947752 -0.391895178795
144508000 -0.270533909507 -0.392337353808
144512000 -0.269739560231 -0.393200717811
144516000 -0.269791586156 -0.392072642264
144520000 -0.270462300625 -0.391130939116
144524000 -0.270487168077 -0.391505081358
144528000 -0.269436425048 -0.392546280151
144532000 -0.269349514177 -0.391510263764
144536000 -0.270107169483 -0.390373149935
144540000 -0.270108958689 -0.390915858773
144544000 -0.269203212174 -0.391843829536
144548000 -0.268961275956 -0.391379213383
144552000 -0.269730854563 -0.389707155281
144556000 -0.26999421421 -0.390171147933
144560000 -0.269303908498 -0.390730654476
144564000 -0.268728826551 -0.390824053271
144568000 -0.269312963515 -0.389245467661
144572000 -0.269545172353 -0.389516990685
144576000 -0.269011486431 -0.390113508818
144580000 -0.268364525243 -0.390516221102
144584000 -0.268834677897 -0.388833403272
144588000 -0.269238734308 -0.388762560072
144592000 -0.268900235377 -0.389050647957
144596000 -0.268206514404 -0.389834498431
144600000 -0.268287714111 -0.38829536045
144604000 -0.26900822482 -0.387951039268
144608000 -0.268624960393 -0.388532562062
144612000 -0.267949188773 -0.390065732364
144616000 -0.267303549183 -0.391946759231
144620000 -0.268773675621 -0.387278946412
144624000 -0.268913915335 -0.386860640215
144628000 -0.267145166885 -0.389853900857
144632000 -0.267656920606 -0.387649214604
144636000 -0.268418233891 -0.386684256142
144640000 -0.26838062687 -0.387167826754
144644000 -0.267662918046 -0.388083930887
144648000 -0.26733452769 -0.387545524212
144652000 -0.268021437963 -0.386139331201
144656000 -0.268256812559 -0.386386893478
144660000 -0.267660641093 -0.387096674621
144664000 -0.267122431355 -0.387029030027
144668000 -0.267673035996 -0.385567083534
144672000 -0.268037271838 -0.385912010179
144676000 -0.267464203784 -0.386529478749
144680000 -0.266843864196 -0.386860265706
144684000 -0.267250918958 -0.385151226072
144688000 -0.267666762896 -0.384977990647
144692000 -0.2673389101 -0.385487745676
144696000 -0.266666403816 -0.386158288578
144700000 -0.266697812715 -0.384813569066
144704000 -0.267396014497 -0.384255119812
144708000 -0.267056714679 -0.384861095363
144712000 -0.266432280984 -0.385753353241
144716000 -0.266284905645 -0.38441476551
144720000 -0.267064643916 -0.383591489632
144724000 -0.266878962179 -0.384059511803
144728000 -0.266330022454 -0.384849714196
144732000 -0.265842627717 -0.384086389627
144736000 -0.266706217103 -0.383106534078
144740000 -0.266658108014 -0.383428893519
144744000 -0.265966825624 -0.384520785892
144748000 -0.265568568499 -0.384022151508
144752000 -0.26632115964 -0.382458440765
144756000 -0.266495938393 -0.38264207086
144760000 -0.265976604072 -0.383396272179
144764000 -0.265373688231 -0.383373864489
144768000 -0.265958156827 -0.381939162059
144772000 -0.266197955585 -0.382094705199
144776000 -0.265779497159 -0.382768452849
144780000 -0.265006617203 -0.383124695652
144784000 -0.265535549406 -0.381616924765
144788000 -0.265829394982 -0.381298252114
144792000 -0.265640506655 -0.38191392962
144796000 -0.264838342462 -0.382496908445
144800000 -0.264973118015 -0.381157091535
144804000 -0.265013624962 -0.381250228096
144808000 -0.265521519185 -0.380731963311
144812000 -0.265336234268 -0.380919088119
144816000 -0.264931522631 -0.381977459103
144820000 -0.264825868018 -0.380691440777
144824000 -0.265066895884 -0.380170139188
144828000 -0.265097238906 -0.380085298608
144832000 -0.264750947556 -0.380835847841
144836000 -0.26436258412 -0.380354101943
144840000 -0.264655508673 -0.379989626291
144844000 -0.264845624666 -0.379540948576
144848000 -0.264692377937 -0.380256677746
144852000 -0.264215108974 -0.380300125077
144856000 -0.264485038965 -0.37951184276
144860000 -0.264879101662 -0.379025723908
144864000 -0.264822636671 -0.379533178816
144868000 -0.264270649933 -0.380191474551
144872000 -0.264246170729 -0.37950372557
144876000 -0.264918904343 -0.378690658927
144880000 -0.264658696109 -0.379163336016
144884000 -0.263946668154 -0.379895585276
144888000 -0.263859625026 -0.378592743941
144892000 -0.264330607811 -0.377751095419
144896000 -0.264009432931 -0.378101615415
144900000 -0.263361999863 -0.378993672285
144904000 -0.263242167467 -0.377623631602
144908000 -0.263823822094 -0.377133317412
144912000 -0.263554964687 -0.37733762521
144916000 -0.263106586093 -0.378488594393
144920000 -0.263030816237 -0.377068519519
144924000 -0.263280093132 -0.376752232006
144928000 -0.263240790318 -0.376619781318
144932000 -0.262986246177 -0.377404628945
144936000 -0.262606880509 -0.376744767996
144940000 -0.262851391076 -0.37651572582
144944000 -0.263017473438 -0.376003459379
144948000 -0.262961129525 -0.376815222848
144952000 -0.262363069695 -0.3767153198
144956000 -0.262546961273 -0.376209592456
144960000 -0.262882792382 -0.375469080357
144964000 -0.262863612966 -0.375911526097
144968000 -0.262044963178 -0.376462496903
144972000 -0.262212903209 -0.375688772906
144976000 -0.262661369687 -0.374825586249
144980000 -0.262591586541 -0.375415383846
144984000 -0.261845156528 -0.376311894997
144988000 -0.262002316387 -0.374877340988
144992000 -0.262343855193 -0.374124346315
144996000 -0.2623173487 -0.374521792368
145000000 -0.261577707159 -0.375725922855
145004000 -0.26170033369 -0.374219334825
145008000 -0.262073671716 -0.373635389755
145012000 -0.26197111351 -0.373953097567
145016000 -0.261486264339 -0.374986046291
145020000 -0.261401253878 -0.373787544343
145024000 -0.261686253782 -0.373081597595
145028000 -0.261731754263 -0.373095169102
145032000 -0.26124580729 -0.374902001569
145036000 -0.261100968437 -0.373330038566
145040000 -0.261189818661 -0.372910340779
145044000 -0.261534338129 -0.372591383348
145048000 -0.261371725697 -0.373454650413
145052000 -0.26099742656 -0.372988204987
145056000 -0.26086729586 -0.372679611716
145060000 -0.261269386196 -0.371821160196
145064000 -0.261265342563 -0.372379019101
145068000 -0.260621812849 -0.373021779996
145072000 -0.26054949329 -0.372283927849
145076000 -0.260995206719 -0.371304949012
145080000 -0.260948595989 -0.371866779608
145084000 -0.260207944014 -0.372790222773
145088000 -0.260243054192 -0.371541561536
145092000 -0.260605744806 -0.3705722692
145096000 -0.260638377923 -0.370898886157
145100000 -0.260006558329 -0.37202589954
145104000 -0.259855166486 -0.370734075163
145108000 -0.260238189389 -0.370091615527
145112000 -0.260260476219 -0.370398104281
145116000 -0.259775950003 -0.371848651495
145120000 -0.259723001827 -0.370201915043
145124000 -0.259923487792 -0.369667992248
145128000 -0.260068241834 -0.369732186116
145132000 -0.259683387736 -0.370635717564
145136000 -0.259449794344 -0.36994185828
145140000 -0.259616652871 -0.369574241145
145144000 -0.259781537185 -0.369139628144
145148000 -0.259661828059 -0.369874612714
145152000 -0.259223216607 -0.369654622841
145156000 -0.259497763933 -0.369400284439
145160000 -0.259616761805 -0.368176823304
145164000 -0.259524952818 -0.368852132248
145168000 -0.259149635285 -0.368890435051
145172000 -0.258882638782 -0.368699866447
145176000 -0.259350821838 -0.367764401815
145180000 -0.259326384366 -0.368271612517
145184000 -0.258692630594 -0.369402489174
145188000 -0.258726027663 -0.368191732346
145192000 -0.259187787169 -0.367075894591
145196000 -0.259087944687 -0.367605446996
145200000 -0.258475293894 -0.368932746636
145204000 -0.258462888617 -0.36864310978
145208000 -0.258491218286 -0.367081472447
145212000 -0.25877375414 -0.367028215609
145216000 -0.258687698961 -0.367098557737
145220000 -0.258461735076 -0.368428235667
145224000 -0.258415286531 -0.366233867859
145228000 -0.258600131972 -0.366618571492
145232000 -0.258304931739 -0.36637135809
145236000 -0.258082404645 -0.367688661073
145240000 -0.257876981357 -0.366020737743
145244000 -0.258300775886 -0.366438202683
145248000 -0.257970589708 -0.365859581062
145252000 -0.257953254416 -0.366925138135
145256000 -0.257639239842 -0.365546703615
145260000 -0.257834786612 -0.365932607352
145264000 -0.257878853194 -0.365097754092
145268000 -0.257952635605 -0.365941375933
145272000 -0.257461127386 -0.365468133016
145276000 -0.257663394693 -0.365503535452
145280000 -0.25777781383 -0.364744241795
145284000 -0.257758837346 -0.365232125233
145288000 -0.257315628494 -0.365480515278
145292000 -0.257254324718 -0.36464077642
145296000 -0.257523684746 -0.363970091778
145300000 -0.257375759942 -0.364234112351
145304000 -0.256889686 -0.365383977552
145308000 -0.256908538187 -0.363874704431
145312000 -0.257257123986 -0.363457953048
145316000 -0.257088934496 -0.363742057487
145320000 -0.2567513528 -0.365179579424
145324000 -0.256702141919 -0.363067760965
145328000 -0.256914393819 -0.363202345287
145332000 -0.256804103895 -0.362938788976
145336000 -0.256611728453 -0.364401667142
145340000 -0.256344884221 -0.362643866549
145344000 -0.256793545907 -0.362900320572
145348000 -0.256524806782 -0.362463141177
145352000 -0.256594407335 -0.363697342343
145356000 -0.256181295426 -0.362106700655
145360000 -0.256468545297 -0.362365682357
145364000 -0.256224777555 -0.361742170412
145368000 -0.256401945998 -0.362449430447
145372000 -0.255822755301 -0.361955814152
145376000 -0.256044538064 -0.36217747028
145380000 -0.256092166572 -0.361245899682
145384000 -0.256111284334 -0.361758005779
145388000 -0.255628533593 -0.361970492837
145392000 -0.255781911595 -0.360955505134
145396000 -0.255830155169 -0.36059568458
145400000 -0.25579257513 -0.360945981936
145404000 -0.255240149048 -0.361995558139
145408000 -0.255384661077 -0.360378913997
145412000 -0.255513812803 -0.360116626999
145416000 -0.25554890479 -0.360456240133
145420000 -0.255201523936 -0.361741781551
145424000 -0.254849491077 -0.358874480443
145428000 -0.255257440319 -0.359742941571
145432000 -0.255268894745 -0.359665607665
145436000 -0.254870332804 -0.361963257982
145440000 -0.254886248976 -0.359364398601
145444000 -0.255248853063 -0.359730706239
145448000 -0.25508436573 -0.359139536187
145452000 -0.255086318033 -0.360311239846
145456000 -0.254692375013 -0.358945429275
145460000 -0.254769538434 -0.359272289595
145464000 -0.254837616637 -0.358577910427
145468000 -0.254870093713 -0.359318543832
145472000 -0.254407791531 -0.35872909589
145476000 -0.254557828205 -0.358782867467
145480000 -0.254647581212 -0.357990062517
145484000 -0.254728025713 -0.3585048294
145488000 -0.254262233284 -0.358736805165
145492000 -0.254297170054 -0.357798876667
145496000 -0.254402211145 -0.357211490724
145500000 -0.254431637941 -0.357658392707
145504000 -0.253917894394 -0.358615537728
145508000 -0.25397626052 -0.357204178705
145512000 -0.25409798358 -0.356960695307
145516000 -0.254064870942 -0.357424677741
145520000 -0.253781709236 -0.358620370653
145524000 -0.253744713425 -0.356521867356
145528000 -0.253881867102 -0.35655754194
145532000 -0.253840910185 -0.355990000951
145536000 -0.253631017768 -0.357930426361
145540000 -0.253447200302 -0.3561485498
145544000 -0.253574104646 -0.356970396422
145548000 -0.253648814229 -0.356038691753
145552000 -0.253596418968 -0.357087802583
145556000 -0.253235894714 -0.355752811356
145560000 -0.253203998848 -0.356031977663
145564000 -0.253363860081 -0.355194444386
145568000 -0.253309685626 -0.355985117559
145572000 -0.252882738347 -0.355448485523
145576000 -0.252947014805 -0.355482093383
145580000 -0.253162784838 -0.354681709147
145584000 -0.253108770935 -0.355196534198
145588000 -0.252802829208 -0.355577925711
145592000 -0.252599453266 -0.354653202536
145596000 -0.252898226387 -0.354046461673
145600000 -0.25280202379 -0.354482802944
145604000 -0.252807391643 -0.354086301435
145608000 -0.252752731611 -0.355335595587
145612000 -0.252434243091 -0.353840394615
145616000 -0.252819478557 -0.35438483623
145620000 -0.252652277743 -0.353585181689
145624000 -0.2527500156 -0.354579542914
145628000 -0.252238737029 -0.353343578486
145632000 -0.252478990427 -0.353471597095
145636000 -0.252418265319 -0.352743482965
145640000 -0.252576971821 -0.35342562074
145644000 -0.252049920249 -0.353083315742
145648000 -0.252160251296 -0.352983179427
145652000 -0.252214672592 -0.352426589274
145656000 -0.2521727985 -0.352914324251
145660000 -0.251944899251 -0.353220239311
145664000 -0.251744522845 -0.351988979558
145668000 -0.251969132057 -0.351782013685
145672000 -0.251876941837 -0.352047215202
145676000 -0.251680376656 -0.35319851664
145680000 -0.251460767528 -0.351476405198
145684000 -0.25180852278 -0.351548272152
145688000 -0.251637798114 -0.351548055361
145692000 -0.251674119235 -0.35302965345
145696000 -0.251214314294 -0.350965942595
145700000 -0.251520697735 -0.351146111563
145704000 -0.251396814887 -0.3506432888
145708000 -0.251541584471 -0.352004935284
145712000 -0.251064105531 -0.350379255523
145716000 -0.251485236877 -0.351020776326
145720000 -0.25126753027 -0.350260550909
145724000 -0.251373103383 -0.351208638625
145728000 -0.250904498525 -0.350058581102
145732000 -0.251076294324 -0.350290379581
145736000 -0.25103877249 -0.349559914092
145740000 -0.251226858413 -0.350205709334
145744000 -0.250699188712 -0.349878794882
145748000 -0.250817154067 -0.349865238376
145752000 -0.250883868759 -0.349233633566
145756000 -0.250901776051 -0.349641380986
145760000 -0.250694150148 -0.350108887356
145764000 -0.250511881553 -0.349034067214
145768000 -0.250703645732 -0.348741485469
145772000 -0.250571813746 -0.349597940537
145776000 -0.250433130674 -0.350051128602
145780000 -0.250152207687 -0.348357162863
145784000 -0.249949075096 -0.349313905943
145788000 -0.250271723145 -0.348370497361
145792000 -0.250366147497 -0.349861494632
145796000 -0.249796310166 -0.347656418129
145800000 -0.250144893342 -0.347903100928
145804000 -0.249985925695 -0.347453211132
145808000 -0.250117819195 -0.348946246364
145812000 -0.249616799509 -0.347196599277
145816000 -0.250112707913 -0.34774186818
145820000 -0.249836555186 -0.346969114
145824000 -0.24999885383 -0.348221197547
145828000 -0.249461017154 -0.346809901574
145832000 -0.249698415231 -0.346776574699
145836000 -0.249543845753 -0.346165861421
145840000 -0.249788408041 -0.347067030455
145844000 -0.249185338236 -0.346549473736
145848000 -0.249361984322 -0.346444391579
145852000 -0.249337966635 -0.345692245839
145856000 -0.249378511047 -0.346257743641
145860000 -0.249241199835 -0.346571317207
145864000 -0.248899412135 -0.34568187874
145868000 -0.249097543704 -0.34528904513
145872000 -0.249068831354 -0.345516380341
145876000 -0.249107466978 -0.346543002666
145880000 -0.248659800974 -0.34502648298
145884000 -0.249094015732 -0.34492184888
145888000 -0.248850023298 -0.345052547571
145892000 -0.249108447613 -0.346480547326
145896000 -0.248473408836 -0.34436418153
145900000 -0.24880226296 -0.344595294004
145904000 -0.248599668929 -0.344227895568
145908000 -0.248781183023 -0.345486778733
145912000 -0.248230205758 -0.343930845445
145916000 -0.248720332766 -0.344414253496
145920000 -0.248436032082 -0.343630168069
145924000 -0.248793387309 -0.344664461575
145928000 -0.2480476014 -0.343397823812
145932000 -0.248234872865 -0.343737413708
145936000 -0.248148154041 -0.342825696919
145940000 -0.248379718371 -0.343601748229
145944000 -0.247839908193 -0.343109729976
145948000 -0.248047339939 -0.343053944007
145952000 -0.247989533317 -0.342392347019
145956000 -0.248033731373 -0.342922501079
145960000 -0.247808217972 -0.343157075856
145964000 -0.247569279573 -0.342156622404
145968000 -0.247747384141 -0.341785145479
145972000 -0.247740900263 -0.342121594254
145976000 -0.247696901063 -0.343292306788
145980000 -0.247304596823 -0.341566134661
145984000 -0.247699995667 -0.341573609775
145988000 -0.247556659271 -0.34169659175
145992000 -0.247678851247 -0.343121647256
145996000 -0.247108394487 -0.34102736161
146000000 -0.247503491454 -0.34097703537
146004000 -0.247298826189 -0.340705783972
146008000 -0.247292279601 -0.341933757949
146012000 -0.246936742626 -0.341323789118
146016000 -0.246892777521 -0.340344158599
146020000 -0.246998482098 -0.340230688305
146024000 -0.247265867315 -0.341168639534
146028000 -0.246882368051 -0.34113296579
146032000 -0.246724116636 -0.340234311106
146036000 -0.246791456084 -0.339394356128
146040000 -0.247123181059 -0.340354063448
146044000 -0.246608963919 -0.340670719506
146048000 -0.246545246671 -0.340010150031
146052000 -0.246542015288 -0.339013446468
146056000 -0.246860888672 -0.339604144383
146060000 -0.24664853489 -0.340185691104
146064000 -0.24633148995 -0.339715969864
146068000 -0.246194130964 -0.338391370618
146072000 -0.24642994698 -0.338809997001
146076000 -0.24635036989 -0.339409524293
146080000 -0.245977077397 -0.338871781006
146084000 -0.245922236272 -0.337928468898
146088000 -0.246314955494 -0.338339231571
146092000 -0.246338039544 -0.339106290705
146096000 -0.245954325757 -0.338443449703
146100000 -0.245731129533 -0.337471235982
146104000 -0.24598510653 -0.337575172543
146108000 -0.246093659302 -0.338519238972
146112000 -0.245623686937 -0.338059193978
146116000 -0.245458038347 -0.337055721347
146120000 -0.245663435731 -0.337009512557
146124000 -0.245961855968 -0.33799304355
146128000 -0.245658019935 -0.337918892575
146132000 -0.24534957897 -0.336914180205
146136000 -0.245370237133 -0.336168125439
146140000 -0.245628554911 -0.33699840346
146144000 -0.24518928833 -0.337311022699
146148000 -0.245067310038 -0.336644455928
146152000 -0.245066394038 -0.335729237059
146156000 -0.245493797918 -0.336357307961
146160000 -0.245309575261 -0.336926060516
146164000 -0.244975313367 -0.336327467316
146168000 -0.244867285728 -0.335094885402
146172000 -0.245111750863 -0.335506474819
146176000 -0.245063062343 -0.336281514716
146180000 -0.244616778293 -0.335742820527
146184000 -0.244559374938 -0.334688663716
146188000 -0.244964398457 -0.335067135729
146192000 -0.245020143848 -0.336081166264
146196000 -0.244661138525 -0.335332253935
146200000 -0.244333859036 -0.334246672129
146204000 -0.244646357452 -0.334254929414
146208000 -0.244736315329 -0.335398714734
146212000 -0.244404644815 -0.33497065203
146216000 -0.244060094629 -0.333870170885
146220000 -0.244365059936 -0.333602708485
146224000 -0.244666274219 -0.334610217056
146228000 -0.244321508577 -0.334654144145
146232000 -0.243935652725 -0.332009293819
146236000 -0.243596018066 -0.333314741104
146240000 -0.243893340305 -0.335871791356
146244000 -0.243473904225 -0.329403088705
146248000 -0.243620129226 -0.333966566671
146252000 -0.243272806173 -0.332764092887
146256000 -0.244345575479 -0.328230270477
146260000 -0.243935643989 -0.333505849543
146264000 -0.243592502453 -0.33296885378
146268000 -0.243287754814 -0.331850915277
146272000 -0.243597677763 -0.332166378227
146276000 -0.243663665725 -0.332886316069
146280000 -0.243165365182 -0.332430003097
146284000 -0.243105780144 -0.331413326436
146288000 -0.243451299271 -0.331657456786
146292000 -0.243579932982 -0.332666693224
146296000 -0.24315518535 -0.33194468093
146300000 -0.242907539684 -0.330906592236
146304000 -0.243143752709 -0.330871685395
146308000 -0.243275060837 -0.332046724871
146312000 -0.242901150316 -0.331426205254
146316000 -0.242689529833 -0.330574331894
146320000 -0.2429188203 -0.330344147868
146324000 -0.243266779123 -0.331426695273
146328000 -0.242936894739 -0.331287790032
146332000 -0.24257570922 -0.330401356186
146336000 -0.24247811891 -0.32970603053
146340000 -0.242860579852 -0.330485845873
146344000 -0.242582971664 -0.330773238956
146348000 -0.242273373254 -0.330178093884
146352000 -0.242285562018 -0.32923578381
146356000 -0.242601867053 -0.329796290339
146360000 -0.242582513533 -0.330251814324
146364000 -0.242095916826 -0.329910911024
146368000 -0.241963269963 -0.328562057944
146372000 -0.242166515051 -0.328869863263
146376000 -0.242373204591 -0.329545557344
146380000 -0.241813534666 -0.329137419292
146384000 -0.241749945711 -0.328008546243
146388000 -0.242048625813 -0.328324989766
146392000 -0.242399573407 -0.329218553728
146396000 -0.24188959394 -0.328526829417
146400000 -0.241644685581 -0.327486419284
146404000 -0.241488466306 -0.327488355011
146408000 -0.241891925255 -0.327888962625
146412000 -0.241468092093 -0.32739494661
146416000 -0.241997384357 -0.328588076266
146420000 -0.241128913355 -0.327010334371
146424000 -0.241751600719 -0.327167715421
146428000 -0.241291121437 -0.326935149378
146432000 -0.241685867959 -0.327693624053
146436000 -0.240984199073 -0.326610344493
146440000 -0.241107303701 -0.326481315252
146444000 -0.240942097493 -0.326246261342
146448000 -0.241255520803 -0.326799439226
146452000 -0.240904146093 -0.326460619625
146456000 -0.240812746748 -0.326034507863
146460000 -0.241083138734 -0.325981441202
146464000 -0.24091387172 -0.326222121525
146468000 -0.24105664675 -0.326380956595
146472000 -0.240391394126 -0.325313828415
146476000 -0.240795867906 -0.325569665405
146480000 -0.240526381106 -0.325435634553
146484000 -0.240946980275 -0.326193260412
146488000 -0.240220003339 -0.324922242054
146492000 -0.240766483908 -0.325375501038
146496000 -0.24036583294 -0.324905331276
146500000 -0.240903628077 -0.325641041859
146504000 -0.23997544083 -0.324131297134
146508000 -0.240423537434 -0.324727958586
146512000 -0.240032320879 -0.32408778963
146516000 -0.24062581564 -0.32513701837
146520000 -0.239671683401 -0.323834195548
146524000 -0.240311207333 -0.32410874507
146528000 -0.239967746073 -0.323644620272
146532000 -0.240443906185 -0.324387321311
146536000 -0.239729402901 -0.32341175621
146540000 -0.239879355608 -0.323303103236
146544000 -0.239767547102 -0.322997690562
146548000 -0.240092748037 -0.323529754919
146552000 -0.239620426779 -0.32324053363
146556000 -0.239580327754 -0.322741901794
146560000 -0.239705603457 -0.322696509566
146564000 -0.239620745664 -0.322767209859
146568000 -0.239740605168 -0.322907038886
146572000 -0.23907996983 -0.321869122482
146576000 -0.239422510065 -0.322209790497
146580000 -0.239179216712 -0.322032916043
146584000 -0.23951927143 -0.322818616151
146588000 -0.238802717167 -0.321479064495
146592000 -0.239444508017 -0.321916754939
146596000 -0.238958587222 -0.321683992518
146600000 -0.23954129528 -0.322423352793
146604000 -0.238597141072 -0.320939577552
146608000 -0.238992499857 -0.321350483938
146612000 -0.238583054324 -0.320802843565
146616000 -0.239260619431 -0.321770715519
146620000 -0.238256130709 -0.320510560072
146624000 -0.238837009087 -0.320715177879
146628000 -0.238475484445 -0.320295046708
146632000 -0.238751728552 -0.321314878901
146636000 -0.238132922293 -0.319977936846
146640000 -0.238309348833 -0.31976709076
146644000 -0.238040253405 -0.319730425781
146648000 -0.238473971322 -0.319994539138
146652000 -0.238065599469 -0.319800039775
146656000 -0.237969345716 -0.319420297918
146660000 -0.238181567054 -0.319252641631
146664000 -0.238121625003 -0.31938840237
146668000 -0.238116527184 -0.319619667496
146672000 -0.237600169862 -0.318585879292
146676000 -0.237960022849 -0.318803309238
146680000 -0.237746906462 -0.318607222594
146684000 -0.238150207348 -0.319471186491
146688000 -0.237423619893 -0.318152067366
146692000 -0.238001898982 -0.318561291351
146696000 -0.237583406719 -0.318107810323
146700000 -0.238069291713 -0.319131300151
146704000 -0.23755594755 -0.317306295395
146708000 -0.237609495725 -0.318000725417
146712000 -0.237227851887 -0.317492800287
146716000 -0.238145763962 -0.317578480168
146720000 -0.236913493546 -0.317221236507
146724000 -0.237507089569 -0.317533223084
146728000 -0.23708284253 -0.317033872239
146732000 -0.237592650271 -0.317787203294
146736000 -0.236752243934 -0.316673683357
146740000 -0.236948110483 -0.316681868529
146744000 -0.236710283621 -0.316289120991
146748000 -0.237119571867 -0.316719017802
146752000 -0.236712316593 -0.316496083113
146756000 -0.236665797574 -0.316029650953
146760000 -0.236757342631 -0.31607234298
146764000 -0.236769648739 -0.316116075289
146768000 -0.236827508178 -0.316282290902
146772000 -0.236216559904 -0.315378211929
146776000 -0.236604885818 -0.315619563329
146780000 -0.236480774069 -0.315483373317
146784000 -0.236823802297 -0.316308935711
146788000 -0.236012835494 -0.314916439372
146792000 -0.236683294798 -0.315336054247
146796000 -0.236227576766 -0.315074174551
146800000 -0.236688567022 -0.316030852625
146804000 -0.235976358846 -0.314901805464
146808000 -0.235811646514 -0.314049062371
146812000 -0.23618181594 -0.314575353295
146816000 -0.236117446563 -0.315117936307
146820000 -0.235722833288 -0.314579364712
146824000 -0.235648761046 -0.31361835534
146828000 -0.236099223123 -0.314024525173
146832000 -0.236442254358 -0.314905332323
146836000 -0.235633687201 -0.313966100247
146840000 -0.235438275508 -0.313016868714
146844000 -0.235635020924 -0.313289812249
146848000 -0.236174343178 -0.314520228417
146852000 -0.235272055833 -0.313389373174
146856000 -0.23523569844 -0.312705792966
146860000 -0.235559542937 -0.312833397945
146864000 -0.236089646915 -0.313988275359
146868000 -0.235253582791 -0.312726848811
146872000 -0.234986149102 -0.312077945657
146876000 -0.234997105807 -0.311964326571
146880000 -0.235603995005 -0.312886699981
146884000 -0.234822216508 -0.312137880933
146888000 -0.234862512574 -0.311852437937
146892000 -0.234816699399 -0.311506941312
146896000 -0.235341986794 -0.312164530454
146900000 -0.234902293862 -0.311946512521
146904000 -0.234635870883 -0.311634813194
146908000 -0.234455439981 -0.310830062148
146912000 -0.234739077173 -0.311334017592
146916000 -0.23475371017 -0.311824044809
146920000 -0.234340382102 -0.311388071712
146924000 -0.234299952518 -0.310427211179
146928000 -0.234789904122 -0.310887965778
146932000 -0.235123073629 -0.311812455071
146936000 -0.234299333776 -0.31086987675
146940000 -0.234081649446 -0.309820298543
146944000 -0.234218699256 -0.310111538253
146948000 -0.234804338138 -0.311588373938
146952000 -0.233956150733 -0.310160592864
146956000 -0.233979304029 -0.309638991436
146960000 -0.234164842187 -0.309774778495
146964000 -0.234827492261 -0.311006708016
146968000 -0.233882229976 -0.309526082811
146972000 -0.233693079158 -0.309031614671
146976000 -0.233685433873 -0.30898304924
146980000 -0.234312634039 -0.309914196155
146984000 -0.233467187007 -0.309135119185
146988000 -0.233547835793 -0.30875990689
146992000 -0.233551045273 -0.308472140356
146996000 -0.234165394351 -0.309000458255
147000000 -0.23370178786 -0.308765498999
147004000 -0.233374637237 -0.308516634792
147008000 -0.233260233759 -0.307695460618
147012000 -0.23357633718 -0.308129584454
147016000 -0.233515398598 -0.308667972697
147020000 -0.233179426493 -0.30823028239
147024000 -0.233037819241 -0.307299390838
147028000 -0.233601451315 -0.307622315164
147032000 -0.233848722217 -0.30854124965
147036000 -0.233123243031 -0.307658140122
147040000 -0.232906099601 -0.306599544867
147044000 -0.233177912311 -0.306976900332
147048000 -0.233654352431 -0.308228486123
147052000 -0.232973817306 -0.306724341639
147056000 -0.232786040224 -0.306160211628
147060000 -0.233050824493 -0.306356611739
147064000 -0.233744449089 -0.306758949374
147068000 -0.232778068996 -0.306341555052
147072000 -0.232574880073 -0.30574511484
147076000 -0.23246796176 -0.305730506816
147080000 -0.233204910957 -0.30656237271
147084000 -0.232379846782 -0.305996595589
147088000 -0.232517524505 -0.305562962703
147092000 -0.232429317311 -0.305278635211
147096000 -0.233058772173 -0.305796430338
147100000 -0.232582056951 -0.305408919815
147104000 -0.23241659882 -0.305143801326
147108000 -0.232058670147 -0.304509447478
147112000 -0.23253550735 -0.304934617321
147116000 -0.232405744394 -0.305362523418
147120000 -0.232172012185 -0.304813708922
147124000 -0.231955497716 -0.304268770413
147128000 -0.232518291464 -0.304397228038
147132000 -0.232733460466 -0.305379921713
147136000 -0.232018435662 -0.304331860374
147140000 -0.231783861211 -0.303337564039
147144000 -0.232081220025 -0.303637022612
147148000 -0.23250282638 -0.305131466804
147152000 -0.231826878271 -0.303565930964
147156000 -0.231779495761 -0.302825105491
147160000 -0.23208264489 -0.303052668679
147164000 -0.23275111974 -0.304193843014
147168000 -0.231815856082 -0.302801989982
147172000 -0.231654600911 -0.302208138431
147176000 -0.231602528202 -0.302287964619
147180000 -0.232283533229 -0.303030331571
147184000 -0.231485277331 -0.302365688646
147188000 -0.231578826094 -0.301913441599
147192000 -0.231509215939 -0.301773332496
147196000 -0.23213622739 -0.302170602866
147200000 -0.2316909399 -0.301966989514
147204000 -0.23235551094 -0.302635905328
147208000 -0.231502629686 -0.301766122647
147212000 -0.23106138018 -0.300787860753
147216000 -0.231456457854 -0.300912799776
147220000 -0.23193935858 -0.302056186168
147224000 -0.231514029479 -0.301289011787
147228000 -0.230948462637 -0.300403375353
147232000 -0.231454829741 -0.300416994648
147236000 -0.231911417134 -0.301393917253
147240000 -0.23159933719 -0.301027421029
147244000 -0.230636297038 -0.299765659423
147248000 -0.230952340429 -0.299599954873
147252000 -0.231335228529 -0.300341268812
147256000 -0.231353135428 -0.300571319218
147260000 -0.230484848112 -0.299266264114
147264000 -0.230902801622 -0.299009926192
147268000 -0.231242804825 -0.299622853198
147272000 -0.231564585542 -0.300273032027
147276000 -0.230367328582 -0.298722699443
147280000 -0.230463530904 -0.298350886593
147284000 -0.230790376799 -0.298801484852
147288000 -0.231341093847 -0.299812279898
147292000 -0.230377124491 -0.298528522036
147296000 -0.230423493302 -0.297752369327
147300000 -0.230822103825 -0.298157389434
147304000 -0.23153127662 -0.299219313951
147308000 -0.230621419277 -0.29817689447
147312000 -0.230173639175 -0.297115541655
147316000 -0.230506624986 -0.29710950536
147320000 -0.231340079724 -0.298536240077
147324000 -0.230434753509 -0.297800542267
147328000 -0.230117722565 -0.296332609616
147332000 -0.230389330655 -0.296517404402
147336000 -0.231094121548 -0.297635786876
147340000 -0.230670787557 -0.297428512933
147344000 -0.229700520726 -0.295830143425
147348000 -0.22997040264 -0.295739766567
147352000 -0.230509747943 -0.296436574277
147356000 -0.230524484888 -0.296861278715
147360000 -0.229569073575 -0.295344623294
147364000 -0.229968465632 -0.295118609534
147368000 -0.230394666351 -0.295730241517
147372000 -0.230762487002 -0.296441948162
147376000 -0.229515143165 -0.294854373991
147380000 -0.229618655644 -0.294312946397
147384000 -0.22981777919 -0.294911859157
147388000 -0.230399313049 -0.295760335521
147392000 -0.229378845688 -0.294481488478
147396000 -0.229449865027 -0.293814823814
147400000 -0.22977731545 -0.294180630656
147404000 -0.230411242822 -0.295042565204
147408000 -0.229495391023 -0.294011423506
147412000 -0.22902019314 -0.29302671908
147416000 -0.229265697946 -0.29337836243
147420000 -0.230057804403 -0.294045433615
147424000 -0.229350570222 -0.293459624013
147428000 -0.228867703571 -0.292435324551
147432000 -0.229356512823 -0.292636957664
147436000 -0.229758977469 -0.293553736847
147440000 -0.229458827701 -0.293001247945
147444000 -0.228575753354 -0.291641762205
147448000 -0.228795199355 -0.291999091698
147452000 -0.229366661329 -0.292224613308
147456000 -0.229254730117 -0.292638600018
147460000 -0.228403402667 -0.291352185121
147464000 -0.228705933958 -0.291344526234
147468000 -0.229235156373 -0.291822334207
147472000 -0.229462074796 -0.292218115499
147476000 -0.228259220091 -0.290751322505
147480000 -0.228193770218 -0.290320038923
147484000 -0.228668405492 -0.29074493475
147488000 -0.229166835442 -0.291720157653
147492000 -0.228200155319 -0.290323687719
147496000 -0.228099726867 -0.289692431334
147500000 -0.228632148223 -0.289944692267
147504000 -0.229204562211 -0.291057505681
147508000 -0.228237903926 -0.289962760365
147512000 -0.227703928618 -0.288742882922
147516000 -0.22811559712 -0.288981423714
147520000 -0.228691530477 -0.290078450551
147524000 -0.228049691207 -0.28961711822
147528000 -0.22754587556 -0.28822762378
147532000 -0.228066186398 -0.288364253961
147536000 -0.228547601891 -0.289292192223
147540000 -0.22827551135 -0.289151372664
147544000 -0.227126575063 -0.287548384388
147548000 -0.227443776167 -0.287620694837
147552000 -0.228033229193 -0.288188743548
147556000 -0.22800299985 -0.288649015138
147560000 -0.227044798489 -0.286988131001
147564000 -0.227375979276 -0.286976196711
147568000 -0.227909674513 -0.287476105211
147572000 -0.228188821979 -0.288190454253
147576000 -0.226911592267 -0.28648035538
147580000 -0.226791406575 -0.286185041004
147584000 -0.227252915097 -0.286473199875
147588000 -0.227795398298 -0.28740804408
147592000 -0.226678998984 -0.286137125462
147596000 -0.226583650567 -0.285617333174
147600000 -0.227078223997 -0.285780955444
147604000 -0.227565077543 -0.286555998169
147608000 -0.227118415575 -0.286129301709
147612000 -0.225957967318 -0.284658730546
147616000 -0.226306221497 -0.284709722555
147620000 -0.226904101653 -0.28538694485
147624000 -0.226894606514 -0.285729363388
147628000 -0.225710271205 -0.284028717311
147632000 -0.226273487519 -0.284006946233
147636000 -0.22669788522 -0.284519515472
147640000 -0.227060780516 -0.285272957988
147644000 -0.225378641447 -0.283426567048
147648000 -0.22562543761 -0.283183940266
147652000 -0.225932490213 -0.283535579903
147656000 -0.226743065113 -0.28473970327
147660000 -0.225198965034 -0.282706140825
147664000 -0.225524646739 -0.28254564016
147668000 -0.225986382037 -0.282889454671
147672000 -0.226669083326 -0.284182130003
147676000 -0.225316890612 -0.282441448663
147680000 -0.224955094984 -0.281810028651
147684000 -0.225419015963 -0.281883539546
147688000 -0.226202138026 -0.283337140245
147692000 -0.2252230275 -0.282233279814
147696000 -0.224808085969 -0.281137200852
147700000 -0.225340530796 -0.281386413092
147704000 -0.226052225933 -0.282200795404
147708000 -0.225466979055 -0.2818573854
147712000 -0.224284026076 -0.280372480767
147716000 -0.22467240115 -0.280426221321
147720000 -0.225237859211 -0.281083158952
147724000 -0.225208777201 -0.281353870861
147728000 -0.224007877373 -0.279754121735
147732000 -0.224578173825 -0.279751185307
147736000 -0.225018401979 -0.280177918483
147740000 -0.225350584605 -0.280911473533
147744000 -0.223581448154 -0.279147062535
147748000 -0.223871226327 -0.279029437033
147752000 -0.224288113866 -0.27934653551
147756000 -0.225030942662 -0.280312200083
147760000 -0.223381046488 -0.278661080262
147764000 -0.223687298109 -0.278299126455
147768000 -0.224112654731 -0.278675931803
147772000 -0.224865569861 -0.279632447544
147776000 -0.223363157837 -0.27812128367
147780000 -0.222957349658 -0.27753087711
147784000 -0.223357846542 -0.277695346843
147788000 -0.224265376463 -0.278665855634
147792000 -0.223166393905 -0.277881722645
147796000 -0.222812988419 -0.27681225489
147800000 -0.223200647766 -0.277092658982
147804000 -0.223895615087 -0.277902172713
147808000 -0.223307275509 -0.277648307188
147812000 -0.222163866607 -0.276212387411
147816000 -0.222462660747 -0.276253797122
147820000 -0.223172540507 -0.276810745206
147824000 -0.223137527133 -0.27718723928
147828000 -0.221910992447 -0.275562404472
147832000 -0.222484821124 -0.275567354981
147836000 -0.223015620002 -0.276012420919
147840000 -0.223282343598 -0.276603463627
147844000 -0.221491954984 -0.274830720477
147848000 -0.221717778954 -0.27474907474
147852000 -0.222158208817 -0.275146364842
147856000 -0.222879871526 -0.276292160556
147860000 -0.221388541732 -0.274607717975
147864000 -0.221578417524 -0.273914236546
147868000 -0.222010294784 -0.274407313849
147872000 -0.222792064685 -0.274027743322
147876000 -0.221335263269 -0.273691674945
147880000 -0.220836372801 -0.273431004012
147884000 -0.221277049097 -0.273506896337
147888000 -0.222174817289 -0.274804615647
147892000 -0.22106180179 -0.273722235967
147896000 -0.220637923259 -0.272647518544
147900000 -0.221173797444 -0.272916627949
147904000 -0.221929090112 -0.273786091357
147908000 -0.221284937635 -0.273331755762
147912000 -0.220060192346 -0.271964634191
147916000 -0.220434941842 -0.272127588063
147920000 -0.22108647284 -0.272624235942
147924000 -0.221095651578 -0.273014950832
147928000 -0.219770352622 -0.271467581478
147932000 -0.220343459156 -0.271403727919
147936000 -0.220790126299 -0.271819604047
147940000 -0.221089214254 -0.272396611708
147944000 -0.219323386086 -0.270764356569
147948000 -0.219539383011 -0.270703880038
147952000 -0.219997552599 -0.271007769302
147956000 -0.220712355477 -0.272096971882
147960000 -0.218998749075 -0.270284384452
147964000 -0.21937737351 -0.269962934894
147968000 -0.219881825542 -0.270323215576
147972000 -0.220666128244 -0.271363735745
147976000 -0.219053451902 -0.269820337802
147980000 -0.21860558801 -0.269249193192
147984000 -0.219070329818 -0.26953288542
147988000 -0.219987632455 -0.270520450323
147992000 -0.218881185101 -0.269669944848
147996000 -0.21841865013 -0.26864610736
148000000 -0.21893013695 -0.268821722391
