! Calibrated averaged scanner-service zoom
# Hz S RI R 50
420000000 0.343648428292 0.0577438553146
420010000 0.343212860775 0.0575207462201
420020000 0.344138374728 0.0576165194205
420030000 0.344479796906 0.0577339854009
420040000 0.343987282341 0.0573817499092
420050000 0.344883912724 0.0568216168717
420060000 0.345545294579 0.0571269122358
420070000 0.345388630464 0.0571347056448
420080000 0.344990440811 0.0567712210442
420090000 0.345676426405 0.0563063131211
420100000 0.346349756014 0.0564324992554
420110000 0.346784957157 0.0564971772305
420120000 0.347271833076 0.0561413191612
420130000 0.347099870184 0.0565034292358
420140000 0.347679455499 0.0563817169336
420150000 0.347975727457 0.05585293359
420160000 0.34823222599 0.0556350214966
420170000 0.348958249782 0.0554998931902
420180000 0.349239002656 0.0554575648724
420190000 0.349355321586 0.0552022387644
420200000 0.350085318358 0.0551465890911
420210000 0.349859388077 0.0548244643106
420220000 0.350726159978 0.0552973645549
420230000 0.351017521723 0.0550567244122
420240000 0.351005785481 0.0549280201474
420250000 0.351459573985 0.0542146297361
420260000 0.351800816498 0.0539937059872
420270000 0.351684014504 0.0544692241418
420280000 0.352006815455 0.0540416063134
420290000 0.352765143188 0.0539045788297
420300000 0.353116578082 0.0538459433779
420310000 0.353459674265 0.0533474091257
420320000 0.348854229544 0.0578162150358
420330000 0.354104020569 0.0536973720934
420340000 0.354217200342 0.0530192926493
420350000 0.35453785863 0.0532237183149
420360000 0.35443754228 0.0532489069193
420370000 0.355099768161 0.0527771539769
420380000 0.355136086151 0.053080490474
420390000 0.355721002392 0.052581416601
420400000 0.356224774724 0.052623240068
420410000 0.355953554629 0.0519233823143
420420000 0.356726229782 0.0521621817996
420430000 0.35700055362 0.0519085988779
420440000 0.357269585674 0.0523082894802
420450000 0.35829364112 0.0514113260662
420460000 0.357169035021 0.0522339202846
420470000 0.357993373484 0.0519218881067
420480000 0.358218980102 0.0519929019434
420490000 0.358169139847 0.0518168415072
420500000 0.3588770687 0.052129398659
420510000 0.358849054075 0.0519968987055
420520000 0.359698103333 0.0512810898129
420530000 0.359627699901 0.0510609145007
420540000 0.360008099116 0.0508946587836
420550000 0.360547556783 0.0509182807389
420560000 0.360964622587 0.0508159061038
420570000 0.361033676724 0.0505935495404
420580000 0.361278311709 0.0506545327872
420590000 0.361313666206 0.0499879947569
420600000 0.362132415495 0.0504850544888
420610000 0.361613250093 0.0499173543564
420620000 0.362528078007 0.050551547392
420630000 0.362292089572 0.0505476266585
420640000 0.362960261862 0.0491869189529
420650000 0.363986426178 0.049405562268
420660000 0.363897614281 0.0490587278918
420670000 0.364453632255 0.0499479018962
420680000 0.364674219846 0.0490329017522
420690000 0.365164261427 0.0491070139619
420700000 0.365747712674 0.0483589763251
420710000 0.365992116315 0.0485140331456
420720000 0.365973504157 0.0484870355552
420730000 0.366026347233 0.0486472479314
420740000 0.365884656793 0.048883496365
420750000 0.366672601275 0.0481946573252
420760000 0.367180462498 0.0483360005068
420770000 0.367775742994 0.0479053087565
420780000 0.368125629238 0.0473657076385
420790000 0.368375926556 0.0472101582856
420800000 0.368184970401 0.0469777239629
420810000 0.368732228015 0.0471895949971
420820000 0.368993075544 0.0472286381602
420830000 0.369185169689 0.0473179612315
420840000 0.369612281796 0.0468575792051
420850000 0.3701634758 0.0470911128179
420860000 0.370066371948 0.0466203178169
420870000 0.370737871214 0.0464060182973
420880000 0.370794382328 0.0466734520573
420890000 0.37136789348 0.045871983541
420900000 0.371634172361 0.0458339326816
420910000 0.372024833913 0.045700711712
420920000 0.371982003288 0.0457626913834
420930000 0.372894745871 0.0455317726053
420940000 0.372873824458 0.0456038755872
420950000 0.372856672453 0.0452954339335
420960000 0.373213603418 0.0447542057616
420970000 0.37352772204 0.044356449785
420980000 0.373678548104 0.0449250751931
420990000 0.374127455965 0.0444929785697
421000000 0.37417847511 0.0440851795351
421010000 0.374716333795 0.0440029267069
421020000 0.37507239146 0.0442664434222
421030000 0.375710161868 0.0446593266391
421040000 0.375706700333 0.0437769174548
421050000 0.375910144015 0.0438696618397
421060000 0.375842990846 0.0438554280183
421070000 0.376742618797 0.0440609241119
421080000 0.377072086986 0.0436536296833
421090000 0.377860304722 0.043499040919
421100000 0.377995128727 0.0436928265371
421110000 0.377984828651 0.0432449099696
421120000 0.378143667534 0.0434890246749
421130000 0.378722384553 0.0435865800327
421140000 0.378954832619 0.0431530207049
421150000 0.378679430912 0.0424741128692
421160000 0.379813769099 0.0424829225792
421170000 0.379602462785 0.0419528031682
421180000 0.379898234674 0.0418587906956
421190000 0.380023280405 0.04139931807
421200000 0.380197803552 0.0415036071746
421210000 0.381008984812 0.0417340720439
421220000 0.38152770537 0.0411760895313
421230000 0.381754094564 0.0411741025795
421240000 0.381082348931 0.041213919814
421250000 0.382231168478 0.0415860827716
421260000 0.382095040767 0.040867486429
421270000 0.382178474899 0.0410527934861
421280000 0.383027314834 0.0406557265078
421290000 0.383009807102 0.040573672508
421300000 0.383055027574 0.040273416859
421310000 0.383168983678 0.0400640330761
421320000 0.38376175238 0.040223452979
421330000 0.384149888802 0.0398892122258
421340000 0.384337133755 0.0398125475746
421350000 0.384859436845 0.0399885089266
421360000 0.384864778532 0.0397543770091
421370000 0.385306723018 0.0396387416241
421380000 0.385282747619 0.0393210282743
421390000 0.385763596702 0.0389560497106
421400000 0.385979122587 0.0390455668115
421410000 0.386738195767 0.0389667480303
421420000 0.386502457295 0.0388290184899
421430000 0.3869382219 0.0384298750213
421440000 0.387447251204 0.0385522270038
421450000 0.387740701269 0.038117614711
421460000 0.388087780465 0.0382095964387
421470000 0.388188525104 0.0380603335499
421480000 0.388120747362 0.0373488044665
421490000 0.388918594856 0.037116395209
421500000 0.389477159422 0.0373752665058
421510000 0.390052702345 0.0371480023412
421520000 0.389227345424 0.0366714749764
421530000 0.390168460975 0.0369821230338
421540000 0.389780448418 0.0368499858604
421550000 0.390416693847 0.0364124816407
421560000 0.392841027006 0.040141504921
421570000 0.390904702281 0.0365910066119
421580000 0.391324173117 0.0357779282705
421590000 0.391809795541 0.0358150905057
421600000 0.392087777462 0.0355319323912
421610000 0.39237379428 0.0359381560547
421620000 0.39308426376 0.0359531683737
421630000 0.393534495148 0.0357737891763
421640000 0.394312903974 0.0347104591295
421650000 0.393514000676 0.0353265979975
421660000 0.393842532118 0.0350598640092
421670000 0.394229642317 0.0346569031242
421680000 0.394452086597 0.0352053703989
421690000 0.394894486224 0.034767805618
421700000 0.394730031787 0.0344872900732
421710000 0.394746222052 0.0343122401304
421720000 0.395360011336 0.0339866292169
421730000 0.395180127466 0.0341147500107
421740000 0.396317112662 0.0338369036638
421750000 0.396804047564 0.0335558001135
421760000 0.397374027686 0.0334036966678
421770000 0.396990761292 0.0331207470963
421780000 0.397353850469 0.032838401549
421790000 0.398176963559 0.0329784792564
421800000 0.397813392142 0.0328489000908
421810000 0.39789291158 0.0322724220244
421820000 0.3983468279 0.0319278414001
421830000 0.398399696372 0.0318771515092
421840000 0.39902439272 0.0323301626797
421850000 0.399143089054 0.0323289296933
421860000 0.399435521255 0.0322656393271
421870000 0.399813492627 0.0317076850209
421880000 0.399726013463 0.0316822008291
421890000 0.400033643486 0.0311829647556
421900000 0.400055889189 0.0312281450337
421910000 0.400859150024 0.0303517718328
421920000 0.401160820688 0.0305832969062
421930000 0.401214132048 0.0301649559552
421940000 0.401194187971 0.0302444596963
421950000 0.401333086932 0.030053416038
421960000 0.401983959313 0.0298855543312
421970000 0.402263512447 0.0296951016817
421980000 0.402775767738 0.0297192775182
421990000 0.403066093612 0.0292335089075
422000000 0.403378546133 0.0292367549938
422010000 0.403888746086 0.0291834609088
422020000 0.40379281678 0.0294736611043
422030000 0.404537845661 0.0287934824906
422040000 0.404604390048 0.0281078481117
422050000 0.40497585368 0.0280553983801
422060000 0.40492071271 0.0282341939157
422070000 0.405191746629 0.0280540641218
422080000 0.405657345052 0.028489746182
422090000 0.405703868005 0.0283884690061
422100000 0.406659609215 0.0281061008788
422110000 0.406925340274 0.0278036093521
422120000 0.407395212295 0.027258064936
422130000 0.40702954744 0.0276721275855
422140000 0.406850789856 0.027210733933
422150000 0.407806337223 0.0277507362488
422160000 0.407569763945 0.0270350725329
422170000 0.408218822702 0.0267895629358
422180000 0.408654577635 0.0269204037013
422190000 0.408467359083 0.026680981299
422200000 0.408257893451 0.0264655696108
422210000 0.409086470881 0.0263081260983
422220000 0.409356785178 0.026186201732
422230000 0.409645557012 0.0260289344253
422240000 0.410231606615 0.0256956010184
422250000 0.410262269592 0.0255174432446
422260000 0.410861466031 0.0244322894243
422270000 0.410584886291 0.0245561842819
422280000 0.410607647688 0.024390567533
422290000 0.410885706919 0.0244098602997
422300000 0.411555111425 0.024408183817
422310000 0.411922119709 0.0241096943401
422320000 0.412619066871 0.0242241970846
422330000 0.412910950365 0.0239757092708
422340000 0.41313386092 0.0241339360877
422350000 0.413369326472 0.0236740949371
422360000 0.413460187616 0.023476831739
422370000 0.413703540324 0.0230012501441
422380000 0.414260036677 0.0229369647307
422390000 0.41409417255 0.0234034034383
422400000 0.414612280711 0.0232151808749
422410000 0.414634829238 0.0229675284471
422420000 0.415329958302 0.0224404371713
422430000 0.41496170461 0.0220201246369
422440000 0.415125753658 0.0220028037903
422450000 0.415348109856 0.0220895423712
422460000 0.415703864137 0.0205440771461
422470000 0.417065050811 0.0195021583231
422480000 0.417622555383 0.0167672613734
422490000 0.401605663498 0.0184382193569
422500000 0.422338185928 0.01906891417
422510000 0.418355315189 0.0204822430235
422520000 0.417870530805 0.021387575007
422530000 0.418102388951 0.0208942229986
422540000 0.418451914387 0.0208119158858
422550000 0.41873843397 0.0199765013733
422560000 0.418788249138 0.0208573189539
422570000 0.419082236613 0.0202467100841
422580000 0.419002589623 0.0198881475609
422590000 0.419274430438 0.0198434015484
422600000 0.419463206418 0.0196345943134
422610000 0.419650787254 0.0194503077858
422620000 0.420347604886 0.0191099206822
422630000 0.420695768877 0.0188353001852
422640000 0.421042116727 0.0188794870985
422650000 0.421124648511 0.0184435674668
422660000 0.421557214195 0.0185204354053
422670000 0.422035364263 0.0183169063794
422680000 0.422534032054 0.0184306489113
422690000 0.42228443832 0.0179047541675
422700000 0.423132590371 0.018575665138
422710000 0.423449254917 0.0179129713434
422720000 0.423145676329 0.017587229653
422730000 0.423843262775 0.0179970814872
422740000 0.424039563243 0.0179099926159
422750000 0.424370196838 0.017980288782
422760000 0.424379819575 0.0174003995604
422770000 0.424589524314 0.0162339391598
422780000 0.424180464888 0.0158796262065
422790000 0.424892203957 0.0162586788715
422800000 0.424799358011 0.0160722694967
422810000 0.425266574516 0.0164861847157
422820000 0.425703323695 0.0160363725601
422830000 0.426211683188 0.0154726892272
422840000 0.426646483012 0.0156213201972
422850000 0.426701113251 0.0156827886581
422860000 0.427022841929 0.015163724782
422870000 0.426776997118 0.0149756182565
422880000 0.42765446245 0.0144638836712
422890000 0.428535929468 0.0144115749125
422900000 0.42772851791 0.0145023100246
422910000 0.427924014128 0.0150511995518
422920000 0.428341626343 0.0141993986968
422930000 0.428653290364 0.0140617240607
422940000 0.428908812064 0.0134803699018
422950000 0.429398396411 0.0132137117247
422960000 0.429362486571 0.0132509877838
422970000 0.429670004714 0.0132765902857
422980000 0.429644467546 0.0126675360169
422990000 0.430497831187 0.0125754132355
423000000 0.430635564524 0.0123998236103
423010000 0.431039557396 0.0120185662774
423020000 0.431445000822 0.0118462921983
423030000 0.431075614372 0.0119469706776
423040000 0.431657889503 0.0116745316078
423050000 0.431885034795 0.0116950350128
423060000 0.432029260315 0.0117166076275
423070000 0.432250916663 0.011421946541
423080000 0.432298428561 0.0112969242877
423090000 0.43253821873 0.0112177144192
423100000 0.433548184072 0.0109293932796
423110000 0.433159459149 0.0105187155767
423120000 0.433129856017 0.0104509954096
423130000 0.434281272283 0.00985493436738
423140000 0.434288340011 0.0100107266562
423150000 0.434574167211 0.00948951375033
423160000 0.434848671011 0.00956455341001
423170000 0.435266914989 0.00938463678497
423180000 0.435398147458 0.00920369903063
423190000 0.435552573128 0.00898127260122
423200000 0.435632369172 0.00906918900167
423210000 0.435660550618 0.00781228442442
423220000 0.436454546641 0.00855097599137
423230000 0.43687177328 0.00824058096324
423240000 0.436748213425 0.00846028194871
423250000 0.436814169619 0.00825689557294
423260000 0.436693823458 0.00800297262338
423270000 0.438071921678 0.00779640178849
423280000 0.43705809676 0.00741197770584
423290000 0.437330488818 0.00713748463246
423300000 0.438312864755 0.00724900947059
423310000 0.438573982274 0.00677105911286
423320000 0.439009619135 0.00685554031101
423330000 0.438791133388 0.00672765831656
423340000 0.439310183419 0.00617766397351
423350000 0.439680384343 0.00644004509853
423360000 0.439455285743 0.00613890774751
423370000 0.440284635171 0.00571657279733
423380000 0.440273561916 0.00543793480041
423390000 0.440635668639 0.00609218377857
423400000 0.440904056563 0.00553333966936
423410000 0.441104355401 0.00518057130402
423420000 0.441485973596 0.00586077168483
423430000 0.442041656396 0.00532801439811
423440000 0.442274366856 0.00491969997504
423450000 0.441734950766 0.00459627798891
423460000 0.442215520618 0.0045505516681
423470000 0.442155408362 0.00401435454257
423480000 0.442104201784 0.00349754123182
423490000 0.442724821082 0.00348803416006
423500000 0.442859564215 0.00306737667824
423510000 0.443277101561 0.00345100048834
423520000 0.443602723637 0.00311037318453
423530000 0.444087441758 0.00256129018307
423540000 0.443890212586 0.00266407072705
423550000 0.444417815679 0.00239010535883
423560000 0.444391902933 0.00224370999647
423570000 0.444611937164 0.00243699316541
423580000 0.444860938402 0.00177352478853
423590000 0.445094057425 0.00173961540965
423600000 0.445751055533 0.00154222929667
423610000 0.44593238202 0.00146095997243
423620000 0.446187898987 0.00169517627264
423630000 0.447048369642 0.00105173920529
423640000 0.447431303242 0.00132486368475
423650000 0.447297625913 0.000839334657233
423660000 0.447314048809 0.00111108865577
423670000 0.448339367077 0.00116867054642
423680000 0.447237959764 -0.000154333643992
423690000 0.446885325086 0.00082819531924
423700000 0.447344661613 -0.000300109427591
423710000 0.448023867686 -0.000440289474493
423720000 0.448985332211 8.81504442893e-05
423730000 0.449055770827 -0.000633528460992
423740000 0.449297479352 -0.000700299507232
423750000 0.449510376585 -0.00108398838374
423760000 0.449916933409 -0.00107461846456
423770000 0.449782412418 -0.00145782166329
423780000 0.450326040518 -0.00140379202983
423790000 0.450124361296 -0.00152703080614
423800000 0.450059056617 -0.00198709396798
423810000 0.451100521721 -0.00237461209662
423820000 0.450695031452 -0.00244559548659
423830000 0.450966155891 -0.00263016795992
423840000 0.451340677476 -0.00339308520213
423850000 0.451869300921 -0.00297062941773
423860000 0.452389707889 -0.00329964968693
423870000 0.452200776251 -0.00356308873361
423880000 0.453020302027 -0.00326551748283
423890000 0.453611382174 -0.00347022993372
423900000 0.452739678233 -0.00365646727166
423910000 0.453343311259 -0.00449155826215
423920000 0.453394556053 -0.0041851849431
423930000 0.453919798401 -0.00473124440223
423940000 0.453667916034 -0.00465610253875
423950000 0.454168486751 -0.00468477958948
423960000 0.454264752497 -0.00510122227982
423970000 0.454628289041 -0.00535893069899
423980000 0.454662172274 -0.00573991416729
423990000 0.454987929032 -0.00582861602196
424000000 0.45550251597 -0.00634834793585
424010000 0.455551207316 -0.0061997948726
424020000 0.455682911693 -0.00622598994507
424030000 0.455996236775 -0.00686110499576
424040000 0.455894173175 -0.00690032843136
424050000 0.456542362369 -0.00720005550913
424060000 0.457228337546 -0.00739786122175
424070000 0.457452160197 -0.00680310705104
424080000 0.456764915048 -0.00746456876501
424090000 0.457582600748 -0.00759294024926
424100000 0.457978716643 -0.00753026534745
424110000 0.458144978606 -0.00788145476343
424120000 0.458844038437 -0.00782207850771
424130000 0.459395146482 -0.00788944370632
424140000 0.459247529108 -0.00847422301029
424150000 0.45953777242 -0.00871105605556
424160000 0.459272327881 -0.00906934400676
424170000 0.459319167922 -0.00930150551972
424180000 0.459330716187 -0.009568372878
424190000 0.459649816299 -0.0097284141314
424200000 0.460413555491 -0.00970359780244
424210000 0.460473015819 -0.00998143628302
424220000 0.460480338482 -0.00995143935103
424230000 0.460590120278 -0.00963600392708
424240000 0.460857110042 -0.00973691110386
424250000 0.461213775747 -0.00995094115862
424260000 0.461235030732 -0.01002385636
424270000 0.461974188664 -0.0106126895182
424280000 0.462296972033 -0.0110518738846
424290000 0.462426672515 -0.0111466988147
424300000 0.46268043735 -0.0114230579465
424310000 0.462824960233 -0.0118229459332
424320000 0.4631917438 -0.012098548597
424330000 0.46346755148 -0.012270966242
424340000 0.46342779566 -0.0122564822333
424350000 0.464071952433 -0.0119206859402
424360000 0.463847520983 -0.0128450265504
424370000 0.463917353824 -0.0130144024805
424380000 0.464309967355 -0.0131570780028
424390000 0.465000341644 -0.0131456479586
424400000 0.464680146183 -0.0116923529826
424410000 0.465214485807 -0.0140398891656
424420000 0.465420539772 -0.0140202586616
424430000 0.465591067176 -0.0136336701373
424440000 0.466049424277 -0.01430024391
424450000 0.465478318891 -0.0143691207906
424460000 0.466062758842 -0.0147581502345
424470000 0.46611892952 -0.0150087541565
424480000 0.466689511348 -0.0155070410446
424490000 0.466816754235 -0.01512589047
424500000 0.467175376268 -0.0155617615628
424510000 0.467277562421 -0.0156741167712
424520000 0.46773850393 -0.0161984968524
424530000 0.467741078511 -0.0159485468752
424540000 0.467967370756 -0.0161207487911
424550000 0.468357874558 -0.0163995868254
424560000 0.468454854071 -0.0163915632502
424570000 0.468343113037 -0.0166640645698
424580000 0.468732824106 -0.016893218302
424590000 0.469275536129 -0.0175645137604
424600000 0.469219516581 -0.0176844650912
424610000 0.469652726959 -0.0180725703324
424620000 0.469413038941 -0.0182568083047
424630000 0.469914231473 -0.0184715815957
424640000 0.470233831577 -0.0183054729677
424650000 0.470385604628 -0.0185342201186
424660000 0.470504696895 -0.0190706711265
424670000 0.470886500407 -0.018650167011
424680000 0.471096376644 -0.0185904547822
424690000 0.471326394829 -0.0190924977807
424700000 0.471812687311 -0.0190744074854
424710000 0.471577336579 -0.0191738032966
424720000 0.472264407526 -0.0193876689961
424730000 0.472831276854 -0.0199971834849
424740000 0.4730022331 -0.0198980137375
424750000 0.472442863363 -0.0201771804514
424760000 0.473503268271 -0.0201807820117
424770000 0.473177788559 -0.0208310138799
424780000 0.473244251581 -0.0206457158035
424790000 0.473725564271 -0.0215365150815
424800000 0.474631823928 -0.0215970557323
424810000 0.475877232343 -0.0211707321492
424820000 0.475676084794 -0.0213387185528
424830000 0.475303459774 -0.0222851655249
424840000 0.475206776417 -0.0227254203977
424850000 0.475254812726 -0.0227712791527
424860000 0.475526384694 -0.0227484537186
424870000 0.476184351515 -0.0224713214844
424880000 0.476164614773 -0.0226166002911
424890000 0.47573521744 -0.0233108430435
424900000 0.476197489799 -0.023974453314
424910000 0.475874327275 -0.0237695843803
424920000 0.476038564243 -0.0240256675541
424930000 0.476342669711 -0.0245937206259
424940000 0.476428876851 -0.0241279843577
424950000 0.476573632087 -0.0244132148439
424960000 0.477181324743 -0.0244000715858
424970000 0.477135203685 -0.0247735110406
424980000 0.477015613884 -0.0252586059035
424990000 0.477567328815 -0.0252898642309
425000000 0.478043320475 -0.0256958014677
425010000 0.478544366713 -0.0259783092664
425020000 0.479219786665 -0.0258191285115
425030000 0.479169118767 -0.0260999774125
425040000 0.479237377346 -0.0261076863633
425050000 0.479479685666 -0.0262993759208
425060000 0.479941588909 -0.026699613763
425070000 0.479785631835 -0.0270369936806
425080000 0.479754943158 -0.0263362088362
425090000 0.480103373133 -0.0266831439338
425100000 0.479988258053 -0.0266063279103
425110000 0.48052607249 -0.0267333883214
425120000 0.48096432339 -0.0277617565859
425130000 0.481222292001 -0.0284641245372
425140000 0.481403523992 -0.0280691344474
425150000 0.481590693838 -0.0282662917515
425160000 0.481558522268 -0.0284324796631
425170000 0.481882568397 -0.0286809135328
425180000 0.482363923317 -0.02884133788
425190000 0.48292217782 -0.0289260054022
425200000 0.48268236941 -0.0292575672822
425210000 0.48314922611 -0.029532091063
425220000 0.483392413741 -0.0299238644311
425230000 0.483117074591 -0.0300195290371
425240000 0.483315649659 -0.0299115192468
425250000 0.483375166062 -0.0304871864629
425260000 0.484034969889 -0.0307394936635
425270000 0.484440340011 -0.0307269791648
425280000 0.484664675572 -0.0314566492867
425290000 0.484765952704 -0.0312264634224
425300000 0.484863294722 -0.0313835897455
425310000 0.485398652409 -0.0320519852524
425320000 0.485399525894 -0.0322765871974
425330000 0.486072331698 -0.0323673620683
425340000 0.485854349882 -0.0329692290759
425350000 0.486514627644 -0.0324272530785
425360000 0.486955070037 -0.031786677641
425370000 0.48677131673 -0.0329229904192
425380000 0.486786937749 -0.0329021651024
425390000 0.486817264105 -0.0327221856317
425400000 0.486969745226 -0.0339131079927
425410000 0.487643506404 -0.0341599446861
425420000 0.48751501173 -0.0345385937058
425430000 0.487616436496 -0.0347443539793
425440000 0.487982062176 -0.0343724473822
425450000 0.487880455005 -0.0349404391534
425460000 0.48778369857 -0.0346115879076
425470000 0.488371759609 -0.0347996689043
425480000 0.489172638488 -0.0348590701511
425490000 0.488606432412 -0.0354987417813
425500000 0.488793069937 -0.0353115291717
425510000 0.488750122633 -0.0359435077615
425520000 0.489095909771 -0.035922393657
425530000 0.489423995564 -0.0361836215928
425540000 0.489830916888 -0.0365889981634
425550000 0.490221509107 -0.0372031647538
425560000 0.490613894245 -0.0369646360856
425570000 0.490513611998 -0.0370002583379
425580000 0.490238902303 -0.0374915929408
425590000 0.490776152708 -0.0375297857961
425600000 0.490420147885 -0.0378490337392
425610000 0.490913505639 -0.0375265023462
425620000 0.490962607316 -0.0379337064165
425630000 0.490805793518 -0.0384910298546
425640000 0.491367037932 -0.0386280436969
425650000 0.491551476162 -0.038777490825
425660000 0.491641197549 -0.0388555893116
425670000 0.491872767515 -0.0390205434791
425680000 0.492258121721 -0.0393998503856
425690000 0.492736264868 -0.0394505087449
425700000 0.492703293482 -0.0393276122932
425710000 0.492982158614 -0.0397985879234
425720000 0.493422894754 -0.0399680774611
425730000 0.493222028497 -0.040458685878
425740000 0.493507902224 -0.0405619322744
425750000 0.493558460729 -0.0410483816984
425760000 0.494004291569 -0.0410615730315
425770000 0.494546702467 -0.0408741238426
425780000 0.494386015329 -0.0410034693788
425790000 0.495026323599 -0.0414247796415
425800000 0.49474680283 -0.041641397345
425810000 0.494861594552 -0.0417253555881
425820000 0.495713554669 -0.0421476510765
425830000 0.495277013599 -0.0422928696176
425840000 0.495833693333 -0.0424060599744
425850000 0.496173122965 -0.0426001597514
425860000 0.496363501989 -0.0426663591091
425870000 0.496511009386 -0.0430989667274
425880000 0.496706924515 -0.0430504946643
425890000 0.496903495283 -0.0432396693799
425900000 0.49665876168 -0.0436378470389
425910000 0.496931391263 -0.0438693151291
425920000 0.497394300083 -0.0436988511227
425930000 0.497860587404 -0.0438227916321
425940000 0.498135187166 -0.0447431394417
425950000 0.498492866736 -0.0449080723627
425960000 0.498431529035 -0.0453964475799
425970000 0.498811783759 -0.0454298502296
425980000 0.498690317001 -0.0458276265753
425990000 0.498434165416 -0.045798950068
426000000 0.498989756336 -0.0457725907886
426010000 0.499394620618 -0.0460891249409
426020000 0.499191333256 -0.0463970525422
426030000 0.499450231826 -0.0462988657713
426040000 0.499576349036 -0.0465764369994
426050000 0.499914132069 -0.0468213496541
426060000 0.500012892026 -0.0473094163005
426070000 0.499811098571 -0.0471566817016
426080000 0.500489082291 -0.0478232687232
426090000 0.500139528295 -0.0477530030233
426100000 0.500829113109 -0.0498541294506
426110000 0.502096556564 -0.0483781720239
426120000 0.501848298984 -0.0480061986816
426130000 0.501298125795 -0.0485626024049
426140000 0.501652851907 -0.0488820281373
426150000 0.501767047411 -0.0491562286324
426160000 0.502289153439 -0.0493263671309
426170000 0.502609064001 -0.0490350151755
426180000 0.502552036436 -0.0499361310064
426190000 0.502335134082 -0.0502385069042
426200000 0.502503347238 -0.0504620842691
426210000 0.502802233003 -0.0502389152169
426220000 0.503126313 -0.0506248728295
426230000 0.50347510875 -0.0510320735462
426240000 0.503203192221 -0.0508109849602
426250000 0.502912704264 -0.0512032315353
426260000 0.503578783265 -0.0510517719642
426270000 0.503192122062 -0.0516597602867
426280000 0.504070652275 -0.0519689652269
426290000 0.504178851803 -0.0522224896963
426300000 0.504264905502 -0.0525997053721
426310000 0.504572095689 -0.0527178550926
426320000 0.505377756301 -0.0528502266745
426330000 0.505032037345 -0.0528253253877
426340000 0.505248262858 -0.0531890960007
426350000 0.505520396435 -0.053267875308
426360000 0.505430035145 -0.0534567749197
426370000 0.505552762438 -0.0537061771579
426380000 0.505757637253 -0.0536680895478
426390000 0.506547143482 -0.054553663995
426400000 0.50643211243 -0.0542851918477
426410000 0.506586661868 -0.0541847134052
426420000 0.506962192861 -0.0541742249182
426430000 0.507748105705 -0.0543326005528
426440000 0.507704994949 -0.0552789662464
426450000 0.507999013928 -0.0554158525022
426460000 0.507694133544 -0.0555180517658
426470000 0.508275535954 -0.0560037287023
426480000 0.508163771233 -0.0560464712755
426490000 0.508314682906 -0.0563368735749
426500000 0.508494048103 -0.0571386526455
426510000 0.508632263603 -0.0566662292138
426520000 0.50915095361 -0.056763847427
426530000 0.509531922017 -0.0568949781618
426540000 0.509696095734 -0.0568813354829
426550000 0.509753557149 -0.0573792308193
426560000 0.509593396075 -0.0571885093201
426570000 0.509596457856 -0.0578503899856
426580000 0.509941274478 -0.058013898428
426590000 0.51027525597 -0.0584016811157
426600000 0.510406621501 -0.0584138202775
426610000 0.510643172365 -0.0586405221849
426620000 0.510882473808 -0.05868125957
426630000 0.511293619225 -0.0587048685501
426640000 0.51170328302 -0.0592001960602
426650000 0.511969734744 -0.0591036903385
426660000 0.512307855495 -0.059246575897
426670000 0.512284015226 -0.0597619731889
426680000 0.512126099252 -0.0602876486652
426690000 0.511727797158 -0.0609821666853
426700000 0.512410319783 -0.0605489895426
426710000 0.512749730501 -0.0604969114822
426720000 0.512933155538 -0.0607595637063
426730000 0.512924024158 -0.0608549027777
426740000 0.512869166397 -0.0611864237667
426750000 0.513199299653 -0.0616725633613
426760000 0.513162643095 -0.0616319769444
426770000 0.513307107408 -0.0618348018747
426780000 0.513531943338 -0.062088947285
426790000 0.51376212507 -0.0624526423361
426800000 0.514341777493 -0.062748397917
426810000 0.514110227525 -0.062878328793
426820000 0.513981386434 -0.0627995768878
426830000 0.514373521334 -0.0629707311568
426840000 0.514504892369 -0.0630703816708
426850000 0.514643708671 -0.0639281905845
426860000 0.514547939648 -0.0638631893178
426870000 0.515217267124 -0.0640810631483
426880000 0.514343307193 -0.0648412477603
426890000 0.515850813678 -0.0644504910518
426900000 0.515970956038 -0.0653735131115
426910000 0.516048826678 -0.0655322956254
426920000 0.516279939992 -0.0656713521718
426930000 0.516018952192 -0.0655906782881
426940000 0.516212618349 -0.0655437680207
426950000 0.514526167662 -0.0659241805136
426960000 0.516770483301 -0.0659872566118
426970000 0.516509157445 -0.0658349989063
426980000 0.516862013011 -0.0663599977958
426990000 0.517368575248 -0.066614847145
427000000 0.51711498243 -0.0670888489685
427010000 0.517690985732 -0.0676929781864
427020000 0.517621936918 -0.0675575785173
427030000 0.518009156314 -0.0680682281393
427040000 0.517743294435 -0.0676278542913
427050000 0.518034534028 -0.067949789212
427060000 0.518124858675 -0.0681289998599
427070000 0.518254588489 -0.0683601187794
427080000 0.518664907726 -0.0680020165127
427090000 0.51880211526 -0.0683967801863
427100000 0.518376221762 -0.0690615171818
427110000 0.518993207203 -0.0685917692182
427120000 0.519207462015 -0.0687371588897
427130000 0.520137206568 -0.0701800024766
427140000 0.520075581065 -0.0697268636485
427150000 0.520419009384 -0.0703678109105
427160000 0.519974268419 -0.0699573622551
427170000 0.520383751772 -0.0698578554414
427180000 0.520150725593 -0.0703897243654
427190000 0.520769031136 -0.0708082143214
427200000 0.521312400317 -0.0713268060877
427210000 0.521280722194 -0.0715030440257
427220000 0.521528037632 -0.0716580213206
427230000 0.521583498621 -0.0713737430078
427240000 0.521930131328 -0.0718980409281
427250000 0.522102340878 -0.0723231634902
427260000 0.521971974214 -0.0724775296741
427270000 0.522406536828 -0.0723557844003
427280000 0.522597545571 -0.0726771925633
427290000 0.522950696511 -0.0723764157558
427300000 0.522530268578 -0.0732645689962
427310000 0.522555795816 -0.0734308125586
427320000 0.522998429099 -0.0738932502336
427330000 0.52299846924 -0.0739526679723
427340000 0.52312630915 -0.0737108986102
427350000 0.523618970233 -0.0741253189272
427360000 0.523871005018 -0.0745090093555
427370000 0.524171684692 -0.0741126481702
427380000 0.5241955595 -0.0742690801707
427390000 0.52435755319 -0.0752626696499
427400000 0.524486257346 -0.0754991813492
427410000 0.524649417818 -0.0752931231676
427420000 0.524021244387 -0.0758661131032
427430000 0.524424255076 -0.0760711160593
427440000 0.524873614396 -0.0764247316841
427450000 0.525262008692 -0.0763258180874
427460000 0.526040830576 -0.0765314967776
427470000 0.526087973804 -0.0771155299712
427480000 0.526213364223 -0.0775783403013
427490000 0.525742757954 -0.077520433828
427500000 0.526028316233 -0.077530565832
427510000 0.526133155817 -0.0779948772819
427520000 0.526417552864 -0.0781004941311
427530000 0.526457325711 -0.078638703883
427540000 0.52616382898 -0.0784015948793
427550000 0.526332507363 -0.0788160802979
427560000 0.526117021332 -0.0786885958996
427570000 0.526789482846 -0.0793172958178
427580000 0.526737733589 -0.0792650033553
427590000 0.527301544664 -0.0792498262537
427600000 0.527657236246 -0.0791462403622
427610000 0.527692474836 -0.0795966735259
427620000 0.527487660727 -0.0798862934452
427630000 0.527608355444 -0.0800917419723
427640000 0.527942085122 -0.0803062561613
427650000 0.528417541524 -0.080714223169
427660000 0.528619731478 -0.0812526391391
427670000 0.529214038513 -0.0811249020136
427680000 0.529014781263 -0.0819064091658
427690000 0.52882699973 -0.0825380049429
427700000 0.529228352855 -0.0824585789522
427710000 0.528964187218 -0.0825224828852
427720000 0.529195898041 -0.0825490364189
427730000 0.529135562425 -0.0822845753837
427740000 0.529064971926 -0.0829913506915
427750000 0.529380504012 -0.0824956515589
427760000 0.52991079211 -0.0833442208375
427770000 0.530086734721 -0.0837422114888
427780000 0.530447646504 -0.0839028678487
427790000 0.530154384759 -0.0838103007683
427800000 0.530602318193 -0.0838986231639
427810000 0.530785009605 -0.0840931946877
427820000 0.531106826948 -0.0846311711295
427830000 0.530721204753 -0.0850284739761
427840000 0.531302523572 -0.0852674981665
427850000 0.531078572394 -0.0852354826712
427860000 0.531390265107 -0.0852478473886
427870000 0.531992619798 -0.0857292631171
427880000 0.531978023432 -0.086331773079
427890000 0.532307402629 -0.0865795705088
427900000 0.529482634035 -0.090942756642
427910000 0.537881569156 -0.0888498698707
427920000 0.532606278778 -0.0866457043771
427930000 0.532383600549 -0.0870191611884
427940000 0.53279599733 -0.0869931299465
427950000 0.532941645911 -0.0873191293147
427960000 0.533218386487 -0.0872686913962
427970000 0.533195302791 -0.0875115254511
427980000 0.533893132884 -0.0877483863076
427990000 0.533792945813 -0.0880563620804
428000000 0.533702875042 -0.0883865365565
428010000 0.53382587604 -0.0886784074843
428020000 0.533902563192 -0.0886799472801
428030000 0.534011424134 -0.0895491196888
428040000 0.533832446888 -0.0894937245331
428050000 0.534175211985 -0.0894153781767
428060000 0.53422671896 -0.0897442860709
428070000 0.534578041658 -0.0898053448633
428080000 0.534943665458 -0.0903173339823
428090000 0.53520931026 -0.0902707956518
428100000 0.535160506033 -0.0902867918284
428110000 0.535595106573 -0.0907483713211
428120000 0.535315263335 -0.0901068562669
428130000 0.535752287307 -0.0910532349077
428140000 0.536205991947 -0.0918266454134
428150000 0.536257933552 -0.0921686295633
428160000 0.53644641595 -0.0922981919159
428170000 0.536406535242 -0.0918448079645
428180000 0.536497042006 -0.0919983413047
428190000 0.536610461477 -0.0921001055417
428200000 0.537820742118 -0.0932936301527
428210000 0.53689892842 -0.0929377542408
428220000 0.537044231015 -0.0928691091705
428230000 0.537663244845 -0.0927285363535
428240000 0.537697502724 -0.0931552116649
428250000 0.537931920973 -0.0934814349898
428260000 0.53832502626 -0.0943904391586
428270000 0.537833114405 -0.0938663256455
428280000 0.538318332418 -0.0944353313666
428290000 0.538931851063 -0.0944548288256
428300000 0.538641031181 -0.0950848115791
428310000 0.538553846581 -0.0955338764863
428320000 0.539192368876 -0.0962328370057
428330000 0.539015957775 -0.0960895423746
428340000 0.53905888492 -0.0960209760361
428350000 0.539292512041 -0.0960734391733
428360000 0.539460899222 -0.0967491488768
428370000 0.539395700983 -0.0966215589536
428380000 0.53966891522 -0.0971376371203
428390000 0.539675140152 -0.097080086197
428400000 0.540644190692 -0.0969597800668
428410000 0.540279304148 -0.0972735176097
428420000 0.540310894355 -0.0978159651941
428430000 0.540297837907 -0.0975304389773
428440000 0.540123337518 -0.0978930043237
428450000 0.54038353948 -0.0978848495535
428460000 0.540328723106 -0.0985554717872
428470000 0.540674204644 -0.098296620734
428480000 0.540943554291 -0.0982029798819
428490000 0.540879740052 -0.0988484346645
428500000 0.541255442885 -0.0992476284483
428510000 0.541335798217 -0.0989675312463
428520000 0.541795172651 -0.0990478131972
428530000 0.542000587808 -0.0995001503681
428540000 0.542076471194 -0.0994404027561
428550000 0.542111585226 -0.0995329859845
428560000 0.542253048751 -0.0998468606914
428570000 0.542495885918 -0.0999965276695
428580000 0.542283139439 -0.0999784929674
428590000 0.542449344604 -0.100418555037
428600000 0.543013932307 -0.101541365497
428610000 0.542417260083 -0.101190697951
428620000 0.543022250191 -0.101530875158
428630000 0.542805724113 -0.101860120325
428640000 0.542459255456 -0.102220171165
428650000 0.543272078449 -0.102601627268
428660000 0.543491303384 -0.102446842471
428670000 0.54417746942 -0.102514877835
428680000 0.542052145415 -0.101698594702
428690000 0.544283105273 -0.103076085241
428700000 0.544367874979 -0.102667226653
428710000 0.544384327565 -0.103259208808
428720000 0.54448079327 -0.103388481835
428730000 0.544860201399 -0.103793010316
428740000 0.544721358368 -0.103972601467
428750000 0.545316608759 -0.104110889916
428760000 0.545728469865 -0.104727564434
428770000 0.545582182582 -0.10465782165
428780000 0.545692501466 -0.104638832869
428790000 0.54573201061 -0.104930025071
428800000 0.545472128869 -0.105328790754
428810000 0.545878063906 -0.10574764008
428820000 0.546299051336 -0.105792683867
428830000 0.546738457066 -0.106038181184
428840000 0.547361776145 -0.106291702927
428850000 0.546823668141 -0.106373634579
428860000 0.546202471224 -0.1071737557
428870000 0.546753745397 -0.106552812871
428880000 0.546466693113 -0.107014858853
428890000 0.546785180358 -0.107582637496
428900000 0.546209067683 -0.107555579664
428910000 0.54647024362 -0.107752343123
428920000 0.54738830255 -0.107474824323
428930000 0.547212232159 -0.107939165961
428940000 0.547463516055 -0.108040833672
428950000 0.5479236323 -0.108254582106
428960000 0.547451688353 -0.108613609498
428970000 0.545817024599 -0.109482997221
428980000 0.544500597775 -0.110262163245
428990000 0.55686678321 -0.105807059748
429000000 0.554541588257 -0.118626146705
429010000 0.550992932869 -0.11130890065
429020000 0.550299351486 -0.111355562548
429030000 0.549705367972 -0.110951136994
429040000 0.548714395904 -0.11073867683
429050000 0.548886141887 -0.110471916161
429060000 0.549068616898 -0.110808177656
429070000 0.548882276042 -0.110958960469
429080000 0.549373167957 -0.111376462928
429090000 0.54952800689 -0.111470913245
429100000 0.549794605016 -0.112109016252
429110000 0.549895017041 -0.112327809147
429120000 0.549966241653 -0.112035816446
429130000 0.550068861251 -0.112484949053
429140000 0.549988534947 -0.112875750674
429150000 0.550183016248 -0.112674626485
429160000 0.550603926717 -0.112771339995
429170000 0.550900486206 -0.113241501744
429180000 0.551023997686 -0.11324423569
429190000 0.551054870294 -0.113708521686
429200000 0.551111303685 -0.113949277373
429210000 0.551138368068 -0.114294630032
429220000 0.550847787528 -0.114549443917
429230000 0.551790362037 -0.115169374231
429240000 0.551897099513 -0.114842048042
429250000 0.55179983513 -0.114966806246
429260000 0.551688788372 -0.114612038549
429270000 0.551916991577 -0.115045767588
429280000 0.552189467431 -0.115350094466
429290000 0.552605262735 -0.115348685681
429300000 0.552495616029 -0.115916076884
429310000 0.552683232267 -0.116246467333
429320000 0.552844246339 -0.116030244428
429330000 0.55345587504 -0.116379535048
429340000 0.553701380228 -0.116456581058
429350000 0.553235833318 -0.116777712911
429360000 0.553194401204 -0.117643624619
429370000 0.553219691167 -0.117654062006
429380000 0.554023489102 -0.119536879441
429390000 0.553700169094 -0.118162112776
429400000 0.553868215473 -0.118388365573
429410000 0.554007235233 -0.118353097005
429420000 0.554321942612 -0.118436452941
429430000 0.553985850837 -0.119054121395
429440000 0.553952984599 -0.119156016563
429450000 0.554166668028 -0.119581348992
429460000 0.555066590686 -0.119609238007
429470000 0.554199317354 -0.119987755545
429480000 0.554748936325 -0.120413644833
429490000 0.554875904891 -0.120380586084
429500000 0.555045059669 -0.119807325161
429510000 0.555064831725 -0.120257745489
429520000 0.554977670738 -0.120685063315
429530000 0.555294800971 -0.121232803609
429540000 0.555679600303 -0.121031774783
429550000 0.555868413179 -0.121524105658
429560000 0.555767357289 -0.121794076693
429570000 0.555736178542 -0.12193671884
429580000 0.556410626044 -0.122105824488
429590000 0.555935346226 -0.12265073109
429600000 0.556643087714 -0.122311193966
429610000 0.55632921682 -0.122798542732
429620000 0.556703414916 -0.122932305634
429630000 0.556770755054 -0.122962943128
429640000 0.556955471683 -0.123720264183
429650000 0.556927350081 -0.123944861445
429660000 0.557110592008 -0.123838654935
429670000 0.556852039969 -0.123688052862
429680000 0.556813566787 -0.124003749793
429690000 0.557233422844 -0.124211944764
429700000 0.557563394266 -0.124270885707
429710000 0.55604439239 -0.125865983374
429720000 0.558368977976 -0.125310265542
429730000 0.558316481446 -0.125240967017
429740000 0.558582297681 -0.125430206479
429750000 0.558367194781 -0.126273789879
429760000 0.558533936741 -0.126443364857
429770000 0.558548308712 -0.125943443506
429780000 0.557999993898 -0.126179149815
429790000 0.558611366217 -0.126550698164
429800000 0.558924961768 -0.126862915766
429810000 0.558754044772 -0.127117991383
429820000 0.558975695708 -0.127271278342
429830000 0.559064490534 -0.127580463315
429840000 0.559217044402 -0.127768386102
429850000 0.559107417351 -0.127721557949
429860000 0.558934908495 -0.128231634014
429870000 0.559325223053 -0.12837851388
429880000 0.559717201554 -0.12854234668
429890000 0.559936968919 -0.128613078212
429900000 0.560615346579 -0.1285076742
429910000 0.560176160274 -0.128671074768
429920000 0.560273536135 -0.129182121605
429930000 0.560108397635 -0.129472355178
429940000 0.559765419626 -0.129673569669
429950000 0.560265311239 -0.129614333454
429960000 0.560571778528 -0.130096394826
429970000 0.562313293536 -0.130571981969
429980000 0.56387056999 -0.131084786782
429990000 0.565451898287 -0.131849699409
430000000 0.563957165707 -0.131848210415
430010000 0.562436807383 -0.131510380788
430020000 0.561380996016 -0.131900690875
430030000 0.561147571 -0.131292202001
430040000 0.56126687548 -0.131359913509
430050000 0.561624452159 -0.131392402875
430060000 0.561444728561 -0.132025661898
430070000 0.561999150684 -0.132060706298
430080000 0.562427727033 -0.132099677982
430090000 0.562457090199 -0.132652901477
430100000 0.562551348907 -0.132965175008
430110000 0.562551317641 -0.133330795146
430120000 0.562108430114 -0.13342973309
430130000 0.562009444996 -0.133973278343
430140000 0.562888687769 -0.134364161002
430150000 0.56258443859 -0.133789712133
430160000 0.563032059331 -0.134068043935
430170000 0.562563523994 -0.133090938232
430180000 0.563769461375 -0.134943298613
430190000 0.563821279992 -0.135207424411
430200000 0.564194672993 -0.135555791709
430210000 0.56401716266 -0.135149253264
430220000 0.564088271689 -0.135149860284
430230000 0.564525228787 -0.136010820927
430240000 0.564577075136 -0.135813704218
430250000 0.565041746529 -0.136603437164
430260000 0.56444519486 -0.135997972863
430270000 0.564377275207 -0.136151579611
430280000 0.56481236794 -0.136494605047
430290000 0.564722736549 -0.136486497501
430300000 0.564892928144 -0.136728530033
430310000 0.565158328141 -0.137371536051
430320000 0.564833988502 -0.13767297925
430330000 0.56517522526 -0.137753921877
430340000 0.565901608136 -0.137922400758
430350000 0.564902567865 -0.138410272758
430360000 0.565186230927 -0.138402885279
430370000 0.565903907774 -0.139062139342
430380000 0.566149592129 -0.139316721521
430390000 0.566216386153 -0.139891240671
430400000 0.566727619447 -0.139955370705
430410000 0.566635520818 -0.139244165701
430420000 0.566988383017 -0.139567267038
430430000 0.566809961147 -0.139850610044
430440000 0.566463496412 -0.140180984519
430450000 0.566845089948 -0.140197125321
430460000 0.567303846908 -0.140153819906
430470000 0.566877962388 -0.140648544193
430480000 0.567102839921 -0.140976877843
430490000 0.567585329817 -0.140986833561
430500000 0.567412199899 -0.141481774913
430510000 0.567602262838 -0.141582246008
430520000 0.567180927508 -0.141875408239
430530000 0.567487962301 -0.142072505965
430540000 0.567794264482 -0.142704763378
430550000 0.567684520321 -0.14254277997
430560000 0.567873516242 -0.142723955296
430570000 0.567948321493 -0.143347010683
430580000 0.568188101106 -0.143497804017
430590000 0.568057343635 -0.143502754883
430600000 0.56833797119 -0.143809726342
430610000 0.568070566829 -0.143870698482
430620000 0.568552790968 -0.143930468349
430630000 0.568779368863 -0.143919184295
430640000 0.56907036125 -0.144031540274
430650000 0.568895999453 -0.144917662446
430660000 0.568767814232 -0.144767828398
430670000 0.568856001362 -0.145476775769
430680000 0.568822372342 -0.145433043562
430690000 0.568965711052 -0.145541721981
430700000 0.56937888512 -0.145937495168
430710000 0.569358152969 -0.145788156737
430720000 0.569481155459 -0.146044927501
430730000 0.569253829698 -0.146629040567
430740000 0.569594305335 -0.14705628256
430750000 0.570081686073 -0.146855349151
430760000 0.569951051396 -0.147072412873
430770000 0.570146401016 -0.14748960617
430780000 0.569908434499 -0.147239687575
430790000 0.570262278228 -0.14675777483
430800000 0.570589291691 -0.147440011943
430810000 0.570222900011 -0.147918250144
430820000 0.570571024212 -0.147679094805
430830000 0.570942577005 -0.148243813458
430840000 0.570743018228 -0.148633735373
430850000 0.57055295958 -0.149401256817
430860000 0.570732647615 -0.14941660587
430870000 0.571045298769 -0.149572610175
430880000 0.570975118107 -0.149403495198
430890000 0.571272727694 -0.149673466792
430900000 0.57152603121 -0.14982244796
430910000 0.571744003202 -0.150243199634
430920000 0.572258648995 -0.150760702709
430930000 0.572063923295 -0.150759291969
430940000 0.572268547384 -0.150798956928
430950000 0.572364175323 -0.150925504051
430960000 0.572571636302 -0.150734238282
430970000 0.572864998464 -0.151093204808
430980000 0.5725732048 -0.151398675776
430990000 0.572902493495 -0.151644297231
431000000 0.573259847305 -0.152216047517
431010000 0.573609769457 -0.1526202129
431020000 0.573439968624 -0.152605413479
431030000 0.573479184816 -0.152622312544
431040000 0.574072026233 -0.153189204788
431050000 0.57397390243 -0.152478882929
431060000 0.573880433558 -0.153512820355
431070000 0.573936250282 -0.154543535187
431080000 0.574830585561 -0.153706461455
431090000 0.574512089532 -0.154198265875
431100000 0.574110733627 -0.154162853696
431110000 0.573823073673 -0.154756371247
431120000 0.573969760966 -0.154820419247
431130000 0.574373415547 -0.154799362651
431140000 0.574613279007 -0.155805461715
431150000 0.5750606877 -0.15582707639
431160000 0.575039590201 -0.155664215359
431170000 0.574913899229 -0.156034950199
431180000 0.575032958611 -0.156361858989
431190000 0.575271592988 -0.156639588497
431200000 0.575733195238 -0.156214176628
431210000 0.575560405823 -0.156933718241
431220000 0.575480952923 -0.157395937348
431230000 0.575993207038 -0.157141892367
431240000 0.575855663095 -0.157606870441
431250000 0.575531856533 -0.15763035232
431260000 0.575594725984 -0.157774210209
431270000 0.576009464617 -0.158049075259
431280000 0.575971716847 -0.157935154689
431290000 0.576328019662 -0.158287103989
431300000 0.576709439484 -0.157991460854
431310000 0.576825156655 -0.158547586506
431320000 0.576411569753 -0.159056222249
431330000 0.576285149788 -0.159715949761
431340000 0.575943511682 -0.159585383722
431350000 0.574768856528 -0.161467124626
431360000 0.576298099358 -0.159783395227
431370000 0.576495019656 -0.159478844375
431380000 0.576778905729 -0.159667745929
431390000 0.576679105523 -0.159908683885
431400000 0.577071171358 -0.160331404633
431410000 0.576853811999 -0.160001442074
431420000 0.577138767272 -0.160211242103
431430000 0.577485557153 -0.160918711657
431440000 0.577445409745 -0.160923374473
431450000 0.577799329981 -0.161411806687
431460000 0.577443290158 -0.162001995224
431470000 0.578090176381 -0.162179122958
431480000 0.577668405073 -0.162591499341
431490000 0.577695532216 -0.162779225042
431500000 0.57817024975 -0.163024033496
431510000 0.578294447402 -0.16272611558
431520000 0.578168481753 -0.163522150536
431530000 0.578242028114 -0.163169634452
431540000 0.578816502384 -0.163677508243
431550000 0.578377882059 -0.164317385331
431560000 0.57847360067 -0.164085030388
431570000 0.578579420163 -0.164313007028
431580000 0.578768853009 -0.164491027585
431590000 0.578977662763 -0.164550709776
431600000 0.578851921536 -0.164345708804
431610000 0.579261868436 -0.16531167855
431620000 0.579399989521 -0.16574719107
431630000 0.579229176773 -0.165149261858
431640000 0.578944604469 -0.164120646847
431650000 0.578565178902 -0.163139049172
431660000 0.57803015963 -0.163065915006
431670000 0.578659187595 -0.164431815613
431680000 0.579931474583 -0.165235407655
431690000 0.580286099309 -0.166614491314
431700000 0.579861527461 -0.167195786286
431710000 0.580161821054 -0.166818259045
431720000 0.580301080606 -0.167249044239
431730000 0.580650865214 -0.167632180039
431740000 0.580619350939 -0.167733063717
431750000 0.580680754418 -0.168369572809
431760000 0.581562814017 -0.168167436728
431770000 0.581040791514 -0.16806848852
431780000 0.581168070582 -0.168449090706
431790000 0.581564898123 -0.168980430288
431800000 0.581618557389 -0.169083350157
431810000 0.581211084051 -0.169607432597
431820000 0.581131246055 -0.169628405847
431830000 0.581969416055 -0.169509280428
431840000 0.581327621706 -0.169536649493
431850000 0.581208988953 -0.170054637896
431860000 0.580828689711 -0.170169885366
431870000 0.581339622797 -0.17011513588
431880000 0.581950303886 -0.170482906914
431890000 0.581734889703 -0.170692526164
431900000 0.581787766929 -0.171497232426
431910000 0.581615708289 -0.171490760619
431920000 0.581343586737 -0.171798336333
431930000 0.581836783316 -0.172088734144
431940000 0.582474249532 -0.171819659627
431950000 0.582332561131 -0.172679384693
431960000 0.58254694951 -0.172729857475
431970000 0.582841805399 -0.172440887716
431980000 0.582672143942 -0.173082912675
431990000 0.582591140138 -0.173490866221
432000000 0.582138242994 -0.173215162778
432010000 0.583041802355 -0.173683565113
432020000 0.583034378534 -0.174073649562
432030000 0.583209530026 -0.174485753681
432040000 0.582990689654 -0.17440073127
432050000 0.58356630345 -0.174454768964
432060000 0.582873806061 -0.174592879879
432070000 0.582877660529 -0.174829672324
432080000 0.583197600656 -0.174703445499
432090000 0.583390593485 -0.17512108186
432100000 0.583869849638 -0.17572044892
432110000 0.584433785252 -0.175641966736
432120000 0.584472493063 -0.176047779482
432130000 0.584113200545 -0.17621263541
432140000 0.584714961794 -0.176790580086
432150000 0.583924445976 -0.176959831986
432160000 0.584742094961 -0.176767747857
432170000 0.584253047379 -0.177085533023
432180000 0.583649520505 -0.177256474739
432190000 0.584405229335 -0.177412228353
432200000 0.584594424273 -0.177755970225
432210000 0.584465035667 -0.178132038021
432220000 0.584322800131 -0.178121576006
432230000 0.584261032148 -0.1784904406
432240000 0.584548813013 -0.178521739188
432250000 0.584879977153 -0.178970531532
432260000 0.58537400264 -0.178583120786
432270000 0.585027816927 -0.179026640735
432280000 0.585303045337 -0.179333501588
432290000 0.585465211374 -0.179476924742
432300000 0.585862526809 -0.179928133421
432310000 0.586023565227 -0.180200263247
432320000 0.585910067698 -0.179874618354
432330000 0.586088365254 -0.180267128731
432340000 0.585927472732 -0.180849907429
432350000 0.586813492638 -0.181074925571
432360000 0.586051692258 -0.181148877587
432370000 0.586623736361 -0.181469358375
432380000 0.585992337905 -0.180856164019
432390000 0.586471232295 -0.181871377156
432400000 0.58613460624 -0.181657281296
432410000 0.58644833845 -0.181932329503
432420000 0.587062121681 -0.182136546602
432430000 0.587596958255 -0.182358815971
432440000 0.587437912024 -0.18289662924
432450000 0.587360634328 -0.183096650101
432460000 0.58714036786 -0.182807624364
432470000 0.587846415631 -0.183218059807
432480000 0.587811022144 -0.183456786008
432490000 0.587710181782 -0.184278195525
432500000 0.588060332442 -0.183766203823
432510000 0.587812067277 -0.184199609906
432520000 0.587382798226 -0.183763015315
432530000 0.587978899929 -0.184090103944
432540000 0.58861332807 -0.18476199812
432550000 0.588204500727 -0.185102210826
432560000 0.5884424697 -0.185172073616
432570000 0.588620172427 -0.185544948534
432580000 0.588182402571 -0.185611764909
432590000 0.588595153897 -0.185901523494
432600000 0.588644156428 -0.185951780464
432610000 0.588651214525 -0.186577593883
432620000 0.588850954101 -0.186788358214
432630000 0.58920448108 -0.187054592508
432640000 0.58913444101 -0.187217080428
432650000 0.588766962155 -0.186951614138
432660000 0.588839449808 -0.18770923933
432670000 0.588818886006 -0.187428462023
432680000 0.588876065728 -0.187793033853
432690000 0.588889734121 -0.187848792686
432700000 0.588729586184 -0.188072151896
432710000 0.589803991716 -0.188273176171
432720000 0.59018026448 -0.18861134476
432730000 0.590001707949 -0.188672358876
432740000 0.589622135521 -0.188844774018
432750000 0.589775188488 -0.189191278918
432760000 0.589572423484 -0.189535057644
432770000 0.589891344479 -0.189823854152
432780000 0.590015921119 -0.190308979442
432790000 0.590539978745 -0.190325907378
432800000 0.590436896754 -0.190270702391
432810000 0.589785619432 -0.190557008346
432820000 0.589259792338 -0.190681838131
432830000 0.589303957935 -0.190690968883
432840000 0.590217171298 -0.190980992236
432850000 0.590453107357 -0.191258508332
432860000 0.590852318733 -0.191316677647
432870000 0.59055117075 -0.19182232648
432880000 0.590577399353 -0.1922509928
432890000 0.590556264928 -0.192231626813
432900000 0.591178196603 -0.192713816286
432910000 0.590959888542 -0.192475707999
432920000 0.591202028723 -0.192867354724
432930000 0.59123486866 -0.193142994019
432940000 0.590566727379 -0.192748873492
432950000 0.590877017695 -0.192825043535
432960000 0.591246461519 -0.193061980372
432970000 0.590954371733 -0.193756563738
432980000 0.590685347442 -0.194010686372
432990000 0.591401287047 -0.194253394561
433000000 0.591199434261 -0.194313980924
433010000 0.592115102307 -0.194262892474
433020000 0.591722638444 -0.194468750809
433030000 0.591753870245 -0.195107360198
433040000 0.591255098599 -0.195636163162
433050000 0.592084461542 -0.195313841146
433060000 0.592255692285 -0.196110727083
433070000 0.592210924628 -0.19571693148
433080000 0.592057394624 -0.196012913573
433090000 0.592795134149 -0.196099459168
433100000 0.592583077106 -0.196830484383
433110000 0.592499612658 -0.196755154789
433120000 0.592578007056 -0.197160512558
433130000 0.592583740902 -0.19700294483
433140000 0.592614105086 -0.197136829495
433150000 0.593602701726 -0.197968841259
433160000 0.593240506228 -0.198112106191
433170000 0.592586210768 -0.198238696564
433180000 0.593022837949 -0.198455269611
433190000 0.59309844033 -0.198567783579
433200000 0.593055433336 -0.199250944999
433210000 0.593409608291 -0.198881088486
433220000 0.593429237137 -0.19870862272
433230000 0.593733315839 -0.199280522093
433240000 0.593527748941 -0.199754519493
433250000 0.593643893099 -0.199488058093
433260000 0.593517986622 -0.200203053874
433270000 0.592831334194 -0.201967362597
433280000 0.592680953552 -0.205468790183
433290000 0.590958974349 -0.209624925196
433300000 0.59933340659 -0.223530920596
433310000 0.596450531256 -0.207579305101
433320000 0.596991232447 -0.21332215275
433330000 0.600134543231 -0.200495650591
433340000 0.581576299246 -0.204982825924
433350000 0.591911219931 -0.202983839251
433360000 0.594402847973 -0.202940615848
433370000 0.595289680292 -0.20302205843
433380000 0.595116116995 -0.202106745301
433390000 0.595080885098 -0.202594026379
433400000 0.595364242278 -0.202799714239
433410000 0.595008288735 -0.203472933712
433420000 0.595463534856 -0.203489181832
433430000 0.595519930944 -0.203045232136
433440000 0.595504626692 -0.203495243463
433450000 0.595115855558 -0.203707339232
433460000 0.595000756355 -0.204741844095
433470000 0.595079793779 -0.204812916313
433480000 0.595564097052 -0.20506181082
433490000 0.595222814372 -0.205420825453
433500000 0.595678057447 -0.205018573815
433510000 0.595416821085 -0.205682790152
433520000 0.595643457744 -0.20548614024
433530000 0.595889023189 -0.205672553813
433540000 0.596179424507 -0.206447667372
433550000 0.5957943784 -0.207070076494
433560000 0.596023268462 -0.206594547057
433570000 0.595920860962 -0.207522887564
433580000 0.59605184034 -0.207462453236
433590000 0.595888479721 -0.207571271528
433600000 0.596031116148 -0.206988967489
433610000 0.596152775123 -0.207253013072
433620000 0.596526485135 -0.207162130143
433630000 0.59671047171 -0.207515317271
433640000 0.596688114803 -0.207798843118
433650000 0.596208764891 -0.20858502411
433660000 0.596523467854 -0.208312043633
433670000 0.596526765216 -0.208737565209
433680000 0.596494218457 -0.209318768537
433690000 0.596953954456 -0.209323144671
433700000 0.596863299755 -0.209410836676
433710000 0.596958299198 -0.209323289039
433720000 0.597021645791 -0.209492846821
433730000 0.596848305117 -0.209592453463
433740000 0.596778633579 -0.209828811215
433750000 0.596979307565 -0.20977483085
433760000 0.59670452198 -0.210455372625
433770000 0.597194037309 -0.210868689641
433780000 0.596653543595 -0.211326859298
433790000 0.597161506592 -0.2112034701
433800000 0.597328296403 -0.211435499866
433810000 0.597753055416 -0.211169769412
433820000 0.597772141965 -0.212019972861
433830000 0.598064778487 -0.212226969039
433840000 0.59859340023 -0.213063345271
433850000 0.598590797546 -0.212800213605
433860000 0.598369161272 -0.21308008465
433870000 0.59830129552 -0.213271341479
433880000 0.598616374754 -0.21368263446
433890000 0.598237089317 -0.213222952413
433900000 0.598384029287 -0.213609310164
433910000 0.598121031513 -0.213723233791
433920000 0.598692048634 -0.214488871935
433930000 0.59961169301 -0.214988396859
433940000 0.599175075615 -0.214527707852
433950000 0.599056923424 -0.215428104312
433960000 0.598905558638 -0.216027836979
433970000 0.598555429149 -0.215454626746
433980000 0.598842879706 -0.21535027222
433990000 0.598766773807 -0.215647236573
434000000 0.598906508297 -0.21586061585
434010000 0.599200419925 -0.216100612268
434020000 0.599478176244 -0.215749981594
434030000 0.599231603162 -0.216127343023
434040000 0.599596671986 -0.216043361976
434050000 0.599502543437 -0.216555782106
434060000 0.599349414403 -0.216908034467
434070000 0.599977807557 -0.216938993031
434080000 0.599601165699 -0.217084140628
434090000 0.599773437273 -0.21760975879
434100000 0.599774986106 -0.217827308419
434110000 0.599800778355 -0.217530899503
434120000 0.599662409332 -0.218519288736
434130000 0.60008453496 -0.218875305298
434140000 0.599776505423 -0.218340978885
434150000 0.600271228507 -0.218228398944
434160000 0.600344549723 -0.21862234348
434170000 0.600195857571 -0.21937767646
434180000 0.600343494539 -0.219637846219
434190000 0.600266376642 -0.219559422122
434200000 0.599784908756 -0.220148635988
434210000 0.600337032521 -0.220239189091
434220000 0.600632662342 -0.219528777837
434230000 0.600067244242 -0.218541498
434240000 0.600374808052 -0.217482449207
434250000 0.599987612686 -0.216807162147
434260000 0.600365250242 -0.218895580217
434270000 0.600587539907 -0.220816184265
434280000 0.601113723387 -0.221066200327
434290000 0.600781545892 -0.221477701125
434300000 0.601359044906 -0.221760720677
434310000 0.600715847881 -0.22262146252
434320000 0.600489194512 -0.222411558756
434330000 0.600882808448 -0.222454096653
434340000 0.601026753445 -0.222831056541
434350000 0.601280247243 -0.222386474242
434360000 0.601514872613 -0.222657414221
434370000 0.601383765745 -0.222917070114
434380000 0.601649356407 -0.223314064465
434390000 0.600743030208 -0.223293185876
434400000 0.601540044522 -0.223241940465
434410000 0.601215614811 -0.224156898747
434420000 0.601238625457 -0.224820191853
434430000 0.601590281551 -0.224811961109
434440000 0.601877280289 -0.224880361869
434450000 0.601399450632 -0.225237420382
434460000 0.601676514055 -0.22505825656
434470000 0.601609443987 -0.225541940731
434480000 0.601459571317 -0.225129499417
434490000 0.601870143007 -0.225554213674
434500000 0.602142358738 -0.226009120636
434510000 0.602455688147 -0.226123564639
434520000 0.60267072655 -0.225736662239
434530000 0.601641713777 -0.225387238604
434540000 0.603033980495 -0.227550050937
434550000 0.604754538329 -0.229712238479
434560000 0.607338055073 -0.231367085066
434570000 0.605689366401 -0.230333788478
434580000 0.604297417549 -0.229033332256
434590000 0.603217987307 -0.227536044869
434600000 0.60313106359 -0.228373633473
434610000 0.603219470682 -0.228149486876
434620000 0.602796552003 -0.227671847024
434630000 0.602674603959 -0.228405806252
434640000 0.602311239736 -0.228282234424
434650000 0.603006027172 -0.229142996777
434660000 0.602738342156 -0.22944075752
434670000 0.603405513453 -0.229895662629
434680000 0.603304019797 -0.230282920164
434690000 0.60349441718 -0.229725092402
434700000 0.603369838031 -0.230174533491
434710000 0.603861529964 -0.230276309522
434720000 0.603725638904 -0.230983612578
434730000 0.603726122949 -0.231682388727
434740000 0.603590409262 -0.231418013453
434750000 0.604000126422 -0.231506531598
434760000 0.604303593794 -0.231446063608
434770000 0.603751781106 -0.231504674899
434780000 0.603745010164 -0.231788294007
434790000 0.60366314327 -0.231498778171
434800000 0.604259530349 -0.231726158634
434810000 0.604588712163 -0.231705682326
434820000 0.604651629512 -0.232135161792
434830000 0.604056889426 -0.232666926078
434840000 0.604361559324 -0.233675729677
434850000 0.603962568894 -0.234166566007
434860000 0.604122739192 -0.234130271276
434870000 0.603621770236 -0.234793857637
434880000 0.60470200423 -0.233788836205
434890000 0.604571745061 -0.234378495364
434900000 0.604632622116 -0.234268598836
434910000 0.60460568291 -0.234309925288
434920000 0.604438974974 -0.234242051516
434930000 0.605200606733 -0.234913922253
434940000 0.604439162849 -0.235504050007
434950000 0.604517063197 -0.235101005084
434960000 0.604788574402 -0.235439084341
434970000 0.604151985583 -0.23557793511
434980000 0.604920204447 -0.235666523007
434990000 0.605648786543 -0.235723119281
435000000 0.605248638825 -0.235793321898
435010000 0.605408093628 -0.236858768578
435020000 0.604705651933 -0.236936533674
435030000 0.605079083476 -0.237146049174
435040000 0.604841607143 -0.237258456966
435050000 0.60528866344 -0.237366197965
435060000 0.605460904901 -0.237386598917
435070000 0.605701401982 -0.237463518777
435080000 0.606284792208 -0.238232190098
435090000 0.605140559237 -0.238357539272
435100000 0.605462692639 -0.238630379967
435110000 0.605651639282 -0.238809614106
435120000 0.60601338676 -0.238244338729
435130000 0.605223208612 -0.238986630562
435140000 0.605567653976 -0.239784218589
435150000 0.605510477118 -0.239271679518
435160000 0.606033879983 -0.239659929905
435170000 0.606159058285 -0.239374367863
435180000 0.605812713076 -0.239415395081
435190000 0.60583424925 -0.239504386022
435200000 0.605794178306 -0.239822272491
435210000 0.605682874176 -0.24017992806
435220000 0.605752497822 -0.240400812153
435230000 0.605352546835 -0.240718842907
435240000 0.606121086434 -0.2415450582
435250000 0.605518574762 -0.24206504761
435260000 0.605671944829 -0.242223244212
435270000 0.605426841181 -0.242101187025
435280000 0.605462688577 -0.242153746623
435290000 0.606741891214 -0.242947506175
435300000 0.606359623452 -0.242297407197
435310000 0.607102480117 -0.242876629926
435320000 0.606914906998 -0.243395516286
435330000 0.60721121594 -0.243701081801
435340000 0.607374390202 -0.243239175012
435350000 0.607109460963 -0.243600642177
435360000 0.607033213107 -0.243398071814
435370000 0.606758940442 -0.243689382315
435380000 0.60704683657 -0.243908319056
435390000 0.60734143841 -0.244301595944
435400000 0.60708271168 -0.244793793293
435410000 0.606780315833 -0.244308036565
435420000 0.606648198413 -0.245385147338
435430000 0.607215829516 -0.245517538602
435440000 0.607409234092 -0.245512099709
435450000 0.607599489358 -0.2454542094
435460000 0.60762635142 -0.24591813572
435470000 0.60721408827 -0.245963687087
435480000 0.607081889562 -0.246395009151
435490000 0.615519507987 -0.264409200644
435500000 0.60744559658 -0.24667819636
435510000 0.607894915972 -0.247496489226
435520000 0.607764361953 -0.247199690011
435530000 0.607730735368 -0.247780736117
435540000 0.607613872238 -0.247684936917
435550000 0.607846739061 -0.247890425524
435560000 0.607854254477 -0.248337748404
435570000 0.607683042985 -0.248341636668
435580000 0.607751344445 -0.248224626902
435590000 0.607662317914 -0.248274337231
435600000 0.607640247319 -0.248165977676
435610000 0.607398652223 -0.248898835546
435620000 0.607610026565 -0.248403106132
435630000 0.607324733265 -0.248955507097
435640000 0.607836594045 -0.249474323649
435650000 0.60803631376 -0.249805919906
435660000 0.608856926975 -0.250388764671
435670000 0.608427046278 -0.250732356383
435680000 0.608705959377 -0.25133738462
435690000 0.608800762772 -0.250902244892
435700000 0.608381476402 -0.251040296737
435710000 0.607743181132 -0.250725667259
435720000 0.607949845393 -0.250899801147
435730000 0.607823769502 -0.250466131391
435740000 0.608173109669 -0.251716991006
435750000 0.608491326943 -0.25181470423
435760000 0.608678335758 -0.252356838106
435770000 0.609034256188 -0.251889479446
435780000 0.608568246044 -0.252262155204
435790000 0.608760674643 -0.252216889548
435800000 0.608322038445 -0.253156497738
435810000 0.608430625947 -0.25313940604
435820000 0.609143263149 -0.253162215497
435830000 0.608664129701 -0.253808846802
435840000 0.608602052252 -0.252922120513
435850000 0.609355484184 -0.252678531505
435860000 0.609023538767 -0.252974575912
435870000 0.609293050668 -0.253970965238
435880000 0.609503719109 -0.254759603343
435890000 0.609487658611 -0.254787021231
435900000 0.609203050654 -0.254917136265
435910000 0.608707864606 -0.254963790146
435920000 0.608742576135 -0.255107007803
435930000 0.609089281922 -0.254945702888
435940000 0.609309418796 -0.255181336282
435950000 0.609135869734 -0.255364410734
435960000 0.609174149844 -0.255561503759
435970000 0.609103519958 -0.25535407286
435980000 0.608777472763 -0.256170941689
435990000 0.609194428932 -0.25626589363
436000000 0.608689023109 -0.256456058051
436010000 0.609493756914 -0.257044097318
436020000 0.608994048022 -0.257386357078
436030000 0.609723961814 -0.257046237525
436040000 0.60933215553 -0.257251388103
436050000 0.609529673175 -0.257939283115
436060000 0.609588997366 -0.257995107289
436070000 0.609328656863 -0.257736699698
436080000 0.610059107302 -0.257899753683
436090000 0.609752439135 -0.258259410748
436100000 0.609993708484 -0.258273075333
436110000 0.609969917147 -0.25916143501
436120000 0.610347400276 -0.259456192138
436130000 0.610551664589 -0.2598496863
436140000 0.610696511734 -0.259975137033
436150000 0.610714482348 -0.259889435281
436160000 0.610721022218 -0.260166391213
436170000 0.610408456742 -0.260565373703
436180000 0.610628220947 -0.260808935555
436190000 0.610759041048 -0.260762766028
436200000 0.610615674562 -0.261209973258
436210000 0.60934210718 -0.262688925282
436220000 0.610576166637 -0.262282215488
436230000 0.610457509729 -0.262048315382
436240000 0.610761966746 -0.262065625892
436250000 0.610884443616 -0.262435893727
436260000 0.610846172168 -0.262295928495
436270000 0.610480161774 -0.262407426912
436280000 0.610631747916 -0.262334961964
436290000 0.610378184352 -0.262324986924
436300000 0.610303984636 -0.262869241626
436310000 0.610628409626 -0.263934085278
436320000 0.610445664249 -0.263924876603
436330000 0.60997384984 -0.263678219444
436340000 0.610679987075 -0.264127523029
436350000 0.610834790665 -0.264155439555
436360000 0.611253195919 -0.26446689898
436370000 0.611189444468 -0.264473847593
436380000 0.610939456519 -0.265012162876
436390000 0.610482145021 -0.26479132127
436400000 0.610158826891 -0.264811425095
436410000 0.610392565249 -0.26524038115
436420000 0.61096913542 -0.265552767897
436430000 0.610308788087 -0.265540950184
436440000 0.61087518389 -0.265441517401
436450000 0.611017836751 -0.265592544478
436460000 0.611298942705 -0.265968225042
436470000 0.611202661292 -0.266039603649
436480000 0.611134761528 -0.266119680881
436490000 0.611601924925 -0.266574630954
436500000 0.61112483755 -0.267388996837
436510000 0.611125220391 -0.267357728397
436520000 0.611033708895 -0.267607822451
436530000 0.611436653105 -0.267367854184
436540000 0.611397922443 -0.267356819937
436550000 0.611328474231 -0.267575404487
436560000 0.611474259348 -0.267943716327
436570000 0.611547871305 -0.26859977653
436580000 0.611352640165 -0.268568143509
436590000 0.611951703831 -0.268941584592
436600000 0.612236636161 -0.268831180842
436610000 0.612104238778 -0.26915203127
436620000 0.61170317479 -0.269468736461
436630000 0.61099508221 -0.26972066304
436640000 0.61170384541 -0.269784943141
436650000 0.611570220456 -0.26979342735
436660000 0.612255788133 -0.269822164966
436670000 0.612433373654 -0.268163080654
436680000 0.612073939362 -0.27014645271
436690000 0.611331641827 -0.270035219383
436700000 0.611291784202 -0.270508681052
436710000 0.611488668802 -0.271025744994
436720000 0.611770715056 -0.271213387452
436730000 0.61155949961 -0.271044574962
436740000 0.611814673492 -0.271577141816
436750000 0.611954785879 -0.271685662115
436760000 0.611895320232 -0.272273227089
436770000 0.611859957688 -0.27240564098
436780000 0.611951541251 -0.272547307699
436790000 0.611791240999 -0.272658685429
436800000 0.612131521272 -0.272702504435
436810000 0.612108233395 -0.273288008066
436820000 0.612478476229 -0.273283183165
436830000 0.612127994376 -0.273734752314
436840000 0.61238494885 -0.273505611589
436850000 0.612762728092 -0.273677736576
436860000 0.612883930703 -0.273880525004
436870000 0.613271429612 -0.274010931054
436880000 0.612684309563 -0.274215828664
436890000 0.613155535531 -0.273838199387
436900000 0.61267318483 -0.27450416581
436910000 0.612977029922 -0.2753360056
436920000 0.612092962282 -0.275935618601
436930000 0.611750057225 -0.276401007581
436940000 0.611698359134 -0.275633471594
436950000 0.611656743115 -0.2760315448
436960000 0.612432098112 -0.276030219352
436970000 0.613036988297 -0.275642309088
436980000 0.613321889999 -0.275983781634
436990000 0.61305547261 -0.276332930534
437000000 0.612696437722 -0.276424399971
437010000 0.612559561717 -0.277167869016
437020000 0.612520730845 -0.277236235754
437030000 0.612376327796 -0.277247213516
437040000 0.612526920821 -0.277387345372
437050000 0.612555496199 -0.278204387397
437060000 0.612784617383 -0.278228561605
437070000 0.612242930799 -0.277698977294
437080000 0.612060069952 -0.277695334515
437090000 0.612046672922 -0.278291092926
437100000 0.61241003652 -0.278440210848
437110000 0.612406325687 -0.27969562759
437120000 0.613003216634 -0.279277340671
437130000 0.6125558165 -0.279213624598
437140000 0.613176479252 -0.279536631845
437150000 0.612315951872 -0.279879628505
437160000 0.612221478133 -0.27977525019
437170000 0.61259123249 -0.280051369455
437180000 0.612623906703 -0.280094187534
437190000 0.612954055262 -0.280724494998
437200000 0.61291455858 -0.280521817276
437210000 0.612987765911 -0.280973891515
437220000 0.613652899104 -0.281026473473
437230000 0.613772440268 -0.2812541117
437240000 0.615398445008 -0.279526529583
437250000 0.618235859414 -0.277899214496
437260000 0.621470244633 -0.275361294636
437270000 0.619596060845 -0.276002019353
437280000 0.616213960622 -0.278876147548
437290000 0.613710555333 -0.281494866503
437300000 0.613168061913 -0.281846420442
437310000 0.613386900135 -0.282321468613
437320000 0.613527557521 -0.282471948552
437330000 0.61339266141 -0.282668385323
437340000 0.613097209531 -0.283030638249
437350000 0.612582478245 -0.282990764939
437360000 0.613073300169 -0.283357414967
437370000 0.613558522271 -0.284101192555
437380000 0.61328338925 -0.283669613337
437390000 0.613341995834 -0.284399815017
437400000 0.615448835105 -0.285517763825
437410000 0.614028340746 -0.284649674512
437420000 0.614308787127 -0.284384911543
437430000 0.614892148673 -0.284729489063
437440000 0.614810845192 -0.284302539416
437450000 0.614806546168 -0.285195345675
437460000 0.613929519926 -0.28551341897
437470000 0.61361425638 -0.285646555903
437480000 0.613363780872 -0.285537196131
437490000 0.613150944927 -0.286055085131
437500000 0.61348515829 -0.286040462481
437510000 0.61383484606 -0.286182184967
437520000 0.613280922827 -0.286178437402
437530000 0.61354744166 -0.286461737967
437540000 0.613909531639 -0.287069095657
437550000 0.613648680035 -0.287212480353
437560000 0.612877036577 -0.286945024784
437570000 0.613141810426 -0.287949137759
437580000 0.613208122455 -0.287879193065
437590000 0.613964676136 -0.288041697126
437600000 0.614115528784 -0.287936116085
437610000 0.614177203785 -0.288253744552
437620000 0.613681210459 -0.288165945207
437630000 0.613458583089 -0.288481212596
437640000 0.613694595494 -0.288823052311
437650000 0.613797554322 -0.288900292998
437660000 0.614416670155 -0.289053464318
437670000 0.614289960134 -0.289324505755
437680000 0.614449713175 -0.289432465851
437690000 0.613981599893 -0.289401829988
437700000 0.614131164147 -0.289741517766
437710000 0.614330009395 -0.290243410313
437720000 0.614345323911 -0.290383158421
437730000 0.613802503677 -0.29057014251
437740000 0.613736650241 -0.290738088857
437750000 0.6137364725 -0.29093621327
437760000 0.613843298115 -0.291293374414
437770000 0.61401276138 -0.291656272048
437780000 0.613982593899 -0.291651044939
437790000 0.614367175014 -0.291897148015
437800000 0.614532997359 -0.29203046595
437810000 0.614513901668 -0.292207412812
437820000 0.61468715279 -0.292625477218
437830000 0.614503946762 -0.292522469191
437840000 0.613970566159 -0.292774609293
437850000 0.614363307606 -0.292927306991
437860000 0.61413532587 -0.293298746922
437870000 0.614144472101 -0.293512868151
437880000 0.61398076722 -0.293718780538
437890000 0.613936186941 -0.293746299576
437900000 0.61407613502 -0.293991742727
437910000 0.614145456141 -0.293966416645
437920000 0.614606840785 -0.294189916576
437930000 0.614692258082 -0.294292907253
437940000 0.614709134615 -0.294773050564
437950000 0.615522464931 -0.295132825547
437960000 0.614653815281 -0.295438616925
437970000 0.61480317424 -0.29550112588
437980000 0.614058931093 -0.295141223065
437990000 0.614070992249 -0.295148388311
438000000 0.614640988103 -0.295690211798
438010000 0.61468737565 -0.295710777497
438020000 0.614243072326 -0.29575241845
438030000 0.614104555245 -0.296624709983
438040000 0.614370372041 -0.296523253057
438050000 0.614693175228 -0.297053746022
438060000 0.615163496775 -0.297374634048
438070000 0.615120054702 -0.297203359008
438080000 0.61522781572 -0.297678797134
438090000 0.614621444073 -0.297318259826
438100000 0.614623120353 -0.297638452033
438110000 0.614491624746 -0.29791636103
438120000 0.614477488953 -0.297999445583
438130000 0.614582714451 -0.297910466923
438140000 0.614481238865 -0.298362764015
438150000 0.614448298402 -0.298683816055
438160000 0.614437075678 -0.298828662518
438170000 0.615138038188 -0.298776119274
438180000 0.614831146675 -0.298628796793
438190000 0.615104867239 -0.298616904506
438200000 0.614915787541 -0.29926258978
438210000 0.615567607092 -0.299409129548
438220000 0.615544581832 -0.299554520214
438230000 0.615504918794 -0.299802665374
438240000 0.615493550769 -0.3001434742
438250000 0.614902575953 -0.300044305247
438260000 0.615155981482 -0.300355753555
438270000 0.614705657737 -0.300661026975
438280000 0.614834416843 -0.300648426469
438290000 0.614831110558 -0.301126259527
438300000 0.61417272711 -0.301343906828
438310000 0.614543867633 -0.30169145849
438320000 0.614684826013 -0.3019979869
438330000 0.615075164206 -0.302527963365
438340000 0.615273563465 -0.302288754409
438350000 0.615950809536 -0.302080543961
438360000 0.615347853609 -0.302331214265
438370000 0.615261754638 -0.3029712994
438380000 0.615240586325 -0.30249801998
438390000 0.615161322688 -0.303108082134
438400000 0.614719884835 -0.302830656933
438410000 0.614625417744 -0.303125089578
438420000 0.614626284267 -0.302734574535
438430000 0.615122962528 -0.303703098355
438440000 0.615101558935 -0.304004004218
438450000 0.615373928219 -0.304027957138
438460000 0.615642988015 -0.304227477795
438470000 0.616111732849 -0.304307144232
438480000 0.614992061913 -0.304172270064
438490000 0.614900371925 -0.305027360896
438500000 0.614922604111 -0.3056320412
438510000 0.615269051333 -0.305545101953
438520000 0.615419886828 -0.305262358399
438530000 0.615214850197 -0.305743512332
438540000 0.615404960577 -0.305712489346
438550000 0.615533904252 -0.306249659885
438560000 0.615575456937 -0.306755984292
438570000 0.614916594531 -0.306813539469
438580000 0.615114950534 -0.306974823772
438590000 0.614946586583 -0.306437541406
438600000 0.614890690687 -0.307056967423
438610000 0.615461332821 -0.30673249882
438620000 0.615407961845 -0.307046209077
438630000 0.615427010235 -0.307507884474
438640000 0.615293683485 -0.307790083499
438650000 0.615398162762 -0.307558310004
438660000 0.615900895647 -0.307814351937
438670000 0.615851962522 -0.307608305
438680000 0.6160834749 -0.308011645755
438690000 0.61591035488 -0.308488349158
438700000 0.615736218005 -0.309123787373
438710000 0.615083856953 -0.308694953652
438720000 0.615183012657 -0.308205903252
438730000 0.614123404956 -0.309513654978
438740000 0.616370564393 -0.308480599371
438750000 0.615075861234 -0.309257518058
438760000 0.61572784641 -0.30999164096
438770000 0.615912400177 -0.31028784645
438780000 0.616473483314 -0.310581814453
438790000 0.616348681112 -0.310274774107
438800000 0.616354548941 -0.310589448117
438810000 0.615873898381 -0.310763138809
438820000 0.61574575814 -0.310760128048
438830000 0.615747558562 -0.311678768789
438840000 0.61598713202 -0.31174019555
438850000 0.615404973882 -0.31168885787
438860000 0.615738698819 -0.311509617323
438870000 0.615952149876 -0.311682405707
438880000 0.615988830417 -0.311563339958
438890000 0.615676058406 -0.312077397007
438900000 0.615745554143 -0.312188915107
438910000 0.615784952658 -0.312340779421
438920000 0.615661530485 -0.312220971995
438930000 0.61575098909 -0.312755417982
438940000 0.615818440469 -0.312644765719
438950000 0.616397766877 -0.313051310973
438960000 0.616650020646 -0.313486271402
438970000 0.615988011618 -0.313466348121
438980000 0.616104187011 -0.313980368025
438990000 0.61552712365 -0.314133410283
439000000 0.615585087961 -0.314785768161
439010000 0.615909180213 -0.314896287172
439020000 0.615933756586 -0.314923497066
439030000 0.61626087233 -0.314625485541
439040000 0.616454252753 -0.314534371141
439050000 0.616536523049 -0.314546757381
439060000 0.616466642098 -0.314855532935
439070000 0.616215131522 -0.315044217513
439080000 0.616285427377 -0.315153872763
439090000 0.615811500377 -0.315461885219
439100000 0.616175657222 -0.315352451204
439110000 0.615908732487 -0.315778927307
439120000 0.615852746798 -0.315971400752
439130000 0.61650524652 -0.316457906023
439140000 0.616211990957 -0.316491234115
439150000 0.6167485637 -0.316431270405
439160000 0.615909510252 -0.317273843118
439170000 0.615761536391 -0.31757343383
439180000 0.616116240213 -0.317974511964
439190000 0.615709052192 -0.317786177709
439200000 0.616119499564 -0.31775918958
439210000 0.616350035528 -0.318399809037
439220000 0.616842576788 -0.317856665267
439230000 0.616304274159 -0.318665071582
439240000 0.616024568837 -0.318549402451
439250000 0.615660626003 -0.318698362678
439260000 0.615501899662 -0.318366295653
439270000 0.615224073567 -0.318388898914
439280000 0.615257304365 -0.318382697032
439290000 0.615687161199 -0.318860791036
439300000 0.616545600252 -0.319534833758
439310000 0.616686353647 -0.320275646148
439320000 0.616300593754 -0.319888307398
439330000 0.616455295238 -0.320274359023
439340000 0.616654762193 -0.320380669154
439350000 0.616519654341 -0.320606834265
439360000 0.616485054107 -0.321038536958
439370000 0.616239934677 -0.321330223619
439380000 0.61604254579 -0.321629699833
439390000 0.615781105234 -0.322213127664
439400000 0.615847867747 -0.321520857738
439410000 0.615865364009 -0.321735012005
439420000 0.615385487024 -0.32108616737
439430000 0.615791606561 -0.321760689739
439440000 0.616586510467 -0.322136882498
439450000 0.616491329905 -0.322346589283
439460000 0.616325036761 -0.322695408008
439470000 0.616095518212 -0.322343650507
439480000 0.616310589357 -0.322635912933
439490000 0.615958385629 -0.32281466831
439500000 0.616163141882 -0.324049681346
439510000 0.615948125705 -0.323281239154
439520000 0.616196612894 -0.322876131757
439530000 0.616198504202 -0.323147122923
439540000 0.616245311592 -0.323423897688
439550000 0.616620179426 -0.323590836717
439560000 0.617006876303 -0.323813080844
439570000 0.616960701162 -0.324003152912
439580000 0.616901759935 -0.325070208858
439590000 0.616828758923 -0.32481404189
439600000 0.616745369097 -0.32580810832
439610000 0.616233793272 -0.326279430684
439620000 0.616115663825 -0.326722893333
439630000 0.616831867614 -0.326872662846
439640000 0.615894581492 -0.326894286077
439650000 0.616527646398 -0.325873215325
439660000 0.616470364478 -0.325937023233
439670000 0.616296780122 -0.325703275313
439680000 0.616366297394 -0.32616293661
439690000 0.616094684211 -0.326237335123
439700000 0.61634649107 -0.326064239549
439710000 0.615397919163 -0.326641407792
439720000 0.616452669373 -0.327125703167
439730000 0.61640531055 -0.327773052374
439740000 0.616465486098 -0.328196540987
439750000 0.616407250856 -0.328057064618
439760000 0.615822403154 -0.328229678666
439770000 0.616335616292 -0.328232038483
439780000 0.616399117184 -0.328100328687
439790000 0.616709922407 -0.32807963824
439800000 0.616472126855 -0.327778262866
439810000 0.615980802941 -0.328092012227
439820000 0.616058931309 -0.32796689331
439830000 0.615716663403 -0.329047430021
439840000 0.616163056517 -0.329269141739
439850000 0.615981646816 -0.32982819136
439860000 0.616197148226 -0.329971637807
439870000 0.616623198256 -0.330084153858
439880000 0.616440003618 -0.330287340173
439890000 0.616834006066 -0.330163760473
439900000 0.616615464832 -0.330124178709
439910000 0.616766710907 -0.330812350107
439920000 0.616776975394 -0.331088602742
439930000 0.615525325966 -0.331255249974
439940000 0.616195103324 -0.331093172826
439950000 0.616251447415 -0.33128159301
439960000 0.615801613279 -0.331384128689
439970000 0.616382562687 -0.331614086685
439980000 0.616436643742 -0.331726042378
439990000 0.616718976236 -0.331894439467
440000000 0.616855010302 -0.332064834496
440010000 0.61661678625 -0.331948839616
440020000 0.616285762168 -0.332601504542
440030000 0.61626166774 -0.332672438411
440040000 0.616073553317 -0.333002345913
440050000 0.615325842875 -0.333046498257
440060000 0.615813323372 -0.333118868656
440070000 0.616052831036 -0.333428040314
440080000 0.616394138637 -0.333283698722
440090000 0.615869789242 -0.333452479638
440100000 0.615839132878 -0.33341434718
440110000 0.615992658201 -0.333863546459
440120000 0.616088770846 -0.334086036687
440130000 0.616724177483 -0.334418527673
440140000 0.616182607537 -0.335121454364
440150000 0.616401976274 -0.334745307902
440160000 0.61646082562 -0.335177459722
440170000 0.616284331044 -0.335736466964
440180000 0.616258652405 -0.335041682084
440190000 0.616464139567 -0.335091953309
440200000 0.616741191101 -0.335481395378
440210000 0.616615487122 -0.33567669673
440220000 0.616884568141 -0.33596758656
440230000 0.616604717233 -0.336361051757
440240000 0.616655544943 -0.33662642675
440250000 0.616245344723 -0.336338431799
440260000 0.616172274119 -0.336440869707
440270000 0.615775566907 -0.336548134865
440280000 0.61615546608 -0.336570258535
440290000 0.616556660599 -0.336700339246
440300000 0.617056969717 -0.337173888901
440310000 0.617867163439 -0.337333861959
440320000 0.617413491621 -0.338422632994
440330000 0.616586711028 -0.338317349208
440340000 0.616598153234 -0.338784618922
440350000 0.616599389272 -0.338270239705
440360000 0.616065424089 -0.337597814072
440370000 0.616202893029 -0.33774117973
440380000 0.616328761972 -0.337892055213
440390000 0.616712945276 -0.338129941042
440400000 0.616832856613 -0.338797057495
440410000 0.616688146588 -0.338772354775
440420000 0.616783633688 -0.339496164612
440430000 0.616779374887 -0.339142667543
440440000 0.616871825558 -0.339747056598
440450000 0.616565050893 -0.339789550617
440460000 0.616628071616 -0.340164824688
440470000 0.616465784248 -0.340686155608
440480000 0.615959343798 -0.340617803309
440490000 0.615900991815 -0.340972477506
440500000 0.615758514978 -0.341423099461
440510000 0.615996697039 -0.341765467853
440520000 0.619318887702 -0.341096777775
440530000 0.623729196914 -0.340262830458
440540000 0.630234143652 -0.338168003822
440550000 0.621295013028 -0.330386485052
440560000 0.619478714938 -0.341156323039
440570000 0.61639869076 -0.34147849427
440580000 0.616093415943 -0.341897849873
440590000 0.616226927473 -0.342558488207
440600000 0.615884397379 -0.342623209277
440610000 0.616056427022 -0.342890218982
440620000 0.616310309272 -0.343028851398
440630000 0.616362940445 -0.343293032194
440640000 0.61632401475 -0.343325772971
440650000 0.616103949607 -0.343259749135
440660000 0.61628172231 -0.343644090401
440670000 0.616518027039 -0.343894043198
440680000 0.616092977102 -0.343759456542
440690000 0.615817064562 -0.344344753368
440700000 0.61645990813 -0.344779766675
440710000 0.616558945912 -0.344742701846
440720000 0.616584138074 -0.345706274919
440730000 0.615633571911 -0.344961634008
440740000 0.615736469959 -0.345293936217
440750000 0.615846293661 -0.344826956008
440760000 0.616050659296 -0.345540528123
440770000 0.616217910435 -0.345807383582
440780000 0.615222665389 -0.346090562436
440790000 0.615749714346 -0.346158187328
440800000 0.615526011949 -0.346490342464
440810000 0.615260170992 -0.346268807064
440820000 0.615545808227 -0.346528071007
440830000 0.615499236065 -0.346566597937
440840000 0.615467580205 -0.347361422302
440850000 0.614680366006 -0.348075984667
440860000 0.613679713594 -0.34811694251
440870000 0.614855893182 -0.348093252064
440880000 0.615559115535 -0.347798894325
440890000 0.615410058297 -0.347457202309
440900000 0.615432612476 -0.347649729502
440910000 0.615204968661 -0.34821253098
440920000 0.61549419122 -0.348396866455
440930000 0.615121559806 -0.34847556853
440940000 0.615635816968 -0.348486635643
440950000 0.615474984481 -0.347964900194
440960000 0.615934213938 -0.34834747488
440970000 0.616463175249 -0.348033233784
440980000 0.61642033413 -0.348244680477
440990000 0.616071795201 -0.348051204589
441000000 0.616274076391 -0.348747941511
441010000 0.615945532401 -0.349487266026
441020000 0.615827586106 -0.349421846351
441030000 0.616196665944 -0.349712124694
441040000 0.616000164575 -0.349648846983
441050000 0.615997047956 -0.349745526028
441060000 0.616228343779 -0.349669700808
441070000 0.616348460374 -0.35003431376
441080000 0.616742965266 -0.35068026926
441090000 0.616493906586 -0.350498482558
441100000 0.615976907276 -0.350450335603
441110000 0.615623820634 -0.350601961032
441120000 0.61583600208 -0.351103531544
441130000 0.615740059215 -0.351923357783
441140000 0.615767034323 -0.352386922905
441150000 0.616184798417 -0.352627148136
441160000 0.615945677998 -0.352494256285
441170000 0.615851831359 -0.352341449682
441180000 0.615880800844 -0.352137114614
441190000 0.61616464809 -0.352225018545
441200000 0.615708327609 -0.352279283829
441210000 0.616370071817 -0.352804165842
441220000 0.615812789801 -0.35301387677
441230000 0.615906172217 -0.352965366034
441240000 0.615589908621 -0.35307712592
441250000 0.61529146286 -0.353598897668
441260000 0.61470245529 -0.353921513929
441270000 0.615202552667 -0.354469944337
441280000 0.615738136638 -0.354928193711
441290000 0.615853244951 -0.354860850234
441300000 0.615495900208 -0.354742259653
441310000 0.614502548416 -0.356169969966
441320000 0.615773574195 -0.354813656248
441330000 0.615196431599 -0.354822887983
441340000 0.615036991871 -0.355375932815
441350000 0.614953421791 -0.355668588798
441360000 0.615000927434 -0.355664859396
441370000 0.615362107105 -0.356058420264
441380000 0.615948448529 -0.355538834715
441390000 0.615562151584 -0.356293202501
441400000 0.615053499243 -0.356592687283
441410000 0.615284368021 -0.356445841878
441420000 0.615714497758 -0.356407674576
441430000 0.615608626364 -0.356588499203
441440000 0.615653426625 -0.356876136889
441450000 0.614880637087 -0.357563091557
441460000 0.614628455505 -0.357359453244
441470000 0.614568985583 -0.357562410112
441480000 0.61464997274 -0.358152948069
441490000 0.614574943278 -0.358019997303
441500000 0.614770687577 -0.358016217982
441510000 0.61505731932 -0.358092639548
441520000 0.615002356271 -0.358550815518
441530000 0.614836835279 -0.358395142169
441540000 0.614833096108 -0.359120044294
441550000 0.614729713837 -0.358905152955
441560000 0.614939544282 -0.358540348194
441570000 0.615461082086 -0.358278109648
441580000 0.615356206495 -0.358352367804
441590000 0.614905784078 -0.359082354724
441600000 0.614654665673 -0.358624791545
441610000 0.614547673592 -0.359396043977
441620000 0.614778196065 -0.360001094122
441630000 0.615003277301 -0.360314360013
441640000 0.614756485297 -0.359991776406
441650000 0.614853506362 -0.360314790247
441660000 0.614426789643 -0.360456568239
441670000 0.614499838855 -0.360835931051
441680000 0.614714610633 -0.360649493257
441690000 0.615236604736 -0.360395522262
441700000 0.61491282666 -0.361000714205
441710000 0.615165679405 -0.361003350074
441720000 0.614872325001 -0.361420186151
441730000 0.615085431245 -0.361567146982
441740000 0.614966668586 -0.361177174396
441750000 0.615494444785 -0.361199176196
441760000 0.615507484608 -0.36153392278
441770000 0.614949010187 -0.361886473121
441780000 0.615150423796 -0.361747611341
441790000 0.615007606137 -0.362469294454
441800000 0.614442831542 -0.36205752215
441810000 0.614578815018 -0.362640633162
441820000 0.614463039164 -0.362530159012
441830000 0.614433092425 -0.36296328225
441840000 0.61436542896 -0.362757812595
441850000 0.614531559509 -0.362847209698
441860000 0.614760224528 -0.363594221493
441870000 0.614889026087 -0.363630300045
441880000 0.614764084089 -0.363038014802
441890000 0.614646893419 -0.363743199965
441900000 0.614857327738 -0.363777721098
441910000 0.614692488899 -0.364228089979
441920000 0.614612398681 -0.364804133159
441930000 0.614242950273 -0.364845488918
441940000 0.614069935373 -0.365044071336
441950000 0.613851108989 -0.36537502098
441960000 0.614192381544 -0.365185709375
441970000 0.61485028039 -0.365239427232
441980000 0.615068046251 -0.365752700332
441990000 0.621105462915 -0.374138966959
442000000 0.614541109347 -0.366876236082
442010000 0.61532511169 -0.367256446417
442020000 0.61529710103 -0.36700142549
442030000 0.614184775512 -0.366347845419
442040000 0.614384521721 -0.366444625116
442050000 0.614984976592 -0.366775218634
442060000 0.615009388022 -0.36697737112
442070000 0.614447580664 -0.367467461707
442080000 0.614349828949 -0.366931958804
442090000 0.614288715696 -0.367278558508
442100000 0.613803914924 -0.368063370972
442110000 0.61394086609 -0.366958191768
442120000 0.614317908233 -0.36755038647
442130000 0.61417295504 -0.36779829909
442140000 0.614170679752 -0.367946584572
442150000 0.614337620305 -0.368565747392
442160000 0.614095782614 -0.368417110842
442170000 0.614025407148 -0.368675016598
442180000 0.614053234969 -0.369256789975
442190000 0.612854021852 -0.368668784904
442200000 0.613693328508 -0.368998729146
442210000 0.613821809468 -0.369324920736
442220000 0.613278741968 -0.36966456096
442230000 0.613418282 -0.369143852878
442240000 0.613774256122 -0.369706181419
442250000 0.613864199924 -0.369371718323
442260000 0.612096945127 -0.369127783391
442270000 0.613761364221 -0.370122865358
442280000 0.613625690484 -0.369295143196
442290000 0.613123987588 -0.368011032257
442300000 0.613579433941 -0.369886642047
442310000 0.614692018977 -0.369801817616
442320000 0.613918959048 -0.370935906954
442330000 0.613459451657 -0.371039014944
442340000 0.613635297517 -0.37157934054
442350000 0.614287816164 -0.369398721588
442360000 0.612922121828 -0.370827852255
442370000 0.612363345392 -0.370610899301
442380000 0.614923699213 -0.370201944172
442390000 0.613980555269 -0.372016006552
442400000 0.612493115468 -0.371107552224
442410000 0.613527295685 -0.370676029452
442420000 0.613475821288 -0.373216619505
442430000 0.613394516142 -0.370878555954
442440000 0.612748290286 -0.371769253134
442450000 0.612196012317 -0.37132964055
442460000 0.61228534403 -0.371971236898
442470000 0.613118705483 -0.372985266409
442480000 0.612518272547 -0.37286122607
442490000 0.613462872972 -0.37276315184
442500000 0.613797290526 -0.372938130883
442510000 0.612353098079 -0.37311110426
442520000 0.615311814996 -0.374466989125
442530000 0.612878092108 -0.374079128065
442540000 0.614083851758 -0.374679078829
442550000 0.612994015535 -0.373396389966
442560000 0.612976365919 -0.374741853852
442570000 0.612796955532 -0.373448872188
442580000 0.614890763448 -0.374650131252
442590000 0.613632454772 -0.375966154655
442600000 0.61451927862 -0.380885564506
442610000 0.614214698772 -0.378712263534
442620000 0.612716482382 -0.380803875073
442630000 0.614629225539 -0.377739080354
442640000 0.61260304124 -0.375340444553
442650000 0.613298915442 -0.375605093586
442660000 0.612742801372 -0.375208911378
442670000 0.613254228499 -0.375266296497
442680000 0.61316675174 -0.375196420923
442690000 0.613868428629 -0.376103116152
442700000 0.613133409725 -0.375988573866
442710000 0.611197986901 -0.376811624771
442720000 0.612346369809 -0.376183940487
442730000 0.613277358097 -0.376364179999
442740000 0.613619492966 -0.377159744051
442750000 0.613296511408 -0.37763827875
442760000 0.612704922405 -0.377760297656
442770000 0.613080816228 -0.377127942527
442780000 0.612701086823 -0.377734606284
442790000 0.612806463632 -0.378251050757
442800000 0.613034924221 -0.377726433114
442810000 0.612877858204 -0.378727983133
442820000 0.612910194304 -0.378780494677
442830000 0.612750173353 -0.37886029981
442840000 0.613272603733 -0.37823605391
442850000 0.612920899638 -0.37884353729
442860000 0.613136846964 -0.378776312295
442870000 0.613012551177 -0.379373832463
442880000 0.612780765126 -0.379500258339
442890000 0.612649346819 -0.379815348945
442900000 0.61198428897 -0.380309285145
442910000 0.612657102668 -0.380629589603
442920000 0.612868207831 -0.381543618212
442930000 0.613324061887 -0.381052597843
442940000 0.612706155697 -0.380823981889
442950000 0.612328969391 -0.381265061827
442960000 0.612082412915 -0.38082343909
442970000 0.612308863011 -0.380572317997
442980000 0.611933867512 -0.381103528145
442990000 0.612094344867 -0.380860781531
443000000 0.611956176208 -0.381144011574
443010000 0.61196346918 -0.381103987054
443020000 0.611957211185 -0.381479293513
443030000 0.611520971144 -0.381495560818
443040000 0.611134784431 -0.381521062311
443050000 0.611371401838 -0.382092446781
443060000 0.611658285831 -0.38254253794
443070000 0.611738642971 -0.382773648396
443080000 0.611932184295 -0.383220506922
443090000 0.611365184149 -0.382709409022
443100000 0.611958615571 -0.38299832839
443110000 0.611749551354 -0.383215094379
443120000 0.611686166303 -0.383283098985
443130000 0.611439027579 -0.384229565724
443140000 0.611523267929 -0.383703151993
443150000 0.611522842202 -0.383509067816
443160000 0.611279134201 -0.383210747316
443170000 0.611276710819 -0.383435192409
443180000 0.611296428273 -0.384266196445
443190000 0.6113839798 -0.384155143258
443200000 0.611548143331 -0.384401306081
443210000 0.611829496042 -0.383810279234
443220000 0.611243557161 -0.38379165332
443230000 0.611491607676 -0.384002169272
443240000 0.611311067151 -0.384126636106
443250000 0.611732739384 -0.384273987766
443260000 0.611879420812 -0.385218956311
443270000 0.61209821095 -0.384642097925
443280000 0.612283014264 -0.385054858924
443290000 0.611876448629 -0.38505697561
443300000 0.61196678994 -0.385311214455
443310000 0.611904884464 -0.385780621845
443320000 0.610961298784 -0.386318139263
443330000 0.611461953736 -0.386022608437
443340000 0.611628398537 -0.38655688863
443350000 0.611410264524 -0.386995892959
443360000 0.611522117994 -0.387059234611
443370000 0.611817225302 -0.387117877539
443380000 0.611621772489 -0.386699372901
443390000 0.611746299774 -0.386459742868
443400000 0.611433147486 -0.387005513364
443410000 0.611824253009 -0.386789603471
443420000 0.611730230169 -0.387475424447
443430000 0.61189561626 -0.387371603955
443440000 0.611571504295 -0.387506115832
443450000 0.611775590089 -0.387763840681
443460000 0.611365480281 -0.38791107368
443470000 0.611322953925 -0.387686451341
443480000 0.61082769257 -0.388240495396
443490000 0.611251946528 -0.38837413252
443500000 0.611383582783 -0.389454829856
443510000 0.611258651847 -0.389140414908
443520000 0.611030263007 -0.389010569381
443530000 0.611380523113 -0.389093382432
443540000 0.611226345402 -0.38875364379
443550000 0.611641301114 -0.388686147735
443560000 0.611947121746 -0.388879967025
443570000 0.61184239215 -0.389284417418
443580000 0.611667486049 -0.390085664232
443590000 0.611140179292 -0.390692386694
443600000 0.611092106612 -0.390824621305
443610000 0.610995576244 -0.390517871343
443620000 0.610723308757 -0.390816908908
443630000 0.610635168566 -0.390782675295
443640000 0.610835454083 -0.391336251554
443650000 0.610610561127 -0.391527941894
443660000 0.610485220458 -0.391276880713
443670000 0.610439124788 -0.391046413287
443680000 0.610601272092 -0.391304377892
443690000 0.610486986996 -0.390705769698
443700000 0.610146152252 -0.390846467283
443710000 0.610262294527 -0.391272207787
443720000 0.61073105716 -0.391314821945
443730000 0.610874928458 -0.391442555846
443740000 0.610590534508 -0.391385462882
443750000 0.610605280804 -0.39195675463
443760000 0.610251040942 -0.39212150939
443770000 0.610794896566 -0.392757429324
443780000 0.610933092362 -0.392734208479
443790000 0.610667143608 -0.392984992369
443800000 0.610382823859 -0.393070785141
443810000 0.610217610726 -0.392829496501
443820000 0.60978926536 -0.392725164173
443830000 0.609580224337 -0.392837624809
443840000 0.60988083879 -0.393750948784
443850000 0.609804142215 -0.394327942254
443860000 0.610003063496 -0.394022288766
443870000 0.609567756902 -0.393868276155
443880000 0.609708917044 -0.394009023574
443890000 0.609591758001 -0.393566225678
443900000 0.609870029764 -0.394343218432
443910000 0.610054054529 -0.394627257885
443920000 0.610098412463 -0.394473311607
443930000 0.61021471869 -0.395007745978
443940000 0.610007646357 -0.394904181417
443950000 0.609585334431 -0.395315178292
443960000 0.609132743907 -0.395092003641
443970000 0.609398669359 -0.395486831128
443980000 0.609551124821 -0.395564712042
443990000 0.609587396934 -0.395273401944
444000000 0.609431404987 -0.395386241424
444010000 0.609478671288 -0.39563993804
444020000 0.609624179826 -0.395738583458
444030000 0.609970078561 -0.396010258882
444040000 0.610136369282 -0.396160607592
444050000 0.610059376648 -0.396371679753
444060000 0.610083603637 -0.396509393778
444070000 0.610024821078 -0.397220525722
444080000 0.609876304035 -0.397206831458
444090000 0.609549567791 -0.397155199617
444100000 0.609046706879 -0.396800279363
444110000 0.60918328392 -0.397556958662
444120000 0.609410119585 -0.396941948057
444130000 0.609700705795 -0.397227414692
444140000 0.607839900659 -0.396556849287
444150000 0.610366503841 -0.403181881907
444160000 0.59874180862 -0.403062473794
444170000 0.605903048415 -0.400290378546
444180000 0.607555863233 -0.399647175109
444190000 0.609830803047 -0.398716054328
444200000 0.610156421937 -0.398907470044
444210000 0.609425604376 -0.398536124232
444220000 0.609127652439 -0.398352308938
444230000 0.609722713873 -0.399243831947
444240000 0.609852142209 -0.399252789475
444250000 0.609942692786 -0.399181520414
444260000 0.609934127039 -0.3990363487
444270000 0.609711165671 -0.399197287281
444280000 0.609575271954 -0.399446622387
444290000 0.609791508391 -0.399888569857
444300000 0.610282445989 -0.399873312713
444310000 0.610281178559 -0.400043879551
444320000 0.609743195758 -0.400127638633
444330000 0.609248242574 -0.400455513908
444340000 0.609110766722 -0.400563692631
444350000 0.608835247214 -0.400684968359
444360000 0.608681388232 -0.401187336255
444370000 0.608975309621 -0.400706872836
444380000 0.60876842649 -0.401527554856
444390000 0.608835976668 -0.401581014184
444400000 0.609113684254 -0.401922085024
444410000 0.609018396848 -0.401866989001
444420000 0.609283389766 -0.402299624215
444430000 0.608954461911 -0.401864007168
444440000 0.608451696567 -0.402816101325
444450000 0.608187287185 -0.402119470783
444460000 0.608413922931 -0.402072441124
444470000 0.608359796633 -0.402866429805
444480000 0.608360251078 -0.402647395875
444490000 0.608502594056 -0.402534375667
444500000 0.608551015494 -0.402502334694
444510000 0.608520703806 -0.402764719152
444520000 0.6084447346 -0.403266466579
444530000 0.608432447784 -0.403570104141
444540000 0.608176051247 -0.403780569487
444550000 0.607896474529 -0.40372028232
444560000 0.607888313481 -0.403413242841
444570000 0.607785040786 -0.403189835982
444580000 0.608388267399 -0.403388662593
444590000 0.60827106661 -0.40353194959
444600000 0.608161436841 -0.403893551002
444610000 0.607748789265 -0.40404264645
444620000 0.608078187386 -0.404745035251
444630000 0.607682508084 -0.404573124765
444640000 0.60773521638 -0.40468312134
444650000 0.607810028465 -0.405028237416
444660000 0.607952245123 -0.404884008755
444670000 0.60804868142 -0.404264736905
444680000 0.608699151677 -0.404205757083
444690000 0.608251672285 -0.40458282817
444700000 0.607953748718 -0.404967720133
444710000 0.607678985295 -0.405357573121
444720000 0.607734549427 -0.405558733829
444730000 0.607559062445 -0.40592811195
444740000 0.607505633777 -0.405965427666
444750000 0.607681078639 -0.405859443208
444760000 0.607846415219 -0.405969367637
444770000 0.607653514561 -0.406517689255
444780000 0.608019572728 -0.406098157959
444790000 0.607772888368 -0.406421623218
444800000 0.607796712973 -0.406532413529
444810000 0.608227376099 -0.406847942565
444820000 0.608028881898 -0.40691106109
444830000 0.607975516494 -0.406751766927
444840000 0.608018696531 -0.407400854322
444850000 0.608255232117 -0.40726617893
444860000 0.608408564754 -0.408022471753
444870000 0.607875696117 -0.407662090623
444880000 0.607737662554 -0.40773448431
444890000 0.607821263181 -0.408344037084
444900000 0.608477754598 -0.408734155546
444910000 0.60821255534 -0.408016610006
444920000 0.608057565681 -0.408967669685
444930000 0.607969715117 -0.408614250238
444940000 0.607839201275 -0.408149700076
444950000 0.60761256863 -0.408773809734
444960000 0.607477453951 -0.408612885701
444970000 0.606973168747 -0.408993637028
444980000 0.607278738053 -0.408842990347
444990000 0.607216689517 -0.409374333572
445000000 0.607187136358 -0.409646119885
445010000 0.607506995924 -0.409692843511
445020000 0.607309940678 -0.409823083914
445030000 0.607204232376 -0.409839405475
445040000 0.607523940759 -0.410250111752
445050000 0.607748507974 -0.410130701822
445060000 0.607497856153 -0.410032639966
445070000 0.607581573534 -0.410616453302
445080000 0.607673676363 -0.410899637148
445090000 0.6074424706 -0.41086989864
445100000 0.607058131608 -0.411085476753
445110000 0.607532375643 -0.411202337075
445120000 0.607505451341 -0.411256016709
445130000 0.608131104138 -0.411985429117
445140000 0.608325955435 -0.412579857311
445150000 0.607760618992 -0.41212660595
445160000 0.607199306933 -0.411563028565
445170000 0.606539477049 -0.411477775542
445180000 0.606944766153 -0.412090826765
445190000 0.606862586461 -0.412517828651
445200000 0.606826329631 -0.413066705566
445210000 0.606994940859 -0.413428646592
445220000 0.60647494938 -0.412632992778
445230000 0.606326000855 -0.41288765312
445240000 0.606377845335 -0.413113101426
445250000 0.606268705976 -0.41326127394
445260000 0.607013867834 -0.413158755485
445270000 0.607122050806 -0.412839379784
445280000 0.607217690155 -0.412829446897
445290000 0.60686118932 -0.413071309293
445300000 0.606915332304 -0.413291663767
445310000 0.60689375178 -0.413328793549
445320000 0.606352861602 -0.413489643598
445330000 0.606679069335 -0.413858293331
445340000 0.606447083539 -0.41392804407
445350000 0.606805741104 -0.414322896768
445360000 0.605823601246 -0.4141335814
445370000 0.605742154711 -0.413915036189
445380000 0.606251207876 -0.414269274417
445390000 0.606837272866 -0.414677599106
445400000 0.60746034692 -0.414751726234
445410000 0.607040863797 -0.414802286865
445420000 0.606959407532 -0.415173998379
445430000 0.607040944532 -0.414690460926
445440000 0.60662570942 -0.415070409588
445450000 0.606245244305 -0.415283576011
445460000 0.606288188126 -0.415107093469
445470000 0.605869156093 -0.415157834493
445480000 0.606329092906 -0.415737811086
445490000 0.6064693894 -0.415632218139
445500000 0.606111868508 -0.415799479537
445510000 0.606397285245 -0.416649419899
445520000 0.606291119216 -0.416254752341
445530000 0.606363989555 -0.416255041127
445540000 0.606822830946 -0.416190837969
445550000 0.606483481977 -0.416595623435
445560000 0.606113429608 -0.416646393729
445570000 0.605852661755 -0.416676819004
445580000 0.606063398872 -0.417244108786
445590000 0.606263013443 -0.4172993832
445600000 0.60666345364 -0.4173823382
445610000 0.605757006388 -0.417475393293
445620000 0.605578905959 -0.417736990371
445630000 0.605589140743 -0.417545136891
445640000 0.605864685046 -0.417928484215
445650000 0.60605306437 -0.417759853601
445660000 0.60563601483 -0.418006413789
445670000 0.605518158778 -0.418454748428
445680000 0.605611703153 -0.419018356603
445690000 0.604652457763 -0.418672707829
445700000 0.605812075819 -0.418560050144
445710000 0.605797399851 -0.418416114893
445720000 0.605392941194 -0.420525670265
445730000 0.60524326651 -0.419642136113
445740000 0.60415586217 -0.419924505836
445750000 0.604199163044 -0.419484044859
445760000 0.604880909251 -0.419689270907
445770000 0.60476320414 -0.419287267403
445780000 0.60513340447 -0.419327321684
445790000 0.60539642676 -0.419503305578
445800000 0.605503831392 -0.419457947039
445810000 0.605704363313 -0.420061471417
445820000 0.605487002459 -0.420168581567
445830000 0.605462408643 -0.420649290604
445840000 0.604570442389 -0.421110885384
445850000 0.605165893848 -0.420194808245
445860000 0.604948303087 -0.4199845084
445870000 0.605169451272 -0.421081284767
445880000 0.605152804318 -0.421325920486
445890000 0.605582229678 -0.421634789234
445900000 0.605039523187 -0.422052229944
445910000 0.604877838174 -0.421827695058
445920000 0.604572801973 -0.422006233163
445930000 0.604788763884 -0.422378669635
445940000 0.604757233847 -0.422281368694
445950000 0.604741938223 -0.422159530192
445960000 0.604765564273 -0.422333808706
445970000 0.604683783725 -0.421843384507
445980000 0.60457651951 -0.422056598742
445990000 0.604462077555 -0.422293883389
446000000 0.604661103044 -0.422618304159
446010000 0.604250976456 -0.422507583519
446020000 0.604231593052 -0.422241862339
446030000 0.604516277213 -0.422120006852
446040000 0.604760921354 -0.422441561517
446050000 0.604247005682 -0.422881197236
446060000 0.604682918803 -0.423287186719
446070000 0.604527932117 -0.422878353426
446080000 0.604188715826 -0.422865837949
446090000 0.604272007504 -0.422774326401
446100000 0.604237879974 -0.423118835354
446110000 0.604454619684 -0.423827937535
446120000 0.604706002327 -0.4235882322
446130000 0.604384603433 -0.423461006381
446140000 0.604402323584 -0.423568578385
446150000 0.604486550669 -0.423071731823
446160000 0.603977175119 -0.423552847048
446170000 0.604578991391 -0.423874697661
446180000 0.604059762332 -0.424331783856
446190000 0.604050183099 -0.424435517263
446200000 0.604082404139 -0.425298585679
446210000 0.60416845456 -0.425264936511
446220000 0.604012829982 -0.424835445491
446230000 0.60407001902 -0.425564682259
446240000 0.604135163097 -0.425197385278
446250000 0.604533841896 -0.425614736687
446260000 0.604319155184 -0.426196751106
446270000 0.603981657855 -0.426198311048
446280000 0.604375429266 -0.426220923644
446290000 0.604194482047 -0.426005744231
446300000 0.604934538016 -0.426194723242
446310000 0.605686608069 -0.426965587308
446320000 0.597796822695 -0.433391484055
446330000 0.605966529976 -0.427153137684
446340000 0.604711048858 -0.427488245178
446350000 0.604149707454 -0.427255524807
446360000 0.604134804984 -0.427235421002
446370000 0.603774713405 -0.427704093506
446380000 0.603969707012 -0.42793944409
446390000 0.604266223403 -0.427903060198
446400000 0.604516649273 -0.427342231863
446410000 0.60411083175 -0.427522315045
446420000 0.603848900032 -0.427653606469
446430000 0.603857784442 -0.428223943444
446440000 0.603846303587 -0.4283634986
446450000 0.604001672114 -0.427995176854
446460000 0.60430253778 -0.428026627448
446470000 0.603949688366 -0.427981518369
446480000 0.603619214401 -0.427849281256
446490000 0.603868295351 -0.428587270315
446500000 0.603631655758 -0.428612683096
446510000 0.603355020141 -0.429354743916
446520000 0.603797565282 -0.428962058291
446530000 0.60370350537 -0.428996793963
446540000 0.603690174761 -0.428559405148
446550000 0.603886980237 -0.428715489068
446560000 0.603732050195 -0.429321183371
446570000 0.603517664922 -0.429177429673
446580000 0.603467446661 -0.429374604465
446590000 0.603744765452 -0.430299320901
446600000 0.603913409537 -0.430125506466
446610000 0.603617579657 -0.430401743656
446620000 0.603724010086 -0.430342619147
446630000 0.602931684263 -0.430535205723
446640000 0.60295382652 -0.430367969975
446650000 0.603329666401 -0.430172056666
446660000 0.603738525201 -0.430490298674
446670000 0.603809220157 -0.430834230586
446680000 0.603434946511 -0.430794905179
446690000 0.603361870569 -0.43038608943
446700000 0.60345633187 -0.430783853808
446710000 0.603469734899 -0.430832130032
446720000 0.603058969009 -0.431585299619
446730000 0.602937465238 -0.431676752814
446740000 0.603045363257 -0.431518140829
446750000 0.602571738113 -0.431476490677
446760000 0.602871343967 -0.431379540904
446770000 0.602995058693 -0.431818560394
446780000 0.602667307412 -0.431750161081
446790000 0.603313263003 -0.431677281747
446800000 0.60342603942 -0.431528846671
446810000 0.602957082548 -0.431756290187
446820000 0.603100275895 -0.432034138923
446830000 0.603303311576 -0.432471160054
446840000 0.602842163245 -0.432649082938
446850000 0.602489104561 -0.43295201001
446860000 0.602545902572 -0.432986409322
446870000 0.601427047911 -0.432963887018
446880000 0.601925824196 -0.433324191882
446890000 0.602178702179 -0.433368539976
446900000 0.603117997957 -0.433105652528
446910000 0.603131142203 -0.433640845457
446920000 0.603098212536 -0.433545063077
446930000 0.603072242488 -0.433649061926
446940000 0.602796117311 -0.434290302148
446950000 0.602094046684 -0.434176888679
446960000 0.602470324555 -0.43469660699
446970000 0.602383336193 -0.434487886662
446980000 0.60249232984 -0.43453257717
446990000 0.602603805453 -0.434491429414
447000000 0.602499687963 -0.43448398464
447010000 0.602968949254 -0.434695263966
447020000 0.602846697835 -0.435011246943
447030000 0.60324559319 -0.434800341224
447040000 0.603007583411 -0.435479419785
447050000 0.602750791765 -0.435395504158
447060000 0.603106472653 -0.435181096238
447070000 0.603101276068 -0.435369215635
447080000 0.602011912185 -0.435887046696
447090000 0.601483869581 -0.436606559534
447100000 0.601273989795 -0.436346392314
447110000 0.601369648166 -0.435671006641
447120000 0.602089997575 -0.435708513422
447130000 0.602510008911 -0.435766572015
447140000 0.602486045583 -0.436192971152
447150000 0.60196756609 -0.436542623786
447160000 0.60212097048 -0.436347320104
447170000 0.601716077256 -0.436208028147
447180000 0.602351522652 -0.436741714196
447190000 0.602325786899 -0.436724388646
447200000 0.601642908078 -0.437123867491
447210000 0.601085315716 -0.437072245436
447220000 0.601439366518 -0.436871616595
447230000 0.601169866577 -0.436526000017
447240000 0.602038457104 -0.436856824509
447250000 0.60240863025 -0.438014798134
447260000 0.601798587321 -0.43850457931
447270000 0.602154892274 -0.43846670273
447280000 0.601948333897 -0.438341451564
447290000 0.60208297452 -0.438259995314
447300000 0.601977230877 -0.438619163255
447310000 0.601357854226 -0.43849061489
447320000 0.601058291216 -0.438257825167
447330000 0.601453862678 -0.43891413069
447340000 0.602281982697 -0.439384558136
447350000 0.601948233103 -0.439292738051
447360000 0.602068433598 -0.439277261391
447370000 0.60241347212 -0.439692380897
447380000 0.602398698324 -0.440343839609
447390000 0.601277839981 -0.438689368184
447400000 0.601302938272 -0.439270245293
447410000 0.602225779635 -0.439574954821
447420000 0.601792480535 -0.439742657516
447430000 0.601520470634 -0.440895986088
447440000 0.601678618446 -0.439956833036
447450000 0.601627065209 -0.440588018648
447460000 0.600554348697 -0.440429301968
447470000 0.601166651573 -0.440232459332
447480000 0.60119408903 -0.440613183586
447490000 0.600444934192 -0.440384073445
447500000 0.601248109099 -0.439951155098
447510000 0.600389837402 -0.440296838987
447520000 0.599876140973 -0.440454150475
447530000 0.599981451144 -0.44100382905
447540000 0.600390457582 -0.439546668284
447550000 0.601323944555 -0.441058438083
447560000 0.599510484037 -0.445077253928
447570000 0.600982884826 -0.440932247847
447580000 0.60128126752 -0.442076850879
447590000 0.601245865992 -0.442489068087
447600000 0.601714587592 -0.442391702936
447610000 0.601177452586 -0.442488326767
447620000 0.60124250346 -0.442248509452
447630000 0.601097604906 -0.442613109748
447640000 0.600470468613 -0.441863868276
447650000 0.600312915071 -0.442498398397
447660000 0.601091982383 -0.442394886249
447670000 0.600445851836 -0.442341880373
447680000 0.600443142382 -0.442317836585
447690000 0.600551715289 -0.442383185898
447700000 0.601242138011 -0.442186571628
447710000 0.600452038475 -0.442516831182
447720000 0.600391009023 -0.442993502789
447730000 0.600266140432 -0.442936960345
447740000 0.600971580987 -0.444435499299
447750000 0.602694116107 -0.444355948984
447760000 0.600838605157 -0.445926507687
447770000 0.601802656743 -0.444280028549
447780000 0.601451012801 -0.444524417719
447790000 0.601079783127 -0.444043247309
447800000 0.600990947702 -0.444256104753
447810000 0.601232372349 -0.44408422909
447820000 0.600677827778 -0.444298140645
447830000 0.600336213003 -0.444035640276
447840000 0.599642842705 -0.444444226504
447850000 0.599850391747 -0.444479677082
447860000 0.600449890951 -0.444751587232
447870000 0.600320692652 -0.444802094504
447880000 0.600034008089 -0.44506038051
447890000 0.599996113411 -0.445533423685
447900000 0.599607478669 -0.445949651985
447910000 0.600403386509 -0.44543348248
447920000 0.600884480971 -0.445538179235
447930000 0.600677565952 -0.445614312879
447940000 0.600337988661 -0.445765020459
447950000 0.599758880828 -0.445643513108
447960000 0.599374883812 -0.445731965416
447970000 0.600198028291 -0.446021166495
447980000 0.600503249086 -0.446291603909
447990000 0.600972561656 -0.446266661551
448000000 0.599991800572 -0.446242690999
448010000 0.599716738952 -0.446160752549
448020000 0.599150193849 -0.446419979213
448030000 0.59968493023 -0.446680326784
448040000 0.599861899534 -0.446846285937
448050000 0.600056572907 -0.447137803297
448060000 0.59996738165 -0.447669557595
448070000 0.599560766981 -0.447822676772
448080000 0.599095945105 -0.447713657085
448090000 0.599448538397 -0.448124630303
448100000 0.599775067688 -0.448052758951
448110000 0.5993011512 -0.448381350334
448120000 0.59958139543 -0.448918070698
448130000 0.599290012679 -0.448340990282
448140000 0.5988415696 -0.448103616556
448150000 0.598641892739 -0.448115867906
448160000 0.5987666479 -0.44874083164
448170000 0.59928251787 -0.448138199159
448180000 0.599683312531 -0.448749239229
448190000 0.599585574317 -0.449200113757
448200000 0.599365011133 -0.449150620181
448210000 0.599240713782 -0.449554498423
448220000 0.599122322118 -0.449840085098
448230000 0.599078365623 -0.449270077854
448240000 0.598782824387 -0.449610073398
448250000 0.599685346274 -0.449614826966
448260000 0.599970315034 -0.449412578037
448270000 0.599954618311 -0.449876591514
448280000 0.600115625653 -0.449653332218
448290000 0.599543187655 -0.449777400389
448300000 0.599239797516 -0.450126881391
448310000 0.599287350575 -0.450221827107
448320000 0.599102541192 -0.449753539945
448330000 0.598849199466 -0.449850651362
448340000 0.599296780659 -0.450005103636
448350000 0.599927396304 -0.450278180911
448360000 0.600179287699 -0.450494955486
448370000 0.599848807718 -0.451038475766
448380000 0.599503335796 -0.451002751573
448390000 0.599396889748 -0.450858574295
448400000 0.599379802862 -0.451329590455
448410000 0.599459147328 -0.451387160151
448420000 0.599333225759 -0.451671515489
448430000 0.599115176323 -0.452156982067
448440000 0.599086788753 -0.452022092376
448450000 0.598822056042 -0.451913996471
448460000 0.599839616871 -0.451823768325
448470000 0.600095601698 -0.452125311881
448480000 0.600313561139 -0.451799720016
448490000 0.585837035114 -0.457725361387
448500000 0.595713515463 -0.451427871455
448510000 0.599534503138 -0.452541002961
448520000 0.598627241005 -0.452679463983
448530000 0.598306404479 -0.452755901444
448540000 0.598567098463 -0.452994988471
448550000 0.598580243149 -0.453375595292
448560000 0.59874142949 -0.453499534439
448570000 0.598799820787 -0.453525014445
448580000 0.599415165757 -0.453881297864
448590000 0.59943589765 -0.45372270084
448600000 0.598974592025 -0.454346338263
448610000 0.598537888744 -0.454725588316
448620000 0.598521173252 -0.454904290635
448630000 0.598026771013 -0.454350299555
448640000 0.598336658571 -0.45381369248
448650000 0.597866003895 -0.4533699924
448660000 0.59808485322 -0.454077088733
448670000 0.598194795027 -0.454505189
448680000 0.597891383913 -0.45527297725
448690000 0.598100741996 -0.455007645838
448700000 0.598261787854 -0.454796479156
448710000 0.598413925718 -0.455305153304
448720000 0.598798226246 -0.455460689424
448730000 0.598512776123 -0.455448692998
448740000 0.598780691501 -0.455487460798
448750000 0.598594251612 -0.455557465315
448760000 0.598423339519 -0.455922219879
448770000 0.598512387062 -0.456012288135
448780000 0.598255466057 -0.456431529699
448790000 0.598663621493 -0.456700549201
448800000 0.598589112886 -0.456900703376
448810000 0.598760501689 -0.456742114597
448820000 0.59848421107 -0.456763415989
448830000 0.597992526532 -0.456414770276
448840000 0.598433434709 -0.456950392709
448850000 0.598419126335 -0.457036959691
448860000 0.598267838324 -0.457020155577
448870000 0.598198343186 -0.457309921593
448880000 0.598125132592 -0.457021057438
448890000 0.597853413657 -0.457228910095
448900000 0.598496375741 -0.4568612267
448910000 0.598292686146 -0.457077675607
448920000 0.597987886975 -0.457436476821
448930000 0.597683275447 -0.457850175586
448940000 0.598144423272 -0.458206702028
448950000 0.597856423831 -0.458032363654
448960000 0.597617645245 -0.458042313569
448970000 0.59731682839 -0.458501508785
448980000 0.597904415934 -0.458417651639
448990000 0.597899683582 -0.458499427559
449000000 0.598004657743 -0.458649414936
449010000 0.597919082859 -0.458909923371
449020000 0.597991458402 -0.458578498355
449030000 0.597735301611 -0.458691485992
449040000 0.597549100295 -0.458416457029
449050000 0.597305658746 -0.459314332775
449060000 0.597378936597 -0.45844365948
449070000 0.59702959623 -0.458471422097
449080000 0.597444193529 -0.45872883094
449090000 0.597383722258 -0.458833971741
449100000 0.597440918464 -0.459587451037
449110000 0.59699591565 -0.459831961209
449120000 0.597220504581 -0.459706581458
449130000 0.596985162475 -0.459892647811
449140000 0.597474713255 -0.459802072504
449150000 0.596993580182 -0.46020819697
449160000 0.596984359052 -0.460160249922
449170000 0.597149781809 -0.460540962687
449180000 0.596932779074 -0.46069109037
449190000 0.597161457872 -0.460937562447
449200000 0.596845479887 -0.461005491291
449210000 0.597647440039 -0.460132789917
449220000 0.597463599035 -0.461722726413
449230000 0.596870085361 -0.461587311576
449240000 0.596892397915 -0.461611780301
449250000 0.596673343683 -0.461082162549
449260000 0.596971065387 -0.461447900312
449270000 0.596959973958 -0.461529971031
449280000 0.597195691993 -0.462095404048
449290000 0.597259076259 -0.461406193881
449300000 0.597162663627 -0.461682821436
449310000 0.596655187096 -0.461697386721
449320000 0.596980510921 -0.462069207833
449330000 0.59714870179 -0.462531213845
449340000 0.59694927388 -0.462572898751
449350000 0.597267848512 -0.462274022845
449360000 0.597586079166 -0.462191907872
449370000 0.597834377867 -0.461289758601
449380000 0.59749517723 -0.463071166858
449390000 0.597328136777 -0.463967919771
449400000 0.596979895472 -0.464431172269
449410000 0.596737452377 -0.464144437174
449420000 0.596741265716 -0.463799095559
449430000 0.596544898638 -0.463889675489
449440000 0.596730441613 -0.463838439782
449450000 0.597219176775 -0.463477206065
449460000 0.597062140758 -0.463630395796
449470000 0.597338966234 -0.46466342383
449480000 0.596870878189 -0.464902166021
449490000 0.596649975719 -0.464755060081
449500000 0.596427540087 -0.464300751838
449510000 0.595902529407 -0.464097188107
449520000 0.595797376253 -0.464696451913
449530000 0.595409860234 -0.464860498598
449540000 0.595772887945 -0.465498220768
449550000 0.596734524848 -0.463638890625
449560000 0.597782802205 -0.461918721591
449570000 0.597802867404 -0.459170075557
449580000 0.596910071176 -0.463049855893
449590000 0.596337341238 -0.464702676036
449600000 0.596169783051 -0.465920924027
449610000 0.59586832965 -0.465407517397
449620000 0.59622353465 -0.466171923196
449630000 0.596142045154 -0.465650078168
449640000 0.595788976445 -0.466260471754
449650000 0.595225832977 -0.466232531548
449660000 0.595633561514 -0.46617192328
449670000 0.596698086539 -0.466183323082
449680000 0.596591793873 -0.466250050061
449690000 0.596508926157 -0.466568775333
449700000 0.596511014835 -0.467113101822
449710000 0.596161215174 -0.467223376241
449720000 0.596164387548 -0.466968676933
449730000 0.596615037383 -0.467556109672
449740000 0.596690930002 -0.467689102827
449750000 0.595960007278 -0.467356721002
449760000 0.595974901262 -0.466859179081
449770000 0.595520163287 -0.466691861428
449780000 0.595831362015 -0.466832560721
449790000 0.59602269496 -0.467560354893
449800000 0.596227554296 -0.467849286442
449810000 0.595377485381 -0.467772453235
449820000 0.595576304461 -0.46784719911
449830000 0.59524791377 -0.468455877596
449840000 0.595628597987 -0.468454208396
449850000 0.595707911607 -0.468261896879
449860000 0.595738982903 -0.468312614488
449870000 0.595480292577 -0.468476395326
449880000 0.595388721082 -0.469141254732
449890000 0.595104479116 -0.469365623615
449900000 0.595572656086 -0.468950873527
449910000 0.59593601153 -0.468884477974
449920000 0.595599352504 -0.468680386929
449930000 0.595373176793 -0.469287523806
449940000 0.595134821236 -0.469110661459
449950000 0.595280889951 -0.469231116942
449960000 0.595394055247 -0.469134527412
449970000 0.595707213355 -0.469094261161
449980000 0.595273942406 -0.469896133285
449990000 0.594838706772 -0.470429452062
450000000 0.594725336521 -0.470817978009
