! Calibrated averaged scanner-service zoom
# Hz S RI R 50
851000000 -0.561019077928 -0.694010195001
851009000 -0.561758246678 -0.695180542093
851018000 -0.562089062721 -0.695110734597
851027000 -0.56156117985 -0.69466437904
851036000 -0.562088584262 -0.694104049214
851045000 -0.561458524825 -0.694323266102
851054000 -0.562046266476 -0.694811344654
851063000 -0.561070217388 -0.694183471493
851072000 -0.561946257713 -0.693839802409
851081000 -0.562598966795 -0.693568754394
851090000 -0.562650293992 -0.693146905607
851099000 -0.563505335134 -0.693766712394
851108000 -0.562659004002 -0.69425779587
851117000 -0.561460105912 -0.695263832789
851126000 -0.561592100372 -0.694758392221
851135000 -0.561415902281 -0.693844899105
851144000 -0.560645772574 -0.693536322973
851153000 -0.561032619383 -0.694723288184
851162000 -0.560784011343 -0.693946687376
851171000 -0.561785138067 -0.694233629822
851180000 -0.56166264359 -0.694566387129
851189000 -0.562250900285 -0.694828860705
851198000 -0.561826660263 -0.694562833718
851207000 -0.562448469916 -0.694729278632
851216000 -0.561420831635 -0.695205145475
851225000 -0.560532099074 -0.694191599031
851234000 -0.560524083135 -0.693543291616
851243000 -0.560897554884 -0.69383965872
851252000 -0.560705882783 -0.694161495321
851261000 -0.560413930115 -0.693974804599
851270000 -0.560689157587 -0.694248764635
851279000 -0.561271172159 -0.694787957314
851288000 -0.561471150238 -0.695497168475
851297000 -0.562475131582 -0.694988983286
851306000 -0.561924479445 -0.69408494008
851315000 -0.562202785846 -0.693563133352
851324000 -0.562464757557 -0.693396173857
851333000 -0.561720121782 -0.693436356665
851342000 -0.561629863436 -0.693360821053
851351000 -0.561818040456 -0.693241770738
851360000 -0.562592640022 -0.693042732129
851369000 -0.563153568099 -0.693908162941
851378000 -0.563731438527 -0.694784237201
851387000 -0.563006747975 -0.695176080303
851396000 -0.562987672065 -0.69526968174
851405000 -0.562178229528 -0.695798239028
851414000 -0.561760797782 -0.695656264846
851423000 -0.561428761763 -0.695850227639
851432000 -0.561084229892 -0.695590437051
851441000 -0.561312425945 -0.695598498739
851450000 -0.561595305038 -0.695194266733
851459000 -0.561601232237 -0.694231599349
851468000 -0.561701893344 -0.694285159101
851477000 -0.56209719776 -0.69389747645
851486000 -0.563231937474 -0.691777970048
851495000 -0.562428288787 -0.693219819586
851504000 -0.562534018936 -0.692002669224
851513000 -0.562416156205 -0.692963443861
851522000 -0.56338538606 -0.693514105933
851531000 -0.562648114967 -0.693225414737
851540000 -0.562875979986 -0.693614855777
851549000 -0.562902528354 -0.694166600335
851558000 -0.562850999022 -0.694420216802
851567000 -0.563531604442 -0.693843341232
851576000 -0.56247939685 -0.693796562368
851585000 -0.56185932577 -0.694377485053
851594000 -0.562335002768 -0.694823461018
851603000 -0.563144261425 -0.694188541326
851612000 -0.561433706588 -0.694497781922
851621000 -0.562373061628 -0.694392112578
851630000 -0.561369439609 -0.693763247679
851639000 -0.560172066258 -0.693780752718
851648000 -0.56097206548 -0.694426788441
851657000 -0.562132019147 -0.694549439249
851666000 -0.562336244656 -0.694383072822
851675000 -0.562673439309 -0.693855010608
851684000 -0.561926049161 -0.693970759887
851693000 -0.56171452455 -0.693786591316
851702000 -0.562202150882 -0.694296806632
851711000 -0.561670903296 -0.694782005389
851720000 -0.5614887925 -0.695894731487
851729000 -0.561804569028 -0.694476338555
851738000 -0.561770962935 -0.694545455802
851747000 -0.562541421338 -0.693859726203
851756000 -0.562300902555 -0.69368388205
851765000 -0.562196348859 -0.693391203211
851774000 -0.562906607707 -0.692378959383
851783000 -0.562169528787 -0.693067252517
851792000 -0.56262612588 -0.692837621006
851801000 -0.56253964192 -0.693014556909
851810000 -0.56167039347 -0.692590166026
851819000 -0.562042994336 -0.693201720439
851828000 -0.56162832716 -0.693945704338
851837000 -0.562500650015 -0.693771747518
851846000 -0.562952031823 -0.693510555242
851855000 -0.562515133335 -0.692704902296
851864000 -0.561972526264 -0.692837849446
851873000 -0.562025984278 -0.693378214056
851882000 -0.561918972429 -0.693450502681
851891000 -0.561697730134 -0.693054654106
851900000 -0.561717343262 -0.693854258113
851909000 -0.562881050595 -0.694023746047
851918000 -0.563651569864 -0.694445317983
851927000 -0.563735360458 -0.694050858216
851936000 -0.564687315718 -0.693471588664
851945000 -0.564412297363 -0.693199469988
851954000 -0.564477269841 -0.693320187207
851963000 -0.562967310711 -0.693138009002
851972000 -0.562907085472 -0.692361581603
851981000 -0.562707653214 -0.692353321191
851990000 -0.56296424734 -0.692728943957
851999000 -0.562515422913 -0.693732136758
852008000 -0.563769975745 -0.693440111384
852017000 -0.562750767657 -0.693931704577
852026000 -0.562559340332 -0.693615147118
852035000 -0.561350100938 -0.693118595925
852044000 -0.561492304598 -0.692924638799
852053000 -0.562338749031 -0.69287303284
852062000 -0.562755606828 -0.692338441732
852071000 -0.562830738292 -0.692258992612
852080000 -0.563023424796 -0.692463462494
852089000 -0.563443785514 -0.693108477141
852098000 -0.564046573143 -0.69373868114
852107000 -0.564027796325 -0.694703807707
852116000 -0.563736151331 -0.695225942106
852125000 -0.564580990851 -0.69597753479
852134000 -0.564610203161 -0.694916708936
852143000 -0.563778990674 -0.694875619439
852152000 -0.563903802936 -0.69335715718
852161000 -0.563708319187 -0.693733201924
852170000 -0.563507500308 -0.692918074705
852179000 -0.562751185371 -0.693281433149
852188000 -0.562927877831 -0.693190687336
852197000 -0.562931963124 -0.693402869438
852206000 -0.563287381462 -0.693330610165
852215000 -0.56300951011 -0.693729347991
852224000 -0.563319494319 -0.694206205117
852233000 -0.562873040284 -0.694386107143
852242000 -0.563484197351 -0.693350977885
852251000 -0.563382128293 -0.692650216455
852260000 -0.563198994111 -0.692772107786
852269000 -0.563517588686 -0.691916842411
852278000 -0.564006311598 -0.692942620041
852287000 -0.563166378448 -0.692056764311
852296000 -0.563472638295 -0.693065085401
852305000 -0.563452617023 -0.692926397764
852314000 -0.563430256475 -0.693658773106
852323000 -0.5644318761 -0.693327767748
852332000 -0.564326381232 -0.694214980796
852341000 -0.564511138026 -0.693618126565
852350000 -0.564162381765 -0.694120756419
852359000 -0.564673700845 -0.692828188012
852368000 -0.564919085225 -0.692277039538
852377000 -0.564304572541 -0.691879491125
852386000 -0.565083756649 -0.691151036734
852395000 -0.56453078083 -0.691403006567
852404000 -0.564670397475 -0.692046381361
852413000 -0.564115168588 -0.692230572218
852422000 -0.56453447038 -0.692472080208
852431000 -0.563974969508 -0.69264695648
852440000 -0.563263469081 -0.692322403676
852449000 -0.563605577903 -0.692211445873
852458000 -0.563201849913 -0.691946082686
852467000 -0.56316258058 -0.692191105616
852476000 -0.562796653953 -0.692535832184
852485000 -0.563601212146 -0.691626224158
852494000 -0.563875659353 -0.691087209979
852503000 -0.564089000081 -0.691439630936
852512000 -0.564121059497 -0.692672121951
852521000 -0.564976388227 -0.692570702282
852530000 -0.564720209771 -0.693353294997
852539000 -0.56490592872 -0.693157726664
852548000 -0.5645115948 -0.692777635866
852557000 -0.564082373027 -0.692539742258
852566000 -0.564558802963 -0.692631958243
852575000 -0.564507381632 -0.693513822012
852584000 -0.564461880083 -0.693372439232
852593000 -0.564330975343 -0.693595945651
852602000 -0.563442704019 -0.693458261298
852611000 -0.563351075452 -0.694043623323
852620000 -0.564771870638 -0.694209806924
852629000 -0.564392723676 -0.693383053587
852638000 -0.564356628497 -0.692806894573
852647000 -0.564680165125 -0.692771053456
852656000 -0.564272706126 -0.692710565675
852665000 -0.564433055305 -0.692619336896
852674000 -0.563720554938 -0.691648698943
852683000 -0.564556005119 -0.691790595011
852692000 -0.563884473381 -0.692810663951
852701000 -0.564429927736 -0.692640323319
852710000 -0.564326589308 -0.692821282757
852719000 -0.564843052163 -0.693075954038
852728000 -0.564756917933 -0.693112931562
852737000 -0.564419090771 -0.692470754885
852746000 -0.564225492162 -0.692841324995
852755000 -0.564105744996 -0.693004270191
852764000 -0.564382680828 -0.692284237736
852773000 -0.564204691661 -0.691611971618
852782000 -0.563745658209 -0.690657078088
852791000 -0.56348626247 -0.690798610985
852800000 -0.564557453071 -0.692361178744
852809000 -0.56361306693 -0.692938223055
852818000 -0.56406807838 -0.692987160903
852827000 -0.563958101512 -0.692808058781
852836000 -0.564742129812 -0.691762484787
852845000 -0.564952521415 -0.691604322078
852854000 -0.564458892279 -0.691300214626
852863000 -0.563664678289 -0.690903580395
852872000 -0.563107201463 -0.689420053056
852881000 -0.563393057495 -0.690481175545
852890000 -0.56359289309 -0.691459846386
852899000 -0.563907551583 -0.692415244236
852908000 -0.564488913094 -0.692328702834
852917000 -0.564987384079 -0.69184323494
852926000 -0.565349419675 -0.691951334834
852935000 -0.565106342528 -0.692424416489
852944000 -0.564941704578 -0.69190038644
852953000 -0.565304592813 -0.692397630052
852962000 -0.564778935028 -0.692527450796
852971000 -0.5651538301 -0.692302322286
852980000 -0.564666571335 -0.69286101746
852989000 -0.565012435768 -0.692308876431
852998000 -0.565464682019 -0.692386382103
853007000 -0.565077311222 -0.691981920772
853016000 -0.564616866116 -0.691650881358
853025000 -0.565539327781 -0.690996654525
853034000 -0.565789337846 -0.69192795728
853043000 -0.566397099174 -0.691357504111
853052000 -0.566213325057 -0.692064690605
853061000 -0.56531893596 -0.692203933215
853070000 -0.564395868402 -0.691952517754
853079000 -0.563837824132 -0.692635401125
853088000 -0.564558399406 -0.69245448511
853097000 -0.564406972231 -0.692511857099
853106000 -0.565671645066 -0.69208988237
853115000 -0.565414792087 -0.692614546729
853124000 -0.565848714802 -0.691751778702
853133000 -0.566289190797 -0.690875797485
853142000 -0.565829178398 -0.691073883083
853151000 -0.565650576158 -0.691198839876
853160000 -0.564832121317 -0.692471804256
853169000 -0.56554163418 -0.691682611202
853178000 -0.566602721627 -0.691371312415
853187000 -0.566449171523 -0.691238402494
853196000 -0.565436496783 -0.690506843492
853205000 -0.566073327049 -0.691061586927
853214000 -0.566335182938 -0.690671173361
853223000 -0.565573693072 -0.690682426269
853232000 -0.564845927077 -0.690838520397
853241000 -0.56411897218 -0.69176992684
853250000 -0.563794981575 -0.692064107574
853259000 -0.563538267329 -0.692257718212
853268000 -0.564569066267 -0.692549853169
853277000 -0.564246296233 -0.692014056683
853286000 -0.564433479181 -0.691621279912
853295000 -0.56415813932 -0.691404196989
853304000 -0.564414040609 -0.691783173929
853313000 -0.565587078748 -0.692075628041
853322000 -0.565217262988 -0.693040807366
853331000 -0.565375681311 -0.693102081881
853340000 -0.565740952187 -0.692204668409
853349000 -0.566113969988 -0.691898568644
853358000 -0.566276571506 -0.690848151585
853367000 -0.566182951467 -0.691355344254
853376000 -0.565598269363 -0.691609128353
853385000 -0.566282166686 -0.691541426482
853394000 -0.566286793295 -0.691513457171
853403000 -0.565895234554 -0.691377509725
853412000 -0.564823687671 -0.690827882613
853421000 -0.564136349158 -0.69103754156
853430000 -0.565195270205 -0.691014308833
853439000 -0.565301717505 -0.691074858374
853448000 -0.565748225944 -0.69142924247
853457000 -0.5660737226 -0.691913998058
853466000 -0.564914646038 -0.692031438196
853475000 -0.564597120227 -0.692777557054
853484000 -0.565723835114 -0.692677956659
853493000 -0.565195024808 -0.691826368713
853502000 -0.564600536288 -0.691307758108
853511000 -0.564435350565 -0.691112235471
853520000 -0.563653421029 -0.691245937812
853529000 -0.564661738625 -0.692106000917
853538000 -0.564702525159 -0.691762654426
853547000 -0.565075860132 -0.690570935813
853556000 -0.565852806979 -0.690849172213
853565000 -0.566562017547 -0.69088309555
853574000 -0.566119001373 -0.690822527798
853583000 -0.566868917757 -0.691596637888
853592000 -0.566222336462 -0.691628282393
853601000 -0.566288061838 -0.69220591646
853610000 -0.565798311739 -0.6926146373
853619000 -0.565494717761 -0.69304543892
853628000 -0.566157934874 -0.692824501847
853637000 -0.566227699308 -0.691820923209
853646000 -0.566735601086 -0.691676400699
853655000 -0.565947057612 -0.691573932149
853664000 -0.566022633826 -0.69152794129
853673000 -0.565469371808 -0.691050003043
853682000 -0.565750390854 -0.691802559147
853691000 -0.566684589882 -0.692256552668
853700000 -0.5664325715 -0.691446309718
853709000 -0.565903025901 -0.691815125277
853718000 -0.565815923266 -0.69169946253
853727000 -0.565209739476 -0.691651914147
853736000 -0.565507004983 -0.690946811278
853745000 -0.565767054262 -0.691296576078
853754000 -0.565655499349 -0.691867346027
853763000 -0.566255541912 -0.691533840893
853772000 -0.566534379299 -0.691745257286
853781000 -0.566779833785 -0.691677635709
853790000 -0.56802005694 -0.691780341285
853799000 -0.567386381401 -0.691715548831
853808000 -0.565732396052 -0.692321147596
853817000 -0.565123683646 -0.692320889258
853826000 -0.564431464714 -0.692821580144
853835000 -0.564211533851 -0.691802998334
853844000 -0.564595366577 -0.691287547076
853853000 -0.564950044037 -0.691349359087
853862000 -0.566637650572 -0.69192780597
853871000 -0.5653360913 -0.692395546442
853880000 -0.56629716681 -0.692163541225
853889000 -0.566075675455 -0.692201000774
853898000 -0.566201373092 -0.690384260264
853907000 -0.567989797868 -0.690667994305
853916000 -0.567068532971 -0.690298404142
853925000 -0.565991718754 -0.690345893087
853934000 -0.565987882929 -0.69108742011
853943000 -0.565473861985 -0.691356158777
853952000 -0.565446736237 -0.691603910383
853961000 -0.564931872311 -0.691791710949
853970000 -0.565409932266 -0.692730991993
853979000 -0.56557643296 -0.692890804164
853988000 -0.565917458536 -0.693004439844
853997000 -0.566135711676 -0.692870226021
854006000 -0.566610611061 -0.692477220105
854015000 -0.566111874001 -0.691568828362
854024000 -0.567052433984 -0.690053390635
854033000 -0.565887508909 -0.68979298733
854042000 -0.566133962898 -0.68992231972
854051000 -0.565414917222 -0.689811817871
854060000 -0.566549684439 -0.689838094595
854069000 -0.565270038912 -0.691162307051
854078000 -0.566559224847 -0.692495158441
854087000 -0.566527038805 -0.69224841378
854096000 -0.566171485389 -0.691733905076
854105000 -0.566056545447 -0.692047709419
854114000 -0.566579380615 -0.691232433744
854123000 -0.566775340491 -0.692199349376
854132000 -0.567471408797 -0.691018389502
854141000 -0.56752296612 -0.69137150505
854150000 -0.566604528832 -0.691567808726
854159000 -0.565620463067 -0.690537084958
854168000 -0.566342049661 -0.690864870825
854177000 -0.566236204341 -0.690389221329
854186000 -0.566808175477 -0.691334790371
854195000 -0.566513697843 -0.690611837043
854204000 -0.567040840703 -0.691729765968
854213000 -0.568084482004 -0.691847323308
854222000 -0.567633934401 -0.69240519406
854231000 -0.566922821556 -0.692135212739
854240000 -0.56684232622 -0.690225075093
854249000 -0.565588688893 -0.689240559684
854258000 -0.56539303171 -0.690331354189
854267000 -0.566223822523 -0.689805938579
854276000 -0.566784695745 -0.690740750721
854285000 -0.567060429302 -0.691384361252
854294000 -0.567659433187 -0.691099536268
854303000 -0.567181732814 -0.69203078341
854312000 -0.568144551207 -0.692357969766
854321000 -0.56682608111 -0.691650602448
854330000 -0.566742991959 -0.691289164598
854339000 -0.565536882355 -0.691169686133
854348000 -0.565773816584 -0.690765975331
854357000 -0.566435928722 -0.690960808784
854366000 -0.565208093958 -0.690955150694
854375000 -0.566284449214 -0.6908419056
854384000 -0.566934105343 -0.691142060398
854393000 -0.568320271093 -0.691362023533
854402000 -0.567735570156 -0.691264464422
854411000 -0.566764703304 -0.691039659377
854420000 -0.566763213928 -0.69084518845
854429000 -0.567197396908 -0.690967144221
854438000 -0.56761611567 -0.690253646861
854447000 -0.5679903681 -0.690115724219
854456000 -0.569028246194 -0.689649667658
854465000 -0.568438696596 -0.690264235065
854474000 -0.568191093776 -0.690280829657
854483000 -0.56881215506 -0.690270666467
854492000 -0.567575490346 -0.6901334989
854501000 -0.566980428925 -0.690695489299
854510000 -0.565269271574 -0.691195948631
854519000 -0.566013745629 -0.690724704168
854528000 -0.566619905229 -0.691251685829
854537000 -0.566587610278 -0.690869974698
854546000 -0.567011733527 -0.691021239087
854555000 -0.567114612014 -0.690500505773
854564000 -0.568198658377 -0.690418774378
854573000 -0.568546232155 -0.691775081658
854582000 -0.568297799761 -0.691504065819
854591000 -0.56761706889 -0.691220079156
854600000 -0.567655038761 -0.690509537254
854609000 -0.567307900854 -0.69092776632
854618000 -0.566892243474 -0.691048119352
854627000 -0.566714325563 -0.691526430582
854636000 -0.567372228765 -0.690445949584
854645000 -0.567467228694 -0.690095813556
854654000 -0.568279960834 -0.688801477753
854663000 -0.566730785371 -0.689577374819
854672000 -0.567433039661 -0.689936487723
854681000 -0.566697960112 -0.69112750851
854690000 -0.566503281439 -0.690734457881
854699000 -0.565996557186 -0.691086064722
854708000 -0.565641299303 -0.690541393618
854717000 -0.565367857592 -0.690594011256
854726000 -0.565354300597 -0.691114628352
854735000 -0.566663443193 -0.692816433432
854744000 -0.566306230642 -0.69098729178
854753000 -0.567198667062 -0.691624715227
854762000 -0.567476003904 -0.690574435724
854771000 -0.567436909599 -0.690601180524
854780000 -0.567007622548 -0.690298883679
854789000 -0.566612898625 -0.690480757959
854798000 -0.565936676034 -0.6901891487
854807000 -0.566061779535 -0.690152236334
854816000 -0.566778001692 -0.690506889205
854825000 -0.567422417967 -0.690997508962
854834000 -0.567304233804 -0.691116288972
854843000 -0.567649542472 -0.691201056967
854852000 -0.567565913133 -0.6908188962
854861000 -0.567520373089 -0.690759683658
854870000 -0.567430059887 -0.689710557734
854879000 -0.568607962307 -0.688808283507
854888000 -0.568120379589 -0.689293113524
854897000 -0.56754794758 -0.689917915463
854906000 -0.56720004096 -0.690511453885
854915000 -0.566668198738 -0.689906748968
854924000 -0.567818577696 -0.690928489059
854933000 -0.56925183466 -0.690555929763
854942000 -0.569190524289 -0.690799093828
854951000 -0.56895124477 -0.690312330465
854960000 -0.56987099932 -0.691268287981
854969000 -0.56918570195 -0.690671018151
854978000 -0.56890912557 -0.690967197363
854987000 -0.568286448053 -0.690662443821
854996000 -0.56776296272 -0.690337312711
855005000 -0.567309282927 -0.690812903683
855014000 -0.566767434106 -0.691164091084
855023000 -0.566484886458 -0.691261462383
855032000 -0.566241177397 -0.691779394702
855041000 -0.567540116251 -0.691657089818
855050000 -0.568960465974 -0.69172041343
855059000 -0.569778306572 -0.691309691159
855068000 -0.57043201187 -0.690954412343
855077000 -0.569333308156 -0.690527891384
855086000 -0.570161323568 -0.6908833913
855095000 -0.568894255422 -0.690568596773
855104000 -0.568910163081 -0.690619280246
855113000 -0.568505481753 -0.689119801882
855122000 -0.568671887342 -0.689625318669
855131000 -0.567682834502 -0.689066411746
855140000 -0.568312774827 -0.68866839255
855149000 -0.567718896663 -0.688707913157
855158000 -0.567379540972 -0.688849802916
855167000 -0.567595671003 -0.68893248455
855176000 -0.566738293826 -0.688859511738
855185000 -0.568163995819 -0.689645814103
855194000 -0.567255842074 -0.689860089635
855203000 -0.56777174457 -0.689970967776
855212000 -0.569239543073 -0.690905196172
855221000 -0.56892812596 -0.690786949474
855230000 -0.569119608561 -0.691426575958
855239000 -0.568391185567 -0.691947495499
855248000 -0.568969587994 -0.692415009677
855257000 -0.568353835763 -0.692512831441
855266000 -0.56826882185 -0.691696708873
855275000 -0.568476024132 -0.690562319329
855284000 -0.568587858671 -0.689992323487
855293000 -0.569033370736 -0.690078676749
855302000 -0.56847642594 -0.690003787857
855311000 -0.567761201079 -0.690336123989
855320000 -0.56747516424 -0.690395141981
855329000 -0.567851666084 -0.689750644865
855338000 -0.568158389226 -0.688498051029
855347000 -0.567249669226 -0.688495859848
855356000 -0.567427292876 -0.68945479691
855365000 -0.568674925029 -0.69009576268
855374000 -0.569038574345 -0.691738143645
855383000 -0.568551085684 -0.691016809076
855392000 -0.568569857269 -0.689853390053
855401000 -0.569121578884 -0.690249618602
855410000 -0.569139501569 -0.690882581747
855419000 -0.568491711339 -0.69056931639
855428000 -0.569499626732 -0.690648709933
855437000 -0.569137152097 -0.690513818345
855446000 -0.56902370176 -0.690262851362
855455000 -0.568707622262 -0.690108623389
855464000 -0.568709763216 -0.68953126384
855473000 -0.569435192269 -0.690286956012
855482000 -0.570184256321 -0.690207080798
855491000 -0.570349840892 -0.690919264386
855500000 -0.569642038411 -0.690474959837
855509000 -0.569604862728 -0.68997291392
855518000 -0.569279633597 -0.690544060645
855527000 -0.569425915802 -0.689593357839
855536000 -0.569158576501 -0.689933019298
855545000 -0.570063396798 -0.690308376569
855554000 -0.569539464155 -0.68972717998
855563000 -0.569016009133 -0.689851570912
855572000 -0.568367103378 -0.691079711109
855581000 -0.567958352879 -0.690428107396
855590000 -0.568792555232 -0.690402515958
855599000 -0.567886824786 -0.689581714755
855608000 -0.568519132687 -0.689108870716
855617000 -0.568128562656 -0.688352197077
855626000 -0.567773485032 -0.688263091314
855635000 -0.566877490922 -0.687811061065
855644000 -0.567354419078 -0.689077215292
855653000 -0.567550766819 -0.689413337747
855662000 -0.567604373604 -0.691347071094
855671000 -0.567229247946 -0.690273103978
855680000 -0.566654835209 -0.689916755115
855689000 -0.566955238498 -0.689358089671
855698000 -0.566954580857 -0.688793716109
855707000 -0.568099683836 -0.688213627529
855716000 -0.568955116182 -0.689334495557
855725000 -0.568796889022 -0.68897579288
855734000 -0.568694224659 -0.688422293589
855743000 -0.568471725766 -0.689105190555
855752000 -0.569171531536 -0.688975798476
855761000 -0.568891031339 -0.689783943065
855770000 -0.569740946762 -0.690769084567
855779000 -0.569878934249 -0.690258990645
855788000 -0.570276263013 -0.689855879723
855797000 -0.570107195536 -0.689528307956
855806000 -0.570343562973 -0.688697647881
855815000 -0.570300749955 -0.68945654271
855824000 -0.571008678635 -0.689903658235
855833000 -0.569916560117 -0.691365367878
855842000 -0.570170432314 -0.690795417523
855851000 -0.570101090697 -0.690125501563
855860000 -0.569471878458 -0.689465815118
855869000 -0.569274730259 -0.689307438545
855878000 -0.57028449601 -0.689440704697
855887000 -0.569306183614 -0.688801902622
855896000 -0.569834845915 -0.689115589252
855905000 -0.569476249447 -0.688281866134
855914000 -0.570000982011 -0.687731655763
855923000 -0.569760785674 -0.688262534088
855932000 -0.568814534116 -0.688942981747
855941000 -0.568466735204 -0.689805739792
855950000 -0.567645474806 -0.690895798026
855959000 -0.568423354588 -0.690683178231
855968000 -0.568450376378 -0.690547552468
855977000 -0.569451168534 -0.690482383087
855986000 -0.568356348598 -0.690102063461
855995000 -0.569292966001 -0.689619602461
856004000 -0.56935812225 -0.688532850957
856013000 -0.569554366609 -0.688878874084
856022000 -0.568656047912 -0.688814052879
856031000 -0.567911356079 -0.689441945988
856040000 -0.568693860126 -0.689640754828
856049000 -0.568975475308 -0.689701428367
856058000 -0.56967923923 -0.688733666741
856067000 -0.569329465585 -0.689073250328
856076000 -0.569219484531 -0.68955929347
856085000 -0.568964333482 -0.690237408994
856094000 -0.569242637861 -0.690397924644
856103000 -0.569605471226 -0.689765680445
856112000 -0.569652459124 -0.689096032458
856121000 -0.57046057428 -0.688899167818
856130000 -0.56950691315 -0.688042137243
856139000 -0.569906578896 -0.689312132131
856148000 -0.569378115044 -0.689042786332
856157000 -0.568982700045 -0.689451453169
856166000 -0.569942073769 -0.689732303044
856175000 -0.569445473996 -0.689056744514
856184000 -0.569687065495 -0.689075501572
856193000 -0.569991211987 -0.689058022389
856202000 -0.570173149651 -0.688411984516
856211000 -0.570340026696 -0.687204450245
856220000 -0.569769204892 -0.688335959232
856229000 -0.569683360428 -0.688862530751
856238000 -0.569480266308 -0.689150860028
856247000 -0.570412937361 -0.689155624858
856256000 -0.569817128078 -0.689125330267
856265000 -0.570218991592 -0.689807488783
856274000 -0.569892633385 -0.689545134784
856283000 -0.570046016677 -0.689347013534
856292000 -0.569246797187 -0.689877985323
856301000 -0.569133626645 -0.689284145031
856310000 -0.569746615223 -0.689161486981
856319000 -0.569648014181 -0.688924186863
856328000 -0.569814459622 -0.68895496403
856337000 -0.57042162265 -0.688680157354
856346000 -0.571448708126 -0.688356588887
856355000 -0.571436504927 -0.688976094063
856364000 -0.571499201809 -0.689170615175
856373000 -0.571086295975 -0.690545183438
856382000 -0.57099320504 -0.690708126048
856391000 -0.570487643117 -0.69004649842
856400000 -0.569666402778 -0.689457010223
856409000 -0.569918765174 -0.688513415972
856418000 -0.570303886964 -0.688492144464
856427000 -0.569455092539 -0.689075944027
856436000 -0.56987865129 -0.688976890531
856445000 -0.57044325551 -0.688719687475
856454000 -0.570283770937 -0.689430478066
856463000 -0.570359764225 -0.690410448722
856472000 -0.570046818894 -0.68925461799
856481000 -0.569433781264 -0.688551668476
856490000 -0.569693958905 -0.688034540405
856499000 -0.569700142114 -0.688288514732
856508000 -0.569841904751 -0.68892307171
856517000 -0.569573390526 -0.688709064191
856526000 -0.569038419559 -0.688554454555
856535000 -0.569568969852 -0.688557778684
856544000 -0.570617276006 -0.688205225141
856553000 -0.570916103254 -0.687698119838
856562000 -0.571611164595 -0.688200203201
856571000 -0.570824698913 -0.689882482569
856580000 -0.570723946452 -0.690334450074
856589000 -0.570595350157 -0.689779466109
856598000 -0.57046150032 -0.689869869897
856607000 -0.570034540952 -0.688911748814
856616000 -0.570587217961 -0.689494850715
856625000 -0.571433947761 -0.69014384484
856634000 -0.571262522632 -0.690852879032
856643000 -0.570997303724 -0.690180063957
856652000 -0.570144649284 -0.690133713405
856661000 -0.569473052698 -0.689236764101
856670000 -0.569233748585 -0.687916210688
856679000 -0.569818961448 -0.688400661166
856688000 -0.569728992895 -0.687518409921
856697000 -0.569801866396 -0.687520001564
856706000 -0.570002256191 -0.687849708395
856715000 -0.570051012859 -0.689167235096
856724000 -0.570128745998 -0.689422180162
856733000 -0.569825141704 -0.688816830685
856742000 -0.570745270731 -0.689237675717
856751000 -0.571024342515 -0.689137792665
856760000 -0.571356854883 -0.68852443151
856769000 -0.571275072291 -0.689021889435
856778000 -0.571003854534 -0.689149859624
856787000 -0.57142157854 -0.688934549258
856796000 -0.571546878424 -0.689244430272
856805000 -0.572047986168 -0.689976378294
856814000 -0.571923932312 -0.689336370895
856823000 -0.571950913951 -0.688475359572
856832000 -0.572588665542 -0.686960306187
856841000 -0.572052729901 -0.685872939917
856850000 -0.571163676526 -0.686938248652
856859000 -0.57113147214 -0.687318301638
856868000 -0.571098979451 -0.687947030343
856877000 -0.570648370358 -0.688778063837
856886000 -0.571023594896 -0.689186630105
856895000 -0.570905850344 -0.689409573711
856904000 -0.570668364924 -0.689680133294
856913000 -0.571267913382 -0.688605744624
856922000 -0.57191340553 -0.687663434676
856931000 -0.572162850277 -0.687341759149
856940000 -0.572577881344 -0.687981705134
856949000 -0.572016839439 -0.688144485053
856958000 -0.57229875248 -0.68915674782
856967000 -0.571478374898 -0.688488152257
856976000 -0.571666205266 -0.688888407939
856985000 -0.571199248725 -0.688189432578
856994000 -0.571184957689 -0.688516874736
857003000 -0.571909257333 -0.688061945301
857012000 -0.571735771725 -0.687273396287
857021000 -0.571835175036 -0.688717273804
857030000 -0.570785429493 -0.688550621411
857039000 -0.570225072961 -0.688652130527
857048000 -0.571319243489 -0.688935451209
857057000 -0.570910385325 -0.689243552651
857066000 -0.571485386121 -0.688405327835
857075000 -0.572015756641 -0.688561678745
857084000 -0.571399151531 -0.689209780365
857093000 -0.570540019633 -0.688276783922
857102000 -0.570814558066 -0.687564412884
857111000 -0.570862201605 -0.688117285765
857120000 -0.572076304679 -0.687806482675
857129000 -0.572339259583 -0.686695131569
857138000 -0.571807006813 -0.68742399047
857147000 -0.57219326886 -0.688398972702
857156000 -0.570969627503 -0.688121163987
857165000 -0.571038046183 -0.687983341537
857174000 -0.571229511131 -0.687900594213
857183000 -0.572215177216 -0.687315513169
857192000 -0.571412900737 -0.687665476529
857201000 -0.571537312192 -0.688534226281
857210000 -0.570425037978 -0.68848599135
857219000 -0.571380773372 -0.68787317098
857228000 -0.571664633171 -0.68804363818
857237000 -0.57243633656 -0.687766560041
857246000 -0.572398003305 -0.687016029316
857255000 -0.572182642038 -0.686891890659
857264000 -0.571658102796 -0.686859528258
857273000 -0.571356676047 -0.686796204509
857282000 -0.571129500491 -0.686873221315
857291000 -0.571224499449 -0.686719021345
857300000 -0.571730692775 -0.687234186021
857309000 -0.570962962441 -0.687726554282
857318000 -0.571593535716 -0.688020702509
857327000 -0.570940519685 -0.688311253335
857336000 -0.571776940989 -0.687770613777
857345000 -0.57083048626 -0.688435784257
857354000 -0.572517841084 -0.687952353563
857363000 -0.572217874512 -0.687758213227
857372000 -0.571310406572 -0.688252405171
857381000 -0.571502611789 -0.68839771118
857390000 -0.571752544863 -0.688444719974
857399000 -0.572102366729 -0.68887378611
857408000 -0.572257376119 -0.688752696545
857417000 -0.571296968017 -0.689001059785
857426000 -0.570615378748 -0.688286500094
857435000 -0.570929459128 -0.688891054603
857444000 -0.570583749366 -0.688782829606
857453000 -0.570969410586 -0.688675931003
857462000 -0.571019270785 -0.688349116492
857471000 -0.572178512315 -0.687956409929
857480000 -0.572610433315 -0.688360683277
857489000 -0.573205487402 -0.687919012884
857498000 -0.573801642452 -0.687798834238
857507000 -0.572999138359 -0.687705311088
857516000 -0.572876265853 -0.687531273549
857525000 -0.571885070556 -0.687580945221
857534000 -0.571585826566 -0.688031625346
857543000 -0.572188032644 -0.687999427927
857552000 -0.572829733078 -0.689260366279
857561000 -0.572613911052 -0.689304362417
857570000 -0.572303341256 -0.689308201472
857579000 -0.57229763299 -0.688412806341
857588000 -0.571938177222 -0.687613446458
857597000 -0.571765422695 -0.688390279194
857606000 -0.571824178116 -0.688546973855
857615000 -0.571770469809 -0.688964353302
857624000 -0.571603784911 -0.688283538826
857633000 -0.571464785911 -0.688066049786
857642000 -0.571226160821 -0.688010898608
857651000 -0.571505785068 -0.687003089482
857660000 -0.572648142436 -0.686242657496
857669000 -0.572976356142 -0.685123465505
857678000 -0.572577531732 -0.685037232542
857687000 -0.573731779469 -0.685416481976
857696000 -0.572843541433 -0.686216707941
857705000 -0.572920672617 -0.686648060787
857714000 -0.572478539866 -0.687482297346
857723000 -0.572646945833 -0.688186989052
857732000 -0.572903936243 -0.689065376939
857741000 -0.571934392262 -0.688872809398
857750000 -0.571435073892 -0.688525851717
857759000 -0.570876935248 -0.68869692527
857768000 -0.57169846314 -0.688829724486
857777000 -0.572227164378 -0.68891652451
857786000 -0.573232086268 -0.688881543108
857795000 -0.571897808818 -0.688725719581
857804000 -0.572832258078 -0.688339854061
857813000 -0.572900749757 -0.686895884791
857822000 -0.572717374829 -0.687107111452
857831000 -0.573447618373 -0.687295135581
857840000 -0.574179321414 -0.686607026023
857849000 -0.573548969025 -0.686602268664
857858000 -0.573620544081 -0.686992599801
857867000 -0.573111403925 -0.687228500852
857876000 -0.572132801712 -0.688200862338
857885000 -0.572045174578 -0.687683678414
857894000 -0.571519688732 -0.687759862504
857903000 -0.572040570119 -0.687480115913
857912000 -0.571682907144 -0.686992400394
857921000 -0.571766518377 -0.685635060859
857930000 -0.572382128635 -0.684984671669
857939000 -0.571977655493 -0.685772496845
857948000 -0.572157404234 -0.686272259099
857957000 -0.571949426824 -0.687811076251
857966000 -0.57038728082 -0.686901133384
857975000 -0.570190505116 -0.685807012164
857984000 -0.568999811761 -0.68388808202
857993000 -0.567329125802 -0.683177426324
858002000 -0.569163110468 -0.685238604853
858011000 -0.571261963989 -0.686564639664
858020000 -0.571878119372 -0.687437251326
858029000 -0.572696808344 -0.686646416746
858038000 -0.573859668523 -0.686319856939
858047000 -0.573766828001 -0.686024900575
858056000 -0.573345646284 -0.686380840443
858065000 -0.573316140241 -0.686820564723
858074000 -0.572330210823 -0.687866867627
858083000 -0.572038588092 -0.687559305204
858092000 -0.571743653069 -0.687533878798
858101000 -0.571514476756 -0.687131820004
858110000 -0.571434316012 -0.686330739371
858119000 -0.572336907309 -0.68587266235
858128000 -0.573460017048 -0.686196383171
858137000 -0.572902426733 -0.686084213129
858146000 -0.572463772765 -0.68540055795
858155000 -0.572440145289 -0.685826716319
858164000 -0.571694101459 -0.686892555144
858173000 -0.572361449356 -0.686273232963
858182000 -0.572344071424 -0.687141662117
858191000 -0.572894751128 -0.688058534715
858200000 -0.57242200256 -0.687760380858
858209000 -0.57333095621 -0.687793303842
858218000 -0.574011043957 -0.686631005976
858227000 -0.572404563033 -0.686978115739
858236000 -0.572671604407 -0.687216203944
858245000 -0.571745677239 -0.687275481285
858254000 -0.57235723137 -0.687073901095
858263000 -0.572421041885 -0.687976981215
858272000 -0.572991387494 -0.688101809187
858281000 -0.573423858493 -0.687872483159
858290000 -0.573981170249 -0.688183351503
858299000 -0.573921549757 -0.687228842458
858308000 -0.572118792349 -0.687722250554
858317000 -0.572573011871 -0.686980334528
858326000 -0.572513203967 -0.686849898432
858335000 -0.572626744869 -0.686207415861
858344000 -0.573101157342 -0.68637715805
858353000 -0.572907918064 -0.686114205232
858362000 -0.573360076054 -0.686557129488
858371000 -0.573654783302 -0.686167710688
858380000 -0.574200947992 -0.685826860516
858389000 -0.574048262355 -0.686357341343
858398000 -0.57447852093 -0.687236579435
858407000 -0.573617690448 -0.687556089795
858416000 -0.573147967202 -0.686930811326
858425000 -0.573084661397 -0.687073957186
858434000 -0.573421152974 -0.687644351531
858443000 -0.572808824783 -0.686517515752
858452000 -0.573775428398 -0.686406981735
858461000 -0.573205931594 -0.686565112302
858470000 -0.574633844075 -0.686529540581
858479000 -0.574543222208 -0.687814250055
858488000 -0.574785322332 -0.686747506834
858497000 -0.574703802551 -0.686166836792
858506000 -0.574407149753 -0.686633443451
858515000 -0.574579681221 -0.687719532861
858524000 -0.574828626135 -0.687248154014
858533000 -0.574645844127 -0.686790638809
858542000 -0.573966145849 -0.68594491588
858551000 -0.574700701327 -0.685784059206
858560000 -0.573933181819 -0.685006683388
858569000 -0.573405187905 -0.684868639961
858578000 -0.572308440363 -0.685648580239
858587000 -0.572469522213 -0.685953548325
858596000 -0.571804178628 -0.686395594526
858605000 -0.572705630766 -0.686403241874
858614000 -0.572527337391 -0.686488634378
858623000 -0.573241957064 -0.686079995199
858632000 -0.574347115875 -0.685806281648
858641000 -0.574623243404 -0.68574160853
858650000 -0.575071542623 -0.686044655661
858659000 -0.574612361278 -0.686247408243
858668000 -0.574374957731 -0.686359854883
858677000 -0.57392698187 -0.687020792919
858686000 -0.573787109749 -0.687172294297
858695000 -0.573692405525 -0.687172138628
858704000 -0.572882753227 -0.687061038628
858713000 -0.573913630629 -0.687154259972
858722000 -0.573635708914 -0.687277016639
858731000 -0.573554102466 -0.687142973749
858740000 -0.574046882338 -0.687044730671
858749000 -0.573974259113 -0.686624576264
858758000 -0.574956129904 -0.686304431534
858767000 -0.57473942795 -0.685548461348
858776000 -0.574839839799 -0.686561655288
858785000 -0.575588462335 -0.686937165078
858794000 -0.575654804209 -0.686070172484
858803000 -0.575298664486 -0.685936764008
858812000 -0.574607485497 -0.686468479933
858821000 -0.574610657174 -0.686755088273
858830000 -0.57392221466 -0.686047343757
858839000 -0.576052368165 -0.686323787356
858848000 -0.575180462987 -0.68601233497
858857000 -0.57554088049 -0.686408808925
858866000 -0.575183083573 -0.686433799614
858875000 -0.574664298932 -0.686950695049
858884000 -0.575379821466 -0.687896554731
858893000 -0.574530005487 -0.687340241111
858902000 -0.574880676997 -0.686854759989
858911000 -0.5733310286 -0.687197872693
858920000 -0.573529255103 -0.686091084047
858929000 -0.573958144655 -0.686313019281
858938000 -0.573671058468 -0.685785199544
858947000 -0.573312774588 -0.685829956147
858956000 -0.573415323345 -0.686272204034
858965000 -0.573741060433 -0.685385752924
858974000 -0.574525870609 -0.685916945226
858983000 -0.574560088527 -0.685992438192
858992000 -0.574241655131 -0.68636802008
859001000 -0.574010377284 -0.68631327819
859010000 -0.574271623788 -0.686598502011
859019000 -0.573518289786 -0.685654034791
859028000 -0.574242227495 -0.685579910489
859037000 -0.574878692382 -0.686455083648
859046000 -0.575639959393 -0.68645158318
859055000 -0.575470495507 -0.687015306956
859064000 -0.574234349065 -0.686266740523
859073000 -0.573971250398 -0.686178922617
859082000 -0.574082616697 -0.685798445356
859091000 -0.575059940755 -0.6858675603
859100000 -0.574563561441 -0.686788115467
859109000 -0.574323886614 -0.687762186813
859118000 -0.574624683461 -0.687412786696
859127000 -0.574573623071 -0.687397688887
859136000 -0.574229403844 -0.686159403868
859145000 -0.573665401132 -0.685867213057
859154000 -0.574444774193 -0.686453659506
859163000 -0.574933638366 -0.686844273826
859172000 -0.574516230025 -0.686293007506
859181000 -0.573515353773 -0.68584051856
859190000 -0.573892530588 -0.687001815756
859199000 -0.572368066482 -0.685815010251
859208000 -0.573709141631 -0.686333767455
859217000 -0.574253671545 -0.687034775556
859226000 -0.575522305793 -0.687186898405
859235000 -0.575569491398 -0.687024470044
859244000 -0.575520319148 -0.687050067118
859253000 -0.575802592415 -0.686076420293
859262000 -0.575796015285 -0.686964620672
859271000 -0.575656286517 -0.687348781074
859280000 -0.575904808269 -0.688675534562
859289000 -0.575096873915 -0.687441883391
859298000 -0.575285609024 -0.686043938129
859307000 -0.574507664025 -0.685091237107
859316000 -0.575308200122 -0.684676850739
859325000 -0.575343729715 -0.685548047991
859334000 -0.574738195056 -0.686061233894
859343000 -0.575479043709 -0.686049452994
859352000 -0.575614088333 -0.685669468819
859361000 -0.574129508855 -0.685485115489
859370000 -0.574323042125 -0.685074839516
859379000 -0.575456400143 -0.685376229818
859388000 -0.576475697183 -0.686391162745
859397000 -0.576665417003 -0.685722302869
859406000 -0.576364342118 -0.68646011505
859415000 -0.576416435553 -0.685734957643
859424000 -0.576141867301 -0.685594758755
859433000 -0.576052921592 -0.685538269419
859442000 -0.575106750781 -0.685211605104
859451000 -0.574015467795 -0.685177084375
859460000 -0.574215737921 -0.684471734482
859469000 -0.574874007018 -0.685022880608
859478000 -0.57452081565 -0.685482978785
859487000 -0.574562140545 -0.685510293306
859496000 -0.574902649582 -0.686432793613
859505000 -0.575862420176 -0.686770594298
859514000 -0.576570835635 -0.687378469633
859523000 -0.576048665443 -0.686364105348
859532000 -0.575326385635 -0.685960072642
859541000 -0.575625995063 -0.685958956458
859550000 -0.575551687699 -0.684781092262
859559000 -0.575585664068 -0.68385623439
859568000 -0.575351549626 -0.684014955149
859577000 -0.575486948644 -0.684321406578
859586000 -0.576368590555 -0.685213742308
859595000 -0.576764648054 -0.685519994519
859604000 -0.576425859726 -0.685698971085
859613000 -0.576158976941 -0.685343385967
859622000 -0.576655178666 -0.686031585413
859631000 -0.577188889258 -0.685595569479
859640000 -0.577199793257 -0.684362218901
859649000 -0.576581700905 -0.684055048594
859658000 -0.576992235579 -0.683729005393
859667000 -0.576192866242 -0.684730683007
859676000 -0.57651142965 -0.685460872726
859685000 -0.576413791598 -0.685586053992
859694000 -0.575334430024 -0.684744951757
859703000 -0.575773785726 -0.685100289285
859712000 -0.575909561685 -0.684733874639
859721000 -0.575792583415 -0.6850686239
859730000 -0.575655982508 -0.684831215197
859739000 -0.575276426013 -0.68486217041
859748000 -0.575287064697 -0.684699388773
859757000 -0.575389068198 -0.685225342328
859766000 -0.575989642477 -0.685183557918
859775000 -0.576138749402 -0.685224987592
859784000 -0.575894219424 -0.684876706959
859793000 -0.575504881556 -0.683944196639
859802000 -0.574372793634 -0.6846665768
859811000 -0.575885944111 -0.684697869317
859820000 -0.575369124266 -0.68462739541
859829000 -0.576015033919 -0.685566740693
859838000 -0.576096824621 -0.685723337122
859847000 -0.576748124908 -0.6854736079
859856000 -0.576614235183 -0.685940603038
859865000 -0.577071195182 -0.685461889383
859874000 -0.576348258754 -0.685665550957
859883000 -0.575892524606 -0.684732372693
859892000 -0.575692732554 -0.684939180752
859901000 -0.575813226577 -0.684991673395
859910000 -0.575724416378 -0.685323850787
859919000 -0.576245088401 -0.686171625659
859928000 -0.576374215041 -0.686082723383
859937000 -0.575493440368 -0.686557107831
859946000 -0.576283210571 -0.686649452215
859955000 -0.576710530768 -0.685390636788
859964000 -0.575505870207 -0.686408169013
859973000 -0.576207777696 -0.686043703336
859982000 -0.575647600399 -0.685359291197
859991000 -0.575703265581 -0.685344838139
860000000 -0.576177492078 -0.684757331715
860009000 -0.576357176896 -0.685257737658
860018000 -0.575800922633 -0.685900535234
860027000 -0.57556786474 -0.686008748101
860036000 -0.575464541258 -0.686114857333
860045000 -0.575878461458 -0.68593730511
860054000 -0.575494564043 -0.685983005426
860063000 -0.576372571768 -0.685230013632
860072000 -0.576371455238 -0.684789107818
860081000 -0.577189850283 -0.684708349007
860090000 -0.577753657012 -0.683003862364
860099000 -0.576534043419 -0.68441048291
860108000 -0.576778847366 -0.683929200201
860117000 -0.576764793229 -0.684660155593
860126000 -0.576990800037 -0.685584715023
860135000 -0.57704256643 -0.686152830246
860144000 -0.576526919212 -0.686785085452
860153000 -0.577241252892 -0.685652255076
860162000 -0.5778980898 -0.684743241582
860171000 -0.578146419993 -0.683481944336
860180000 -0.576396877006 -0.68329019381
860189000 -0.576383410007 -0.683146049529
860198000 -0.575510799076 -0.68431437757
860207000 -0.575281368056 -0.685127788559
860216000 -0.575526909262 -0.684381235709
860225000 -0.576440136187 -0.683886397562
860234000 -0.576598299668 -0.684286586116
860243000 -0.576581920659 -0.683782115633
860252000 -0.576321480201 -0.684069064562
860261000 -0.577425488805 -0.684430816716
860270000 -0.577514613573 -0.683955583555
860279000 -0.576170773206 -0.683663498141
860288000 -0.57713906833 -0.682791252113
860297000 -0.576292030463 -0.683038864051
860306000 -0.576379901796 -0.682512055082
860315000 -0.577071729645 -0.681704313742
860324000 -0.577315489994 -0.682615396319
860333000 -0.577052313125 -0.683197760721
860342000 -0.577696509081 -0.684104691165
860351000 -0.577417320368 -0.684826534965
860360000 -0.576800753095 -0.68490764907
860369000 -0.576935440661 -0.684998389323
860378000 -0.576567115456 -0.68380203077
860387000 -0.577790975522 -0.684489887358
860396000 -0.577868729907 -0.684276756784
860405000 -0.577993932603 -0.684121619819
860414000 -0.579061675515 -0.684488705595
860423000 -0.57842588492 -0.684354775253
860432000 -0.57774061775 -0.684378078326
860441000 -0.577477633111 -0.684717949835
860450000 -0.576833019354 -0.684924090755
860459000 -0.577250064024 -0.685686701136
860468000 -0.576142123553 -0.685072448019
860477000 -0.576178036911 -0.684271215885
860486000 -0.578051250725 -0.684664647893
860495000 -0.577595823449 -0.683799940524
860504000 -0.576747479109 -0.683835673649
860513000 -0.576361957094 -0.684771200199
860522000 -0.576671421123 -0.684756484079
860531000 -0.576599166942 -0.685551172321
860540000 -0.577233342995 -0.68503239674
860549000 -0.576690721287 -0.684858374656
860558000 -0.577188299252 -0.684107370686
860567000 -0.578080166538 -0.684182697947
860576000 -0.577808725206 -0.684256863037
860585000 -0.577368527796 -0.68407335567
860594000 -0.57751457506 -0.684236856135
860603000 -0.577465810407 -0.683645375217
860612000 -0.577511101198 -0.683961722907
860621000 -0.578380728005 -0.684882090969
860630000 -0.579684514085 -0.685637232988
860639000 -0.579460877713 -0.685021487315
860648000 -0.578633665741 -0.685109443651
860657000 -0.577836246794 -0.684101060831
860666000 -0.576824150182 -0.684201029139
860675000 -0.577027628034 -0.683942123286
860684000 -0.577294322844 -0.684103771574
860693000 -0.576860865395 -0.684869832927
860702000 -0.577703223389 -0.684267850354
860711000 -0.578101729396 -0.685257353108
860720000 -0.577981885316 -0.686412222883
860729000 -0.577719951203 -0.685732934839
860738000 -0.57698210707 -0.683870678237
860747000 -0.577125153421 -0.68400323923
860756000 -0.577005889273 -0.683665215926
860765000 -0.577056796573 -0.683779296126
860774000 -0.578172421822 -0.683178028391
860783000 -0.578311806444 -0.683085049305
860792000 -0.577868077925 -0.683094177162
860801000 -0.578012430055 -0.683304815552
860810000 -0.578480632794 -0.683188421941
860819000 -0.577842140595 -0.683049601247
860828000 -0.578223601174 -0.683898023261
860837000 -0.577196750744 -0.683347607791
860846000 -0.577968112895 -0.684290760686
860855000 -0.577121687187 -0.684461600232
860864000 -0.577523606872 -0.685151417529
860873000 -0.577579752086 -0.684473229061
860882000 -0.57774821822 -0.683974777236
860891000 -0.577327061276 -0.684327083517
860900000 -0.577670564929 -0.684191967706
860909000 -0.57818638332 -0.684260435148
860918000 -0.578286106836 -0.684683473931
860927000 -0.57882413016 -0.684540969938
860936000 -0.578238936849 -0.684834058341
860945000 -0.578436809545 -0.685193127918
860954000 -0.578030461384 -0.683929710221
860963000 -0.578019886777 -0.684229752978
860972000 -0.57882202945 -0.684713188884
860981000 -0.578775114623 -0.683260204062
860990000 -0.579417819415 -0.683562374251
860999000 -0.578359650674 -0.68364865744
861008000 -0.57886804407 -0.683336661288
861017000 -0.577658987987 -0.683789700999
861026000 -0.577310655557 -0.684507843369
861035000 -0.575891544663 -0.684625806769
861044000 -0.577152054319 -0.684073364851
861053000 -0.577158931398 -0.683811711591
861062000 -0.577084501906 -0.684056287189
861071000 -0.578115353029 -0.684287432548
861080000 -0.577614250145 -0.684163029618
861089000 -0.577488151296 -0.68356578237
861098000 -0.57766865504 -0.683210743267
861107000 -0.577707986656 -0.683154625969
861116000 -0.577046656615 -0.683170605432
861125000 -0.578790890363 -0.683671637897
861134000 -0.578948327486 -0.682608108647
861143000 -0.578564386815 -0.683053883131
861152000 -0.57877786094 -0.681751119155
861161000 -0.578838392637 -0.68252216943
861170000 -0.579360773189 -0.683424618487
861179000 -0.579325772227 -0.684157994865
861188000 -0.579737947208 -0.683896621978
861197000 -0.579040698162 -0.683687362893
861206000 -0.579588236309 -0.68387983933
861215000 -0.580056206233 -0.683460400407
861224000 -0.57964675974 -0.683961553091
861233000 -0.577482859832 -0.681676936665
861242000 -0.578527905731 -0.682934927688
861251000 -0.578162893661 -0.682872009162
861260000 -0.577054495792 -0.682831386486
861269000 -0.576568845582 -0.683169962833
861278000 -0.576820406964 -0.683714233686
861287000 -0.57719371927 -0.683099777728
861296000 -0.577852443271 -0.682244599943
861305000 -0.57803938816 -0.683299933048
861314000 -0.578594040889 -0.683783754586
861323000 -0.578466220709 -0.683527044929
861332000 -0.578625262375 -0.684612341601
861341000 -0.579266996785 -0.684576685648
861350000 -0.57905856206 -0.684453070766
861359000 -0.579048339459 -0.68397916816
861368000 -0.578817938315 -0.683773952612
861377000 -0.577956402906 -0.683517650727
861386000 -0.578338014487 -0.684016579131
861395000 -0.578831074568 -0.683237079307
861404000 -0.578127756194 -0.683720682479
861413000 -0.578603148233 -0.683167788875
861422000 -0.578201302596 -0.683017248577
861431000 -0.579427369115 -0.682806746363
861440000 -0.57987710148 -0.681790214398
861449000 -0.579643116057 -0.681624253272
861458000 -0.5790961012 -0.681735772067
861467000 -0.577957122133 -0.681795232913
861476000 -0.578420138317 -0.681832077785
861485000 -0.579327896485 -0.682056612943
861494000 -0.579600380606 -0.681820954882
861503000 -0.579237285651 -0.681851966483
861512000 -0.579173715262 -0.683085478257
861521000 -0.578582145112 -0.683452379711
861530000 -0.578807208089 -0.684013597518
861539000 -0.57879367886 -0.684106569404
861548000 -0.580273528968 -0.684319161428
861557000 -0.580275537893 -0.684272642246
861566000 -0.580443789467 -0.684125825836
861575000 -0.580432169839 -0.683328861986
861584000 -0.580396893411 -0.68282337772
861593000 -0.58057264893 -0.683261239802
861602000 -0.580045313409 -0.683690971848
861611000 -0.580189789693 -0.682681725082
861620000 -0.579907597347 -0.683470615715
861629000 -0.579695666846 -0.683386419281
861638000 -0.579170743344 -0.68358509962
861647000 -0.579127159753 -0.684705711304
861656000 -0.577835679905 -0.685121315503
861665000 -0.577227486945 -0.684650256916
861674000 -0.577701176298 -0.684857746696
861683000 -0.578470470999 -0.683709414159
861692000 -0.578937706429 -0.683335323745
861701000 -0.580303621314 -0.682104072159
861710000 -0.579961028214 -0.68191151146
861719000 -0.580232089981 -0.681227184505
861728000 -0.580567244182 -0.681878187424
861737000 -0.579663474599 -0.682758344114
861746000 -0.580235099458 -0.682830211331
861755000 -0.580312577986 -0.683265994086
861764000 -0.579382494024 -0.684530302254
861773000 -0.579127559318 -0.683155243954
861782000 -0.577884148204 -0.683579412578
861791000 -0.578783147949 -0.682826409672
861800000 -0.579074831969 -0.683873519488
861809000 -0.580177456629 -0.683074823929
861818000 -0.580270092013 -0.683130336291
861827000 -0.579653549774 -0.684017742081
861836000 -0.579572290057 -0.684024230286
861845000 -0.579256731619 -0.683595569479
861854000 -0.578829472105 -0.682988274451
861863000 -0.579288643388 -0.682435983038
861872000 -0.578939048424 -0.681995529165
861881000 -0.579031522286 -0.682057851785
861890000 -0.579165328147 -0.683025303076
861899000 -0.578680785642 -0.683136345755
861908000 -0.579094385347 -0.68380735448
861917000 -0.579749501711 -0.683307622676
861926000 -0.580493418796 -0.683185460519
861935000 -0.580616947282 -0.683212854414
861944000 -0.581037683556 -0.682690518729
861953000 -0.580311900923 -0.682884955705
861962000 -0.58027585948 -0.683192949363
861971000 -0.580332116465 -0.682936533238
861980000 -0.580419367671 -0.682784771931
861989000 -0.57936895684 -0.682407865093
861998000 -0.579949644668 -0.682655049424
862007000 -0.581325461901 -0.682615878782
862016000 -0.581483655873 -0.682033835979
862025000 -0.580878573636 -0.683215866167
862034000 -0.580175849279 -0.682338109119
862043000 -0.578958859597 -0.682335799014
862052000 -0.579815786119 -0.68261467583
862061000 -0.579878866474 -0.682577865671
862070000 -0.579167997681 -0.683153628232
862079000 -0.580649785556 -0.683312900956
862088000 -0.581018116348 -0.684641950384
862097000 -0.58029872241 -0.683925811141
862106000 -0.580591240222 -0.682817581501
862115000 -0.580345333258 -0.682413215732
862124000 -0.579904535138 -0.681421282272
862133000 -0.580000464315 -0.681462800671
862142000 -0.579878094608 -0.682250966016
862151000 -0.579835312043 -0.682852851952
862160000 -0.579555900642 -0.684176720751
862169000 -0.58007672764 -0.683089092398
862178000 -0.579944528655 -0.683782412206
862187000 -0.580794042771 -0.682450374091
862196000 -0.580383734796 -0.682010205244
862205000 -0.580469349828 -0.682383432954
862214000 -0.58046129216 -0.681710036692
862223000 -0.580155764441 -0.682245275031
862232000 -0.580682314272 -0.682203134514
862241000 -0.579530170802 -0.683551696886
862250000 -0.580107373092 -0.683222871105
862259000 -0.580673411275 -0.682751909788
862268000 -0.580659257827 -0.682880579373
862277000 -0.580905072358 -0.683478054021
862286000 -0.581050838306 -0.683289180065
862295000 -0.579830475365 -0.682895663814
862304000 -0.5805799188 -0.682246910953
862313000 -0.579024468008 -0.683166351907
862322000 -0.580129969688 -0.682674463983
862331000 -0.580093282512 -0.682418485478
862340000 -0.579503343485 -0.682577401394
862349000 -0.580262702461 -0.683317049191
862358000 -0.580268744946 -0.682054757762
862367000 -0.58068890884 -0.682086870432
862376000 -0.58072155547 -0.682359967483
862385000 -0.581049388579 -0.684085664139
862394000 -0.580849309161 -0.683147296941
862403000 -0.580059199151 -0.681814259295
862412000 -0.580130016289 -0.680975613884
862421000 -0.580762139777 -0.680891730437
862430000 -0.580657376016 -0.681383118764
862439000 -0.580477893686 -0.682800192871
862448000 -0.580620222483 -0.684345089857
862457000 -0.581441970353 -0.683813206876
862466000 -0.581590665168 -0.683751200516
862475000 -0.580886234398 -0.683358975735
862484000 -0.582186201916 -0.682314080796
862493000 -0.582120930767 -0.682391206442
862502000 -0.58263692132 -0.681389632029
862511000 -0.581431206705 -0.681017257278
862520000 -0.580904031644 -0.681870258963
862529000 -0.579769878785 -0.681111786799
862538000 -0.580604937095 -0.681410940801
862547000 -0.581065064832 -0.682105840341
862556000 -0.580831596899 -0.683863057263
862565000 -0.58121958065 -0.683956029057
862574000 -0.580963166723 -0.683552846379
862583000 -0.580571518216 -0.68414533545
862592000 -0.580600773402 -0.683329917761
862601000 -0.580961254255 -0.683064892894
862610000 -0.580996871948 -0.681812881641
862619000 -0.58140787113 -0.682218364529
862628000 -0.581508111406 -0.682932627246
862637000 -0.580320995428 -0.683890551754
862646000 -0.580110417993 -0.684430801877
862655000 -0.580237996399 -0.684123366126
862664000 -0.580835848061 -0.682956166774
862673000 -0.580618526427 -0.682409409388
862682000 -0.581241820772 -0.68227859835
862691000 -0.581085380555 -0.682454498884
862700000 -0.581651856431 -0.681807525459
862709000 -0.58179037866 -0.681482439475
862718000 -0.580475568069 -0.682834480214
862727000 -0.579482360636 -0.681839655329
862736000 -0.578508860143 -0.680917048815
862745000 -0.578758782558 -0.681785300166
862754000 -0.58012022264 -0.682041500061
862763000 -0.580465257137 -0.682246423773
862772000 -0.580152557467 -0.682098428513
862781000 -0.580966563936 -0.681403635312
862790000 -0.581030063796 -0.681205217737
862799000 -0.581483155764 -0.681496695029
862808000 -0.58129370033 -0.681559882744
862817000 -0.581464006267 -0.681386064468
862826000 -0.582252488445 -0.680917705856
862835000 -0.581793965173 -0.680436100945
862844000 -0.580971982128 -0.680658966779
862853000 -0.580523684107 -0.680881997997
862862000 -0.580825696205 -0.679725608324
862871000 -0.580606250683 -0.680077925077
862880000 -0.581003394104 -0.679986836082
862889000 -0.582123109712 -0.679465639985
862898000 -0.580799303185 -0.6804781109
862907000 -0.581155241534 -0.68018976557
862916000 -0.580693428146 -0.680039907201
862925000 -0.580879687732 -0.680171032648
862934000 -0.580335249623 -0.681375105966
862943000 -0.580795634587 -0.680580197466
862952000 -0.581327756671 -0.68111465348
862961000 -0.581274640605 -0.680804846011
862970000 -0.581998377478 -0.680079881805
862979000 -0.582257334601 -0.680773572711
862988000 -0.582441498877 -0.680926391888
862997000 -0.582332343079 -0.681699361299
863006000 -0.582391753366 -0.680982335545
863015000 -0.581735355312 -0.680633154544
863024000 -0.581593197431 -0.680211748808
863033000 -0.58134438849 -0.680924188246
863042000 -0.582110796631 -0.682235635399
863051000 -0.582027524456 -0.682014760828
863060000 -0.582155146524 -0.683564876918
863069000 -0.580668599143 -0.682466990935
863078000 -0.581173768319 -0.683798362632
863087000 -0.581846367105 -0.682397067699
863096000 -0.582375151633 -0.681152197505
863105000 -0.582465689987 -0.681103698257
863114000 -0.582043072645 -0.681400406855
863123000 -0.581645213103 -0.681108272787
863132000 -0.581719107876 -0.683257730696
863141000 -0.582368554301 -0.682712202958
863150000 -0.582154583001 -0.681670058899
863159000 -0.581729048832 -0.681510604728
863168000 -0.581867780877 -0.681838142691
863177000 -0.581518418611 -0.681415465924
863186000 -0.580859299928 -0.680823023491
863195000 -0.581734920553 -0.680524398592
863204000 -0.581851519188 -0.68100074476
863213000 -0.582624568757 -0.680757121926
863222000 -0.582376979728 -0.6804361839
863231000 -0.582252966396 -0.682036664478
863240000 -0.581026485741 -0.68154347006
863249000 -0.580685186413 -0.6817014226
863258000 -0.581013350803 -0.681259830668
863267000 -0.581671589014 -0.681780710669
863276000 -0.582417394455 -0.681405457997
863285000 -0.582187382858 -0.680833324137
863294000 -0.581884725306 -0.680772823003
863303000 -0.582167278862 -0.681316538876
863312000 -0.581997490666 -0.680758523862
863321000 -0.581512796105 -0.680989444147
863330000 -0.580081842838 -0.68052043706
863339000 -0.579797459455 -0.680043187899
863348000 -0.580539972206 -0.679587848018
863357000 -0.58080952105 -0.679474423707
863366000 -0.580716103744 -0.679107718751
863375000 -0.581819271844 -0.679039438058
863384000 -0.582303784847 -0.679887047479
863393000 -0.583285232793 -0.680832271137
863402000 -0.582297213902 -0.680986055221
863411000 -0.582127683805 -0.681252161265
863420000 -0.580658998637 -0.680645854651
863429000 -0.580620710002 -0.681123178335
863438000 -0.581636811391 -0.680234328315
863447000 -0.581881695798 -0.680288653429
863456000 -0.581869467363 -0.680466373238
863465000 -0.581978736921 -0.681421626751
863474000 -0.58129506582 -0.682286457106
863483000 -0.58153881516 -0.683502330518
863492000 -0.581077840149 -0.682257457989
863501000 -0.580390531589 -0.682121026015
863510000 -0.580641828966 -0.681368230108
863519000 -0.581910783958 -0.681028335944
863528000 -0.581911350088 -0.680703254258
863537000 -0.582910418157 -0.679858640296
863546000 -0.583132183743 -0.680810035487
863555000 -0.582327932619 -0.680464661181
863564000 -0.581476369469 -0.681221351727
863573000 -0.581094829847 -0.681634760007
863582000 -0.581727689121 -0.680623590114
863591000 -0.582358710081 -0.681444533755
863600000 -0.58187391332 -0.68002654287
863609000 -0.582225951749 -0.680499041063
863618000 -0.581987848026 -0.679956982399
863627000 -0.5815532363 -0.679887015981
863636000 -0.582049096364 -0.680344553934
863645000 -0.581722946238 -0.679771996687
863654000 -0.582257367456 -0.680312193264
863663000 -0.582671190042 -0.680323638369
863672000 -0.583113292057 -0.679409881699
863681000 -0.58299870614 -0.679459597026
863690000 -0.58328856231 -0.679166143372
863699000 -0.582951149454 -0.679341153989
863708000 -0.583974326337 -0.680702515434
863717000 -0.583066415062 -0.680882989238
863726000 -0.582763478519 -0.680778129819
863735000 -0.581776426423 -0.681444633493
863744000 -0.582074076356 -0.681312754901
863753000 -0.582563086352 -0.680930393735
863762000 -0.582047953247 -0.68110336839
863771000 -0.582361599242 -0.68040870134
863780000 -0.581808266473 -0.681362401243
863789000 -0.58205141755 -0.680729148285
863798000 -0.581264582469 -0.681474874518
863807000 -0.582150309835 -0.680358641502
863816000 -0.581804612513 -0.680348575728
863825000 -0.581289247402 -0.680066391839
863834000 -0.581885911926 -0.679940885334
863843000 -0.581961452357 -0.679131473276
863852000 -0.582872207109 -0.679848114048
863861000 -0.582290914327 -0.679190187021
863870000 -0.582686678624 -0.680524776429
863879000 -0.581877502156 -0.681840359992
863888000 -0.58188352561 -0.680817583624
863897000 -0.582878535291 -0.68186974322
863906000 -0.583210310753 -0.681370695656
863915000 -0.583452334386 -0.681726495105
863924000 -0.582410313257 -0.680846721929
863933000 -0.581984503629 -0.680518937627
863942000 -0.580874591708 -0.679377898333
863951000 -0.581104863818 -0.680420197315
863960000 -0.581693662412 -0.680120421639
863969000 -0.582971275434 -0.680347084901
863978000 -0.582747279497 -0.679861043542
863987000 -0.582919532154 -0.680873495654
863996000 -0.58230301957 -0.679639211826
864005000 -0.582818665625 -0.679979929711
864014000 -0.583744105061 -0.680569082982
864023000 -0.5845457929 -0.682146923301
864032000 -0.585148731162 -0.681267461667
864041000 -0.583356341671 -0.680971109873
864050000 -0.58274965104 -0.680834763481
864059000 -0.581797959156 -0.681252246834
864068000 -0.581564581193 -0.68029617503
864077000 -0.581922939073 -0.680516933392
864086000 -0.58186806965 -0.680201382686
864095000 -0.582294518978 -0.680222095852
864104000 -0.583046234434 -0.680394520907
864113000 -0.58266727283 -0.680711525529
864122000 -0.582197982746 -0.68051358284
864131000 -0.581922105636 -0.680429632539
864140000 -0.582657456153 -0.681064690676
864149000 -0.582141563772 -0.681049948754
864158000 -0.582184997977 -0.681221951906
864167000 -0.581919288097 -0.680172564521
864176000 -0.582820452929 -0.680602258672
864185000 -0.583144970875 -0.68056295023
864194000 -0.58365719474 -0.680576007456
864203000 -0.584284991717 -0.681058700155
864212000 -0.583803386392 -0.680108429439
864221000 -0.5832909433 -0.679892546258
864230000 -0.582941955555 -0.680085431588
864239000 -0.582981616514 -0.680048723126
864248000 -0.582560233066 -0.680034215041
864257000 -0.582933342383 -0.680436483099
864266000 -0.582809664022 -0.679527273281
864275000 -0.582325042136 -0.679463094639
864284000 -0.584075310334 -0.679056221548
864293000 -0.583387224095 -0.678276464753
864302000 -0.583603632421 -0.678495150864
864311000 -0.58451604829 -0.679675306034
864320000 -0.583824384912 -0.679812224355
864329000 -0.584351166825 -0.678494312257
864338000 -0.583729185516 -0.679319390108
864347000 -0.583302159623 -0.678766589433
864356000 -0.58349159787 -0.679638886652
864365000 -0.583948220741 -0.678775819955
864374000 -0.583906189905 -0.679408502414
864383000 -0.582860429879 -0.678551423164
864392000 -0.583272363885 -0.678629527021
864401000 -0.583006286691 -0.678169233902
864410000 -0.582613024254 -0.677860093914
864419000 -0.58270906265 -0.677827231635
864428000 -0.582805832411 -0.678178568118
864437000 -0.581285370885 -0.678960264288
864446000 -0.582676815269 -0.679502146
864455000 -0.582596244125 -0.680064006874
864464000 -0.58324239291 -0.679866867037
864473000 -0.584143576028 -0.679192350646
864482000 -0.585328648051 -0.677579645763
864491000 -0.587470348375 -0.680367658888
864500000 -0.584244630191 -0.67944397181
864509000 -0.584137802813 -0.678587623
864518000 -0.583068576415 -0.678929299422
864527000 -0.583264765667 -0.6787775933
864536000 -0.584099615576 -0.679430308322
864545000 -0.582829921338 -0.679563316763
864554000 -0.582618140947 -0.67982493128
864563000 -0.58272048083 -0.68004735616
864572000 -0.582094846926 -0.680474779087
864581000 -0.582627807522 -0.67914006843
864590000 -0.583403023953 -0.679112607291
864599000 -0.583259365656 -0.678360251413
864608000 -0.583436058386 -0.679047314423
864617000 -0.583738995445 -0.678377753791
864626000 -0.584156502364 -0.679466966392
864635000 -0.584008004914 -0.679478615217
864644000 -0.583887575382 -0.679719580142
864653000 -0.583548740516 -0.67971519394
864662000 -0.583488322549 -0.679828247583
864671000 -0.58313329571 -0.679604733781
864680000 -0.583283718962 -0.679585784571
864689000 -0.583947484365 -0.679301325825
864698000 -0.584162374787 -0.67901070833
864707000 -0.584073516899 -0.67891180228
864716000 -0.584747927593 -0.678232338532
864725000 -0.583373055535 -0.678976556197
864734000 -0.583301441885 -0.679002577399
864743000 -0.582809551964 -0.679963065436
864752000 -0.583096672176 -0.679631543596
864761000 -0.582709020352 -0.680335761491
864770000 -0.583565784784 -0.680631657776
864779000 -0.583629981497 -0.680714523843
864788000 -0.58244086649 -0.679469113499
864797000 -0.582340473293 -0.678945343792
864806000 -0.582709157192 -0.679230153869
864815000 -0.582696587704 -0.679582379947
864824000 -0.583840843383 -0.679868595019
864833000 -0.584934817877 -0.678918041361
864842000 -0.584100470677 -0.679132158898
864851000 -0.583775390172 -0.678724671458
864860000 -0.58324700462 -0.678902498808
864869000 -0.583356188307 -0.67835763958
864878000 -0.583208473631 -0.678498296852
864887000 -0.583596435066 -0.678510730389
864896000 -0.584080823364 -0.67848503525
864905000 -0.583611938624 -0.6786066128
864914000 -0.583192657257 -0.679198211062
864923000 -0.583444966523 -0.680702420268
864932000 -0.583023088389 -0.679790828872
864941000 -0.583021726162 -0.679619678907
864950000 -0.58369899759 -0.678951641167
864959000 -0.583614148298 -0.679699620656
864968000 -0.583923163727 -0.678497271049
864977000 -0.583411432555 -0.678494144569
864986000 -0.584690289733 -0.677783257602
864995000 -0.58521415268 -0.677898697907
865004000 -0.586625445212 -0.677557715634
865013000 -0.585826913633 -0.677318161798
865022000 -0.585773431947 -0.677578158757
865031000 -0.584916152369 -0.67760009715
865040000 -0.584632462983 -0.678538756081
865049000 -0.584438031882 -0.67809330845
865058000 -0.584522249019 -0.678355288149
865067000 -0.584754079162 -0.677921658822
865076000 -0.584594739339 -0.677555649593
865085000 -0.584378787704 -0.676739844201
865094000 -0.584447306306 -0.67729222613
865103000 -0.584332079675 -0.678418302004
865112000 -0.584855011919 -0.678988827131
865121000 -0.58402954004 -0.679622073444
865130000 -0.583594173265 -0.678542454643
865139000 -0.584572021754 -0.677690805219
865148000 -0.583814281283 -0.676455599496
865157000 -0.583945439846 -0.676276832621
865166000 -0.584548901298 -0.67733223794
865175000 -0.58514062699 -0.677641046923
865184000 -0.584789617987 -0.677901887404
865193000 -0.584407009917 -0.67822200791
865202000 -0.585397354318 -0.678749677314
865211000 -0.585170737696 -0.678828491524
865220000 -0.584955461859 -0.677797389505
865229000 -0.585795331921 -0.678639993789
865238000 -0.586251340755 -0.678773268138
865247000 -0.585600814192 -0.679176438641
865256000 -0.585200863243 -0.678461966451
865265000 -0.585807006196 -0.677778937481
865274000 -0.584866341763 -0.678126235243
865283000 -0.584188858569 -0.677036567189
865292000 -0.584241261092 -0.676937257821
865301000 -0.584797055093 -0.678030343701
865310000 -0.583781520171 -0.678226762716
865319000 -0.584961226688 -0.678418556271
865328000 -0.584982952358 -0.67794268216
865337000 -0.585501420157 -0.677095244744
865346000 -0.584143768664 -0.677576723324
865355000 -0.584356542823 -0.676860885892
865364000 -0.584701950291 -0.678232405685
865373000 -0.584967919662 -0.677025296934
865382000 -0.5850630174 -0.678439717699
865391000 -0.584421894439 -0.677576348838
865400000 -0.583378394532 -0.677892739637
865409000 -0.583808229681 -0.678422900254
865418000 -0.584646981555 -0.677920707622
865427000 -0.584748902156 -0.67749380668
865436000 -0.584929381844 -0.676733725665
865445000 -0.585455199836 -0.676902381702
865454000 -0.585095286141 -0.67603307552
865463000 -0.583980568455 -0.676607762555
865472000 -0.585054674568 -0.675533460696
865481000 -0.585452419519 -0.675310950615
865490000 -0.586793919173 -0.67532730012
865499000 -0.587039593939 -0.675391819498
865508000 -0.586679422302 -0.676061693012
865517000 -0.585816918388 -0.676778722523
865526000 -0.586050187031 -0.676925073869
865535000 -0.585608637818 -0.6759193404
865544000 -0.585170620655 -0.675675311084
865553000 -0.586089611707 -0.675639015079
865562000 -0.585609475148 -0.675225799521
865571000 -0.58655052712 -0.675021339576
865580000 -0.586749983825 -0.675090828666
865589000 -0.585725377705 -0.675688673713
865598000 -0.58541838264 -0.675996937633
865607000 -0.585062459482 -0.676341866974
865616000 -0.585677622241 -0.676494601264
865625000 -0.585668302772 -0.677304989021
865634000 -0.585811940771 -0.677608310529
865643000 -0.585873402228 -0.677412294791
865652000 -0.586833841875 -0.678013331991
865661000 -0.586469229336 -0.677595769688
865670000 -0.58582056348 -0.677614857863
865679000 -0.58591623496 -0.677264298109
865688000 -0.585746778086 -0.676364075192
865697000 -0.584930973334 -0.676587142383
865706000 -0.584970280728 -0.677026200073
865715000 -0.58524961706 -0.677009592601
865724000 -0.585287211328 -0.676891082093
865733000 -0.585458626757 -0.676162780389
865742000 -0.585993530318 -0.676446968726
865751000 -0.58659764408 -0.676077546293
865760000 -0.586376345812 -0.6761096078
865769000 -0.586703916851 -0.67549547917
865778000 -0.586384928716 -0.675569795179
865787000 -0.586427793086 -0.675288672802
865796000 -0.586063776213 -0.67630538944
865805000 -0.585133496463 -0.675837986927
865814000 -0.584853710055 -0.676005046856
865823000 -0.585685626782 -0.676134372957
865832000 -0.585508021729 -0.674950116414
865841000 -0.585584937209 -0.675011738855
865850000 -0.586827175893 -0.67535518
865859000 -0.586167097987 -0.675996444595
865868000 -0.587397656896 -0.676642923001
865877000 -0.586582168707 -0.676176117245
865886000 -0.58727781234 -0.67601150266
865895000 -0.58641120654 -0.675974322136
865904000 -0.586053028041 -0.676371983103
865913000 -0.586028289576 -0.67596892997
865922000 -0.586217879205 -0.675533988215
865931000 -0.58557871133 -0.67495058269
865940000 -0.585769996952 -0.676116329532
865949000 -0.585010240568 -0.675090235499
865958000 -0.585356687124 -0.675371411178
865967000 -0.586163333307 -0.676208547286
865976000 -0.58598545302 -0.675184332492
865985000 -0.586330562617 -0.675726314502
865994000 -0.586371564071 -0.675575793309
866003000 -0.587672494344 -0.675534647113
866012000 -0.587491045134 -0.675769783962
866021000 -0.58765816839 -0.67463257417
866030000 -0.587197776614 -0.674324072303
866039000 -0.587678233168 -0.674215327582
866048000 -0.587954929908 -0.674320495261
866057000 -0.587934122867 -0.674215247835
866066000 -0.588249714916 -0.674487362738
866075000 -0.58803849947 -0.674050623456
866084000 -0.586963690539 -0.675016287727
866093000 -0.58719433667 -0.674821666977
866102000 -0.586908492394 -0.674967354725
866111000 -0.587097561484 -0.674924091115
866120000 -0.586583749835 -0.67476307625
866129000 -0.588025142698 -0.673949824599
866138000 -0.587486451738 -0.674635729664
866147000 -0.58844394031 -0.674384839938
866156000 -0.588817944177 -0.673907373519
866165000 -0.588617458897 -0.674664368564
866174000 -0.588149066863 -0.673919583618
866183000 -0.587578399656 -0.674004568559
866192000 -0.587654680041 -0.674247874199
866201000 -0.587802013908 -0.675562151122
866210000 -0.587939497152 -0.675059740802
866219000 -0.588030184691 -0.674938973649
866228000 -0.58679243174 -0.674667544338
866237000 -0.587456699786 -0.674319726621
866246000 -0.587343586999 -0.674232380468
866255000 -0.586982330459 -0.672529265802
866264000 -0.588717319442 -0.671410063576
866273000 -0.589335909725 -0.671252356431
866282000 -0.588421418796 -0.672033531267
866291000 -0.588239637804 -0.673382277152
866300000 -0.587058608127 -0.674194470349
866309000 -0.587158127968 -0.673812701954
866318000 -0.588435994873 -0.673954349591
866327000 -0.589525456691 -0.673848008254
866336000 -0.589137541066 -0.673982908808
866345000 -0.588420009128 -0.674126716785
866354000 -0.589784594624 -0.673758573487
866363000 -0.589435505055 -0.673401857084
866372000 -0.588915005039 -0.673467561385
866381000 -0.58909059261 -0.671949420646
866390000 -0.589058965202 -0.672518296039
866399000 -0.587858770462 -0.672944905203
866408000 -0.58757196217 -0.673041160723
866417000 -0.586096939099 -0.67288177745
866426000 -0.586324059286 -0.673498284371
866435000 -0.587614838845 -0.673699320019
866444000 -0.587222943605 -0.673205971526
866453000 -0.587111436226 -0.673608623544
866462000 -0.588246505229 -0.673482878841
866471000 -0.587673144206 -0.672377850794
866480000 -0.587432228074 -0.674374621277
866489000 -0.588674688029 -0.67487747495
866498000 -0.587324938151 -0.675126714927
866507000 -0.588103885245 -0.674932689382
866516000 -0.587762772282 -0.674387174222
866525000 -0.588190248716 -0.674706757941
866534000 -0.587637398518 -0.675281341242
866543000 -0.587377002878 -0.674248979935
866552000 -0.587296209506 -0.674221981601
866561000 -0.586457156061 -0.674380645462
866570000 -0.587402184767 -0.673805150936
866579000 -0.588157822753 -0.674244408382
866588000 -0.587826842797 -0.673674689212
866597000 -0.588969921185 -0.673438351646
866606000 -0.589532737212 -0.673104139047
866615000 -0.588926813616 -0.672820724931
866624000 -0.590194789552 -0.673177034625
866633000 -0.589480701452 -0.673915460199
866642000 -0.589709448528 -0.674161396168
866651000 -0.588764759905 -0.67428606811
866660000 -0.589041483156 -0.673640361565
866669000 -0.589994042599 -0.673617580503
866678000 -0.588452359429 -0.674170881529
866687000 -0.589453186573 -0.672956252856
866696000 -0.5887875805 -0.673825145059
866705000 -0.58849739154 -0.673751797675
866714000 -0.58827530336 -0.673815552212
866723000 -0.587664553645 -0.673029197552
866732000 -0.587584886238 -0.672858126775
866741000 -0.587718152474 -0.673283338517
866750000 -0.588163540749 -0.673085101568
866759000 -0.58880915404 -0.674308862706
866768000 -0.589371827569 -0.673517591761
866777000 -0.589950173974 -0.673339150052
866786000 -0.589821834647 -0.673622991779
866795000 -0.590074957236 -0.673885273113
866804000 -0.588996313098 -0.673471232253
866813000 -0.589902258171 -0.674065053393
866822000 -0.588882123518 -0.674136971985
866831000 -0.588783339327 -0.673305813923
866840000 -0.588452937569 -0.673050391981
866849000 -0.588849865104 -0.672325804498
866858000 -0.589598388148 -0.672242841461
866867000 -0.590189761891 -0.672045856474
866876000 -0.590802673539 -0.672251110881
866885000 -0.58961507821 -0.67320330769
866894000 -0.588557439685 -0.673305632251
866903000 -0.588114626315 -0.673115661262
866912000 -0.587494726248 -0.672792423597
866921000 -0.588047728306 -0.673092801607
866930000 -0.589241160055 -0.673482260817
866939000 -0.588559667508 -0.673706401464
866948000 -0.589240072041 -0.673307387457
866957000 -0.589443756187 -0.673610577949
866966000 -0.589307849054 -0.673464475106
866975000 -0.590069367465 -0.673323844389
866984000 -0.590428228165 -0.672972131986
866993000 -0.589918996131 -0.673559720089
867002000 -0.589074794291 -0.672947733499
867011000 -0.588762147125 -0.672390158473
867020000 -0.588247022168 -0.672177382843
867029000 -0.588645660619 -0.673342642359
867038000 -0.588544488345 -0.673307520252
867047000 -0.588310735229 -0.673244077507
867056000 -0.588119103214 -0.67350231535
867065000 -0.589112676886 -0.67334712137
867074000 -0.589037824891 -0.671968069842
867083000 -0.589263476746 -0.672400800662
867092000 -0.588551728616 -0.671936620488
867101000 -0.588040380483 -0.672232657423
867110000 -0.588433742356 -0.672246633886
867119000 -0.589079017535 -0.672249770008
867128000 -0.589835712864 -0.672199074036
867137000 -0.59021991078 -0.673293076583
867146000 -0.58971101869 -0.67344864954
867155000 -0.590654409068 -0.672553424227
867164000 -0.590270186423 -0.67429677448
867173000 -0.590743344165 -0.673755784403
867182000 -0.589703690824 -0.673622660322
867191000 -0.589224319585 -0.673305737941
867200000 -0.588659285805 -0.67316814123
867209000 -0.588033086299 -0.673471554185
867218000 -0.587640530985 -0.672338645803
867227000 -0.587528381819 -0.672537140707
867236000 -0.588474202399 -0.672256717307
867245000 -0.589331914191 -0.672580299949
867254000 -0.589207819621 -0.672067730165
867263000 -0.588552885811 -0.672920904766
867272000 -0.589287911346 -0.673694548627
867281000 -0.588968588228 -0.67455981052
867290000 -0.589327863568 -0.674825328561
867299000 -0.589645064375 -0.674396897317
867308000 -0.588929829047 -0.675049089106
867317000 -0.587433578239 -0.675535129588
867326000 -0.587509192839 -0.675811201464
867335000 -0.587362296229 -0.676620759377
867344000 -0.588322199846 -0.675478157707
867353000 -0.589787074783 -0.675322525465
867362000 -0.59119946668 -0.674631150413
867371000 -0.590401239321 -0.67345667815
867380000 -0.590291547107 -0.67377206963
867389000 -0.590183775384 -0.674838070002
867398000 -0.590234282932 -0.673056363492
867407000 -0.590385010739 -0.673301227965
867416000 -0.590299477358 -0.673858231219
867425000 -0.59004151474 -0.673722904587
867434000 -0.590399682972 -0.673723355199
867443000 -0.590584685882 -0.67261279459
867452000 -0.590349909285 -0.673628501938
867461000 -0.589705749591 -0.672012548196
867470000 -0.590071964686 -0.672660028813
867479000 -0.589661734474 -0.672803471811
867488000 -0.589770435265 -0.673834422874
867497000 -0.58999949531 -0.673720457481
867506000 -0.589136518061 -0.67422286087
867515000 -0.589063867981 -0.673991431879
867524000 -0.588735790629 -0.673951933164
867533000 -0.589545628921 -0.672774141154
867542000 -0.589931372254 -0.672907441707
867551000 -0.590176383408 -0.673089692251
867560000 -0.59001688076 -0.672885329415
867569000 -0.59087136847 -0.673263420256
867578000 -0.591240107393 -0.673227088829
867587000 -0.590463133193 -0.673701987137
867596000 -0.589438917746 -0.674191114568
867605000 -0.590183606071 -0.674489391461
867614000 -0.590679543633 -0.674524282853
867623000 -0.589304278143 -0.674608473853
867632000 -0.589864765443 -0.674251049326
867641000 -0.589301749191 -0.673499063296
867650000 -0.588566533998 -0.671134407575
867659000 -0.589583011167 -0.67258816185
867668000 -0.590395543612 -0.673133534068
867677000 -0.591194530179 -0.674135506628
867686000 -0.590262758111 -0.673499465899
867695000 -0.591560292726 -0.674326619322
867704000 -0.591256431274 -0.673412508098
867713000 -0.59026808623 -0.674424208229
867722000 -0.58875908967 -0.674235392971
867731000 -0.587206426086 -0.675103332518
867740000 -0.587819104236 -0.674875384774
867749000 -0.587666101662 -0.674457321219
867758000 -0.588127352075 -0.673185278667
867767000 -0.590301228651 -0.673558404246
867776000 -0.589671163399 -0.672994407602
867785000 -0.589757007217 -0.672267896685
867794000 -0.590886012956 -0.671788734351
867803000 -0.591651986118 -0.671392764882
867812000 -0.591547547397 -0.673380106356
867821000 -0.591274202786 -0.674031358934
867830000 -0.590664283807 -0.674074602894
867839000 -0.589294133507 -0.673073428659
867848000 -0.587677654672 -0.673276310075
867857000 -0.588585720952 -0.673218481352
867866000 -0.589752481079 -0.673022523387
867875000 -0.590566889583 -0.673464552738
867884000 -0.590824420621 -0.672920297584
867893000 -0.590938044701 -0.672658705987
867902000 -0.590886538546 -0.672777940844
867911000 -0.590657679748 -0.67242656968
867920000 -0.590316343043 -0.673256922075
867929000 -0.589816334159 -0.673765969493
867938000 -0.588606796883 -0.673402701882
867947000 -0.589268002919 -0.673157695771
867956000 -0.589258399465 -0.672937368274
867965000 -0.588906093782 -0.673322886531
867974000 -0.589806325867 -0.673858953242
867983000 -0.589017172111 -0.67361174036
867992000 -0.589927843929 -0.675075590907
868001000 -0.590488113787 -0.674227083069
868010000 -0.590827709647 -0.674724099604
868019000 -0.590861476326 -0.672994817413
868028000 -0.592024225139 -0.67334171588
868037000 -0.591100130632 -0.673869942974
868046000 -0.590523519577 -0.674425366336
868055000 -0.589842195717 -0.673294212546
868064000 -0.590016560666 -0.673445318314
868073000 -0.589372258981 -0.672039573298
868082000 -0.589555030859 -0.673248435651
868091000 -0.590026572064 -0.673366215057
868100000 -0.588985519874 -0.673289647372
868109000 -0.589302778296 -0.672743322017
868118000 -0.589239850252 -0.673357674755
868127000 -0.590065673621 -0.672979030115
868136000 -0.590826363619 -0.672801228415
868145000 -0.590808800737 -0.673798763748
868154000 -0.591148271861 -0.674295498075
868163000 -0.591627497718 -0.67327828606
868172000 -0.590894858639 -0.673479101119
868181000 -0.590488861507 -0.673779900691
868190000 -0.590419104297 -0.673502496831
868199000 -0.589926898442 -0.673700753679
868208000 -0.589014418058 -0.674357891532
868217000 -0.589301056419 -0.67345354457
868226000 -0.589796793999 -0.6733963371
868235000 -0.59011219537 -0.672732128342
868244000 -0.590603710567 -0.672965262178
868253000 -0.591153688262 -0.672822970914
868262000 -0.59196464207 -0.67316808084
868271000 -0.591265941463 -0.672979393793
868280000 -0.591147672913 -0.673372707683
868289000 -0.591571726346 -0.673336562759
868298000 -0.590560141449 -0.672920888255
868307000 -0.591164352506 -0.67256858648
868316000 -0.591380185087 -0.672403146893
868325000 -0.591081197183 -0.672656639775
868334000 -0.590939221829 -0.672741103255
868343000 -0.591751099708 -0.673628407622
868352000 -0.590874266214 -0.672891037562
868361000 -0.590937293208 -0.673337336279
868370000 -0.590572735644 -0.673469926967
868379000 -0.590305995417 -0.673513503963
868388000 -0.590949954053 -0.67330499879
868397000 -0.591475364391 -0.672736564584
868406000 -0.5920122326 -0.673668817123
868415000 -0.591043039566 -0.672726557054
868424000 -0.591110243106 -0.673838901768
868433000 -0.591724014536 -0.673632972808
868442000 -0.592359693824 -0.673921873324
868451000 -0.592219981829 -0.673532897732
868460000 -0.592293565335 -0.673551056622
868469000 -0.591567055447 -0.67380916163
868478000 -0.591216583352 -0.67302627578
868487000 -0.590993637066 -0.67355658654
868496000 -0.589752371948 -0.673251850745
868505000 -0.590801498091 -0.673429671575
868514000 -0.591043279609 -0.673965861091
868523000 -0.591470818705 -0.673615062536
868532000 -0.591372799439 -0.674814197142
868541000 -0.5918861965 -0.674653256086
868550000 -0.591513302335 -0.673771397862
868559000 -0.591124686189 -0.674196599584
868568000 -0.589616625395 -0.672697644327
868577000 -0.590375075743 -0.673716807614
868586000 -0.589856511449 -0.673320103863
868595000 -0.591224700826 -0.673600068653
868604000 -0.590542550068 -0.674238643632
868613000 -0.590353736117 -0.674631951732
868622000 -0.590300540235 -0.674723668711
868631000 -0.589663532636 -0.674882876021
868640000 -0.590369270112 -0.674032068793
868649000 -0.590581590165 -0.673714809263
868658000 -0.589876034754 -0.673328717148
868667000 -0.590796758188 -0.672917831688
868676000 -0.589591057848 -0.672902544313
868685000 -0.589748409049 -0.67381805066
868694000 -0.590196811435 -0.673026619255
868703000 -0.591515615353 -0.672997157918
868712000 -0.592139573817 -0.673207883537
868721000 -0.591682055018 -0.672692395243
868730000 -0.592750935166 -0.673339397643
868739000 -0.592334420036 -0.673954333133
868748000 -0.591743463408 -0.67301596158
868757000 -0.591212293074 -0.672435078577
868766000 -0.590680945646 -0.672337593187
868775000 -0.591246324258 -0.672753876136
868784000 -0.590530343201 -0.67230806643
868793000 -0.590308783956 -0.673485703748
868802000 -0.59057591438 -0.673374692189
868811000 -0.590126192959 -0.672614276995
868820000 -0.589649649279 -0.67392628045
868829000 -0.589344112271 -0.673937471365
868838000 -0.590009884301 -0.674317657836
868847000 -0.589668027986 -0.674640579637
868856000 -0.590375209151 -0.674580602538
868865000 -0.590562999776 -0.674323152126
868874000 -0.59109179982 -0.674181302569
868883000 -0.591271378278 -0.673730692048
868892000 -0.591549441197 -0.67352196745
868901000 -0.59144252277 -0.673015011194
868910000 -0.591500110366 -0.671695190732
868919000 -0.59061246219 -0.673635517263
868928000 -0.590839035807 -0.673993742599
868937000 -0.590620153838 -0.673906416088
868946000 -0.59029236808 -0.675323880755
868955000 -0.59043063129 -0.674745869208
868964000 -0.591640388466 -0.674163634342
868973000 -0.591926234737 -0.673407335764
868982000 -0.591966323869 -0.672821890423
868991000 -0.591829002805 -0.672191803433
869000000 -0.59150568383 -0.672431889929
