! Calibrated averaged scanner-service zoom
# Hz S RI R 50
935000000 -0.774396268793 -0.570546491083
935006000 -0.778453976738 -0.567143482283
935012000 -0.779530524385 -0.569719030141
935018000 -0.772730276089 -0.566681376308
935024000 -0.77308404409 -0.56957248466
935030000 -0.774869791796 -0.567114969364
935036000 -0.770565332421 -0.571473205863
935042000 -0.771993380144 -0.566860661458
935048000 -0.775298467975 -0.567337692266
935054000 -0.769631880023 -0.568277263823
935060000 -0.773503031063 -0.571635606178
935066000 -0.776303091668 -0.570274633382
935072000 -0.776699662017 -0.568813287318
935078000 -0.773375117701 -0.569258520234
935084000 -0.774446944078 -0.570413493689
935090000 -0.776531010935 -0.568988946777
935096000 -0.771087323529 -0.570904373114
935102000 -0.774223814111 -0.572295758773
935108000 -0.775245788203 -0.57157796098
935114000 -0.773800665158 -0.568903874415
935120000 -0.776106753194 -0.569594212324
935126000 -0.778203894509 -0.569771226954
935132000 -0.775498870326 -0.569996670956
935138000 -0.775577983805 -0.572242076749
935144000 -0.773939210621 -0.568293788795
935150000 -0.771695458011 -0.566081539144
935156000 -0.772901576529 -0.566335614268
935162000 -0.772650134149 -0.563331211334
935168000 -0.772622249685 -0.568032578661
935174000 -0.773963397479 -0.568797542098
935180000 -0.77578447876 -0.569950167427
935186000 -0.7754221692 -0.568458383437
935192000 -0.773946280192 -0.570251967089
935198000 -0.776067960839 -0.567918949491
935204000 -0.777173097115 -0.565645771014
935210000 -0.774574365159 -0.566285526546
935216000 -0.773796891342 -0.569570408247
935222000 -0.772800673499 -0.568256095749
935228000 -0.773758233318 -0.567009483773
935234000 -0.773790298477 -0.56841700511
935240000 -0.775916145301 -0.569412692603
935246000 -0.778507303151 -0.568140166069
935252000 -0.77641673491 -0.569296298195
935258000 -0.775432817265 -0.574219924994
935264000 -0.77743524251 -0.574593749403
935270000 -0.77250517574 -0.579403501389
935276000 -0.773840286853 -0.57607441484
935282000 -0.774296987134 -0.571952940903
935288000 -0.773450920459 -0.571633059818
935294000 -0.771643528976 -0.565211059526
935300000 -0.769091179081 -0.567080004646
935306000 -0.772799355148 -0.565167329849
935312000 -0.774073326701 -0.567824493341
935318000 -0.773533495649 -0.565019422587
935324000 -0.773351685171 -0.567713316062
935330000 -0.773913794383 -0.564487036706
935336000 -0.773210482215 -0.56835026562
935342000 -0.7751007114 -0.565542535427
935348000 -0.776162131685 -0.568017949916
935354000 -0.772452518678 -0.563730988575
935360000 -0.773378725027 -0.566021929425
935366000 -0.775068818231 -0.566624767166
935372000 -0.77354088372 -0.568575059737
935378000 -0.773918165731 -0.569734668412
935384000 -0.773053429092 -0.567155466979
935390000 -0.775405333551 -0.566282144049
935396000 -0.770566119766 -0.566590896717
935402000 -0.77126675678 -0.564851501229
935408000 -0.770334390294 -0.564338424503
935414000 -0.772993474869 -0.565306785986
935420000 -0.77261582513 -0.567318655544
935426000 -0.772916635495 -0.566180865902
935432000 -0.77443798523 -0.570244975664
935438000 -0.775019881909 -0.570889375524
935444000 -0.777268674493 -0.56819160372
935450000 -0.777705902476 -0.570005409343
935456000 -0.778212038232 -0.567906119431
935462000 -0.775748417576 -0.568043271438
935468000 -0.776382783234 -0.57085831101
935474000 -0.772929379322 -0.568286317464
935480000 -0.772889440469 -0.569600557884
935486000 -0.772743124465 -0.568221566665
935492000 -0.774352542893 -0.56603623363
935498000 -0.775419575629 -0.563899263162
935504000 -0.771638811646 -0.564995834515
935510000 -0.774038181776 -0.565977035938
935516000 -0.771284824912 -0.563598344535
935522000 -0.775591773919 -0.565985831584
935528000 -0.771260633266 -0.56805745916
935534000 -0.772332758366 -0.564719275477
935540000 -0.774944261745 -0.56664245009
935546000 -0.771777513069 -0.563331511011
935552000 -0.7744897135 -0.567280209638
935558000 -0.772021851672 -0.564905384581
935564000 -0.775030529702 -0.567449910175
935570000 -0.771488692555 -0.568552453632
935576000 -0.772971276925 -0.569798071118
935582000 -0.771514446467 -0.574185207658
935588000 -0.771559100486 -0.575117914655
935594000 -0.770370949876 -0.571390247568
935600000 -0.773744289924 -0.571159735092
935606000 -0.770219013549 -0.572245506036
935612000 -0.772841715349 -0.567456284201
935618000 -0.771835353649 -0.567244208349
935624000 -0.771773222173 -0.568070342722
935630000 -0.773569747586 -0.569563179196
935636000 -0.770830335862 -0.57201068717
935642000 -0.772054785357 -0.570942658851
935648000 -0.772475650191 -0.570226110508
935654000 -0.77672795527 -0.568272637237
935660000 -0.777680255146 -0.570453991268
935666000 -0.77926281901 -0.5672037637
935672000 -0.775328757194 -0.569397011403
935678000 -0.779765980845 -0.568418292018
935684000 -0.777823741982 -0.567309599266
935690000 -0.776062367663 -0.570135642278
935696000 -0.775373183431 -0.567934856879
935702000 -0.774855663447 -0.564968983131
935708000 -0.779568006642 -0.565176250081
935714000 -0.773553443131 -0.565251685412
935720000 -0.776923450332 -0.567131499226
935726000 -0.7748423933 -0.567182809105
935732000 -0.771466405784 -0.568487599616
935738000 -0.772689416342 -0.571501654336
935744000 -0.775572973935 -0.567279243741
935750000 -0.77298232519 -0.566725349176
935756000 -0.77275284167 -0.567009191423
935762000 -0.774583256045 -0.568478214335
935768000 -0.773771238075 -0.568830856325
935774000 -0.771807200525 -0.567465371683
935780000 -0.772785028998 -0.568435077247
935786000 -0.771782857873 -0.566646000863
935792000 -0.770664393895 -0.566895559388
935798000 -0.774128635614 -0.567424741796
935804000 -0.775695745848 -0.565145967403
935810000 -0.776950051158 -0.56509675646
935816000 -0.778296374204 -0.565389790012
935822000 -0.777676127787 -0.565417248655
935828000 -0.777525919655 -0.563304825618
935834000 -0.775913669739 -0.564198963913
935840000 -0.775779941818 -0.567092601787
935846000 -0.7731388908 -0.565347829821
935852000 -0.775167911334 -0.566439958279
935858000 -0.77492451777 -0.564119907185
935864000 -0.777791411717 -0.563148872247
935870000 -0.777548181853 -0.567067333406
935876000 -0.778558215382 -0.562463711796
935882000 -0.776457270162 -0.564076647361
935888000 -0.77816350936 -0.568386580362
935894000 -0.775978794007 -0.568152226557
935900000 -0.776912744594 -0.569247337633
935906000 -0.777588494247 -0.570445383564
935912000 -0.776428589565 -0.565417111359
935918000 -0.777509545764 -0.568781578121
935924000 -0.776254769717 -0.568320470499
935930000 -0.776457236916 -0.568621920148
935936000 -0.778411800278 -0.569083899996
935942000 -0.774973768914 -0.568861425707
935948000 -0.777083247982 -0.568611857603
935954000 -0.774207531286 -0.565918132981
935960000 -0.773996067246 -0.567463751758
935966000 -0.769692930915 -0.571754458592
935972000 -0.769769006742 -0.571377220848
935978000 -0.770584358924 -0.567262657212
935984000 -0.767022408189 -0.567873386935
935990000 -0.756548117485 -0.571183003887
935996000 -0.770462571433 -0.566250771404
936002000 -0.76972256066 -0.567982394187
936008000 -0.772078785886 -0.565554082352
936014000 -0.77664961912 -0.564726754577
936020000 -0.774923698315 -0.565447532075
936026000 -0.773090412058 -0.566609267197
936032000 -0.773380657575 -0.562575455644
936038000 -0.774270037776 -0.565987464221
936044000 -0.773571930067 -0.566264160798
936050000 -0.77459259399 -0.564893715887
936056000 -0.77317987262 -0.561715071655
936062000 -0.775215576226 -0.566126562025
936068000 -0.777206068221 -0.566595120964
936074000 -0.776862483556 -0.567912196771
936080000 -0.776886930781 -0.565341439768
936086000 -0.777043207135 -0.566134226319
936092000 -0.775630671929 -0.568542119932
936098000 -0.772258656188 -0.567161173706
936104000 -0.771558503695 -0.570935219299
936110000 -0.773457532917 -0.569944536597
936116000 -0.775663394943 -0.573115180714
936122000 -0.777733378535 -0.574951084115
936128000 -0.776892269543 -0.571637376793
936134000 -0.777462100182 -0.570915023915
936140000 -0.778586954127 -0.572879100965
936146000 -0.776506653029 -0.570019381706
936152000 -0.779164742799 -0.567560090917
936158000 -0.777820532909 -0.565820217511
936164000 -0.77724490018 -0.566016417082
936170000 -0.776912129527 -0.565840718531
936176000 -0.775792752492 -0.565652869168
936182000 -0.777398213304 -0.565201062003
936188000 -0.774734690782 -0.56712641002
936194000 -0.776749020619 -0.56558716074
936200000 -0.779958830772 -0.567701148643
936206000 -0.776376760977 -0.568353475668
936212000 -0.779721357904 -0.568285505723
936218000 -0.776042949059 -0.571278266922
936224000 -0.779475942322 -0.566467253297
936230000 -0.779497346399 -0.566961343577
936236000 -0.780873689453 -0.566355552586
936242000 -0.781996639978 -0.562702634619
936248000 -0.781957239868 -0.565200754948
936254000 -0.780165178784 -0.564515165813
936260000 -0.780043432357 -0.564360418325
936266000 -0.780865157454 -0.565576580513
936272000 -0.781789334523 -0.567262429712
936278000 -0.780792017906 -0.565593447701
936284000 -0.780321652407 -0.567221362812
936290000 -0.778855969114 -0.566962418508
936296000 -0.779066050064 -0.568616612011
936302000 -0.77694062168 -0.568725574462
936308000 -0.774862632166 -0.568529581514
936314000 -0.776110381456 -0.570159916936
936320000 -0.777589318593 -0.56996740862
936326000 -0.7771235483 -0.574226544865
936332000 -0.776532059153 -0.572867374776
936338000 -0.778227159111 -0.57528903925
936344000 -0.777036206326 -0.572302624687
936350000 -0.778665416448 -0.572686847905
936356000 -0.780751208932 -0.570135547889
936362000 -0.778695303458 -0.568639719849
936368000 -0.776872000642 -0.565852551853
936374000 -0.778963054426 -0.567250690818
936380000 -0.778932341446 -0.569152816766
936386000 -0.777900309361 -0.567555714261
936392000 -0.776716404789 -0.566947998987
936398000 -0.776873564889 -0.564144473704
936404000 -0.775317557799 -0.564379470828
936410000 -0.779257924161 -0.565340484859
936416000 -0.775398450475 -0.566287930061
936422000 -0.776902805963 -0.566034001468
936428000 -0.776192873158 -0.56522693971
936434000 -0.777437305641 -0.568607481585
936440000 -0.779128317501 -0.56640171618
936446000 -0.779950535813 -0.566362125064
936452000 -0.781132655302 -0.566418243691
936458000 -0.780856937711 -0.566086546572
936464000 -0.779456249018 -0.565695563873
936470000 -0.776626513071 -0.566588699005
936476000 -0.777519116749 -0.566449833852
936482000 -0.77838953191 -0.566682598032
936488000 -0.7790395086 -0.566255411364
936494000 -0.777791097465 -0.562095252715
936500000 -0.774923265412 -0.563049023417
936506000 -0.774685656272 -0.56111412487
936512000 -0.779160624636 -0.563344074988
936518000 -0.774722311462 -0.564282993403
936524000 -0.775212632158 -0.566252983909
936530000 -0.773772625304 -0.566198044588
936536000 -0.77613703563 -0.565661136587
936542000 -0.773953935402 -0.5645835847
936548000 -0.776999241375 -0.564846715569
936554000 -0.77716907371 -0.565127227606
936560000 -0.778443854326 -0.563798964241
936566000 -0.778067426309 -0.564516185338
936572000 -0.779157279532 -0.564911351387
936578000 -0.779471792721 -0.565260767537
936584000 -0.781946126122 -0.566402103458
936590000 -0.78265361151 -0.563408294791
936596000 -0.783798865908 -0.567973422583
936602000 -0.776980591597 -0.565015293199
936608000 -0.777373860975 -0.567373002311
936614000 -0.773865388759 -0.571008060455
936620000 -0.773299625484 -0.569133289264
936626000 -0.770884748395 -0.569954493042
936632000 -0.774905763434 -0.569110465076
936638000 -0.779305415562 -0.570245808446
936644000 -0.778967346158 -0.569013168921
936650000 -0.780610366201 -0.568535134201
936656000 -0.779788749032 -0.56886139237
936662000 -0.780499268946 -0.569992917956
936668000 -0.778889975308 -0.570071931953
936674000 -0.778207379181 -0.568150225567
936680000 -0.778564195524 -0.565035808618
936686000 -0.777582161729 -0.5685904961
936692000 -0.774784814699 -0.567470929576
936698000 -0.775243354165 -0.567435194695
936704000 -0.776303182672 -0.569839869281
936710000 -0.779627277565 -0.567628078901
936716000 -0.775970610329 -0.569772899229
936722000 -0.779713981213 -0.568107377642
936728000 -0.78023781849 -0.570327887369
936734000 -0.779956907689 -0.572659942766
936740000 -0.780511041757 -0.569912343697
936746000 -0.780116312823 -0.566401975197
936752000 -0.777611297266 -0.564765803102
936758000 -0.776141242342 -0.565064199241
936764000 -0.777477264435 -0.559617252206
936770000 -0.776569454806 -0.559589155041
936776000 -0.773021432912 -0.559676162907
936782000 -0.77314778207 -0.563849524643
936788000 -0.771881294 -0.565543962229
936794000 -0.774016941777 -0.567191607518
936800000 -0.773246916569 -0.564577216272
936806000 -0.777036511612 -0.56678363469
936812000 -0.777220737359 -0.568458782847
936818000 -0.779775873918 -0.567382885848
936824000 -0.778981925645 -0.56945811055
936830000 -0.777735436594 -0.568925083578
936836000 -0.773925508886 -0.565523445853
936842000 -0.773940022624 -0.566828340054
936848000 -0.772144923126 -0.567719155619
936854000 -0.774910216385 -0.568464209358
936860000 -0.774905466192 -0.567119523139
936866000 -0.77682258408 -0.567276110992
936872000 -0.780368631119 -0.568385954456
936878000 -0.782759503286 -0.569399583655
936884000 -0.781737438224 -0.568825675375
936890000 -0.782601536949 -0.56964720037
936896000 -0.779981459401 -0.568681225913
936902000 -0.777661899749 -0.571825941713
936908000 -0.775915505323 -0.569741628549
936914000 -0.775379575909 -0.570324983264
936920000 -0.775834090362 -0.570559326526
936926000 -0.776056872779 -0.569655457575
936932000 -0.775021248264 -0.569763288305
936938000 -0.776246179935 -0.567540488281
936944000 -0.777725795803 -0.569424919309
936950000 -0.777579831385 -0.568671730263
936956000 -0.780373784549 -0.567408140474
936962000 -0.782643414452 -0.567973140236
936968000 -0.78611130586 -0.567025903345
936974000 -0.787865679547 -0.568711142647
936980000 -0.78464219956 -0.568766325823
936986000 -0.782692580122 -0.566713887238
936992000 -0.783814187613 -0.565971209927
936998000 -0.781988065803 -0.567135273042
937004000 -0.779060719927 -0.567596289437
937010000 -0.778415064539 -0.570296560564
937016000 -0.784671448036 -0.560394700161
937022000 -0.774606539015 -0.56965978311
937028000 -0.774905367811 -0.570800838893
937034000 -0.777677929373 -0.569484059656
937040000 -0.777839019372 -0.568798612791
937046000 -0.780339384004 -0.56859429296
937052000 -0.780463644216 -0.569846949498
937058000 -0.780465725751 -0.566114650676
937064000 -0.779074441687 -0.567399685837
937070000 -0.775327355308 -0.566882458294
937076000 -0.777165203678 -0.565259627573
937082000 -0.776003925561 -0.564683160081
937088000 -0.774572942591 -0.567413031272
937094000 -0.776434139069 -0.567950925925
937100000 -0.775338127015 -0.569576339182
937106000 -0.775994710195 -0.571444882473
937112000 -0.775794953328 -0.573110697501
937118000 -0.776501915035 -0.568020363067
937124000 -0.776406757558 -0.567344468418
937130000 -0.77591420336 -0.564982405805
937136000 -0.776231431284 -0.564607834029
937142000 -0.778873869985 -0.561754022168
937148000 -0.779788334257 -0.563938820323
937154000 -0.777050171408 -0.563307024082
937160000 -0.777349420661 -0.564522014004
937166000 -0.775102294753 -0.565184132532
937172000 -0.778265388166 -0.565484227577
937178000 -0.777926709412 -0.564504540287
937184000 -0.779194499751 -0.562634556391
937190000 -0.783027716604 -0.564168742692
937196000 -0.782320036249 -0.563817013955
937202000 -0.78115566513 -0.565181565536
937208000 -0.783124737905 -0.562941439156
937214000 -0.780143077421 -0.563366311768
937220000 -0.781326384172 -0.564447280321
937226000 -0.780208048252 -0.565943806927
937232000 -0.777974292171 -0.565272132392
937238000 -0.780472276066 -0.565374580593
937244000 -0.779907877733 -0.564250202935
937250000 -0.780156513811 -0.566271623351
937256000 -0.780438288589 -0.565149019827
937262000 -0.780265884508 -0.567216120257
937268000 -0.781408656042 -0.568835983537
937274000 -0.779774925317 -0.56701250453
937280000 -0.775684462076 -0.570737058715
937286000 -0.776971857385 -0.566971910588
937292000 -0.775668100828 -0.570584324959
937298000 -0.77864590412 -0.568911633026
937304000 -0.7780567594 -0.566633316368
937310000 -0.776863218455 -0.567090264635
937316000 -0.776695449909 -0.566366463299
937322000 -0.779629235002 -0.566111488615
937328000 -0.779828384547 -0.564718209429
937334000 -0.780606948398 -0.564062481273
937340000 -0.781544799657 -0.562961956705
937346000 -0.777887005462 -0.561121406575
937352000 -0.779001889131 -0.564930670809
937358000 -0.776560349336 -0.563444967421
937364000 -0.775300305021 -0.564268945142
937370000 -0.772762870369 -0.566494455412
937376000 -0.773626757011 -0.565937053188
937382000 -0.776781756843 -0.565101409561
937388000 -0.779337049655 -0.562153932339
937394000 -0.779627953549 -0.564778213446
937400000 -0.780970629598 -0.563189554628
937406000 -0.77916921886 -0.566068192217
937412000 -0.779289014488 -0.563107929386
937418000 -0.778342503104 -0.56464988697
937424000 -0.77924867252 -0.564739292158
937430000 -0.779193322306 -0.566200077383
937436000 -0.780712307308 -0.564002991477
937442000 -0.781542266345 -0.566946583104
937448000 -0.779234096384 -0.567826858393
937454000 -0.778826052805 -0.568230988674
937460000 -0.778221378707 -0.570018454917
937466000 -0.776626963926 -0.569441186517
937472000 -0.777472456073 -0.567918494607
937478000 -0.775565316709 -0.572848540017
937484000 -0.774645611489 -0.571802600054
937490000 -0.77739324382 -0.570622283814
937496000 -0.778742608896 -0.569202719283
937502000 -0.78035227879 -0.568397773848
937508000 -0.781839421547 -0.565621692744
937514000 -0.78320901659 -0.565583857167
937520000 -0.781849569462 -0.56490512874
937526000 -0.783214129265 -0.564945763135
937532000 -0.782030859933 -0.567088646173
937538000 -0.780931902691 -0.563570961043
937544000 -0.780849615718 -0.562809917937
937550000 -0.777821975545 -0.565240795861
937556000 -0.779259975943 -0.565930731635
937562000 -0.77978292161 -0.564822462512
937568000 -0.779729955675 -0.567921145558
937574000 -0.782751893886 -0.565159364118
937580000 -0.781906637607 -0.567837214069
937586000 -0.784713636257 -0.563568601461
937592000 -0.783531752472 -0.565332597428
937598000 -0.783277178044 -0.564060889845
937604000 -0.784258207163 -0.564482821632
937610000 -0.785003131999 -0.565354293323
937616000 -0.785537562895 -0.566467102191
937622000 -0.785664213413 -0.568841423166
937628000 -0.783080632694 -0.564486758855
937634000 -0.787534006812 -0.568975070622
937640000 -0.785741302128 -0.56611261151
937646000 -0.784293520878 -0.566640976295
937652000 -0.78539555022 -0.567949726081
937658000 -0.787055078663 -0.566111569681
937664000 -0.787679922313 -0.56460534636
937670000 -0.782882925198 -0.569854445216
937676000 -0.781390304386 -0.570231981128
937682000 -0.779289544589 -0.569326281014
937688000 -0.777093794031 -0.56752461803
937694000 -0.778055402536 -0.569485121062
937700000 -0.77971509378 -0.568859516784
937706000 -0.781476238531 -0.56721464912
937712000 -0.782204355479 -0.562103228249
937718000 -0.779336117078 -0.562110942805
937724000 -0.777496883328 -0.562114670505
937730000 -0.781354060518 -0.562403881824
937736000 -0.780693588391 -0.563302836924
937742000 -0.779764494762 -0.565209280392
937748000 -0.778825625678 -0.559833834726
937754000 -0.779349321834 -0.562177306986
937760000 -0.779646323965 -0.56184993504
937766000 -0.78227398346 -0.562228447918
937772000 -0.780480564129 -0.562791264071
937778000 -0.779123778588 -0.565096328654
937784000 -0.782085252353 -0.564777055747
937790000 -0.779866498159 -0.565715986791
937796000 -0.780156746389 -0.568636988797
937802000 -0.78274759326 -0.567013722215
937808000 -0.78547186542 -0.568183820425
937814000 -0.783355943342 -0.568503996074
937820000 -0.78465747809 -0.569315452205
937826000 -0.784774980937 -0.566738086183
937832000 -0.787534802213 -0.567611551759
937838000 -0.786975233014 -0.56487203595
937844000 -0.786456975066 -0.567955919604
937850000 -0.783700943009 -0.569037071024
937856000 -0.787077348961 -0.571098309932
937862000 -0.780179381078 -0.566479118579
937868000 -0.781744454204 -0.569072161579
937874000 -0.78129955364 -0.564846830519
937880000 -0.780736165447 -0.567669404597
937886000 -0.782392784205 -0.567981216321
937892000 -0.781112187831 -0.566425980258
937898000 -0.781862808271 -0.565596645676
937904000 -0.781089578848 -0.564856107488
937910000 -0.782691465294 -0.562428397944
937916000 -0.780239787195 -0.561957881509
937922000 -0.780628283979 -0.56324339756
937928000 -0.778994842281 -0.563345408024
937934000 -0.779253087553 -0.562405648419
937940000 -0.776855100639 -0.563262949035
937946000 -0.778291959184 -0.560286500988
937952000 -0.779217526101 -0.565071355077
937958000 -0.779478976781 -0.565395650071
937964000 -0.77917981582 -0.563884691384
937970000 -0.782047138519 -0.565400778105
937976000 -0.779675953163 -0.565124644882
937982000 -0.77920306624 -0.562700777573
937988000 -0.779087238435 -0.566257617275
937994000 -0.781447820962 -0.566267495795
938000000 -0.780304990426 -0.565192885525
938006000 -0.78091461133 -0.566171748915
938012000 -0.781686695111 -0.56522752644
938018000 -0.780248531177 -0.565654234676
938024000 -0.779009410031 -0.564618707816
938030000 -0.782698565773 -0.566574771837
938036000 -0.778854465231 -0.565912398217
938042000 -0.781796317956 -0.568076239253
938048000 -0.775887909412 -0.565772617663
938054000 -0.778067448136 -0.564733047816
938060000 -0.776737517829 -0.567048730119
938066000 -0.776949070087 -0.569208197527
938072000 -0.77986937694 -0.566082612761
938078000 -0.780190134074 -0.569693329639
938084000 -0.782893852613 -0.568275853403
938090000 -0.783559971472 -0.569534215871
938096000 -0.783433496811 -0.566625427053
938102000 -0.782792352854 -0.566260745406
938108000 -0.780977554822 -0.567651743915
938114000 -0.779978725108 -0.564395464391
938120000 -0.780496885096 -0.565372893365
938126000 -0.776362353068 -0.563405465669
938132000 -0.779058219425 -0.563151887817
938138000 -0.777373375975 -0.566210648774
938144000 -0.775350944309 -0.564691939432
938150000 -0.774862315763 -0.565095963948
938156000 -0.779482716825 -0.567114213496
938162000 -0.778849660104 -0.567027501294
938168000 -0.779560569095 -0.568112303471
938174000 -0.781285976115 -0.568758057687
938180000 -0.784812985349 -0.56541401022
938186000 -0.784044548302 -0.569675666067
938192000 -0.784371642077 -0.566947726625
938198000 -0.786396357643 -0.567907606416
938204000 -0.785218244098 -0.56650084068
938210000 -0.785770543802 -0.568026448352
938216000 -0.781490268171 -0.566992894205
938222000 -0.782431564474 -0.566769909826
938228000 -0.779847643731 -0.56796993163
938234000 -0.781536027463 -0.56630194347
938240000 -0.781374092419 -0.564043463968
938246000 -0.779835411184 -0.565768970962
938252000 -0.779340412114 -0.564876362891
938258000 -0.778595658271 -0.562176482983
938264000 -0.779456658157 -0.561166741929
938270000 -0.779223642904 -0.564629878251
938276000 -0.779625632214 -0.564164323328
938282000 -0.776286727573 -0.563919010714
938288000 -0.779721570427 -0.56295318104
938294000 -0.77814570068 -0.564214122551
938300000 -0.779493606924 -0.564847741807
938306000 -0.775607917401 -0.565271610469
938312000 -0.774572284499 -0.567286309768
938318000 -0.777237685456 -0.566415708664
938324000 -0.780001222915 -0.567175105713
938330000 -0.779732145735 -0.566001925827
938336000 -0.783623890988 -0.564071924771
938342000 -0.784769778579 -0.562483670961
938348000 -0.785574293528 -0.562526554755
938354000 -0.784703230633 -0.562627383069
938360000 -0.78256183992 -0.564447983505
938366000 -0.783283927917 -0.564854692879
938372000 -0.778862398776 -0.565928097032
938378000 -0.779546773756 -0.565950970855
938384000 -0.78001346592 -0.565800835127
938390000 -0.781652915738 -0.56824595229
938396000 -0.779942180144 -0.563934128198
938402000 -0.778224017409 -0.567912428467
938408000 -0.779966098474 -0.566454868421
938414000 -0.781082986196 -0.565708967736
938420000 -0.780243145853 -0.566957297246
938426000 -0.777667653252 -0.563740274142
938432000 -0.780497448914 -0.565214127932
938438000 -0.780759553202 -0.565800485631
938444000 -0.782010942273 -0.567811567745
938450000 -0.782502231034 -0.569148385696
938456000 -0.782592255647 -0.571621830684
938462000 -0.783659150964 -0.57171368363
938468000 -0.781376091963 -0.570299039845
938474000 -0.780203800822 -0.566758020276
938480000 -0.778042170068 -0.568877015964
938486000 -0.777734774115 -0.565248244174
938492000 -0.779767898477 -0.564751330801
938498000 -0.780350747428 -0.567009131939
938504000 -0.779177048477 -0.56394459806
938510000 -0.781406780605 -0.56518068795
938516000 -0.780711783054 -0.564756705079
938522000 -0.784206581946 -0.565770805364
938528000 -0.781744217722 -0.564448845271
938534000 -0.785180870563 -0.565285601505
938540000 -0.784055560307 -0.563911982697
938546000 -0.783956304799 -0.56524801624
938552000 -0.782576589011 -0.565430447504
938558000 -0.784452699613 -0.566424811186
938564000 -0.783819089874 -0.569090253676
938570000 -0.783657110959 -0.571226137089
938576000 -0.782563114724 -0.569962750111
938582000 -0.779388023318 -0.568216479803
938588000 -0.777789478406 -0.567748527567
938594000 -0.77969669499 -0.565841202737
938600000 -0.779767353564 -0.566036707586
938606000 -0.775544805566 -0.566588418647
938612000 -0.777364859032 -0.565300936096
938618000 -0.779215076025 -0.56616592911
938624000 -0.779261192468 -0.561436255187
938630000 -0.780933400797 -0.562867445272
938636000 -0.781716174838 -0.563197835535
938642000 -0.780477494829 -0.5645743055
938648000 -0.780543369955 -0.563975457923
938654000 -0.78419923498 -0.563390616648
938660000 -0.78189985276 -0.56886245334
938666000 -0.782039722651 -0.568606195389
938672000 -0.78061676319 -0.566263775576
938678000 -0.781629746337 -0.56590592915
938684000 -0.777284721297 -0.568453155471
938690000 -0.781092338397 -0.564780051633
938696000 -0.780292706816 -0.565132673092
938702000 -0.780100622826 -0.568826140778
938708000 -0.780112668176 -0.566010062536
938714000 -0.783552786602 -0.56719939237
938720000 -0.782552769101 -0.568626945804
938726000 -0.779861231342 -0.566660398402
938732000 -0.782907444811 -0.566193700864
938738000 -0.783917920132 -0.566050361564
938744000 -0.784882265586 -0.562714612339
938750000 -0.780777031753 -0.562302252032
938756000 -0.785065144439 -0.563619543687
938762000 -0.784112338866 -0.562961860087
938768000 -0.779218605787 -0.562769022606
938774000 -0.78086930871 -0.562988850595
938780000 -0.778417929063 -0.567059792458
938786000 -0.780364024301 -0.569177013759
938792000 -0.779876055824 -0.566603033629
938798000 -0.780251387379 -0.565632016769
938804000 -0.7832891744 -0.565252386672
938810000 -0.78053266396 -0.563725559638
938816000 -0.783864689846 -0.56620558318
938822000 -0.785630861152 -0.566944936243
938828000 -0.786382033519 -0.565665507862
938834000 -0.785650085515 -0.562037491699
938840000 -0.787446700952 -0.564089213063
938846000 -0.785376684404 -0.566001565555
938852000 -0.78550368372 -0.567679446046
938858000 -0.786959015292 -0.566548783252
938864000 -0.786970719163 -0.566064347636
938870000 -0.785465899234 -0.56676030965
938876000 -0.788431775199 -0.568061112132
938882000 -0.782123253979 -0.56344465742
938888000 -0.784663664 -0.57083419967
938894000 -0.782444879613 -0.569293962306
938900000 -0.781458715258 -0.567179340675
938906000 -0.782676255369 -0.56190543559
938912000 -0.779404956293 -0.567278420089
938918000 -0.77848502656 -0.564349851238
938924000 -0.776042521819 -0.568367723481
938930000 -0.780513817629 -0.563995757972
938936000 -0.781816842015 -0.564852961148
938942000 -0.785778248556 -0.569098286962
938948000 -0.782117921362 -0.566284219186
938954000 -0.780817753879 -0.567367656457
938960000 -0.785096004029 -0.566502853708
938966000 -0.785100988757 -0.564827240368
938972000 -0.784671257012 -0.5626981403
938978000 -0.784336853395 -0.564079822129
938984000 -0.783334919427 -0.564458740868
938990000 -0.783499214469 -0.56542819045
938996000 -0.782198675888 -0.566508337621
939002000 -0.781745801154 -0.566672609768
939008000 -0.785855339605 -0.570541994081
939014000 -0.784640270925 -0.569150415538
939020000 -0.786181999413 -0.568065823044
939026000 -0.783880831633 -0.569567356456
939032000 -0.786758944013 -0.567184338496
939038000 -0.784526621779 -0.567176037572
939044000 -0.781120679437 -0.568256947009
939050000 -0.782973589016 -0.567081176652
939056000 -0.784086686992 -0.566837858209
939062000 -0.782258156565 -0.569838219522
939068000 -0.783474235951 -0.566424418497
939074000 -0.782473946333 -0.563251819968
939080000 -0.782123735996 -0.565915621029
939086000 -0.781630207487 -0.562240490584
939092000 -0.78455087575 -0.563449463852
939098000 -0.779613928441 -0.564971073075
939104000 -0.779930950504 -0.564765927255
939110000 -0.776823288872 -0.565224401879
939116000 -0.777986346141 -0.564032259891
939122000 -0.774096909341 -0.566511943236
939128000 -0.778054879213 -0.56305776475
939134000 -0.774949820712 -0.56277629178
939140000 -0.783052320511 -0.564574506429
939146000 -0.78004176382 -0.56193009749
939152000 -0.780285204534 -0.562674038873
939158000 -0.781244597389 -0.562457645063
939164000 -0.784116078156 -0.562524814341
939170000 -0.782139581555 -0.560834816812
939176000 -0.78419936885 -0.563423521306
939182000 -0.78237722555 -0.56566131377
939188000 -0.781545120104 -0.566783368466
939194000 -0.779338007984 -0.567340316532
939200000 -0.785209309824 -0.570003929328
939206000 -0.777684858356 -0.569222764697
939212000 -0.781681770232 -0.569602384517
939218000 -0.780606072973 -0.568350395331
939224000 -0.781088952224 -0.56726142711
939230000 -0.780509956698 -0.561387365805
939236000 -0.778876194054 -0.563621964318
939242000 -0.783555199602 -0.560864915861
939248000 -0.781763179781 -0.562102676542
939254000 -0.781679140517 -0.564065914998
939260000 -0.782679267661 -0.565491464689
939266000 -0.784190368297 -0.563767017102
939272000 -0.784065344014 -0.567045912524
939278000 -0.784994578918 -0.565095634251
939284000 -0.782939476479 -0.567982461311
939290000 -0.782849454714 -0.563844131308
939296000 -0.786049179078 -0.570548374263
939302000 -0.783019551078 -0.56500723026
939308000 -0.782814281541 -0.566402503553
939314000 -0.780059051005 -0.570555295547
939320000 -0.775510310861 -0.565139687193
939326000 -0.777988895144 -0.565118401903
939332000 -0.77836102321 -0.565156655953
939338000 -0.780563523078 -0.569309045895
939344000 -0.780457695323 -0.565594387511
939350000 -0.7761733952 -0.569151658658
939356000 -0.781528776521 -0.567121349285
939362000 -0.783591940638 -0.564093665283
939368000 -0.783043811615 -0.562780764152
939374000 -0.78476054145 -0.561503458343
939380000 -0.785331851098 -0.560422406518
939386000 -0.78659178941 -0.560193709516
939392000 -0.784148085691 -0.561125571037
939398000 -0.784861785949 -0.564396315343
939404000 -0.785332475952 -0.563182180022
939410000 -0.783919630929 -0.5658793158
939416000 -0.788992717668 -0.567898009761
939422000 -0.787125551712 -0.567052247407
939428000 -0.783331402447 -0.569806043559
939434000 -0.787858814957 -0.565494075829
939440000 -0.785077272968 -0.567206177879
939446000 -0.784600645521 -0.563543580401
939452000 -0.786301133919 -0.569327980251
939458000 -0.779697537146 -0.569557904877
939464000 -0.7814904028 -0.5700167134
939470000 -0.780437285408 -0.567004777275
939476000 -0.781743976308 -0.568904036198
939482000 -0.782685625158 -0.565325362261
939488000 -0.784371872902 -0.566766451092
939494000 -0.780806968034 -0.563863233894
939500000 -0.781796062262 -0.56549803815
939506000 -0.784617362704 -0.563310146586
939512000 -0.784011585682 -0.565414366427
939518000 -0.787487759391 -0.567626510542
939524000 -0.785827177279 -0.56510588387
939530000 -0.78797976581 -0.566205505094
939536000 -0.78321615565 -0.568900755577
939542000 -0.780372983741 -0.565646411427
939548000 -0.782113109756 -0.567947466975
939554000 -0.778738738829 -0.566832537064
939560000 -0.779357466148 -0.566919603764
939566000 -0.777652469752 -0.568455360889
939572000 -0.778640080213 -0.562178893822
939578000 -0.777465072483 -0.562291750849
939584000 -0.778970127313 -0.563750287949
939590000 -0.778418551762 -0.564881050644
939596000 -0.779203186788 -0.559886322517
939602000 -0.781098378158 -0.561431513755
939608000 -0.782610561156 -0.559344672264
939614000 -0.780753418924 -0.561015378644
939620000 -0.783025371849 -0.562780908023
939626000 -0.783606367478 -0.564985251919
939632000 -0.77899160369 -0.562679320806
939638000 -0.78150759934 -0.565740171214
939644000 -0.781064110152 -0.566032581696
939650000 -0.778342646263 -0.567777070439
939656000 -0.782635455977 -0.567489211595
939662000 -0.787023644924 -0.562076762081
939668000 -0.783547668648 -0.565061919248
939674000 -0.784280135087 -0.566715580935
939680000 -0.780610309853 -0.566910336278
939686000 -0.782457291478 -0.570161855442
939692000 -0.781846954639 -0.568237214988
939698000 -0.783389048862 -0.57097754333
939704000 -0.783000625802 -0.56863525365
939710000 -0.779444850152 -0.568514208637
939716000 -0.78395095369 -0.570303659451
939722000 -0.776964939126 -0.566816124417
939728000 -0.78093706768 -0.568771881627
939734000 -0.776817308858 -0.56469942311
939740000 -0.781682366298 -0.567492846798
939746000 -0.786758991005 -0.56350114821
939752000 -0.786334983406 -0.561062775792
939758000 -0.782905541945 -0.565092185486
939764000 -0.785580463955 -0.565791801731
939770000 -0.783635849582 -0.565322875483
939776000 -0.784110474751 -0.570805769222
939782000 -0.779818260078 -0.57119919093
939788000 -0.783858126533 -0.573641513105
939794000 -0.784340728454 -0.569716534933
939800000 -0.787329388297 -0.568340313962
939806000 -0.788686058873 -0.567971441515
939812000 -0.790699920528 -0.567456585691
939818000 -0.788827964266 -0.567628970608
939824000 -0.784498518203 -0.565862951363
939830000 -0.786871695125 -0.564492460489
939836000 -0.780248313866 -0.567579667945
939842000 -0.782969014673 -0.563411963455
939848000 -0.783568410829 -0.565520460806
939854000 -0.781451306457 -0.565439160035
939860000 -0.78421828142 -0.561104248761
939866000 -0.78498298561 -0.562193062846
939872000 -0.7845859017 -0.563330350647
939878000 -0.784565840776 -0.561214220603
939884000 -0.784974215439 -0.565943855845
939890000 -0.784238451685 -0.568620022236
939896000 -0.782304104391 -0.569461520823
939902000 -0.781756465103 -0.568257390748
939908000 -0.780100448934 -0.568723094207
939914000 -0.781882824175 -0.567420411977
939920000 -0.783217975869 -0.566659069856
939926000 -0.783688361702 -0.569596941568
939932000 -0.783846099054 -0.564013168911
939938000 -0.784432775574 -0.565399793187
939944000 -0.781995470772 -0.565732572305
939950000 -0.781940621619 -0.561716088956
939956000 -0.783039424453 -0.567444321303
939962000 -0.780909933055 -0.564589776156
939968000 -0.785572391278 -0.565704192
939974000 -0.784036181657 -0.56705707213
939980000 -0.783738096367 -0.565184069023
939986000 -0.78307617853 -0.566431000771
939992000 -0.783963424237 -0.569342614604
939998000 -0.784637896874 -0.565507941854
940004000 -0.78418935832 -0.567813190429
940010000 -0.786352649946 -0.564714847737
940016000 -0.784623098958 -0.564846731292
940022000 -0.785355909907 -0.566126154574
940028000 -0.785909096731 -0.56577501021
940034000 -0.785835420607 -0.565330916502
940040000 -0.785541737942 -0.564154637799
940046000 -0.787424474817 -0.565466442851
940052000 -0.784546951638 -0.56895062064
940058000 -0.786257898406 -0.570582304435
940064000 -0.782269338417 -0.569339068455
940070000 -0.786743191857 -0.567938823816
940076000 -0.783029622215 -0.565922167738
940082000 -0.785198602467 -0.564683038173
940088000 -0.785373733586 -0.566135640385
940094000 -0.787259799418 -0.56487922121
940100000 -0.785333004817 -0.562185739946
940106000 -0.785094767278 -0.562251698442
940112000 -0.786952409721 -0.562913515038
940118000 -0.785522159636 -0.563700881814
940124000 -0.787539035793 -0.564547979137
940130000 -0.783856413082 -0.563407647618
940136000 -0.783872241832 -0.563636282077
940142000 -0.783313116604 -0.568292642139
940148000 -0.783896974668 -0.567951119666
940154000 -0.781732807491 -0.569639663502
940160000 -0.783625936506 -0.569650206886
940166000 -0.783579949454 -0.567964435989
940172000 -0.78224300781 -0.57004781324
940178000 -0.780724395075 -0.567354766605
940184000 -0.78262147311 -0.566887549527
940190000 -0.783233081117 -0.564789773385
940196000 -0.783840396592 -0.564203991907
940202000 -0.786782826641 -0.565938769935
940208000 -0.787673941931 -0.55985068723
940214000 -0.785002731411 -0.562081316062
940220000 -0.786145933879 -0.561346533239
940226000 -0.786197524327 -0.563788099812
940232000 -0.784843768677 -0.559122818241
940238000 -0.784630776144 -0.559285237063
940244000 -0.785294252962 -0.559494620383
940250000 -0.785483062448 -0.563156138655
940256000 -0.78148466858 -0.562857178484
940262000 -0.782313782486 -0.563134873885
940268000 -0.780349580067 -0.563444861422
940274000 -0.78013455327 -0.564770351268
940280000 -0.781500266199 -0.563947501373
940286000 -0.787862174526 -0.565017965942
940292000 -0.792082790725 -0.564173136648
940298000 -0.796073612048 -0.567177718676
940304000 -0.795615189799 -0.564171207391
940310000 -0.792002491022 -0.564919551937
940316000 -0.791117927779 -0.565310193504
940322000 -0.781614599868 -0.558701712034
940328000 -0.791164347422 -0.561899427057
940334000 -0.795393765055 -0.571993388236
940340000 -0.785127698583 -0.562361758359
940346000 -0.785539965056 -0.563809124131
940352000 -0.78283004359 -0.56492501131
940358000 -0.78367813013 -0.566880485583
940364000 -0.783814173193 -0.566612941839
940370000 -0.786887642229 -0.567595522775
940376000 -0.785568814508 -0.566604843685
940382000 -0.784875406858 -0.571109307661
940388000 -0.785625903109 -0.569272066135
940394000 -0.783351073206 -0.565691651371
940400000 -0.784460096372 -0.564562673561
940406000 -0.785567376309 -0.563832331302
940412000 -0.785168818675 -0.56297033685
940418000 -0.789887556359 -0.559995171787
940424000 -0.78901985785 -0.562337723035
940430000 -0.788433926892 -0.560850254047
940436000 -0.789760364698 -0.562684305941
940442000 -0.788632720149 -0.563398301025
940448000 -0.789307225871 -0.566310925884
940454000 -0.787440177442 -0.565797991954
940460000 -0.78393567239 -0.567517610033
940466000 -0.781926845026 -0.567533796204
940472000 -0.780380245344 -0.564099313544
940478000 -0.782728095961 -0.565059969626
940484000 -0.783010009921 -0.566663541964
940490000 -0.787058211153 -0.561761995219
940496000 -0.785351556053 -0.558212420718
940502000 -0.788678617074 -0.557303651481
940508000 -0.788959717203 -0.559135806151
940514000 -0.787668400394 -0.56308938734
940520000 -0.789217840101 -0.560816620057
940526000 -0.782174639577 -0.561800908529
940532000 -0.790066011497 -0.567466604528
940538000 -0.785512213292 -0.568423235768
940544000 -0.786565705096 -0.568939232905
940550000 -0.786941676189 -0.570273577487
940556000 -0.783583035998 -0.570684254653
940562000 -0.785720997578 -0.571450199111
940568000 -0.787641869535 -0.571391872812
940574000 -0.788070660255 -0.56843728899
940580000 -0.792066681651 -0.57025306469
940586000 -0.792953352167 -0.565450835848
940592000 -0.794311834587 -0.566610463111
940598000 -0.788542995336 -0.567274814194
940604000 -0.787794668086 -0.564005819029
940610000 -0.785494965824 -0.56498988202
940616000 -0.784361629973 -0.564410606179
940622000 -0.782204501932 -0.564411691116
940628000 -0.783190023103 -0.564129967033
940634000 -0.782046092369 -0.563702831879
940640000 -0.781572354316 -0.564698512944
940646000 -0.783958754171 -0.562597231816
940652000 -0.781693627145 -0.567212034748
940658000 -0.778579565575 -0.566279473017
940664000 -0.772466223396 -0.573971704063
940670000 -0.771069126894 -0.570123346599
940676000 -0.773201653052 -0.571499567025
940682000 -0.775558978508 -0.569284829703
940688000 -0.778305607614 -0.568728873807
940694000 -0.781442163966 -0.565031305978
940700000 -0.784917600703 -0.565221835878
940706000 -0.789078568767 -0.564735559141
940712000 -0.785017092996 -0.564442624313
940718000 -0.784919100329 -0.560021065117
940724000 -0.784186664171 -0.561632303654
940730000 -0.782829155662 -0.561056584686
940736000 -0.782580766697 -0.559825444238
940742000 -0.783636550758 -0.559560413715
940748000 -0.783600107152 -0.56068734824
940754000 -0.787033094621 -0.561108908323
940760000 -0.7880686218 -0.561129350431
940766000 -0.787891535547 -0.560761370332
940772000 -0.784865715419 -0.563725916044
940778000 -0.785023738429 -0.567539906569
940784000 -0.784204968493 -0.563893740368
940790000 -0.785293760831 -0.565952659461
940796000 -0.785535325889 -0.566430085272
940802000 -0.787285451577 -0.565757817959
940808000 -0.784607102311 -0.566886812279
940814000 -0.783011335321 -0.564919438504
940820000 -0.782931987343 -0.56811504172
940826000 -0.786091704727 -0.567120306025
940832000 -0.786271010713 -0.566192583237
940838000 -0.78988439516 -0.56733154735
940844000 -0.788623731783 -0.562296905753
940850000 -0.790161184219 -0.567028616455
940856000 -0.787505465741 -0.560657338592
940862000 -0.78617816643 -0.563498039119
940868000 -0.78475783048 -0.561758054556
940874000 -0.787007189819 -0.563534239588
940880000 -0.789631637453 -0.566731031512
940886000 -0.786864015836 -0.565419786413
940892000 -0.785675693463 -0.566261401476
940898000 -0.787209910255 -0.56647070345
940904000 -0.788715616331 -0.567831142121
940910000 -0.786510790165 -0.567800407867
940916000 -0.789098825272 -0.569246205373
940922000 -0.789646887523 -0.568190047489
940928000 -0.78963278242 -0.570452420792
940934000 -0.791326644027 -0.56888021706
940940000 -0.789619670103 -0.566683864193
940946000 -0.789874166871 -0.563846120378
940952000 -0.789652624369 -0.56201125558
940958000 -0.790017247562 -0.559879346089
940964000 -0.788847438751 -0.556838480081
940970000 -0.788558447794 -0.560071841433
940976000 -0.791247398141 -0.563197454568
940982000 -0.792984953299 -0.560883607802
940988000 -0.79317693171 -0.569241543108
940994000 -0.791699487704 -0.565383521699
941000000 -0.789627149804 -0.568970330153
