! Calibrated averaged scanner-service zoom
# Hz S RI R 50
88000000 0.709869439509 -0.664995044172
88010000 0.709759524119 -0.665108444384
88020000 0.709655633097 -0.665237980545
88030000 0.709487546208 -0.665323938246
88040000 0.709457843622 -0.665377947396
88050000 0.70940001528 -0.665498341777
88060000 0.709345852857 -0.665598469833
88070000 0.709274227228 -0.665702828641
88080000 0.709202303933 -0.665901544502
88090000 0.709060489489 -0.665997465234
88100000 0.709021882799 -0.666057265682
88110000 0.708936070156 -0.666130167526
88120000 0.708912469392 -0.666310520758
88130000 0.708853819825 -0.666406197086
88140000 0.708796891636 -0.666521007975
88150000 0.708758726971 -0.66664681619
88160000 0.708661389022 -0.666708777022
88170000 0.708595844112 -0.666726120018
88180000 0.708538436052 -0.666874299731
88190000 0.708420652983 -0.666995434512
88200000 0.708248349558 -0.667111094561
88210000 0.708125403292 -0.667195847309
88220000 0.708104088505 -0.667312543134
88230000 0.708064592002 -0.667442510468
88240000 0.708012895795 -0.667606260589
88250000 0.707920875257 -0.667728837095
88260000 0.707894242216 -0.667829892872
88270000 0.707812585039 -0.667865126948
88280000 0.707746833156 -0.667900844431
88290000 0.707412917562 -0.668100398702
88300000 0.707608656227 -0.668139877874
88310000 0.707460173652 -0.668276603799
88320000 0.707361833881 -0.668330144594
88330000 0.707271942392 -0.668413182452
88340000 0.707238781834 -0.668562959479
88350000 0.707154434628 -0.668709692616
88360000 0.707009471626 -0.668827170377
88370000 0.706968703363 -0.668973954464
88380000 0.706875215463 -0.669028830365
88390000 0.706812959014 -0.669113816346
88400000 0.706734744291 -0.669229975026
88410000 0.706671286045 -0.669328053687
88420000 0.706601902944 -0.669436633433
88430000 0.706545257546 -0.66950489347
88440000 0.706552254258 -0.66956564814
88450000 0.706434375429 -0.669670468852
88460000 0.706374140861 -0.669832084205
88470000 0.706239923843 -0.669968171723
88480000 0.706112944005 -0.670026540954
88490000 0.705993892518 -0.670070039314
88500000 0.705966888185 -0.670286413855
88510000 0.705829073321 -0.670234356328
88520000 0.705770411594 -0.670360015879
88530000 0.705691380721 -0.670471792927
88540000 0.705653056486 -0.670621792532
88550000 0.705592254869 -0.670734862919
88560000 0.705507697843 -0.670862490487
88570000 0.705404869196 -0.670977298088
88580000 0.705354630849 -0.671066471114
88590000 0.705229638605 -0.671181960486
88600000 0.70517461573 -0.671303149747
88610000 0.705121797041 -0.671361603651
88620000 0.704998261041 -0.671453030147
88630000 0.704924095093 -0.671545176433
88640000 0.704824133564 -0.671644407669
88650000 0.704715132917 -0.671781119258
88660000 0.704675532796 -0.67186223108
88670000 0.704591888891 -0.671900001522
88680000 0.704521539552 -0.67206722699
88690000 0.704461016247 -0.67220700514
88700000 0.704430094334 -0.672347369591
88710000 0.704318417826 -0.672443316513
88720000 0.704238169715 -0.672509683036
88730000 0.7041417928 -0.672612194994
88740000 0.704070594854 -0.672672805854
88750000 0.704010181055 -0.672753815516
88760000 0.70389408007 -0.672894019409
88770000 0.703798255851 -0.673034752959
88780000 0.703704138077 -0.673096607526
88790000 0.703603467521 -0.673172568643
88800000 0.703509699405 -0.673294048644
88810000 0.703439348791 -0.67340935462
88820000 0.703378542057 -0.673525779292
88830000 0.703311609668 -0.673650561533
88840000 0.703266582897 -0.67374026364
88850000 0.703218539062 -0.673810276679
88860000 0.703233750436 -0.673912580764
88870000 0.703175039803 -0.674059477638
88880000 0.703013798864 -0.6741763599
88890000 0.702896981156 -0.674283708545
88900000 0.702755017758 -0.674348513314
88910000 0.7026981205 -0.674393907309
88920000 0.702636668332 -0.674528524186
88930000 0.702572093748 -0.674644651281
88940000 0.70252619349 -0.674780729174
88950000 0.702398181164 -0.67482699402
88960000 0.702359097946 -0.674921375235
88970000 0.702337171469 -0.675038364604
88980000 0.702220458827 -0.675159051948
88990000 0.702131266687 -0.675317015804
89000000 0.702070066699 -0.675383080449
89010000 0.701970447568 -0.675506420204
89020000 0.701899135771 -0.675568102727
89030000 0.701813295328 -0.675652834117
89040000 0.701745494364 -0.675789259058
89050000 0.701612465001 -0.675897308279
89060000 0.701430284264 -0.676006653974
89070000 0.701365230264 -0.676111334712
89080000 0.701297921249 -0.676211027868
89090000 0.701254368492 -0.676331870273
89100000 0.701165072364 -0.676474911205
89110000 0.701129233689 -0.676572884698
89120000 0.701015670519 -0.676682343769
89130000 0.700981372671 -0.67678625814
89140000 0.700902471697 -0.67683567658
89150000 0.700842235127 -0.676884079355
89160000 0.700748071256 -0.676971050315
89170000 0.700635293392 -0.67707919309
89180000 0.700504175859 -0.677210513072
89190000 0.700427112745 -0.677313535501
89200000 0.700351919749 -0.677413032088
89210000 0.700306795684 -0.677525685437
89220000 0.70019132121 -0.677664091863
89230000 0.700117694361 -0.677708513483
89240000 0.699997320967 -0.677847469674
89250000 0.699940204122 -0.677885794141
89260000 0.699840749921 -0.677935555229
89270000 0.699792137647 -0.678025493464
89280000 0.699686709081 -0.678122818762
89290000 0.699596879055 -0.678309294273
89300000 0.69948079462 -0.678400037567
89310000 0.699391448558 -0.678518190009
89320000 0.699339995121 -0.678632602302
89330000 0.699266724571 -0.678755137605
89340000 0.699182494278 -0.678823058221
89350000 0.699088597218 -0.678913584136
89360000 0.699041373431 -0.679026339343
89370000 0.698996118314 -0.679107747755
89380000 0.698924778198 -0.679210427581
89390000 0.698826750476 -0.679361668751
89400000 0.698660995638 -0.679422358392
89410000 0.698566729519 -0.679553606847
89420000 0.698440956864 -0.679625996441
89430000 0.698415722835 -0.679728298768
89440000 0.698318369713 -0.679848377559
89450000 0.698216322461 -0.679940837925
89460000 0.698134516533 -0.6800375909
89470000 0.698092291338 -0.680192850287
89480000 0.69803891994 -0.680283034885
89490000 0.697937132489 -0.680325563678
89500000 0.697988307475 -0.680395406221
89510000 0.697804607096 -0.680508793162
89520000 0.697763386868 -0.68061371825
89530000 0.697622144234 -0.680683180868
89540000 0.697536404843 -0.68077236322
89550000 0.697431582643 -0.680850987445
89560000 0.697373510686 -0.680919391861
89570000 0.697252705528 -0.681053672769
89580000 0.697136860868 -0.681208302856
89590000 0.697011478562 -0.681321669374
89600000 0.696961954859 -0.681449400491
89610000 0.696936847766 -0.681501169568
89620000 0.696862396714 -0.681635796207
89630000 0.696763980694 -0.681727857639
89640000 0.696632568854 -0.681796065191
89650000 0.696499365785 -0.681909850113
89660000 0.696486409378 -0.681998772013
89670000 0.696432086847 -0.682090203801
89680000 0.696360395446 -0.682249434291
89690000 0.696268514824 -0.682332253676
89700000 0.696144854752 -0.68237893883
89710000 0.696055833017 -0.682500396538
89720000 0.695957796441 -0.682580030919
89730000 0.695885081108 -0.682642954908
89740000 0.695785480515 -0.682790110688
89750000 0.695679662048 -0.682916514237
89760000 0.69554977797 -0.683036954426
89770000 0.695510858795 -0.683144560096
89780000 0.695439304425 -0.683253991317
89790000 0.695382301477 -0.683381970538
89800000 0.695261941852 -0.68350763656
89810000 0.695168313693 -0.683625585627
89820000 0.695095161422 -0.683688010302
89830000 0.695033816611 -0.683783461921
89840000 0.695001116523 -0.683834203736
89850000 0.69492239871 -0.683944247047
89860000 0.694777531228 -0.684063885217
89870000 0.69466937591 -0.684101255094
89880000 0.694567530852 -0.684195336903
89890000 0.694498393839 -0.684333632117
89900000 0.694383950519 -0.684429718184
89910000 0.694298165124 -0.684579039965
89920000 0.694190237121 -0.684621670978
89930000 0.694083258864 -0.684713106203
89940000 0.694042967524 -0.684802508443
89950000 0.69398957346 -0.684907595712
89960000 0.693886913276 -0.685000796561
89970000 0.693791895951 -0.685126523922
89980000 0.693678565543 -0.685150218098
89990000 0.693588223276 -0.685240112417
90000000 0.693561417411 -0.685304794897
90010000 0.693475949737 -0.685396273418
90020000 0.693401138323 -0.685557211451
90030000 0.693256610448 -0.685721627311
90040000 0.693109808835 -0.68581436617
90050000 0.692975079911 -0.685921153693
90060000 0.692929400483 -0.685999103327
90070000 0.692858929674 -0.686154230383
90080000 0.692781099617 -0.686247048877
90090000 0.692718788196 -0.686308612268
90100000 0.692654878635 -0.686406794538
90110000 0.692583145915 -0.686420318669
90120000 0.692482036594 -0.686570495662
90130000 0.692380033201 -0.686672806252
90140000 0.692286024033 -0.686784057657
90150000 0.692151840769 -0.686864296494
90160000 0.692060053097 -0.687021700233
90170000 0.692033282469 -0.68708899363
90180000 0.691931249908 -0.687202839211
90190000 0.691812901598 -0.687289541977
90200000 0.691741403912 -0.687374863382
90210000 0.691702760548 -0.687483202929
90220000 0.691717258746 -0.687579131824
90230000 0.69155834978 -0.687729859655
90240000 0.691435448984 -0.687790314803
90250000 0.691354651214 -0.687869953852
90260000 0.691253299554 -0.687973738825
90270000 0.691151287347 -0.688082964517
90280000 0.691053394605 -0.688161415851
90290000 0.690936419991 -0.688260820893
90300000 0.690790485305 -0.688276027929
90310000 0.690706976115 -0.688393714481
90320000 0.690695568526 -0.688482398483
90330000 0.690609334542 -0.688600317113
90340000 0.690532819833 -0.68876889952
90350000 0.690410524046 -0.68887465455
90360000 0.690267854474 -0.688980191033
90370000 0.690187336335 -0.689088524699
90380000 0.690117380786 -0.689168119421
90390000 0.690038099444 -0.689297184132
90400000 0.689915931443 -0.68939095656
90410000 0.689815822476 -0.689513438101
90420000 0.689668371082 -0.689585974656
90430000 0.68964491896 -0.689631677856
90440000 0.689552274518 -0.689699400234
90450000 0.689514690163 -0.689815417077
90460000 0.689407923697 -0.689893668031
90470000 0.689255445053 -0.689993512798
90480000 0.689168416403 -0.690029955741
90490000 0.689088802044 -0.690177849366
90500000 0.689060970614 -0.690259504684
90510000 0.688986096348 -0.690376070484
90520000 0.688888700125 -0.690479785863
90530000 0.688800319819 -0.690548032604
90540000 0.688702301627 -0.690581603313
90550000 0.688605338346 -0.69069308199
90560000 0.68847760642 -0.690797341364
90570000 0.688359341274 -0.690906924278
90580000 0.688275322455 -0.691076908958
90590000 0.688152051324 -0.691165951341
90600000 0.688077756747 -0.69125783224
90610000 0.687983974695 -0.691331523959
90620000 0.687941551858 -0.691443130635
90630000 0.687824716515 -0.691520247318
90640000 0.687701049984 -0.691653286392
90650000 0.68760322702 -0.691747433645
90660000 0.687503850021 -0.69179877189
90670000 0.68743006898 -0.691915591467
90680000 0.687340333061 -0.692000412764
90690000 0.687249431973 -0.692110879278
90700000 0.687100936266 -0.692178788751
90710000 0.687031265019 -0.692271628568
90720000 0.68694265182 -0.692388226263
90730000 0.686878448354 -0.692515155743
90740000 0.686810809127 -0.692636730294
90750000 0.686740424806 -0.692702040714
90760000 0.686633014852 -0.692779586114
90770000 0.686522554968 -0.692859346142
90780000 0.686468147442 -0.692976432959
90790000 0.686324131647 -0.693034803829
90800000 0.686234306826 -0.693094267966
90810000 0.686140189901 -0.693224290662
90820000 0.686023317785 -0.693269888934
90830000 0.685934214782 -0.693386706564
90840000 0.685894505423 -0.693524878673
90850000 0.685797034845 -0.693622190216
90860000 0.685728174613 -0.693678219347
90870000 0.685682433962 -0.693737129675
90880000 0.685587454189 -0.693838497375
90890000 0.685523519413 -0.693890672392
90900000 0.685404042729 -0.693991557915
90910000 0.685256681039 -0.694080160223
90920000 0.68516535671 -0.694126876133
90930000 0.685045131817 -0.694228612902
90940000 0.684968228135 -0.694303305256
90950000 0.684867884409 -0.694481407871
90960000 0.684742504581 -0.694582673511
90970000 0.684660895648 -0.694712584665
90980000 0.684571405211 -0.694768202357
90990000 0.684508169935 -0.694883481625
91000000 0.68445200759 -0.695013456388
91010000 0.684341764786 -0.695073490804
91020000 0.68421802487 -0.695161888375
91030000 0.68413138523 -0.695278072094
91040000 0.684017750157 -0.6953147178
91050000 0.683922631756 -0.69543221231
91060000 0.683807932738 -0.695518972939
91070000 0.683721307664 -0.695621960546
91080000 0.68361032084 -0.695699292208
91090000 0.683563561756 -0.695753589987
91100000 0.683505555583 -0.695874758097
91110000 0.683397954922 -0.695950783106
91120000 0.68329201954 -0.696045784783
91130000 0.683188439516 -0.696152361657
91140000 0.683027898678 -0.696177201913
91150000 0.683008070848 -0.696299562675
91160000 0.682940677655 -0.69639773466
91170000 0.682882041933 -0.696510951658
91180000 0.682713899322 -0.696601416117
91190000 0.682605476788 -0.69673138812
91200000 0.682473471174 -0.696803930274
91210000 0.682369753646 -0.696877990155
91220000 0.682320653567 -0.696988163433
91230000 0.68221089347 -0.69706925663
91240000 0.682145919844 -0.69712850937
91250000 0.682084829175 -0.697276207737
91260000 0.682007344406 -0.69738230153
91270000 0.681936188407 -0.697462770486
91280000 0.681836050431 -0.697547657653
91290000 0.681747536469 -0.697631995876
91300000 0.681613362454 -0.69766859513
91310000 0.681502310254 -0.69774624635
91320000 0.681425645242 -0.697833378307
91330000 0.681295179925 -0.697949058915
91340000 0.681191135082 -0.69805001102
91350000 0.681076338347 -0.698163955421
91360000 0.680998927741 -0.698227413221
91370000 0.68095948307 -0.698342600448
91380000 0.680905396149 -0.698420342092
91390000 0.680812798534 -0.698471322613
91400000 0.680653975494 -0.698533378267
91410000 0.680550611648 -0.698657683513
91420000 0.680449313922 -0.698735465147
91430000 0.680349696487 -0.69885466766
91440000 0.680234514778 -0.698940906178
91450000 0.680135752871 -0.699043458679
91460000 0.680005014872 -0.699106039932
91470000 0.679955861959 -0.699239751763
91480000 0.679930408561 -0.699346532081
91490000 0.679822259106 -0.699409405915
91500000 0.679736199773 -0.699505785237
91510000 0.679633212667 -0.69959148296
91520000 0.679580480328 -0.699645054382
91530000 0.679479337248 -0.699743643815
91540000 0.679397490597 -0.69979386945
91550000 0.679270408138 -0.69986453856
91560000 0.679170151257 -0.699998604486
91570000 0.679072957005 -0.700107800497
91580000 0.678978763295 -0.700150072493
91590000 0.678854034156 -0.700232731016
91600000 0.678798462589 -0.70032830662
91610000 0.678684734212 -0.700413976476
91620000 0.67857826419 -0.700518138028
91630000 0.678481387924 -0.700633568688
91640000 0.678371782761 -0.700739691648
91650000 0.678281475594 -0.700837665699
91660000 0.678209662004 -0.7008859977
91670000 0.678104394608 -0.70096811069
91680000 0.678015817346 -0.701059187477
91690000 0.677938622279 -0.701184711447
91700000 0.677844798631 -0.701277132395
91710000 0.677803486902 -0.701320865391
91720000 0.677727405605 -0.701446216644
91730000 0.677644358068 -0.701499712091
91740000 0.677567299072 -0.701596590477
91750000 0.677501489459 -0.701669005688
91760000 0.677379872493 -0.701749227487
91770000 0.677280559416 -0.701789494598
91780000 0.677153573468 -0.701894261212
91790000 0.677026786658 -0.701959278415
91800000 0.676966677909 -0.702015891391
91810000 0.676852892603 -0.702134059774
91820000 0.676780268914 -0.702241220337
91830000 0.676672429403 -0.702388805828
91840000 0.676545713674 -0.702512185537
91850000 0.676470841749 -0.702607753467
91860000 0.676366259112 -0.702637515427
91870000 0.676307980322 -0.702762185406
91880000 0.676198970658 -0.702844021946
91890000 0.676177739541 -0.702972863176
91900000 0.676069370443 -0.703067001917
91910000 0.676005236217 -0.70314592544
91920000 0.675875055527 -0.703156614281
91930000 0.67576764517 -0.703273971249
91940000 0.675703626833 -0.703356664875
91950000 0.675621806694 -0.703438034128
91960000 0.675533166267 -0.703515347257
91970000 0.675376049263 -0.703572095034
91980000 0.675272402584 -0.703646440652
91990000 0.675188176244 -0.703769241562
92000000 0.67511277172 -0.703867525887
92010000 0.675079145447 -0.704003129147
92020000 0.674992160407 -0.704081127827
92030000 0.674888012239 -0.704164273866
92040000 0.674810250431 -0.704229956515
92050000 0.674729223582 -0.70428966958
92060000 0.67467125103 -0.704348078816
92070000 0.67451299754 -0.704455237095
92080000 0.674386565871 -0.70452348309
92090000 0.674280797347 -0.70463826871
92100000 0.674251871888 -0.704667596366
92110000 0.674171763683 -0.704719437135
92120000 0.674085923157 -0.70480889089
92130000 0.673985227606 -0.704975676147
92140000 0.673853830547 -0.70512399388
92150000 0.673793173547 -0.705230347561
92160000 0.673679300906 -0.70525674927
92170000 0.673607129462 -0.705332607539
92180000 0.673530281786 -0.705441093241
92190000 0.673401857427 -0.705485956584
92200000 0.673368607713 -0.705606611433
92210000 0.673236540615 -0.705674411615
92220000 0.673151838766 -0.705792934011
92230000 0.673055181707 -0.705880027921
92240000 0.672933686515 -0.706043925449
92250000 0.672867654726 -0.706093955622
92260000 0.672755281813 -0.706181252495
92270000 0.672673407107 -0.706256450469
92280000 0.672604351718 -0.706348114592
92290000 0.672553459142 -0.70644778762
92300000 0.672466146417 -0.706481651281
92310000 0.672335843715 -0.706550189481
92320000 0.672304243995 -0.706630864406
92330000 0.672165420734 -0.706702237396
92340000 0.672121755036 -0.706826266
92350000 0.672006475899 -0.706917107555
92360000 0.671868627222 -0.706988332811
92370000 0.671783330247 -0.707084421836
92380000 0.671664722835 -0.707159367345
92390000 0.671609489606 -0.707297532403
92400000 0.671472692357 -0.707468340786
92410000 0.671434011628 -0.707560238849
92420000 0.671277899185 -0.707615088202
92430000 0.671171512232 -0.707698325376
92440000 0.671231322181 -0.707818341167
92450000 0.67105663918 -0.707858636277
92460000 0.670914711422 -0.707932913621
92470000 0.670807363383 -0.708059361815
92480000 0.670847809006 -0.708166833597
92490000 0.670739845927 -0.708207022238
92500000 0.670669442831 -0.708300487103
92510000 0.670614498396 -0.708401495699
92520000 0.670443332433 -0.708388701228
92530000 0.670327716268 -0.708500852285
92540000 0.670279558982 -0.708556419739
92550000 0.670179203652 -0.708674804852
92560000 0.670033368433 -0.70878472533
92570000 0.669927199772 -0.708915595447
92580000 0.669885933188 -0.709006990934
92590000 0.669761020232 -0.709116211191
92600000 0.669720445294 -0.70918353595
92610000 0.669594800176 -0.709322634977
92620000 0.669514061317 -0.709384801977
92630000 0.669452128849 -0.709481732518
92640000 0.669335062577 -0.709510061821
92650000 0.669250890779 -0.709586247428
92660000 0.669113766582 -0.709692738576
92670000 0.669032425531 -0.709824503999
92680000 0.668937850261 -0.709880090137
92690000 0.668819214907 -0.709933821019
92700000 0.668757415187 -0.710024179489
92710000 0.668615444486 -0.710127141072
92720000 0.668591005331 -0.710270148988
92730000 0.668452123054 -0.710370647996
92740000 0.668424284723 -0.710473969106
92750000 0.668308124335 -0.710578535857
92760000 0.668168924043 -0.710632507785
92770000 0.66813653516 -0.710740402337
92780000 0.668076986316 -0.710826030194
92790000 0.668018121386 -0.710904433276
92800000 0.667940688622 -0.710995180644
92810000 0.667804657058 -0.711020109919
92820000 0.667764338394 -0.71114076119
92830000 0.667604786914 -0.711185756849
92840000 0.667571256914 -0.711231099139
92850000 0.667370548919 -0.711387623646
92860000 0.667306821554 -0.711490555697
92870000 0.667201386863 -0.711606308844
92880000 0.667133974606 -0.711702621715
92890000 0.667026788813 -0.711792285028
92900000 0.666864416693 -0.711844838316
92910000 0.666823884318 -0.711955254564
92920000 0.666747545693 -0.712042588798
92930000 0.666683466948 -0.712066299387
92940000 0.666589686402 -0.712193147893
92950000 0.666436495245 -0.712266045543
92960000 0.666390742246 -0.712397657371
92970000 0.666282506846 -0.712464227563
92980000 0.666211925583 -0.712503356668
92990000 0.666120102487 -0.712668045983
93000000 0.66595529598 -0.71276006711
93010000 0.66585862688 -0.712895787444
93020000 0.665774531861 -0.71298560512
93030000 0.665647979842 -0.713022464593
93040000 0.665659400201 -0.713177917273
93050000 0.665548718763 -0.71323237499
93060000 0.665456684283 -0.713304608994
93070000 0.665343911202 -0.713402826496
93080000 0.665256104812 -0.713429402634
93090000 0.665147069318 -0.713526207883
93100000 0.665004148875 -0.713666150407
93110000 0.664996470143 -0.713804760979
93120000 0.664876373159 -0.713852954386
93130000 0.664779252888 -0.713924710992
93140000 0.664714122685 -0.714002152208
93150000 0.664598464131 -0.714053226102
93160000 0.664528931738 -0.714142596086
93170000 0.664413488982 -0.714277646588
93180000 0.664341597005 -0.714326920312
93190000 0.664235422814 -0.714414525796
93200000 0.664105758393 -0.71452098541
93210000 0.664039240748 -0.714624541786
93220000 0.663941950892 -0.71473024467
93230000 0.663907529507 -0.714769645623
93240000 0.663796308823 -0.714804755553
93250000 0.663712666888 -0.71504874782
93260000 0.663523260176 -0.715056763738
93270000 0.663415869892 -0.715041358283
93280000 0.663401366111 -0.715292458579
93290000 0.663292273159 -0.715456090387
93300000 0.663318835002 -0.715433633863
93310000 0.662978654187 -0.715517506274
93320000 0.663042885364 -0.715661241325
93330000 0.662911386679 -0.715704328942
93340000 0.662727098963 -0.715619278698
93350000 0.662806190578 -0.7158259816
93360000 0.662702641852 -0.715893903279
93370000 0.662584132488 -0.716023262917
93380000 0.662478169884 -0.716109859539
93390000 0.662291380958 -0.716234755891
93400000 0.662173073556 -0.71627099083
93410000 0.661998180052 -0.716382532761
93420000 0.662013076337 -0.716476066085
93430000 0.661927977475 -0.716584937661
93440000 0.66182023615 -0.716739750145
93450000 0.661762792725 -0.71678757811
93460000 0.661683770225 -0.716799873535
93470000 0.661631677614 -0.716828871655
93480000 0.661479516709 -0.716942758363
93490000 0.661380514195 -0.717074032806
93500000 0.661268561292 -0.717168708599
93510000 0.661165252276 -0.717269843632
93520000 0.661071224829 -0.717325276575
93530000 0.660955547381 -0.717417776756
93540000 0.660912338724 -0.717568729947
93550000 0.66078338598 -0.717659815253
93560000 0.660737755609 -0.71776040175
93570000 0.660599534321 -0.717786355929
93580000 0.660527838124 -0.717855346829
93590000 0.660427837114 -0.717926809252
93600000 0.660303335763 -0.718070974157
93610000 0.660305864276 -0.718140109655
93620000 0.660153838888 -0.718215511159
93630000 0.660023623696 -0.718282357879
93640000 0.659943079552 -0.718398625375
93650000 0.65984146068 -0.718502802113
93660000 0.659738633813 -0.718633107872
93670000 0.659578472693 -0.718695487998
93680000 0.659534622654 -0.718768805195
93690000 0.659432512298 -0.718828779081
93700000 0.659395957832 -0.718903908643
93710000 0.659293574219 -0.719017701269
93720000 0.659155264766 -0.719094351761
93730000 0.659126728107 -0.719186567687
93740000 0.65897311584 -0.719317425426
93750000 0.658877675015 -0.719396194614
93760000 0.658763211011 -0.719505737189
93770000 0.658639694344 -0.71957223243
93780000 0.658603186516 -0.719739903488
93790000 0.658481557922 -0.719792324121
93800000 0.658442203427 -0.719870165129
93810000 0.658329448703 -0.719955582693
93820000 0.658202398385 -0.720005413973
93830000 0.658143248013 -0.720156714158
93840000 0.658061546309 -0.720258689282
93850000 0.658029730655 -0.720332174449
93860000 0.657866875622 -0.720402526141
93870000 0.657767789023 -0.720511147018
93880000 0.657652664632 -0.720539659008
93890000 0.657573423514 -0.720636710707
93900000 0.657549704037 -0.720702566163
93910000 0.657424054077 -0.720744644624
93920000 0.657320286489 -0.720879508311
93930000 0.657191337462 -0.720957503306
93940000 0.657113026724 -0.720995726649
93950000 0.656997000915 -0.72110925195
93960000 0.656862293877 -0.721142473858
93970000 0.656786030701 -0.721321888933
93980000 0.656623566817 -0.721397636138
93990000 0.656531266371 -0.721484363991
94000000 0.656409719571 -0.721589892355
94010000 0.656350766387 -0.721693745167
94020000 0.656312581769 -0.721829897827
94030000 0.656231463917 -0.721892089594
94040000 0.656124687749 -0.721928173204
94050000 0.656076401736 -0.72202745639
94060000 0.655951080876 -0.722143312261
94070000 0.65593680985 -0.722179881417
94080000 0.655762464793 -0.722237202251
94090000 0.655655080486 -0.72235293577
94100000 0.65546675964 -0.722388443803
94110000 0.655377653872 -0.72247046092
94120000 0.655338906691 -0.722591427099
94130000 0.655186956164 -0.722677602909
94140000 0.655123788101 -0.722799090318
94150000 0.654963745148 -0.722904117495
94160000 0.654936738829 -0.722999995037
94170000 0.654810652477 -0.723093558498
94180000 0.654740577791 -0.723131003755
94190000 0.654592455201 -0.723266774466
94200000 0.654466691354 -0.72332161162
94210000 0.654436889248 -0.723442687478
94220000 0.654351278205 -0.723520933259
94230000 0.654308245198 -0.723601560184
94240000 0.654191793636 -0.723697764041
94250000 0.654123363703 -0.723789640011
94260000 0.654076410205 -0.723888020585
94270000 0.653994909266 -0.723894370844
94280000 0.653932827991 -0.723968547706
94290000 0.653780782876 -0.724040765895
94300000 0.653680679805 -0.72416712273
94310000 0.653528646822 -0.724311499841
94320000 0.653383030271 -0.724318221595
94330000 0.653287932018 -0.724452155466
94340000 0.653150624147 -0.724555970384
94350000 0.653153411786 -0.72468489535
94360000 0.653060357092 -0.72478537055
94370000 0.65300209958 -0.72485574093
94380000 0.652889161834 -0.724906183332
94390000 0.652737064863 -0.724915450759
94400000 0.652703847708 -0.725078474056
94410000 0.652551412049 -0.725111264466
94420000 0.652470065963 -0.725183797116
94430000 0.652337183095 -0.725327804586
94440000 0.652221779478 -0.725412007965
94450000 0.652136185072 -0.7255710104
94460000 0.652065344233 -0.725620350228
94470000 0.651954820121 -0.725708525605
94480000 0.651803476729 -0.725754851825
94490000 0.651786229113 -0.72588590513
94500000 0.651694507841 -0.725988282668
94510000 0.65157917742 -0.726010263882
94520000 0.651419597249 -0.726086662088
94530000 0.651197844168 -0.726105285148
94540000 0.651366700905 -0.726315527289
94550000 0.651076979245 -0.726297210057
94560000 0.651078769736 -0.726389091275
94570000 0.650998433388 -0.726486133355
94580000 0.650853811121 -0.726577877275
94590000 0.650765794429 -0.726694094652
94600000 0.650638283062 -0.726754576183
94610000 0.650510955283 -0.726849045599
94620000 0.650423872982 -0.726958148671
94630000 0.650377419771 -0.727059283269
94640000 0.650317279545 -0.727230162737
94650000 0.650229265699 -0.727276169598
94660000 0.650114662276 -0.72735567978
94670000 0.649976492789 -0.727384185651
94680000 0.649957480849 -0.727464902621
94690000 0.649858985375 -0.727534677233
94700000 0.649729952106 -0.727637417296
94710000 0.649604590993 -0.727794144142
94720000 0.649485191274 -0.727831178843
94730000 0.649434306578 -0.728003087427
94740000 0.649369048766 -0.728074775899
94750000 0.649278781085 -0.728135061659
94760000 0.649193920408 -0.728209061334
94770000 0.64907385328 -0.72824842778
94780000 0.648976587234 -0.728403631826
94790000 0.648875338639 -0.728421784811
94800000 0.648759049861 -0.728520539926
94810000 0.648629143341 -0.728609882517
94820000 0.648529061509 -0.728650920833
94830000 0.64846553382 -0.728794003971
94840000 0.648334842005 -0.728837619938
94850000 0.648251662958 -0.728955089257
94860000 0.648089110131 -0.729037036457
94870000 0.647952189933 -0.729141075597
94880000 0.647929521635 -0.729287223724
94890000 0.647804551595 -0.729285394851
94900000 0.647778067789 -0.729441494659
94910000 0.647699191096 -0.729542505804
94920000 0.647589223231 -0.729581714948
94930000 0.647475985727 -0.729721388343
94940000 0.647354234569 -0.729711866867
94950000 0.647234743972 -0.729816105052
94960000 0.647118655799 -0.729843885172
94970000 0.647018821661 -0.729985492098
94980000 0.646942691472 -0.730095044545
94990000 0.646820744598 -0.730208998592
95000000 0.646688387773 -0.730290381012
95010000 0.646676475574 -0.730380394204
95020000 0.646560718097 -0.730518795823
95030000 0.646534219765 -0.73063505388
95040000 0.646410121056 -0.730693134826
95050000 0.646333852202 -0.730693833192
95060000 0.64617515802 -0.730746993906
95070000 0.646024519289 -0.730800082922
95080000 0.645958007945 -0.730933471911
95090000 0.645882133421 -0.731017292013
95100000 0.645778215769 -0.731119435775
95110000 0.645612627636 -0.73139899419
95120000 0.645527257975 -0.731322567435
95130000 0.645439880221 -0.731467972497
95140000 0.645385718537 -0.73157252202
95150000 0.645285768972 -0.731637284317
95160000 0.645139319632 -0.731690058759
95170000 0.64503115484 -0.731829972462
95180000 0.64491104838 -0.731892902784
95190000 0.64489101546 -0.731921100999
95200000 0.644771684556 -0.732040323724
95210000 0.644635400685 -0.732122388355
95220000 0.644551481208 -0.732273274497
95230000 0.64447715271 -0.73233751522
95240000 0.644356781487 -0.732379128835
95250000 0.644301791359 -0.732502540647
95260000 0.644174546227 -0.732534445655
95270000 0.644091321131 -0.732656486211
95280000 0.643989835789 -0.732679285301
95290000 0.64392061591 -0.732759599412
95300000 0.643763411335 -0.732818501953
95310000 0.643624744457 -0.732921660351
95320000 0.643555579292 -0.733090884821
95330000 0.643471486029 -0.733189450895
95340000 0.643400293757 -0.733240420317
95350000 0.643254860983 -0.733288222805
95360000 0.643179617953 -0.733409470482
95370000 0.643126759507 -0.733532027455
95380000 0.643037542666 -0.733634362712
95390000 0.642952481821 -0.733704822155
95400000 0.642813944374 -0.733769645422
95410000 0.642711421895 -0.733905514519
95420000 0.642591489393 -0.734008522253
95430000 0.642524214218 -0.734070112746
95440000 0.642384677888 -0.734140210973
95450000 0.642277055725 -0.734227954536
95460000 0.642208377312 -0.734340041479
95470000 0.642091539868 -0.734389863998
95480000 0.642041432913 -0.734497381949
95490000 0.641921993215 -0.734523625256
95500000 0.641793640649 -0.73459545511
95510000 0.641681932641 -0.734762824959
95520000 0.64157856709 -0.73486294977
95530000 0.64148803499 -0.734868821228
95540000 0.641382707066 -0.734962273057
95550000 0.641241175012 -0.735087016406
95560000 0.641157721776 -0.73529386244
95570000 0.64112679443 -0.735329593211
95580000 0.641020934441 -0.735367416982
95590000 0.640861325619 -0.735406814502
95600000 0.640803278621 -0.735518572918
95610000 0.640711221877 -0.735619095053
95620000 0.640629106096 -0.7356701931
95630000 0.640514394403 -0.735781859056
95640000 0.640300058902 -0.735768347507
95650000 0.640293376585 -0.735995228014
95660000 0.64015570553 -0.736050728735
95670000 0.64011820067 -0.73607041031
95680000 0.639910850326 -0.736161874657
95690000 0.639881176508 -0.736303038481
95700000 0.639694021313 -0.736441549956
95710000 0.639610073298 -0.736408714618
95720000 0.639577976471 -0.736671408719
95730000 0.639446443399 -0.736584085121
95740000 0.639346599071 -0.736710335227
95750000 0.639279502992 -0.736863246435
95760000 0.639231455187 -0.736904043562
95770000 0.639136575033 -0.736988218812
95780000 0.639001499547 -0.737039144751
95790000 0.638861825654 -0.737130292669
95800000 0.638768051541 -0.737231122007
95810000 0.638689075599 -0.737280932481
95820000 0.638565111681 -0.737348238445
95830000 0.63838906786 -0.737437396729
95840000 0.638324842115 -0.737596747936
95850000 0.638273402867 -0.737702746387
95860000 0.638217251389 -0.737752724054
95870000 0.638121686313 -0.737809760291
95880000 0.638012091971 -0.737878131217
95890000 0.637921604126 -0.738032964782
95900000 0.637804431256 -0.738080909845
95910000 0.637658433627 -0.738152920287
95920000 0.637522237604 -0.738201451192
95930000 0.637446436137 -0.738342391668
95940000 0.637306967618 -0.738512850079
95950000 0.637253282626 -0.738579324166
95960000 0.637208179342 -0.738602147512
95970000 0.637113083068 -0.738646108134
95980000 0.637009267722 -0.738761140651
95990000 0.636935686119 -0.738892143734
96000000 0.636869158621 -0.738927148126
96010000 0.636704828643 -0.738995562229
96020000 0.63653107435 -0.739001762133
96030000 0.636456064762 -0.739139219884
96040000 0.636370575453 -0.739269771449
96050000 0.636300184307 -0.739362864602
96060000 0.636151075428 -0.739418304648
96070000 0.636036896064 -0.739472108572
96080000 0.635917052469 -0.739556641854
96090000 0.635794318903 -0.739617144688
96100000 0.635701662724 -0.739791911121
96110000 0.635596395789 -0.739842215857
96120000 0.635440616405 -0.73995013106
96130000 0.635322952459 -0.740038522836
96140000 0.635300265682 -0.740141166586
96150000 0.635235506547 -0.740281413829
96160000 0.635162847916 -0.740306276308
96170000 0.635090346072 -0.740464937877
96180000 0.634926217443 -0.740547429562
96190000 0.63483065859 -0.74059777153
96200000 0.634743407166 -0.740637145999
96210000 0.634639089449 -0.740711633188
96220000 0.634500255856 -0.740912764115
96230000 0.634376270275 -0.741048348046
96240000 0.634316221978 -0.74109423029
96250000 0.634235918523 -0.741122993779
96260000 0.63416519137 -0.741142475656
96270000 0.634101145423 -0.74127928584
96280000 0.634035427876 -0.741371124076
96290000 0.633967418043 -0.741499157899
96300000 0.633809308474 -0.741546095429
96310000 0.633636764781 -0.741511389405
96320000 0.633533528024 -0.741628843432
96330000 0.633447861546 -0.741741314703
96340000 0.633301669989 -0.74187362959
96350000 0.633158858906 -0.741917009197
96360000 0.633093447153 -0.742052843356
96370000 0.632995728836 -0.742183167755
96380000 0.632908505197 -0.742235244622
96390000 0.632839468142 -0.742347896814
96400000 0.632731865496 -0.742349169333
96410000 0.632594301155 -0.742460312223
96420000 0.632429765363 -0.742558831099
96430000 0.632353947857 -0.742576966689
96440000 0.632273231935 -0.742637110785
96450000 0.63222490582 -0.742662539343
96460000 0.632086097593 -0.742775978954
96470000 0.631914224135 -0.742819078182
96480000 0.63192762458 -0.743119659969
96490000 0.631861149939 -0.74315801149
96500000 0.631654801262 -0.74320592362
96510000 0.631609790064 -0.743435505159
96520000 0.631478990689 -0.743524505039
96530000 0.631372961605 -0.743517679412
96540000 0.631251997023 -0.743624486316
96550000 0.631123704646 -0.743685353342
96560000 0.631002083069 -0.743807427853
96570000 0.630911832804 -0.743878719649
96580000 0.630770671684 -0.743973161667
96590000 0.630663553671 -0.743991311562
96600000 0.630475291017 -0.744144416963
96610000 0.630468557952 -0.74423826801
96620000 0.630336161231 -0.744314583942
96630000 0.630280260313 -0.744416429845
96640000 0.630244035927 -0.744447071421
96650000 0.630097588538 -0.744559349792
96660000 0.630021321606 -0.744642214656
96670000 0.629906948119 -0.744753266283
96680000 0.629813174606 -0.744844481378
96690000 0.629742129405 -0.744878907868
96700000 0.629555737609 -0.744960906423
96710000 0.629455499715 -0.745088380205
96720000 0.629356771259 -0.745214431917
96730000 0.629228089872 -0.745230068498
96740000 0.629142177276 -0.745325382956
96750000 0.629020753952 -0.745390995119
96760000 0.628952795243 -0.745454109765
96770000 0.628807615298 -0.745584541708
96780000 0.628754332279 -0.745639548397
96790000 0.628650004811 -0.745745439044
96800000 0.628517100468 -0.74588742137
96810000 0.62843376932 -0.745968879609
96820000 0.62833250022 -0.746033407721
96830000 0.628250992423 -0.746118808813
96840000 0.628163428466 -0.746254235845
96850000 0.628089430898 -0.746328740063
96860000 0.628000679897 -0.746482939401
96870000 0.627884244154 -0.746487323841
96880000 0.627776342376 -0.746569133966
96890000 0.627682355094 -0.746629482554
96900000 0.627559582937 -0.746705193278
96910000 0.62741496773 -0.746820213818
96920000 0.62720692514 -0.746862353327
96930000 0.627108412854 -0.746927548294
96940000 0.627043725446 -0.747008125525
96950000 0.62699697877 -0.747085261839
96960000 0.626909399541 -0.747167620061
96970000 0.626864632407 -0.74720404742
96980000 0.62669941682 -0.747345471131
96990000 0.62653156112 -0.747446589381
97000000 0.626416771063 -0.747563325796
97010000 0.626286880889 -0.747600373197
97020000 0.626214025822 -0.747745921232
97030000 0.626132575148 -0.747788603326
97040000 0.625990165311 -0.747941228605
97050000 0.625881840137 -0.74802963567
97060000 0.625819548288 -0.748063475668
97070000 0.625734279685 -0.748187359965
97080000 0.625598055648 -0.748205804068
97090000 0.625480525567 -0.748342247024
97100000 0.625383646336 -0.748412377472
97110000 0.625332562186 -0.748539487666
97120000 0.625212964758 -0.748627145458
97130000 0.625109718733 -0.748687698963
97140000 0.624965957047 -0.748854995499
97150000 0.624845211914 -0.748884841001
97160000 0.624789388708 -0.748969051802
97170000 0.62468922705 -0.748994479864
97180000 0.624577020802 -0.749071641155
97190000 0.624467854742 -0.749195747177
97200000 0.624376558323 -0.749263404531
97210000 0.624275146936 -0.749370365583
97220000 0.624121229308 -0.749395343197
97230000 0.624013996754 -0.7495136612
97240000 0.623852241722 -0.749616085674
97250000 0.623824091558 -0.749695249419
97260000 0.623718921273 -0.749795372279
97270000 0.623741702108 -0.7499116554
97280000 0.623489950264 -0.750025330149
97290000 0.623530556991 -0.750113097225
97300000 0.623077082905 -0.749734640346
97310000 0.623154924747 -0.750284472742
97320000 0.623128458365 -0.750295480477
97330000 0.622962335109 -0.750417407884
97340000 0.622918027323 -0.750469499638
97350000 0.622838156596 -0.750529567454
97360000 0.622722738028 -0.750618946413
97370000 0.622653154378 -0.750712981412
97380000 0.622510617445 -0.750771093456
97390000 0.622445013278 -0.750843963444
97400000 0.62227973281 -0.751004370326
97410000 0.622186579492 -0.751099980541
97420000 0.622032404053 -0.75122003767
97430000 0.621939593292 -0.751291362435
97440000 0.62186509471 -0.751367100253
97450000 0.621733890418 -0.751461106803
97460000 0.621649376122 -0.75152699974
97470000 0.621483103937 -0.751683729592
97480000 0.621386102642 -0.75170304368
97490000 0.621285674603 -0.751736690554
97500000 0.621191655676 -0.751774851213
97510000 0.62106009112 -0.751871519622
97520000 0.620863218762 -0.752026980439
97530000 0.62084045729 -0.752083998122
97540000 0.620713436344 -0.75226776673
97550000 0.620618793161 -0.752327176585
97560000 0.620514766889 -0.752436128969
97570000 0.620361626255 -0.752552964556
97580000 0.620302667964 -0.752640811219
97590000 0.620194403469 -0.75273940273
97600000 0.620177038067 -0.75278091758
97610000 0.620116771502 -0.752874477732
97620000 0.619910228059 -0.752891158812
97630000 0.619855349192 -0.752967669952
97640000 0.61970451162 -0.752985511001
97650000 0.619610154942 -0.75308998105
97660000 0.619441315935 -0.753270321361
97670000 0.619357668409 -0.753353961095
97680000 0.619305124939 -0.753430024039
97690000 0.619232295163 -0.753527511709
97700000 0.619159831091 -0.753595524995
97710000 0.618983016083 -0.753713938638
97720000 0.618845336981 -0.7537684578
97730000 0.618754482596 -0.753805614765
97740000 0.618624419774 -0.753870064733
97750000 0.618483199764 -0.753978137384
97760000 0.618360585153 -0.754096672015
97770000 0.618340770121 -0.754187964026
97780000 0.618196479689 -0.75426922661
97790000 0.618145970936 -0.754344527474
97800000 0.618048137685 -0.754445253017
97810000 0.617943674277 -0.754590725718
97820000 0.617915456996 -0.75465477034
97830000 0.617728449767 -0.7547198956
97840000 0.617666900456 -0.754787675402
97850000 0.617543407045 -0.754896907666
97860000 0.617464448209 -0.754992931675
97870000 0.617365670766 -0.755079419015
97880000 0.617214034574 -0.755161480399
97890000 0.617113413694 -0.755190487486
97900000 0.616912193158 -0.75527539885
97910000 0.616813189973 -0.755280691758
97920000 0.616723486548 -0.75545159337
97930000 0.616593575672 -0.755532923603
97940000 0.616539264113 -0.755652655748
97950000 0.616372702038 -0.755788601682
97960000 0.616293998342 -0.755905738036
97970000 0.616157546831 -0.755988904149
97980000 0.6160716642 -0.756049347978
97990000 0.616003810517 -0.756135102464
98000000 0.615851425431 -0.756205409014
98010000 0.615760057082 -0.756281781332
98020000 0.615666140249 -0.756359498617
98030000 0.615498932354 -0.756425374291
98040000 0.615361593047 -0.756480669416
98050000 0.615299069179 -0.756550669772
98060000 0.615189862753 -0.756769857856
98070000 0.615069209477 -0.756783584302
98080000 0.614900240948 -0.756869815141
98090000 0.614808195678 -0.756971580486
98100000 0.614606815511 -0.757013830695
98110000 0.614541037446 -0.75713158052
98120000 0.614533843298 -0.757196060552
98130000 0.61449885619 -0.757334892892
98140000 0.614399181873 -0.757415713293
98150000 0.61421700729 -0.757500948269
98160000 0.614136156251 -0.757538455644
98170000 0.614021389589 -0.75760433534
98180000 0.613868907265 -0.757598355839
98190000 0.613838801102 -0.757674538956
98200000 0.61365775659 -0.757839981655
98210000 0.613562885473 -0.757944221825
98220000 0.613437205662 -0.758054610714
98230000 0.613327956007 -0.758143871423
98240000 0.613235964909 -0.758230931064
98250000 0.613122211228 -0.758361580338
98260000 0.613071191509 -0.758455985989
98270000 0.612978462193 -0.758526261992
98280000 0.61289879932 -0.758575233398
98290000 0.612728558381 -0.758599109293
98300000 0.612597646091 -0.7586684539
98310000 0.612501547315 -0.758764202893
98320000 0.612403796479 -0.758889108648
98330000 0.612298298962 -0.758964366783
98340000 0.612164370812 -0.759054591232
98350000 0.612003753833 -0.759138856854
98360000 0.611894297702 -0.759228426042
98370000 0.611781933638 -0.75933737583
98380000 0.611695945596 -0.759458703051
98390000 0.611532090225 -0.75953862723
98400000 0.611453835862 -0.759628844837
98410000 0.611403897488 -0.759704086396
98420000 0.611320188476 -0.759776370398
98430000 0.611215768212 -0.759900820839
98440000 0.611068961155 -0.760000635341
98450000 0.610971153309 -0.760071351222
98460000 0.610874806439 -0.760178214312
98470000 0.610735429888 -0.76028099848
98480000 0.610629060773 -0.760271856527
98490000 0.610440713836 -0.760342886435
98500000 0.610399820824 -0.760452190418
98510000 0.610238380713 -0.76058866288
98520000 0.610103224358 -0.760682999829
98530000 0.609960659226 -0.760815079225
98540000 0.609873290409 -0.760883096499
98550000 0.609801419963 -0.760942102382
98560000 0.60965449937 -0.76100169805
98570000 0.609608017964 -0.761116334909
98580000 0.609467929076 -0.761224674444
98590000 0.609370676595 -0.761246219185
98600000 0.609292864129 -0.761363100591
98610000 0.609213264579 -0.761434029474
98620000 0.609152727079 -0.761499653557
98630000 0.608968868143 -0.761608431743
98640000 0.608861429331 -0.761608210145
98650000 0.608730393507 -0.761719994454
98660000 0.60861319785 -0.761800017374
98670000 0.608547573128 -0.76193300571
98680000 0.608399534179 -0.762022997568
98690000 0.608355910841 -0.762158521945
98700000 0.608223504242 -0.762244330912
98710000 0.608078063619 -0.762295827418
98720000 0.6079707481 -0.762408568662
98730000 0.607807029412 -0.762460622295
98740000 0.607744687211 -0.762577744998
98750000 0.607618138977 -0.762612132959
98760000 0.607532899151 -0.762653319029
98770000 0.607404128401 -0.762764374593
98780000 0.60732012519 -0.762746746555
98790000 0.60724118334 -0.762937294208
98800000 0.607110908666 -0.762977495842
98810000 0.60698758544 -0.763094578966
98820000 0.606833162788 -0.763167537535
98830000 0.606788480614 -0.763256262264
98840000 0.606740734282 -0.763402901136
98850000 0.606520959633 -0.763414980803
98860000 0.60650479853 -0.763580245463
98870000 0.606363065377 -0.763632203873
98880000 0.606274530502 -0.763676367546
98890000 0.606095590289 -0.763744586494
98900000 0.605930004336 -0.763837520078
98910000 0.605872340563 -0.763868480547
98920000 0.605787957672 -0.763969684509
98930000 0.605663359485 -0.764062457772
98940000 0.605544533707 -0.764184981725
98950000 0.605422555582 -0.764262117662
98960000 0.605251349709 -0.764415497262
98970000 0.605170532586 -0.764496002849
98980000 0.605094554667 -0.764600276982
98990000 0.604999907608 -0.764722617674
99000000 0.604890737727 -0.764748257935
99010000 0.604767136823 -0.7648181103
99020000 0.604616437529 -0.764908647377
99030000 0.604452805232 -0.764975835381
99040000 0.604356949749 -0.765068657184
99050000 0.604249943711 -0.7650938451
99060000 0.604170808785 -0.765212139593
99070000 0.604009594083 -0.765284498328
99080000 0.603903725197 -0.765402738549
99090000 0.60384755297 -0.765484792488
99100000 0.603730128023 -0.765610514437
99110000 0.60362766125 -0.765702073763
99120000 0.603479287333 -0.765718543399
99130000 0.603327460808 -0.765843201911
99140000 0.60326495152 -0.765896998062
99150000 0.603156575468 -0.765946900403
99160000 0.603088704987 -0.76598575067
99170000 0.602929281046 -0.766103013386
99180000 0.602838462589 -0.766284927466
99190000 0.602734861067 -0.766414017669
99200000 0.602595966764 -0.766434802042
99210000 0.602437123091 -0.766497815536
99220000 0.602283151656 -0.766621865608
99230000 0.60219761742 -0.766754793153
99240000 0.602140665639 -0.766889699712
99250000 0.602023842842 -0.766915517724
99260000 0.601946717527 -0.766997323883
99270000 0.601814973974 -0.767059577216
99280000 0.601735241702 -0.767134452084
99290000 0.601620298453 -0.767213281665
99300000 0.601500016561 -0.76719809527
99310000 0.60134769716 -0.767271803353
99320000 0.60123434234 -0.767398935256
99330000 0.601110711764 -0.767518785509
99340000 0.600972353811 -0.767652721907
99350000 0.600900386005 -0.767717920949
99360000 0.600753895767 -0.76787256206
99370000 0.600639309085 -0.767921413269
99380000 0.600533284584 -0.767977313833
99390000 0.60042003645 -0.768014910115
99400000 0.600348457433 -0.768093188624
99410000 0.60020159297 -0.768234639226
99420000 0.600068761515 -0.768324741797
99430000 0.599969051518 -0.768426404672
99440000 0.599867844195 -0.768560527788
99450000 0.599764722902 -0.768635200941
99460000 0.599636206112 -0.768721599711
99470000 0.599583187111 -0.768773311654
99480000 0.599485229554 -0.768855094502
99490000 0.599368574986 -0.768913279395
99500000 0.599191826721 -0.769002794944
99510000 0.599071398521 -0.769090738606
99520000 0.599013657429 -0.769154000878
99530000 0.598943807659 -0.769257936047
99540000 0.598801996811 -0.769328724555
99550000 0.598660982475 -0.769438210724
99560000 0.598510855431 -0.769496895397
99570000 0.598435335036 -0.769617496527
99580000 0.598336570425 -0.769663850655
99590000 0.598270840062 -0.769755849746
99600000 0.598104362589 -0.769816580731
99610000 0.598013478057 -0.769931848758
99620000 0.597883053667 -0.76998304694
99630000 0.597732086743 -0.770081460861
99640000 0.597639279466 -0.770151053124
99650000 0.597458987876 -0.770262361464
99660000 0.597385471932 -0.770319232782
99670000 0.597284344735 -0.770322580926
99680000 0.597170160188 -0.770400516727
99690000 0.597035255986 -0.770477609184
99700000 0.596887849841 -0.770650701479
99710000 0.596807954835 -0.770760827057
99720000 0.596722328909 -0.770901236159
99730000 0.59654246653 -0.770944182208
99740000 0.596418989112 -0.771045492998
99750000 0.596269771791 -0.771101886056
99760000 0.596206855966 -0.771181264532
99770000 0.596135387249 -0.771255094001
99780000 0.596036822407 -0.771352935941
99790000 0.595915870715 -0.771426423461
99800000 0.595799388617 -0.771530594041
99810000 0.595685395262 -0.771528386262
99820000 0.595595101675 -0.771571657494
99830000 0.595486765866 -0.771621315114
99840000 0.595373344587 -0.77173660228
99850000 0.595289846037 -0.771874216064
99860000 0.595136144031 -0.771942673599
99870000 0.594950956994 -0.771915298479
99880000 0.594905000845 -0.772122352256
99890000 0.594680546113 -0.772257896073
99900000 0.594555675803 -0.772337250776
99910000 0.594483086437 -0.77243160111
99920000 0.594348166458 -0.772538548797
99930000 0.594210655234 -0.772609942574
99940000 0.594094865943 -0.772778364584
99950000 0.594049374315 -0.772821016555
99960000 0.593914416611 -0.772893938405
99970000 0.593850881754 -0.772932719123
99980000 0.593740104181 -0.773019176351
99990000 0.593629412383 -0.773113121143
100000000 0.593550205038 -0.773176710209
100010000 0.593386718609 -0.773236623889
100020000 0.593250680712 -0.773303116825
100030000 0.593157049242 -0.773401538475
100040000 0.592959082246 -0.773496705426
100050000 0.592833376715 -0.773565197554
100060000 0.592698677096 -0.773732255832
100070000 0.592636675094 -0.773800257349
100080000 0.592542229445 -0.773914004029
100090000 0.592421260443 -0.774002568427
100100000 0.592381158948 -0.7740519115
100110000 0.59227498375 -0.774134360446
100120000 0.592169376863 -0.774188169143
100130000 0.592010471121 -0.774294380149
100140000 0.591852729811 -0.77437050109
100150000 0.591775631948 -0.774456976415
100160000 0.591640978877 -0.774584854543
100170000 0.591565128875 -0.774679830521
100180000 0.591424796947 -0.774790962024
100190000 0.59132021351 -0.774855155398
100200000 0.591225640034 -0.774904102205
100210000 0.591054783731 -0.774966344613
100220000 0.590994374216 -0.77507706252
100230000 0.590858978292 -0.775161349748
100240000 0.590683499668 -0.775234918101
100250000 0.590555877967 -0.775362391016
100260000 0.590449747623 -0.775391711418
100270000 0.590407222295 -0.775460722463
100280000 0.590321852683 -0.775626336011
100290000 0.590226235412 -0.775675818398
100300000 0.590058375072 -0.775807065619
100310000 0.58996428753 -0.775878500336
100320000 0.589857615327 -0.775971547879
100330000 0.589709854523 -0.776090406294
100340000 0.589670240566 -0.776168466093
100350000 0.589559268288 -0.776244556691
100360000 0.589497864974 -0.776308533315
100370000 0.589380721082 -0.776362191912
100380000 0.58917672059 -0.776387642379
100390000 0.589081180533 -0.776441774159
100400000 0.588924469915 -0.776500285034
100410000 0.588827560513 -0.776542438761
100420000 0.588622928869 -0.776636345551
100430000 0.588479064287 -0.776707525207
100440000 0.588358656886 -0.776871541399
100450000 0.588215729995 -0.776948446901
100460000 0.588152151677 -0.777035705588
100470000 0.587999291232 -0.7771470731
100480000 0.5879097227 -0.777275102993
100490000 0.587811950239 -0.777373723165
100500000 0.587714238723 -0.777426622583
100510000 0.587639782986 -0.777536260489
100520000 0.587483883458 -0.777532749068
100530000 0.587456710802 -0.777660592872
100540000 0.587302762817 -0.7776932683
100550000 0.587234830746 -0.777797560495
100560000 0.587076040061 -0.777900340258
100570000 0.586920492185 -0.777989145289
100580000 0.586860433894 -0.77804900425
100590000 0.586657105059 -0.778103383057
100600000 0.586623495522 -0.778249972685
100610000 0.586462142843 -0.778350920914
100620000 0.586254855531 -0.77847579302
100630000 0.586132221281 -0.77855577837
100640000 0.586059526327 -0.778623532704
100650000 0.585889304077 -0.778740492597
100660000 0.585815853766 -0.778848192317
100670000 0.585734884558 -0.7789192543
100680000 0.585606535875 -0.779004229123
100690000 0.585451334455 -0.779059757692
100700000 0.58530704044 -0.779138227807
100710000 0.585168213182 -0.779209570168
100720000 0.585107783893 -0.779319604369
100730000 0.585042489774 -0.779482780006
100740000 0.584918206367 -0.779505854096
100750000 0.584831482218 -0.779572594955
100760000 0.584724966209 -0.77965690829
100770000 0.584657862928 -0.779742526266
100780000 0.58453824506 -0.779860888653
100790000 0.584375162943 -0.779952984763
100800000 0.584173981515 -0.780040203811
100810000 0.584003219333 -0.780104086684
100820000 0.583881921347 -0.78019523961
100830000 0.583746520503 -0.780267305959
100840000 0.583671506123 -0.780334700474
100850000 0.583590082341 -0.78043647197
100860000 0.583506579199 -0.780513790087
100870000 0.583414990185 -0.780611770295
100880000 0.583253841101 -0.78064242098
100890000 0.583151699333 -0.780721789868
100900000 0.582991289989 -0.780828282483
100910000 0.582899862331 -0.780955689851
100920000 0.582731138632 -0.781086005635
100930000 0.582663944163 -0.781199589736
100940000 0.582524450187 -0.781230945047
100950000 0.582435295575 -0.781290044168
100960000 0.582365517131 -0.781375043848
100970000 0.582282014856 -0.781417772118
100980000 0.582182106692 -0.781528782543
100990000 0.5821034227 -0.781650298154
101000000 0.581948317812 -0.781691892418
101010000 0.581793951121 -0.781738284507
101020000 0.581714982857 -0.781779436799
101030000 0.581567485542 -0.781819309187
101040000 0.581422916009 -0.781941157262
101050000 0.581315330467 -0.782047021586
101060000 0.581162006844 -0.782139769391
101070000 0.581028258434 -0.782255032749
101080000 0.580878341599 -0.782349705068
101090000 0.580749507189 -0.782406916996
101100000 0.580588446123 -0.782566891256
101110000 0.580452533958 -0.782674622461
101120000 0.580341536104 -0.782785572859
101130000 0.58029180331 -0.782837157708
101140000 0.580180838012 -0.782868158157
101150000 0.58004466159 -0.782901244685
101160000 0.579924457349 -0.783066236962
101170000 0.579869072355 -0.783117964961
101180000 0.579705124292 -0.783178158454
101190000 0.579592749505 -0.78327459972
101200000 0.579441945017 -0.783387887181
101210000 0.57935735917 -0.783483389839
101220000 0.579276113495 -0.78361954785
101230000 0.579190015864 -0.783747035058
101240000 0.579013221552 -0.783797427458
101250000 0.578865124513 -0.783830516339
101260000 0.578759231077 -0.78388444561
101270000 0.578674435276 -0.783972611512
101280000 0.578550967698 -0.784061714508
101290000 0.578400501151 -0.784171334416
101300000 0.578332125173 -0.784232122884
101310000 0.578203874266 -0.784292804283
101320000 0.578071479527 -0.784372796502
101330000 0.577959621446 -0.784439952736
101340000 0.577774312923 -0.784643596766
101350000 0.57762844608 -0.784708799821
101360000 0.577500841996 -0.784783287147
101370000 0.577367070703 -0.784863963876
101380000 0.577291687269 -0.784933875815
101390000 0.57720318001 -0.785077049571
101400000 0.577096795998 -0.78521268977
101410000 0.577032495757 -0.785321413822
101420000 0.576835291924 -0.785276181589
101430000 0.576683664156 -0.785375409109
101440000 0.576576161841 -0.78545150668
101450000 0.576484713994 -0.78549219375
101460000 0.576366416297 -0.785583974769
101470000 0.576226538797 -0.785652494051
101480000 0.576057808913 -0.78575096609
101490000 0.575912576636 -0.785915136241
101500000 0.575824590497 -0.785986678607
101510000 0.575700854211 -0.786093684686
101520000 0.57560133258 -0.786172132445
101530000 0.575447445128 -0.786262126835
101540000 0.575355297136 -0.78631603343
101550000 0.575241242346 -0.786402891298
101560000 0.575079433673 -0.786473946947
101570000 0.574950740589 -0.786548376181
101580000 0.574839525824 -0.78662943504
101590000 0.574749786744 -0.786727539135
101600000 0.574661905211 -0.786828262804
101610000 0.574524058835 -0.786958936349
101620000 0.574370780393 -0.787014956925
101630000 0.574274342766 -0.787141427813
101640000 0.574158489857 -0.787188876847
101650000 0.57402499211 -0.787279373332
101660000 0.573930117772 -0.787425235713
101670000 0.573780028193 -0.787519848704
101680000 0.573663952844 -0.78753309599
101690000 0.573494400225 -0.787581559164
101700000 0.573388457543 -0.787694328554
101710000 0.573280462132 -0.787714667022
101720000 0.573103646054 -0.787906470703
101730000 0.573008081691 -0.787984806885
101740000 0.572859674706 -0.788085227785
101750000 0.572750666272 -0.788142091784
101760000 0.572606713395 -0.788219433966
101770000 0.572525539649 -0.788259614673
101780000 0.57249218048 -0.788383462585
101790000 0.572364160931 -0.788473011335
101800000 0.572257016939 -0.788507749276
101810000 0.572113699387 -0.78859557301
101820000 0.571924302758 -0.788694500791
101830000 0.571824990001 -0.78879775386
101840000 0.571663916287 -0.78891756961
101850000 0.571550244067 -0.788976658379
101860000 0.571355549731 -0.789086798017
101870000 0.571223181034 -0.789193282825
101880000 0.571161593804 -0.789277107507
101890000 0.571037018992 -0.789395868521
101900000 0.570921507957 -0.789428143967
101910000 0.570730566948 -0.789527512971
101920000 0.570584163211 -0.789615316771
101930000 0.570490837233 -0.789706694478
101940000 0.570406432875 -0.789747784724
101950000 0.570290096179 -0.789846884197
101960000 0.570188445815 -0.789888775195
101970000 0.570104527538 -0.789921954711
101980000 0.570015347068 -0.79003291326
101990000 0.569892099894 -0.790144401605
102000000 0.569737527971 -0.790220275499
102010000 0.569581575529 -0.790312977766
102020000 0.569444383346 -0.79038516281
102030000 0.569349879701 -0.790545558106
102040000 0.569246566982 -0.790676084301
102050000 0.569063855916 -0.790729868876
102060000 0.568919459282 -0.790866173132
102070000 0.568777034617 -0.790935252644
102080000 0.568731559614 -0.791045373643
102090000 0.568622785559 -0.791141387636
102100000 0.568529752284 -0.79121153093
102110000 0.5683831405 -0.791251178291
102120000 0.568290634552 -0.791311769174
102130000 0.568134550192 -0.791361009751
102140000 0.567964065177 -0.791520337919
102150000 0.567840512182 -0.79157419237
102160000 0.567661502741 -0.791658999365
102170000 0.567570420801 -0.791762789549
102180000 0.567452298969 -0.791866635532
102190000 0.567339644577 -0.791908603621
102200000 0.56716658653 -0.791955862822
102210000 0.567119307572 -0.792030314805
102220000 0.567005462006 -0.79205640975
102230000 0.566868440564 -0.792163646393
102240000 0.566734191994 -0.792203995939
102250000 0.566577576835 -0.792344397212
102260000 0.566459262467 -0.792518503272
102270000 0.566291765935 -0.792633206005
102280000 0.566168448196 -0.792722461548
102290000 0.566071865885 -0.792776970567
102300000 0.56596895799 -0.792858531022
102310000 0.565848750518 -0.792957199334
102320000 0.565757311255 -0.793026133772
102330000 0.565613909221 -0.79311573113
102340000 0.565453626469 -0.793254252647
102350000 0.565342424651 -0.793307415261
102360000 0.565204993109 -0.793388162739
102370000 0.565035460424 -0.793387123565
102380000 0.564927036549 -0.793472737323
102390000 0.564761125087 -0.793560632261
102400000 0.564696645707 -0.793881659935
102410000 0.564457676964 -0.793905720188
102420000 0.564425966899 -0.79375046337
102430000 0.564276435046 -0.793884400977
102440000 0.56410301681 -0.794008880237
102450000 0.564006632063 -0.794093966272
102460000 0.563865908716 -0.794206693424
102470000 0.563744222967 -0.794257147316
102480000 0.563665640313 -0.794393782035
102490000 0.563514684588 -0.794456373403
102500000 0.563403633691 -0.794565751055
102510000 0.56330194308 -0.794637829011
102520000 0.563172333165 -0.794702646603
102530000 0.56301831283 -0.794754446923
102540000 0.562863605856 -0.794846738978
102550000 0.562771816093 -0.794916501073
102560000 0.5626471177 -0.795009315417
102570000 0.562511502191 -0.795121557971
102580000 0.562345974987 -0.795192822719
102590000 0.562230546255 -0.795306261801
102600000 0.562119330276 -0.795380243797
102610000 0.561994349794 -0.795468558034
102620000 0.561894215763 -0.795547417238
102630000 0.561775416089 -0.795621540329
102640000 0.561628302572 -0.795710256513
102650000 0.561511345366 -0.795853824766
102660000 0.561391336709 -0.795944077105
102670000 0.561279831552 -0.796020927271
102680000 0.561120864578 -0.796082119905
102690000 0.561016325755 -0.79616432249
102700000 0.560846669643 -0.796245513054
102710000 0.560720063 -0.796350733407
102720000 0.560557467946 -0.796395828763
102730000 0.560441293557 -0.796466545876
102740000 0.560295015915 -0.796583841585
102750000 0.56017518334 -0.796759557516
102760000 0.560096233314 -0.796839160506
102770000 0.559953364745 -0.79693488423
102780000 0.559811155447 -0.796977980534
102790000 0.55969252683 -0.797034013734
102800000 0.559644871098 -0.797155877548
102810000 0.559549655881 -0.797185798533
102820000 0.559432375387 -0.797250763509
102830000 0.559278340988 -0.797366600547
102840000 0.559130958403 -0.797386012032
102850000 0.559018768279 -0.797450821167
102860000 0.558799044594 -0.797555317044
102870000 0.558684031843 -0.797664182441
102880000 0.558526557613 -0.797797725785
102890000 0.558459116351 -0.797878189274
102900000 0.558344261367 -0.798015305204
102910000 0.558192368382 -0.798043666235
102920000 0.558047228179 -0.798099912825
102930000 0.557895625702 -0.798150594964
102940000 0.557757878661 -0.798255306437
102950000 0.557698042443 -0.798396854604
102960000 0.557584218981 -0.798457453909
102970000 0.557447099446 -0.798552824445
102980000 0.557296713726 -0.798666710037
102990000 0.557220021515 -0.798695505813
103000000 0.557100133536 -0.798768984252
103010000 0.55701447659 -0.798831174757
103020000 0.556905437577 -0.798940617215
103030000 0.556755941764 -0.799007245906
103040000 0.556606705382 -0.799064200487
103050000 0.556446015292 -0.799165206045
103060000 0.556273050648 -0.79920852464
103070000 0.556133946899 -0.799321652637
103080000 0.555929678215 -0.799491409729
103090000 0.555823701416 -0.799553103673
103100000 0.555662576031 -0.799667265495
103110000 0.555548299833 -0.799725548011
103120000 0.555445045558 -0.799862027561
103130000 0.555404675281 -0.799986703705
103140000 0.555287956901 -0.800042412628
103150000 0.555153470542 -0.800111202344
103160000 0.555046513238 -0.800152134684
103170000 0.554877591883 -0.800208175612
103180000 0.554752768259 -0.800272780207
103190000 0.554645416625 -0.800324749628
103200000 0.554474027825 -0.800439665534
103210000 0.554286897528 -0.800525939177
103220000 0.55411417965 -0.800682567658
103230000 0.554020602057 -0.800741815247
103240000 0.55390152394 -0.800826782014
103250000 0.553721775367 -0.800888793974
103260000 0.553634326294 -0.800916144822
103270000 0.553500208516 -0.801031827959
103280000 0.553391856676 -0.801101649951
103290000 0.553260284588 -0.801187366766
103300000 0.553097864445 -0.801240678482
103310000 0.552973969839 -0.801361068162
103320000 0.552879322549 -0.801449448567
103330000 0.552806208461 -0.801613983423
103340000 0.552645082728 -0.801744416755
103350000 0.552480163763 -0.801846178223
103360000 0.552346402076 -0.801969004844
103370000 0.552241293595 -0.801974003832
103380000 0.552184541626 -0.80200959432
103390000 0.552073250415 -0.802139739407
103400000 0.551881337034 -0.802205762429
103410000 0.551696128353 -0.802263889564
103420000 0.551561249524 -0.802305585965
103430000 0.551473155203 -0.802381621217
103440000 0.551329454497 -0.802538396819
103450000 0.551154249695 -0.802620464042
103460000 0.550993677832 -0.802716292045
103470000 0.550798075923 -0.802762415498
103480000 0.550744155876 -0.802871250468
103490000 0.550626536108 -0.802944413872
103500000 0.55050272901 -0.803075222287
103510000 0.550417000973 -0.803141214292
103520000 0.55030432679 -0.803246646258
103530000 0.550209460075 -0.803338520713
103540000 0.550033879275 -0.803363761781
103550000 0.549891027169 -0.803458648072
103560000 0.549790349757 -0.803513406259
103570000 0.549626579602 -0.803612072079
103580000 0.549484352823 -0.803719919671
103590000 0.549275011893 -0.803775661645
103600000 0.549212465676 -0.803877241961
103610000 0.549106618127 -0.803982860115
103620000 0.549026206253 -0.804002219209
103630000 0.548814172177 -0.804137868094
103640000 0.548685757808 -0.804230434798
103650000 0.548452166304 -0.804276548989
103660000 0.548374605332 -0.804378289347
103670000 0.548232506579 -0.804511847578
103680000 0.548109795281 -0.804559711991
103690000 0.548059262663 -0.804632726149
103700000 0.547873721229 -0.80479950178
103710000 0.547829479096 -0.804820089269
103720000 0.547608181079 -0.804872665138
103730000 0.547535529774 -0.804959698144
103740000 0.547363942969 -0.804976884493
103750000 0.547167069406 -0.805068709524
103760000 0.547059391899 -0.805176888303
103770000 0.546890116603 -0.805263899591
103780000 0.546761375443 -0.80535117058
103790000 0.546605960466 -0.805480467653
103800000 0.546547840043 -0.805588095391
103810000 0.546430169707 -0.80565524789
103820000 0.546259380605 -0.80575928689
103830000 0.546143828043 -0.805822788794
103840000 0.545998362503 -0.805928689084
103850000 0.545927593804 -0.80600422564
103860000 0.545781140806 -0.806061168862
103870000 0.545649369462 -0.806175067745
103880000 0.545500046753 -0.806219642992
103890000 0.54530739105 -0.806282108021
103900000 0.545135575198 -0.806437817713
103910000 0.545046225053 -0.80651448722
103920000 0.544935754092 -0.806540391681
103930000 0.544809741247 -0.806596854306
103940000 0.544677997972 -0.806710280599
103950000 0.544540249209 -0.806836605602
103960000 0.544417069395 -0.806949883267
103970000 0.544264652359 -0.80709997714
103980000 0.544155220095 -0.807070531102
103990000 0.544001699634 -0.807206409856
104000000 0.543827952452 -0.807390928382
104010000 0.543838743001 -0.807358554039
104020000 0.543568386507 -0.807374549284
104030000 0.543390993352 -0.807523816017
104040000 0.543320203429 -0.807582986712
104050000 0.543165806708 -0.807657545907
104060000 0.543063303241 -0.807788634385
104070000 0.542943466546 -0.807897256117
104080000 0.542839083929 -0.808009706391
104090000 0.542638049597 -0.808070208473
104100000 0.542556297874 -0.808143959429
104110000 0.542422185245 -0.808186760195
104120000 0.542228399865 -0.808304636603
104130000 0.542099796196 -0.808414617333
104140000 0.541986490803 -0.808497069524
104150000 0.541823314403 -0.808604938435
104160000 0.541737029391 -0.808602840469
104170000 0.541592564607 -0.808676851626
104180000 0.541462090224 -0.808753695293
104190000 0.541348486642 -0.808816510689
104200000 0.541232768785 -0.808950598757
104210000 0.541081312131 -0.80906184875
104220000 0.540937599474 -0.809133829891
104230000 0.54076082097 -0.809223592994
104240000 0.540644563738 -0.809338729383
104250000 0.540542080444 -0.809446660173
104260000 0.540408042661 -0.80948575299
104270000 0.540277733307 -0.809515570639
104280000 0.54018036196 -0.809575823094
104290000 0.540003864733 -0.809672320436
104300000 0.539836889854 -0.809737992027
104310000 0.539660068636 -0.809859866189
104320000 0.539520083292 -0.809899909587
104330000 0.539286519975 -0.810072718007
104340000 0.539212139155 -0.810135849717
104350000 0.539096058745 -0.810231402662
104360000 0.539037676239 -0.810337492771
104370000 0.538898977913 -0.810390265956
104380000 0.538743757392 -0.810478755762
104390000 0.538614815197 -0.810504077944
104400000 0.53849861692 -0.810551319898
104410000 0.538303272244 -0.810637556725
104420000 0.538128820959 -0.810780467041
104430000 0.538044974605 -0.810859225647
104440000 0.537893579884 -0.811003093351
104450000 0.537728213809 -0.811078394239
104460000 0.537617532816 -0.811176089264
104470000 0.537438777827 -0.811245587407
104480000 0.537330387271 -0.811324711053
104490000 0.537209255082 -0.811394528639
104500000 0.537060268141 -0.811471393787
104510000 0.536942381619 -0.81154512715
104520000 0.536777289782 -0.811698551121
104530000 0.536692077457 -0.811749316458
104540000 0.536601030071 -0.811873496797
104550000 0.536476024932 -0.811937041851
104560000 0.536319974524 -0.812012138163
104570000 0.536183241547 -0.812100284777
104580000 0.536018022318 -0.812161410084
104590000 0.535894821137 -0.812209637972
104600000 0.535704524185 -0.812288788276
104610000 0.535571203178 -0.812411463331
104620000 0.535431865062 -0.812602889061
104630000 0.535253418908 -0.812626753026
104640000 0.535175083122 -0.812739170251
104650000 0.535032639643 -0.812798569719
104660000 0.534895842407 -0.812868061874
104670000 0.534812748547 -0.812976153334
104680000 0.534700832833 -0.813053281825
104690000 0.53448100822 -0.813110863169
104700000 0.534318923221 -0.813137910053
104710000 0.534115763923 -0.813165349445
104720000 0.534023412422 -0.813308809506
104730000 0.533885479814 -0.813396276124
104740000 0.533724929731 -0.813451164478
104750000 0.53353116576 -0.813604965688
104760000 0.533418545679 -0.813681883421
104770000 0.533282171816 -0.813821569972
104780000 0.533224435472 -0.81393171782
104790000 0.533122564693 -0.813984303856
104800000 0.532955872421 -0.81402388732
104810000 0.532792917871 -0.81415186573
104820000 0.53268565917 -0.814199285765
104830000 0.532519316663 -0.814306276478
104840000 0.532391144168 -0.814372391674
104850000 0.532267472457 -0.814455128224
104860000 0.532105412058 -0.81452430874
104870000 0.53199784701 -0.814609486488
104880000 0.531814291832 -0.8146684197
104890000 0.531680293958 -0.814714048029
104900000 0.531537920465 -0.81478919298
104910000 0.531401764758 -0.814844213405
104920000 0.531287060242 -0.814957318264
104930000 0.531110182521 -0.815117015005
104940000 0.530971024307 -0.81527383646
104950000 0.53084814751 -0.815384687092
104960000 0.530716777909 -0.815453329016
104970000 0.530581901325 -0.815511327659
104980000 0.530458173666 -0.815556937533
104990000 0.530349344857 -0.81561258921
105000000 0.53016376394 -0.815706355956
105010000 0.530089194729 -0.815816269322
105020000 0.529858225373 -0.815915088591
105030000 0.529672891702 -0.816010537924
105040000 0.529614227912 -0.816073326112
105050000 0.529493322949 -0.816128192788
105060000 0.529405094481 -0.816188713095
105070000 0.529223685873 -0.81633181368
105080000 0.529038125419 -0.816373947707
105090000 0.528933594989 -0.816505478312
105100000 0.528724774946 -0.816598907645
105110000 0.528566098959 -0.816662901993
105120000 0.528478873181 -0.816741266573
105130000 0.528347987158 -0.816842805525
105140000 0.528193263317 -0.816938313049
105150000 0.528069600615 -0.817001424944
105160000 0.527915580136 -0.817125406075
105170000 0.527753259979 -0.817128021973
105180000 0.527588405157 -0.81719988024
105190000 0.527499769914 -0.817294592697
105200000 0.52738151217 -0.817395436588
105210000 0.527273985681 -0.817466699315
105220000 0.527097380018 -0.817562439825
105230000 0.526929335998 -0.817674462352
105240000 0.526832053567 -0.817751632944
105250000 0.52660556327 -0.817829534033
105260000 0.526481088469 -0.817861608253
105270000 0.526341944021 -0.818001970725
105280000 0.526215480895 -0.818097464105
105290000 0.526068365096 -0.818147164053
105300000 0.525915585856 -0.818206716483
105310000 0.525818453382 -0.818302439276
105320000 0.525652261345 -0.818360236884
105330000 0.525510869542 -0.818450481813
105340000 0.525354948147 -0.81856971014
105350000 0.525156067907 -0.818636391601
105360000 0.525012121551 -0.818752435775
105370000 0.524809504571 -0.818884893342
105380000 0.524694987219 -0.818883547713
105390000 0.524543771344 -0.81892702317
105400000 0.52440019113 -0.818996192462
105410000 0.524254386172 -0.819128908442
105420000 0.524078668771 -0.819275245369
105430000 0.523943213212 -0.819399052667
105440000 0.523862289394 -0.819484353666
105450000 0.523749418414 -0.819554343552
105460000 0.523672009278 -0.81964752738
105470000 0.523533870266 -0.819714907038
105480000 0.52342677177 -0.819763984623
105490000 0.523236847877 -0.81982524918
105500000 0.52309979742 -0.819890751913
105510000 0.522942486826 -0.820025694753
105520000 0.5228261537 -0.820175668502
105530000 0.522664481547 -0.820239531922
105540000 0.522514048007 -0.820262152194
105550000 0.522359439589 -0.820345066633
105560000 0.52221284912 -0.820419369059
105570000 0.522058827569 -0.820515015122
105580000 0.521940310486 -0.820584541312
105590000 0.521757582666 -0.820707507976
105600000 0.521627047254 -0.820780037076
105610000 0.521516864078 -0.820883418162
105620000 0.521398067028 -0.820980762558
105630000 0.521301630307 -0.821054044391
105640000 0.521105390882 -0.821119339634
105650000 0.520941898374 -0.821209967595
105660000 0.520836353426 -0.821295005468
105670000 0.520627011701 -0.821334424466
105680000 0.520480828278 -0.82144447209
105690000 0.520293595424 -0.821539460305
105700000 0.520120912425 -0.821645689521
105710000 0.520069611639 -0.821689397071
105720000 0.519924001584 -0.8218107399
105730000 0.51979516649 -0.821870257408
105740000 0.519604357738 -0.821968748653
105750000 0.51940965075 -0.82203290224
105760000 0.51929989288 -0.822162374889
105770000 0.519113831017 -0.822240105046
105780000 0.519024656637 -0.822382004091
105790000 0.518871802307 -0.822442265372
105800000 0.518717532171 -0.822489929645
105810000 0.518602375833 -0.822566668561
105820000 0.518479959252 -0.822625509537
105830000 0.518314927274 -0.822704659417
105840000 0.518197983712 -0.822809746935
105850000 0.518081504207 -0.822917379761
105860000 0.517860431643 -0.823022556245
105870000 0.517718364266 -0.823105628978
105880000 0.517579713191 -0.823148791716
105890000 0.517417165989 -0.823227177711
105900000 0.517237792372 -0.823364798222
105910000 0.517142247405 -0.823471263873
105920000 0.516966932563 -0.823598260068
105930000 0.516801199059 -0.823617549453
105940000 0.516678030571 -0.823720054158
105950000 0.516538672199 -0.823842620968
105960000 0.516419199176 -0.823885395059
105970000 0.516269390461 -0.8239840112
105980000 0.516106549464 -0.824011881142
105990000 0.51598041838 -0.824130325798
106000000 0.515913903762 -0.824201170555
106010000 0.515741130459 -0.824270153064
106020000 0.515602870259 -0.824363439381
106030000 0.515428712545 -0.824476996873
106040000 0.515227424655 -0.824544073629
106050000 0.515087578593 -0.824606935425
106060000 0.514902514555 -0.824651101562
106070000 0.514847600363 -0.824751179397
106080000 0.514690724443 -0.824882302151
106090000 0.514585387811 -0.824957598385
106100000 0.51436631223 -0.825046864296
106110000 0.514238879124 -0.825155771369
106120000 0.514089333079 -0.825253473771
106130000 0.514018100266 -0.82527883136
106140000 0.513805263554 -0.82537686876
106150000 0.513652791976 -0.825420681938
106160000 0.513540262153 -0.825492027506
106170000 0.513398291529 -0.825561753724
106180000 0.513255885996 -0.825637313704
106190000 0.513117136889 -0.825731318975
106200000 0.512947990724 -0.825812492255
106210000 0.512786588868 -0.825924604851
106220000 0.512610015412 -0.825973564356
106230000 0.512408957867 -0.826074896655
106240000 0.512263508176 -0.826152651085
106250000 0.512141310872 -0.826221189252
106260000 0.512030527756 -0.826299899579
106270000 0.511849163498 -0.826461950562
106280000 0.511717955034 -0.826521961275
106290000 0.511613285026 -0.826682466742
106300000 0.511456303445 -0.826777951272
106310000 0.511306791681 -0.826790003548
106320000 0.511141780983 -0.826824031731
106330000 0.510949511636 -0.826879358889
106340000 0.510790710274 -0.826974594586
106350000 0.510563724447 -0.827036088811
106360000 0.510452670723 -0.827198819111
106370000 0.510308241255 -0.827316237334
106380000 0.510121393363 -0.827403873749
106390000 0.510025012303 -0.827491809933
106400000 0.509935162223 -0.827556958503
106410000 0.509815638713 -0.827656230337
106420000 0.509609754664 -0.827754726724
106430000 0.509460947768 -0.827814260629
106440000 0.509290092143 -0.827862518546
106450000 0.509122678402 -0.82794358593
106460000 0.508954575557 -0.827973187777
106470000 0.508829796143 -0.82807384806
106480000 0.508655823176 -0.828189698554
106490000 0.508534453222 -0.828281193445
106500000 0.508400770059 -0.828384249106
106510000 0.508204378699 -0.828432008133
106520000 0.508140903494 -0.828527083055
106530000 0.507970485086 -0.828642578523
106540000 0.507820488086 -0.828701434045
106550000 0.507626249499 -0.828762635282
106560000 0.507492276608 -0.82882051716
106570000 0.507372524493 -0.828900905284
106580000 0.507238880921 -0.828986159595
106590000 0.507120860216 -0.829078383511
106600000 0.506911240921 -0.829162273018
106610000 0.506801130759 -0.829269825419
106620000 0.506666590495 -0.829382208
106630000 0.506493900737 -0.829474022461
106640000 0.506365850215 -0.829523934652
106650000 0.506182910429 -0.829589243436
106660000 0.50606611112 -0.829658303497
106670000 0.505876460165 -0.829775785026
106680000 0.50571091095 -0.829849709583
106690000 0.505514589524 -0.829928852391
106700000 0.505368553237 -0.830041429606
106710000 0.505180466747 -0.830137236627
106720000 0.505034845425 -0.830210241775
106730000 0.504866182424 -0.830277815408
106740000 0.504783346047 -0.830425309768
106750000 0.504615667986 -0.83052316921
106760000 0.504451942705 -0.830625758424
106770000 0.504182587967 -0.830693010125
106780000 0.504052075401 -0.830794672693
106790000 0.503950082424 -0.830832330441
106800000 0.503827317719 -0.830948890088
106810000 0.503719066318 -0.831024028628
106820000 0.503506954227 -0.831102208907
106830000 0.503355995247 -0.831155446716
106840000 0.503192292774 -0.831226033355
106850000 0.50306904413 -0.831299399647
106860000 0.50293870249 -0.831380045698
106870000 0.502765376609 -0.83150974479
106880000 0.502624855002 -0.831587101257
106890000 0.502486498437 -0.831677158975
106900000 0.502327029283 -0.831714237308
106910000 0.502202739536 -0.831723606001
106920000 0.50203123203 -0.831825644888
106930000 0.501931537752 -0.831914170449
106940000 0.501699182425 -0.83204371469
106950000 0.501473745441 -0.83217475869
106960000 0.501342110426 -0.832266706585
106970000 0.501243313828 -0.832396844509
106980000 0.501033166456 -0.832463598397
106990000 0.500923830913 -0.832522647001
107000000 0.500761893716 -0.832563137249
107010000 0.500648112021 -0.832596150621
107020000 0.500485806546 -0.832703580158
107030000 0.500314728001 -0.832834013981
107040000 0.500129712835 -0.832941256991
107050000 0.499994266297 -0.833006987813
107060000 0.49983306123 -0.83303213204
107070000 0.499679747637 -0.833100029576
107080000 0.499569069129 -0.833203499542
107090000 0.49939482955 -0.833308526224
107100000 0.49923087409 -0.833419963178
107110000 0.49904474072 -0.833486183821
107120000 0.498873085522 -0.83363026435
107130000 0.49870998184 -0.833692034745
107140000 0.498575953526 -0.833776589218
107150000 0.498464495635 -0.833823475557
107160000 0.498281891326 -0.833864998598
107170000 0.498105150789 -0.833960538768
107180000 0.497984197943 -0.833974899305
107190000 0.49780366158 -0.834068223474
107200000 0.497650222932 -0.834214315927
107210000 0.497520733503 -0.834317238527
107220000 0.497335843947 -0.834451951154
107230000 0.49715161149 -0.834579201567
107240000 0.496990801588 -0.834659649028
107250000 0.496865917635 -0.834738451482
107260000 0.496737579864 -0.8347897297
107270000 0.49659243577 -0.83490250718
107280000 0.496468813255 -0.834986590455
107290000 0.496331210792 -0.835087060296
107300000 0.496166762457 -0.835118264363
107310000 0.495977701757 -0.835125605305
107320000 0.495802610528 -0.83526213691
107330000 0.495606011978 -0.835307642454
107340000 0.495498921867 -0.835440864066
107350000 0.495307207357 -0.835470522392
107360000 0.495184865883 -0.835628607952
107370000 0.495000465352 -0.835776896925
107380000 0.494837269851 -0.835823461186
107390000 0.494715903136 -0.835907727012
107400000 0.494610729799 -0.835984226155
107410000 0.494464649677 -0.836048550621
107420000 0.494315409976 -0.836175607101
107430000 0.49414131245 -0.836234417901
107440000 0.493953585066 -0.836242758359
107450000 0.49371285518 -0.836366223684
107460000 0.493569409418 -0.836447063623
107470000 0.493407410132 -0.836532291474
107480000 0.493273136568 -0.836700059388
107490000 0.493111133589 -0.83677562786
107500000 0.492908773109 -0.836879153435
107510000 0.492764741607 -0.836970819446
107520000 0.49260773618 -0.837043550986
107530000 0.492496393881 -0.837153130911
107540000 0.492359645221 -0.837195487951
107550000 0.492190133332 -0.837241381402
107560000 0.492053707603 -0.837315689588
107570000 0.491940269468 -0.837392934729
107580000 0.491774165372 -0.837425519226
107590000 0.491640460732 -0.837511990174
107600000 0.491477259227 -0.837575171405
107610000 0.491362874318 -0.837626309662
107620000 0.491160326686 -0.837738253197
107630000 0.490991406234 -0.837857293385
107640000 0.490755194711 -0.83793115087
107650000 0.490579361189 -0.83799183279
107660000 0.4904167613 -0.838113426964
107670000 0.490274007871 -0.838199903185
107680000 0.490098490337 -0.83830746153
107690000 0.489936143132 -0.838409692145
107700000 0.489738853129 -0.838464156009
107710000 0.489588496255 -0.838556682944
107720000 0.489395086242 -0.83856234663
107730000 0.489327734855 -0.838622405177
107740000 0.489150281705 -0.838746434973
107750000 0.488927186332 -0.838904371738
107760000 0.488702337798 -0.838989709877
107770000 0.488557200998 -0.839122891373
107780000 0.488447389777 -0.839184635048
107790000 0.488346268201 -0.839302834353
107800000 0.488193295911 -0.839398635927
107810000 0.488005809278 -0.839473184657
107820000 0.487781155742 -0.839474504967
107830000 0.487613823839 -0.839545056648
107840000 0.487479143509 -0.839577512092
107850000 0.487318884089 -0.839608257164
107860000 0.487131771628 -0.839769581758
107870000 0.486994114315 -0.839879804831
107880000 0.486750767071 -0.839959373005
107890000 0.486623529342 -0.840099866881
107900000 0.486532672431 -0.840188961301
107910000 0.486398650766 -0.840258492827
107920000 0.486281464401 -0.840374257587
107930000 0.486124621709 -0.840457976083
107940000 0.485964090325 -0.840543496028
107950000 0.485799675476 -0.840603276838
107960000 0.485663509284 -0.840679883835
107970000 0.485418926274 -0.840752346095
107980000 0.4852603781 -0.840820729105
107990000 0.485084581572 -0.840875656108
108000000 0.484954717292 -0.841042831528
