! Calibrated averaged scanner-service zoom
# Hz S RI R 50
420000000 -0.0451385655308 -0.0078715789163
420010000 -0.0455693629582 -0.0101311394261
420020000 -0.0443116728395 -0.00887216554111
420030000 -0.0468965954502 -0.00978945982078
420040000 -0.0466816187031 -0.0125380649121
420050000 -0.0515666325259 -0.00799087330915
420060000 -0.0430155361882 -0.00712743486003
420070000 -0.0450637045575 -0.0122291695991
420080000 -0.0472975060937 -0.0104111738256
420090000 -0.042776883801 -0.0097371360658
420100000 -0.0402521387174 -0.0100049167028
420110000 -0.0430131044106 -0.00959070438899
420120000 -0.044453626539 -0.0123244736061
420130000 -0.0434608547567 -0.0137352759228
420140000 -0.0412891387038 -0.0119363594539
420150000 -0.0418691248172 -0.0107599171817
420160000 -0.0403268484815 -0.0113518581729
420170000 -0.0409198006597 -0.0116534640084
420180000 -0.0403362787426 -0.0127487112127
420190000 -0.0403051633327 -0.0130445754006
420200000 -0.0392102469112 -0.0134338187046
420210000 -0.0389574914941 -0.0125172859646
420220000 -0.0383125425097 -0.0138969071053
420230000 -0.0385370204529 -0.0135119959669
420240000 -0.0400739486679 -0.0132637945944
420250000 -0.0389120327453 -0.0135657310831
420260000 -0.0376614940471 -0.0142358365612
420270000 -0.0369141848656 -0.0139423755903
420280000 -0.0375451013579 -0.0137811354514
420290000 -0.0362925384023 -0.0143082781417
420300000 -0.0366746504564 -0.0145426607197
420310000 -0.03466254288 -0.0147955475794
420320000 -0.0356382525014 -0.0144987944445
420330000 -0.0350955327448 -0.0151858987933
420340000 -0.0348269160189 -0.0145134674433
420350000 -0.0344794974636 -0.0147539640218
420360000 -0.0346008686399 -0.0139430361273
420370000 -0.034474190183 -0.0145812038969
420380000 -0.0334588592045 -0.0153975554339
420390000 -0.0336759060796 -0.015490964899
420400000 -0.0325203698546 -0.0159585782053
420410000 -0.0339178531382 -0.0159573280057
420420000 -0.032659797976 -0.0161599069134
420430000 -0.0327735106641 -0.0159436182604
420440000 -0.0322860756857 -0.0163855761661
420450000 -0.0328433267045 -0.0164949952831
420460000 -0.032369316565 -0.01645481247
420470000 -0.0308686782434 -0.0162649220129
420480000 -0.0293608531999 -0.0177892937388
420490000 -0.0292536055652 -0.0177631226255
420500000 -0.0306557654037 -0.0172977590664
420510000 -0.0287838365726 -0.0174951189754
420520000 -0.0289890384956 -0.0178503006623
420530000 -0.0281516866421 -0.017793106983
420540000 -0.0285342431535 -0.0185466972646
420550000 -0.0279412781933 -0.0188096236061
420560000 -0.026957561172 -0.018296062663
420570000 -0.0274316946931 -0.0189480235963
420580000 -0.0273161593946 -0.0184968091932
420590000 -0.026858289379 -0.0190596949477
420600000 -0.0267840184805 -0.0190628549718
420610000 -0.0259758134102 -0.0208400843163
420620000 -0.0261441974099 -0.0191992534064
420630000 -0.0271187480039 -0.0203618546898
420640000 -0.0255403114136 -0.0196232762513
420650000 -0.0250524974014 -0.0198307148723
420660000 -0.023541310411 -0.0193672134375
420670000 -0.0244662586879 -0.0208449057046
420680000 -0.0231632630307 -0.0212975773528
420690000 -0.0246248726849 -0.0215012159276
420700000 -0.0232992861127 -0.0215552312651
420710000 -0.0226114354763 -0.0216893987978
420720000 -0.0229153431619 -0.0219629728788
420730000 -0.0220002015406 -0.0231265286666
420740000 -0.0230947429647 -0.0237369773375
420750000 -0.0193048574823 -0.0209487425291
420760000 -0.0194529031627 -0.0228695380125
420770000 -0.0201945545912 -0.0234527666619
420780000 -0.0192478424208 -0.0246761628685
420790000 -0.0211763472623 -0.0256995031924
420800000 -0.0181749414083 -0.0208653370975
420810000 -0.0209389957089 -0.0231157592566
420820000 -0.020527185912 -0.0240524458451
420830000 -0.0194409999734 -0.022274688739
420840000 -0.0182826692134 -0.0206947702811
420850000 -0.0171339475599 -0.0226710360634
420860000 -0.0178398491741 -0.023025314665
420870000 -0.0178619469242 -0.0253097151035
420880000 -0.0134625118894 -0.0228610114249
420890000 -0.0186368730072 -0.0226910008467
420900000 -0.0158957309565 -0.0229681657991
420910000 -0.0190002247685 -0.0273232077954
420920000 -0.0143309723638 -0.0249375534565
420930000 -0.01514018462 -0.0252152105166
420940000 -0.0151171385287 -0.0260233586528
420950000 -0.014650486497 -0.025094678332
420960000 -0.0147225725278 -0.0254698705446
420970000 -0.0146819979895 -0.0254148730506
420980000 -0.013641284184 -0.0263981485896
420990000 -0.0128397019118 -0.0249701384546
421000000 -0.0148090296605 -0.0265324754042
421010000 -0.0125837479618 -0.0260996593461
421020000 -0.0125551751322 -0.0269045931876
421030000 -0.0128560293484 -0.0259388692394
421040000 -0.0116703316527 -0.0271373862962
421050000 -0.0112288953634 -0.0262242768534
421060000 -0.0117659227448 -0.026994550888
421070000 -0.0108701894014 -0.0275176982481
421080000 -0.0107584612971 -0.0277641236626
421090000 -0.0100698248437 -0.027827209561
421100000 -0.00953127319128 -0.0277617504029
421110000 -0.00951002634676 -0.0287143320119
421120000 -0.0101942805118 -0.0291658215494
421130000 -0.00949049372616 -0.0279398797572
421140000 -0.00934981971543 -0.0290909545744
421150000 -0.00898383831335 -0.0290821998107
421160000 -0.00786460480695 -0.0284075453621
421170000 -0.00800017136787 -0.0292802889151
421180000 -0.00745197451817 -0.029703378526
421190000 -0.00657033304986 -0.0292250746362
421200000 -0.00711761798748 -0.0298594986574
421210000 -0.00774808371623 -0.0303951668397
421220000 -0.00628021074778 -0.0309465517271
421230000 -0.00644595201476 -0.0305907312468
421240000 -0.00597430296233 -0.031600413008
421250000 -0.00545807891346 -0.0309770900844
421260000 -0.00500706344606 -0.0303519084451
421270000 -0.00443862425537 -0.0303341789627
421280000 -0.00412482084708 -0.0306342458949
421290000 -0.00378538394323 -0.0299953493744
421300000 -0.00454587810281 -0.0308899662933
421310000 -0.00394623649186 -0.031822200022
421320000 -0.003695124274 -0.0307501267058
421330000 -0.00303312643394 -0.0325563001782
421340000 -0.00246790598125 -0.0324901522599
421350000 -0.00219245727169 -0.0324627370118
421360000 -0.00137197652056 -0.0330799757737
421370000 -0.00092972106529 -0.0323873189053
421380000 -0.00177046240801 -0.0329752679246
421390000 -0.000966629274476 -0.0324847724329
421400000 3.87418297979e-05 -0.0333928140403
421410000 -0.000889423659674 -0.0331592108215
421420000 0.000714768069797 -0.0337475785665
421430000 0.000949968237349 -0.0346819682908
421440000 0.000419892485416 -0.0339323780635
421450000 0.000424342180215 -0.0344856622829
421460000 0.00141931470185 -0.0343926233988
421470000 0.0016479147397 -0.0352651454244
421480000 0.00121814877593 -0.0351195746877
421490000 0.00202989797058 -0.0349186032961
421500000 0.00235676440178 -0.0357938950027
421510000 0.00304695322608 -0.0350032188662
421520000 0.00325619864096 -0.0360873182223
421530000 0.00314088177851 -0.0354037386245
421540000 0.00362440296956 -0.035583466267
421550000 0.00391732522439 -0.036299092193
421560000 0.00413195708259 -0.0365987803218
421570000 0.00493783549612 -0.0365956530494
421580000 0.00435609898841 -0.0354465295286
421590000 0.00480310759694 -0.037352546463
421600000 0.00583645017614 -0.036127121496
421610000 0.00614590654141 -0.0376813103286
421620000 0.00644918240422 -0.0378294316569
421630000 0.00672554169669 -0.0378105899751
421640000 0.00696354600273 -0.038056935118
421650000 0.00758155425523 -0.0379296032162
421660000 0.00728982044665 -0.0384132845282
421670000 0.00789256927199 -0.0385005212678
421680000 0.00792373106136 -0.0385473701652
421690000 0.00840423305445 -0.0386718748356
421700000 0.00865223167201 -0.0393218935241
421710000 0.00918998390703 -0.0390847781489
421720000 0.00942469733169 -0.0390467243088
421730000 0.00937010146187 -0.0391932256707
421740000 0.0102630091451 -0.0390749175954
421750000 0.0104804956081 -0.039470683748
421760000 0.0104511382414 -0.0402448713645
421770000 0.0103417964537 -0.0398853539934
421780000 0.0111855432789 -0.0401121037414
421790000 0.011452386962 -0.0409014696563
421800000 0.0116217929588 -0.0410632228886
421810000 0.0117676744789 -0.0412457898457
421820000 0.0120301449889 -0.0411372540546
421830000 0.0127323230684 -0.0417238772258
421840000 0.0127693199842 -0.0415426977286
421850000 0.0127114731598 -0.0414891072871
421860000 0.0137589628828 -0.0424966746416
421870000 0.0138164133941 -0.0422303537254
421880000 0.0138163232654 -0.0430891312529
421890000 0.014852038566 -0.0426667375978
421900000 0.0147573343379 -0.0428495659353
421910000 0.0152828305485 -0.0432423103658
421920000 0.0161436141076 -0.0427460359281
421930000 0.0160354783334 -0.043294437836
421940000 0.0161216091276 -0.043394501617
421950000 0.0158991507056 -0.0438311873898
421960000 0.0168099806107 -0.0441947864467
421970000 0.016971780519 -0.0436149982179
421980000 0.0169338624356 -0.0445327199923
421990000 0.0180964728244 -0.0440555638379
422000000 0.0182322607306 -0.0438835123216
422010000 0.0183365505007 -0.0447118531298
422020000 0.0184277582968 -0.0448587975215
422030000 0.0193127444336 -0.0452888187044
422040000 0.0190368303571 -0.0455505739552
422050000 0.019345796791 -0.046060829621
422060000 0.0201609171351 -0.0456836429997
422070000 0.0192760038734 -0.0463233065417
422080000 0.0200974584257 -0.0459746994278
422090000 0.0201902221403 -0.0467309307016
422100000 0.0215765789784 -0.0456849618617
422110000 0.0214816742268 -0.047014966914
422120000 0.0216404690508 -0.0474505341037
422130000 0.0219239719239 -0.0477151132811
422140000 0.0213512440104 -0.0474515771821
422150000 0.0210731789822 -0.0477474172741
422160000 0.0232273655648 -0.0479102050619
422170000 0.0234793002361 -0.0479556647633
422180000 0.023063191731 -0.0478896917032
422190000 0.0236195803636 -0.0482255860345
422200000 0.0242329627495 -0.0485318431889
422210000 0.0249915936133 -0.0502984997613
422220000 0.0246745801051 -0.0496008765104
422230000 0.0244921653228 -0.0505253414024
422240000 0.0245374259466 -0.0492918499727
422250000 0.024820240717 -0.0495199804574
422260000 0.0249687681392 -0.0506679986784
422270000 0.026285850342 -0.0500983867125
422280000 0.0264071395721 -0.0506511575752
422290000 0.0271216497956 -0.0500169998693
422300000 0.0275067289823 -0.0502415067259
422310000 0.0272299161548 -0.0518726977652
422320000 0.0267395059029 -0.0518412965347
422330000 0.0287397557997 -0.0512175566224
422340000 0.0294269348838 -0.0516872513673
422350000 0.029789927849 -0.0526721012318
422360000 0.0291588683203 -0.0521827437804
422370000 0.0293456733891 -0.0515473157114
422380000 0.0288352877912 -0.0527232775084
422390000 0.029600561742 -0.051874720079
422400000 0.0301139445435 -0.0532986903471
422410000 0.0309591676172 -0.0534407797214
422420000 0.0308226030316 -0.0540696691091
422430000 0.0303145169079 -0.0529295761569
422440000 0.0320569121696 -0.0551127583135
422450000 0.0320853721996 -0.0549131260491
422460000 0.0332940267589 -0.0525567033312
422470000 0.0323933128021 -0.0528050970029
422480000 0.0342667841348 -0.0527955396368
422490000 0.0329168647221 -0.0513526353912
422500000 0.0333005273125 -0.0533196063642
422510000 0.0334003787706 -0.0543116855776
422520000 0.0340022141977 -0.0555291363865
422530000 0.0357932120167 -0.0549616538673
422540000 0.0347686614329 -0.0555618458318
422550000 0.0335963360315 -0.0562054518694
422560000 0.0341754196416 -0.0565286821948
422570000 0.0356550985166 -0.0550760128657
422580000 0.0368243972428 -0.0562056301205
422590000 0.0357939550824 -0.0573816841753
422600000 0.0368249080985 -0.056766435875
422610000 0.0365687715982 -0.0575611665128
422620000 0.0371010050126 -0.0570895939458
422630000 0.037570522015 -0.0568608017785
422640000 0.038068982698 -0.0568015016135
422650000 0.0375855769051 -0.0578814874429
422660000 0.0381340097668 -0.0575067354247
422670000 0.0384638147142 -0.0578578277407
422680000 0.0385031255617 -0.0581857013858
422690000 0.038680667142 -0.0583919032867
422700000 0.039102488481 -0.0590721053123
422710000 0.0388499946815 -0.0588810856812
422720000 0.0395442943779 -0.0596006042892
422730000 0.0400681493401 -0.059517008877
422740000 0.0406808723002 -0.0599192275984
422750000 0.041121005346 -0.0597301739282
422760000 0.041101101992 -0.0598371369182
422770000 0.0416307792418 -0.0597118456033
422780000 0.0418469856658 -0.0606065100008
422790000 0.0428588199961 -0.0602938579202
422800000 0.0425711274704 -0.0604340699945
422810000 0.042790769935 -0.0606603833878
422820000 0.0426478543927 -0.0614729483595
422830000 0.043660372657 -0.0612970578044
422840000 0.0439028990708 -0.0619763169025
422850000 0.0440958947512 -0.0623569086044
422860000 0.0445793832753 -0.0627231353216
422870000 0.0449559768448 -0.0628151625308
422880000 0.0441954390682 -0.0622596061387
422890000 0.0453581807962 -0.0631927168644
422900000 0.045266735043 -0.0634324080133
422910000 0.0455725888303 -0.0633186581435
422920000 0.0464118388263 -0.0633251721167
422930000 0.0464476178738 -0.0636069063928
422940000 0.046106562571 -0.0639817638435
422950000 0.0469686292201 -0.0643848604533
422960000 0.0468865333986 -0.0645455225084
422970000 0.047489242047 -0.0650378018585
422980000 0.0485238833415 -0.0649915333762
422990000 0.0478939667565 -0.065755371829
423000000 0.0491471989918 -0.0659448335161
423010000 0.0493377023636 -0.0660029539063
423020000 0.0492133394107 -0.0658680919783
423030000 0.0497454674919 -0.066169139296
423040000 0.051128354751 -0.0658507917594
423050000 0.0501731844724 -0.0670884810964
423060000 0.0498037952967 -0.0671837904214
423070000 0.0502582546865 -0.0669326341248
423080000 0.05034091267 -0.0671826466345
423090000 0.0510130234243 -0.067768612098
423100000 0.0522137626707 -0.0669762078093
423110000 0.0518424472329 -0.0677880359025
423120000 0.052018145476 -0.0676191174605
423130000 0.0528139340036 -0.0684377809061
423140000 0.0520421126098 -0.0680868672706
423150000 0.052102954931 -0.0686272483462
423160000 0.0535467757903 -0.0691935564626
423170000 0.0543568929554 -0.0686813877279
423180000 0.0539986830263 -0.0685551212351
423190000 0.0551165766344 -0.0689808906702
423200000 0.053981601739 -0.0698572317116
423210000 0.0545107547922 -0.0705443390635
423220000 0.0544158549722 -0.0702254596268
423230000 0.0551263055301 -0.0711402045215
423240000 0.054664752094 -0.071571034049
423250000 0.0557678701581 -0.0713215295527
423260000 0.0572784666081 -0.0726690747108
423270000 0.0558483285041 -0.0718575869692
423280000 0.0569383407116 -0.0721991830314
423290000 0.0573868648217 -0.0708721558107
423300000 0.0574601721356 -0.0724704799215
423310000 0.0568411542421 -0.0724013318683
423320000 0.0575938597298 -0.0725591726936
423330000 0.0579290787591 -0.0723346479349
423340000 0.0586804655377 -0.0725688415948
423350000 0.0586967379292 -0.0734067768804
423360000 0.0587746386166 -0.0740145790286
423370000 0.0593579903236 -0.0745443518654
423380000 0.0581372099514 -0.0729779350163
423390000 0.0583197518649 -0.0752255618502
423400000 0.0587060944395 -0.075844102651
423410000 0.0603059429601 -0.0758223994816
423420000 0.0608913028665 -0.0746496999465
423430000 0.0608600296129 -0.0755342651794
423440000 0.0610854596185 -0.0752802256209
423450000 0.0615260929839 -0.0761229388542
423460000 0.0623086455172 -0.0758342427868
423470000 0.0620784718422 -0.0767425462663
423480000 0.0626240989769 -0.0764565744367
423490000 0.0629587626161 -0.0768683966336
423500000 0.0623657106597 -0.0771250723779
423510000 0.0629367649189 -0.0774228079735
423520000 0.0637044104695 -0.0774174212797
423530000 0.0633979282074 -0.0772809706061
423540000 0.0639606617787 -0.0773726197954
423550000 0.0645442793898 -0.0784655942355
423560000 0.064583762119 -0.0782448525525
423570000 0.0652040155871 -0.0786775958993
423580000 0.0657255578829 -0.0786277811595
423590000 0.0652115277263 -0.0785135196404
423600000 0.0654821139375 -0.0794768109048
423610000 0.0660303957844 -0.0796497324614
423620000 0.0665402120647 -0.0796459339725
423630000 0.0666719121848 -0.0799514309114
423640000 0.0664819805598 -0.0799495561575
423650000 0.0669262195163 -0.0804633159561
423660000 0.0677358562039 -0.0810818730206
423670000 0.0683317771746 -0.0804898089514
423680000 0.0679621823041 -0.080772133699
423690000 0.0685369079974 -0.0809163485316
423700000 0.0685558618246 -0.081481932117
423710000 0.068559782007 -0.0809545374487
423720000 0.0691013078241 -0.0823265421907
423730000 0.0700240720127 -0.0827348886104
423740000 0.0694514765219 -0.0824351748496
423750000 0.0701444809177 -0.0828522699412
423760000 0.0706647604295 -0.0830188297096
423770000 0.0705210837626 -0.0833356620094
423780000 0.0710934344956 -0.0833054603597
423790000 0.0712735890322 -0.0839165849378
423800000 0.0715808934784 -0.0838411303338
423810000 0.0719307937591 -0.0843643430722
423820000 0.0726405984654 -0.0846345123026
423830000 0.0721800282694 -0.0851078628054
423840000 0.0729063179429 -0.0856055038038
423850000 0.0734970254808 -0.0854953051835
423860000 0.07343860137 -0.0854635284097
423870000 0.0733228515699 -0.0858471390125
423880000 0.0741518965723 -0.0863231021367
423890000 0.0738740316152 -0.0871748090404
423900000 0.0742455011417 -0.0864127145974
423910000 0.0745749692227 -0.0868635393788
423920000 0.0747859717795 -0.0867468769814
423930000 0.0748535944092 -0.0870102454688
423940000 0.0751489205374 -0.0874079618016
423950000 0.0758224525048 -0.0876249155041
423960000 0.0758188165513 -0.0875931375791
423970000 0.0766406145909 -0.0881479955026
423980000 0.0765658147867 -0.088569196756
423990000 0.0765613455961 -0.0885334981317
424000000 0.0773431180273 -0.0886297837547
424010000 0.0779542052139 -0.0890078614871
424020000 0.0779321404567 -0.0893962488015
424030000 0.0778471264479 -0.0895848267663
424040000 0.0777103856954 -0.0899614335255
424050000 0.0786394578796 -0.0904085704528
424060000 0.0788188288514 -0.0907625985499
424070000 0.0786343158882 -0.0905228811422
424080000 0.0795233398195 -0.0905774738308
424090000 0.0782093369345 -0.0918238685602
424100000 0.0785374409944 -0.091547657984
424110000 0.0795729927528 -0.0912497038592
424120000 0.0809490978868 -0.0913870458996
424130000 0.0802807141082 -0.0936724441845
424140000 0.0810255849897 -0.0919632746154
424150000 0.0815309646992 -0.0921971772891
424160000 0.0805630187643 -0.0929637378227
424170000 0.0816926697876 -0.0929510911564
424180000 0.0814727010303 -0.0933045750248
424190000 0.0822674719596 -0.0939099919934
424200000 0.0829291056915 -0.0937730972619
424210000 0.0829733566528 -0.0940580662751
424220000 0.083663450753 -0.0947184487979
424230000 0.0840207772594 -0.0946865469266
424240000 0.0845358490902 -0.0938463868245
424250000 0.0834143842485 -0.0947776004525
424260000 0.0851951844859 -0.0951554004923
424270000 0.0845611096546 -0.0955099746657
424280000 0.0845049679135 -0.0964135969626
424290000 0.0853783812452 -0.0959027924251
424300000 0.085468116274 -0.0965623696732
424310000 0.0859832849572 -0.0964726304413
424320000 0.0860375450028 -0.0965236077957
424330000 0.0864818423897 -0.0972240635304
424340000 0.0871475118739 -0.097602580182
424350000 0.0872955515556 -0.0980365423432
424360000 0.0874239609997 -0.0978226384648
424370000 0.0873515970198 -0.0977338056988
424380000 0.0881078943552 -0.0980813042077
424390000 0.0881754484512 -0.0986021493688
424400000 0.0885792914366 -0.0983319619731
424410000 0.0886246637328 -0.0991283013562
424420000 0.0881299614015 -0.0994207500131
424430000 0.0893451569487 -0.0995818871292
424440000 0.0898833764036 -0.099496427252
424450000 0.0898587209904 -0.100115848947
424460000 0.0899734526306 -0.10043532146
424470000 0.0903520287811 -0.100544406832
424480000 0.0905200642593 -0.100400471019
424490000 0.0907534898045 -0.100715742246
424500000 0.0914069624189 -0.101512450181
424510000 0.0916343898181 -0.10182142101
424520000 0.0917128260428 -0.101855833508
424530000 0.0923805009196 -0.102172860088
424540000 0.0921827419684 -0.102315891119
424550000 0.0923272925632 -0.102841240095
424560000 0.0929110480922 -0.10310474096
424570000 0.0928496829217 -0.103820905274
424580000 0.092923744769 -0.103496051089
424590000 0.0935452493206 -0.103845728557
424600000 0.0936540679374 -0.103982194461
424610000 0.0942329920044 -0.104744504377
424620000 0.0945779354654 -0.104734045208
424630000 0.0949189405298 -0.105425821221
424640000 0.0950739320513 -0.105317097189
424650000 0.0951432932344 -0.105421711603
424660000 0.0952248700245 -0.106375884579
424670000 0.0956647803815 -0.106892229837
424680000 0.0962890736241 -0.106099283662
424690000 0.0960692899301 -0.106272843304
424700000 0.0963129420805 -0.106850856105
424710000 0.09688562299 -0.107389696076
424720000 0.0973511647096 -0.107246023962
424730000 0.0975392436945 -0.108149531274
424740000 0.0970780266369 -0.108099065779
424750000 0.097328910916 -0.108859249373
424760000 0.0980803968294 -0.108590562557
424770000 0.0987668350074 -0.108829825578
424780000 0.0985440659833 -0.109359790342
424790000 0.099201102278 -0.108866319102
424800000 0.0994364936206 -0.109436856558
424810000 0.0993661685537 -0.109856402108
424820000 0.10034368184 -0.10940313149
424830000 0.10263299795 -0.10937793691
424840000 0.100761404473 -0.110708091399
424850000 0.100474766898 -0.110623400152
424860000 0.100419467969 -0.111739834386
424870000 0.101099905381 -0.111794368382
424880000 0.101551956548 -0.112092002675
424890000 0.101299781802 -0.111919554617
424900000 0.101766237624 -0.112378000201
424910000 0.102270809479 -0.112802105327
424920000 0.101940979794 -0.113674036106
424930000 0.102865996964 -0.113242729588
424940000 0.103001721292 -0.113268708438
424950000 0.102232985278 -0.111887535347
424960000 0.103440998105 -0.11371152131
424970000 0.103655601629 -0.114341928698
424980000 0.104535731053 -0.114597824097
424990000 0.104975302231 -0.114661385887
425000000 0.105010924058 -0.115251770653
425010000 0.105031706213 -0.114911162022
425020000 0.105159659542 -0.115828303934
425030000 0.105027351762 -0.116111003064
425040000 0.10533711196 -0.116552493213
425050000 0.105521735288 -0.116442812491
425060000 0.105650971922 -0.117039228671
425070000 0.106545997973 -0.116846067779
425080000 0.106712423989 -0.117267022883
425090000 0.10663931159 -0.11778406943
425100000 0.106544539073 -0.11790166583
425110000 0.107539184798 -0.117909474651
425120000 0.107962434666 -0.118355629825
425130000 0.10844788125 -0.118587969183
425140000 0.108663581063 -0.118972823835
425150000 0.108334322755 -0.118956517957
425160000 0.10884889657 -0.11951061277
425170000 0.109124191183 -0.119895876908
425180000 0.109356717849 -0.120064408195
425190000 0.109360736833 -0.120300726144
425200000 0.110057325957 -0.120673040361
425210000 0.110231856448 -0.120936486283
425220000 0.111102685619 -0.12173734192
425230000 0.111050056072 -0.121516937222
425240000 0.11101535661 -0.121499807373
425250000 0.111046894268 -0.121977411765
425260000 0.111212573382 -0.122563091777
425270000 0.111997356624 -0.122714870269
425280000 0.111487923167 -0.123037907478
425290000 0.111985780671 -0.123632893746
425300000 0.112467845896 -0.123123610318
425310000 0.112931675594 -0.123873344522
425320000 0.113251398301 -0.124359473043
425330000 0.113435646876 -0.12478858669
425340000 0.113843258107 -0.124565947979
425350000 0.113833733382 -0.124897304877
425360000 0.113376778609 -0.125648536411
425370000 0.114155876313 -0.125723898654
425380000 0.114117934243 -0.125924330731
425390000 0.114781785824 -0.126265340864
425400000 0.114665272214 -0.12633818732
425410000 0.115180239722 -0.126840521853
425420000 0.115636487403 -0.126694399206
425430000 0.115626497422 -0.127536296197
425440000 0.116545849495 -0.127881530578
425450000 0.115960093065 -0.127494193362
425460000 0.115726681941 -0.128012403201
425470000 0.116438640689 -0.129203169653
425480000 0.116588659454 -0.127809641007
425490000 0.116746951593 -0.128759820114
425500000 0.116927674171 -0.129174251292
425510000 0.118038784447 -0.130207467727
425520000 0.118021018821 -0.12987179889
425530000 0.11897631584 -0.129825939812
425540000 0.118198021129 -0.130847118487
425550000 0.118651047961 -0.131404120286
425560000 0.119799876177 -0.131046845089
425570000 0.118959073753 -0.131125581033
425580000 0.120297019352 -0.131929625815
425590000 0.119819490105 -0.132039327729
425600000 0.120239117714 -0.132436016015
425610000 0.120941505155 -0.132239852863
425620000 0.121011322492 -0.132937333829
425630000 0.12059224313 -0.133350545185
425640000 0.121070623087 -0.13443681858
425650000 0.121428062809 -0.134659625925
425660000 0.121883540837 -0.133919724962
425670000 0.122035426416 -0.134349479406
425680000 0.121928880459 -0.134448672641
425690000 0.12245614671 -0.134703648335
425700000 0.122298089747 -0.135286536364
425710000 0.123315258091 -0.136552095487
425720000 0.122564045765 -0.135260188273
425730000 0.122927845932 -0.135028864332
425740000 0.123692072677 -0.136124184301
425750000 0.123640869896 -0.136995645183
425760000 0.124113439847 -0.137628562703
425770000 0.123932183703 -0.137195414253
425780000 0.124091527452 -0.138350448192
425790000 0.124432972362 -0.13758220581
425800000 0.124909927604 -0.13743306113
425810000 0.125405114106 -0.138408600394
425820000 0.125955470045 -0.138842583577
425830000 0.12535901765 -0.138696464434
425840000 0.126286882935 -0.139126122705
425850000 0.126032783678 -0.139705409218
425860000 0.126099659103 -0.14081672373
425870000 0.126914457936 -0.14057654244
425880000 0.1269662768 -0.141384186935
425890000 0.128133604859 -0.141457269714
425900000 0.127466585162 -0.141387948935
425910000 0.127414366397 -0.141170009314
425920000 0.127500703299 -0.141396867342
425930000 0.127908928597 -0.14207241906
425940000 0.128683665191 -0.142810333449
425950000 0.128395754635 -0.142688280888
425960000 0.128328881177 -0.143010762053
425970000 0.129129527948 -0.14322745157
425980000 0.129481437405 -0.143801100436
425990000 0.129791167063 -0.144243269372
426000000 0.13005354077 -0.144332791181
426010000 0.130249818792 -0.144340542611
426020000 0.130481792224 -0.145173699183
426030000 0.130912724049 -0.145359457379
426040000 0.131372136594 -0.145738215589
426050000 0.13107179239 -0.145945959854
426060000 0.131812942236 -0.146491537966
426070000 0.132250912586 -0.146508691392
426080000 0.131396974715 -0.146827751818
426090000 0.132358105545 -0.147584730278
426100000 0.132337803876 -0.147481628761
426110000 0.131864812734 -0.147823504448
426120000 0.132613493376 -0.148525080992
426130000 0.132680113739 -0.148605620643
426140000 0.132771494598 -0.148332344617
426150000 0.133445104925 -0.149000253155
426160000 0.133280055126 -0.14932538688
426170000 0.133633936205 -0.149734717942
426180000 0.134609340722 -0.150101785542
426190000 0.134791408664 -0.151016276589
426200000 0.134580450614 -0.150733785741
426210000 0.13543504474 -0.151203491934
426220000 0.134725952532 -0.151302092883
426230000 0.135274622862 -0.151792176242
426240000 0.13582313808 -0.151892330656
426250000 0.135975535277 -0.151998230467
426260000 0.136212634513 -0.15193431764
426270000 0.136657957791 -0.152925668494
426280000 0.136256788566 -0.152852808092
426290000 0.136082433522 -0.153257408839
426300000 0.136974911018 -0.153937971819
426310000 0.13733662145 -0.153880327564
426320000 0.137370770143 -0.154594239624
426330000 0.136924871687 -0.153720001932
426340000 0.137443487339 -0.154506942335
426350000 0.137611896057 -0.154966239688
426360000 0.137818601914 -0.156411323971
426370000 0.138278221267 -0.156056815534
426380000 0.137806441348 -0.157868644441
426390000 0.138225996264 -0.157071099116
426400000 0.139547918358 -0.157361754421
426410000 0.139106013569 -0.157598806049
426420000 0.138987185245 -0.156458428615
426430000 0.139522818962 -0.156583272581
426440000 0.13974726807 -0.158291236827
426450000 0.140466861965 -0.157226478812
426460000 0.14130641942 -0.159284609637
426470000 0.141831601094 -0.15952162028
426480000 0.140864723356 -0.160026256035
426490000 0.141501432839 -0.160056295803
426500000 0.14147627645 -0.160533921089
426510000 0.142182428769 -0.161331685944
426520000 0.142033073686 -0.161195710341
426530000 0.142276017654 -0.160787667346
426540000 0.142849094273 -0.161047649693
426550000 0.143107945332 -0.161864869124
426560000 0.142932893494 -0.161659331149
426570000 0.144220571878 -0.162056314894
426580000 0.142818758433 -0.163315522747
426590000 0.14277136164 -0.163669311549
426600000 0.143320276888 -0.163748954545
426610000 0.143496296686 -0.164882091772
426620000 0.144900102899 -0.163926243525
426630000 0.144666107085 -0.164096916533
426640000 0.145347221253 -0.165983459293
426650000 0.145035047973 -0.166156250867
426660000 0.144126575396 -0.165755591373
426670000 0.145658048684 -0.1653275093
426680000 0.144564174211 -0.165714126577
426690000 0.145259874302 -0.166467115519
426700000 0.145637817147 -0.166666054015
426710000 0.146786576443 -0.167974781154
426720000 0.145311437152 -0.166551368506
426730000 0.14687014312 -0.166856480906
426740000 0.147762626352 -0.167074056183
426750000 0.147008350943 -0.167840308632
426760000 0.147610768716 -0.168285385791
426770000 0.148368848208 -0.168611045702
426780000 0.148007342233 -0.169286336068
426790000 0.148298567812 -0.169475504039
426800000 0.148094943955 -0.169726218317
426810000 0.14846472499 -0.169688547903
426820000 0.148752351882 -0.169936942819
426830000 0.148871814872 -0.170720018731
426840000 0.149125401108 -0.170863400931
426850000 0.149307768765 -0.171324811959
426860000 0.14953391399 -0.171784955911
426870000 0.149813734375 -0.172118093814
426880000 0.149664509902 -0.172966998076
426890000 0.150694125662 -0.172520242586
426900000 0.150509800969 -0.172713379271
426910000 0.150428810833 -0.173349505342
426920000 0.150643414552 -0.173204099517
426930000 0.150757803394 -0.17460734051
426940000 0.150843953717 -0.174458165773
426950000 0.150421890933 -0.175095729707
426960000 0.151590281235 -0.175127368982
426970000 0.152954422647 -0.175798809744
426980000 0.152173990581 -0.176036748295
426990000 0.152304339996 -0.176031516674
427000000 0.152504001955 -0.176611084684
427010000 0.153004259038 -0.176900142778
427020000 0.152872147854 -0.177092936641
427030000 0.15271380751 -0.177860955207
427040000 0.15274109861 -0.177810713203
427050000 0.15312221852 -0.17838070839
427060000 0.153265008071 -0.178902024029
427070000 0.154238273163 -0.179595422635
427080000 0.154134714211 -0.178829413549
427090000 0.153788883589 -0.179405265156
427100000 0.155008709172 -0.179914010957
427110000 0.154342566711 -0.181003222942
427120000 0.155083810879 -0.180615872191
427130000 0.154642375294 -0.180523608921
427140000 0.155169754683 -0.181073091131
427150000 0.15595794557 -0.181476957421
427160000 0.155948749773 -0.181656026061
427170000 0.156219153009 -0.182188796584
427180000 0.156367696951 -0.182495426642
427190000 0.157031465983 -0.183532160226
427200000 0.156993220991 -0.183923265197
427210000 0.157549740824 -0.183619914146
427220000 0.157418239706 -0.184026476673
427230000 0.157073164288 -0.184231532279
427240000 0.157733284561 -0.184213992374
427250000 0.157627473793 -0.184479208625
427260000 0.157849638471 -0.185267057207
427270000 0.157887890143 -0.185391874111
427280000 0.158562194229 -0.185913644874
427290000 0.158564308525 -0.186007170801
427300000 0.158716822834 -0.186919636221
427310000 0.159049116266 -0.186569465221
427320000 0.159251687903 -0.186807649632
427330000 0.159591752172 -0.187182311001
427340000 0.159138738564 -0.187949639343
427350000 0.158993603326 -0.188122381286
427360000 0.159724557068 -0.188651648175
427370000 0.160313584827 -0.189332526536
427380000 0.160211287044 -0.1886052742
427390000 0.160455885995 -0.189790129237
427400000 0.161112472406 -0.190250672798
427410000 0.160786992562 -0.189842672924
427420000 0.161522216081 -0.19030713302
427430000 0.161316864958 -0.189805102042
427440000 0.161515713254 -0.191563526404
427450000 0.161732213902 -0.191831411526
427460000 0.162505757545 -0.192067238947
427470000 0.162483874855 -0.193045505836
427480000 0.162952439037 -0.192969241482
427490000 0.162882320437 -0.193386965419
427500000 0.162299349814 -0.19369827928
427510000 0.163632317078 -0.193629160384
427520000 0.163230760883 -0.193537522874
427530000 0.162911143578 -0.194998247742
427540000 0.163664316216 -0.195481833812
427550000 0.163676075746 -0.195755982021
427560000 0.164864895943 -0.196033991615
427570000 0.164813592921 -0.195797089847
427580000 0.165285603956 -0.195856334101
427590000 0.164287135149 -0.196985357136
427600000 0.165300762218 -0.196428744217
427610000 0.164850350267 -0.197066282645
427620000 0.164874149861 -0.197435592151
427630000 0.164633775343 -0.19782302382
427640000 0.165665745543 -0.19817175369
427650000 0.165274087371 -0.198766394757
427660000 0.166506051687 -0.198973758371
427670000 0.164976436475 -0.199174532344
427680000 0.166332497183 -0.199330703691
427690000 0.166185259927 -0.199968437471
427700000 0.166347729752 -0.200669092865
427710000 0.166450034097 -0.200562806881
427720000 0.167172623224 -0.201522705737
427730000 0.167060672703 -0.201643769562
427740000 0.167699046833 -0.201796663871
427750000 0.168137199644 -0.202431133159
427760000 0.167783476589 -0.202113969582
427770000 0.167807227603 -0.203311882042
427780000 0.167498379902 -0.203789913
427790000 0.168215250047 -0.203825891544
427800000 0.168766001104 -0.203940739095
427810000 0.168669274756 -0.204630060468
427820000 0.169381667158 -0.204955483499
427830000 0.169312964065 -0.204873661139
427840000 0.168999679762 -0.205416044658
427850000 0.169269739727 -0.20599819026
427860000 0.169802683404 -0.206005265052
427870000 0.169597300741 -0.206758955659
427880000 0.170142964954 -0.206934538684
427890000 0.170322455229 -0.207355812898
427900000 0.174539564577 -0.204120838631
427910000 0.168960141121 -0.212454747893
427920000 0.171196613563 -0.209107647385
427930000 0.171154818809 -0.208627770929
427940000 0.170962691568 -0.209158621224
427950000 0.171194416987 -0.210093549971
427960000 0.171606290811 -0.210220076472
427970000 0.171612845611 -0.210638851955
427980000 0.171833736534 -0.211067843732
427990000 0.172226291267 -0.210945206579
428000000 0.172368378659 -0.211544207347
428010000 0.17285715781 -0.211586177321
428020000 0.173386858663 -0.211821674555
428030000 0.172864421427 -0.21251233016
428040000 0.173345951684 -0.212419162573
428050000 0.173496713038 -0.213340237033
428060000 0.172987754388 -0.21356373445
428070000 0.172890230416 -0.213807158388
428080000 0.173727676955 -0.214108253758
428090000 0.173187202725 -0.214435692767
428100000 0.174320882967 -0.215138058463
428110000 0.173877069798 -0.215076781268
428120000 0.174167303039 -0.216073768009
428130000 0.174789156236 -0.216392188512
428140000 0.175363153079 -0.216427532374
428150000 0.174971577753 -0.216846070143
428160000 0.175055969754 -0.216929972187
428170000 0.175702905351 -0.218048658347
428180000 0.175216955163 -0.218283228723
428190000 0.175324863204 -0.217777696047
428200000 0.175424322713 -0.217987973339
428210000 0.175939527575 -0.218940405328
428220000 0.176356026208 -0.219378611311
428230000 0.176561551038 -0.219529583039
428240000 0.177089232784 -0.220506904728
428250000 0.176763874586 -0.22163064727
428260000 0.176659665755 -0.221063330965
428270000 0.176604880718 -0.221137976314
428280000 0.17767652086 -0.221961396745
428290000 0.177563232388 -0.221833015576
428300000 0.176396707898 -0.222503387937
428310000 0.177581987923 -0.222985920823
428320000 0.177800742317 -0.22257398488
428330000 0.177982013185 -0.223369821469
428340000 0.177908847457 -0.223713769611
428350000 0.177552577138 -0.224428590584
428360000 0.178137862519 -0.224511278368
428370000 0.178683255302 -0.224952109947
428380000 0.17825419875 -0.225442166206
428390000 0.17833538527 -0.225829158895
428400000 0.178723992827 -0.226263972041
428410000 0.178774269566 -0.226944049748
428420000 0.179058961111 -0.227120251102
428430000 0.179555419531 -0.227114041668
428440000 0.180024912474 -0.227235561377
428450000 0.17986092845 -0.22733027981
428460000 0.179497194419 -0.228606128776
428470000 0.179756026672 -0.228870188244
428480000 0.180158266957 -0.228525228933
428490000 0.180028122599 -0.228884823219
428500000 0.180969535442 -0.229508368201
428510000 0.180865284968 -0.229813444871
428520000 0.181170674355 -0.230406594067
428530000 0.181023207341 -0.23028144627
428540000 0.180923037764 -0.231361620138
428550000 0.181366817661 -0.231528293359
428560000 0.181843679787 -0.231840392331
428570000 0.181631444045 -0.232697756576
428580000 0.181975552328 -0.23295550971
428590000 0.182048658742 -0.233314512824
428600000 0.182614780942 -0.233085547342
428610000 0.182392251527 -0.23389524637
428620000 0.182853623358 -0.234429277218
428630000 0.183092833674 -0.234265776958
428640000 0.18299213745 -0.234769156742
428650000 0.182855276953 -0.235258329804
428660000 0.183373546079 -0.236091803483
428670000 0.183290963294 -0.236001031925
428680000 0.183077497905 -0.236939975535
428690000 0.183699176321 -0.237174512801
428700000 0.18394970077 -0.237233267371
428710000 0.183999859774 -0.237914383825
428720000 0.184172597977 -0.239508515357
428730000 0.184490154945 -0.238479007715
428740000 0.184356244969 -0.238890006717
428750000 0.184462536719 -0.239235857206
428760000 0.18414526324 -0.24005082049
428770000 0.184600063978 -0.240073058062
428780000 0.184692706737 -0.240313737452
428790000 0.185136024739 -0.241125367531
428800000 0.184992727895 -0.24171737796
428810000 0.185275467084 -0.241193356977
428820000 0.185335919771 -0.241775045646
428830000 0.185835243352 -0.242552314462
428840000 0.185941284607 -0.243399866887
428850000 0.186090657076 -0.242314188692
428860000 0.186307371452 -0.243859764685
428870000 0.186556636923 -0.243445403182
428880000 0.186546848763 -0.244292434289
428890000 0.18714392273 -0.244357221882
428900000 0.18633782067 -0.245361924694
428910000 0.186226004395 -0.245075079997
428920000 0.186994103907 -0.245559655114
428930000 0.186441971571 -0.24551803367
428940000 0.186600365858 -0.247536130745
428950000 0.187335625194 -0.248040339024
428960000 0.187069722422 -0.247587121569
428970000 0.186415984488 -0.247658588672
428980000 0.186258471569 -0.248630171668
428990000 0.180502034894 -0.246193197316
429000000 0.19000781306 -0.251681753135
429010000 0.187385077886 -0.249652113123
429020000 0.187533432772 -0.249674830536
429030000 0.188022365263 -0.250491049641
429040000 0.188717952563 -0.251143405701
429050000 0.188969940047 -0.251091617315
429060000 0.189345117788 -0.251977575433
429070000 0.189183791425 -0.252251522798
429080000 0.189401410429 -0.252455186581
429090000 0.1897405253 -0.25265148771
429100000 0.189383340296 -0.253068931286
429110000 0.189631822697 -0.25322545423
429120000 0.189775954814 -0.253865284437
429130000 0.190119606813 -0.253861186816
429140000 0.18987200196 -0.253589375876
429150000 0.190195294274 -0.254969187928
429160000 0.190425811747 -0.254667848359
429170000 0.190553706569 -0.255585903975
429180000 0.189928730875 -0.255598638746
429190000 0.18992985665 -0.25620687253
429200000 0.19090839995 -0.256484670749
429210000 0.19065323317 -0.256964114704
429220000 0.190636837204 -0.257668264037
429230000 0.190716070354 -0.258325297452
429240000 0.191040254129 -0.258762035781
429250000 0.19166097371 -0.258441896329
429260000 0.19104337876 -0.259409671214
429270000 0.19183404913 -0.259228159269
429280000 0.191778741675 -0.259956694466
429290000 0.192113491084 -0.260569960049
429300000 0.191778482005 -0.260537153144
429310000 0.192081757144 -0.261071137094
429320000 0.192074040766 -0.261390054573
429330000 0.192159810101 -0.261791855004
429340000 0.192701491958 -0.262191513492
429350000 0.192214076457 -0.262371991311
429360000 0.192980150108 -0.262989476154
429370000 0.192678602799 -0.262833890486
429380000 0.193079129766 -0.263157481266
429390000 0.192977978005 -0.264546553466
429400000 0.192826628502 -0.264264875287
429410000 0.193373195012 -0.26503956693
429420000 0.193122745113 -0.265530384656
429430000 0.193513889508 -0.265559599654
429440000 0.193888130242 -0.266606222646
429450000 0.193435178051 -0.266937595774
429460000 0.193695217903 -0.267047992367
429470000 0.193949740696 -0.267627187851
429480000 0.193852434014 -0.267784159102
429490000 0.194194226174 -0.268663591924
429500000 0.193855726655 -0.269009757796
429510000 0.19423048478 -0.269122442373
429520000 0.194559290233 -0.26994475347
429530000 0.194654209318 -0.270337006524
429540000 0.195140719747 -0.270379102639
429550000 0.194948339992 -0.270642765687
429560000 0.195017062187 -0.271348936144
429570000 0.195547071164 -0.271674085339
429580000 0.194962097252 -0.272153153975
429590000 0.196122477344 -0.272828284078
429600000 0.195393789464 -0.272784889501
429610000 0.196021796693 -0.272766909205
429620000 0.196214915525 -0.273140095824
429630000 0.195449257673 -0.273636713019
429640000 0.19695872213 -0.27456156144
429650000 0.195275608856 -0.275246476852
429660000 0.195619979831 -0.275741140115
429670000 0.196519517482 -0.275406078124
429680000 0.19586817935 -0.276350147544
429690000 0.196576926626 -0.27649387021
429700000 0.197286109398 -0.277229741179
429710000 0.196956048233 -0.277653075214
429720000 0.196254439115 -0.277600416908
429730000 0.197130235408 -0.277587800885
429740000 0.197382814673 -0.278488928442
429750000 0.196850626377 -0.278205366469
429760000 0.1971410027 -0.279683490875
429770000 0.196828504192 -0.279485862721
429780000 0.196395992333 -0.280393934401
429790000 0.197530706765 -0.280864495864
429800000 0.19794414978 -0.280835972769
429810000 0.198051792497 -0.28072248539
429820000 0.198369565733 -0.281976303983
429830000 0.198220442567 -0.281395250739
429840000 0.198830823749 -0.282184657702
429850000 0.197363626685 -0.283569913447
429860000 0.198385173153 -0.283149092875
429870000 0.198330476643 -0.283706062325
429880000 0.198119356833 -0.284312033923
429890000 0.198740603717 -0.283911650292
429900000 0.198214577026 -0.284737324012
429910000 0.199012095422 -0.284923619504
429920000 0.199013669174 -0.285364685511
429930000 0.19906222045 -0.285728800511
429940000 0.1992405749 -0.286604477114
429950000 0.198935925061 -0.28708344588
429960000 0.199494043306 -0.287273354703
429970000 0.198582250873 -0.286795092549
429980000 0.1985679081 -0.285442481463
429990000 0.198290386436 -0.286287732208
430000000 0.198979527403 -0.287279922032
430010000 0.197774632644 -0.288672972438
430020000 0.199816788729 -0.290293143541
430030000 0.199412838972 -0.289997370928
430040000 0.200553698884 -0.29061837357
430050000 0.200094783373 -0.291169185912
430060000 0.200333794921 -0.291458470865
430070000 0.200224316131 -0.29180869518
430080000 0.198236677301 -0.293034484704
430090000 0.200524926738 -0.292999612552
430100000 0.200778191805 -0.292929777739
430110000 0.200961966878 -0.293563511458
430120000 0.200340453497 -0.293872326877
430130000 0.200611968637 -0.294557057731
430140000 0.200911685003 -0.294188009022
430150000 0.201032230581 -0.295003291325
430160000 0.201023567398 -0.295056959447
430170000 0.200055147457 -0.295980365024
430180000 0.200624213967 -0.295490385382
430190000 0.201134743956 -0.296377224168
430200000 0.20106432074 -0.297170719059
430210000 0.201341639915 -0.296560864923
430220000 0.201994278286 -0.297670461692
430230000 0.201907743901 -0.297797045908
430240000 0.201504994559 -0.298029810079
430250000 0.201308704593 -0.299416746741
430260000 0.202169591845 -0.299439409548
430270000 0.201873306247 -0.300599908754
430280000 0.201816027769 -0.300665232797
430290000 0.201619102239 -0.301019460367
430300000 0.201606739077 -0.301186151008
430310000 0.201328931059 -0.301683542511
430320000 0.20191171431 -0.302132930106
430330000 0.202304146684 -0.3023908243
430340000 0.202530682356 -0.303553096756
430350000 0.202628668509 -0.302719778124
430360000 0.202416550264 -0.303400700098
430370000 0.202641863366 -0.304081657991
430380000 0.203269004015 -0.303936540023
430390000 0.203232904089 -0.304763179978
430400000 0.202825833548 -0.304831462507
430410000 0.202278981846 -0.305830675513
430420000 0.201956691399 -0.30604133751
430430000 0.201719373789 -0.30689231342
430440000 0.202383460547 -0.306935990283
430450000 0.202176045798 -0.306773896967
430460000 0.202830816317 -0.308319572038
430470000 0.20403819656 -0.308265513366
430480000 0.203411437811 -0.308157717962
430490000 0.20365320082 -0.309539559953
430500000 0.203345109092 -0.309355038882
430510000 0.20344823071 -0.309675504688
430520000 0.203407373503 -0.310515208453
430530000 0.203124960746 -0.310768527251
430540000 0.203865763854 -0.311240364869
430550000 0.203607915054 -0.3120875012
430560000 0.203281958602 -0.311862954041
430570000 0.203336544308 -0.311850197245
430580000 0.203828078461 -0.312866526758
430590000 0.203969860769 -0.313609172591
430600000 0.203473099978 -0.313211020574
430610000 0.204489990885 -0.314099441425
430620000 0.20431243301 -0.314228336735
430630000 0.203861290166 -0.314391546342
430640000 0.203435398518 -0.316274196368
430650000 0.20445019325 -0.316510834689
430660000 0.204931945769 -0.316107423365
430670000 0.204483862221 -0.317380498757
430680000 0.20403692137 -0.317214651247
430690000 0.204163953909 -0.318099757205
430700000 0.204971449211 -0.317339998004
430710000 0.204366171319 -0.318583121284
430720000 0.204400918501 -0.318654625215
430730000 0.204499234098 -0.319412587983
430740000 0.204596032715 -0.319649391143
430750000 0.204652997752 -0.319793854239
430760000 0.204246889854 -0.320611288866
430770000 0.204481514106 -0.32103162845
430780000 0.205046719607 -0.32196130056
430790000 0.204909890385 -0.321272560075
430800000 0.205130898658 -0.322619858365
430810000 0.205549408209 -0.322214739687
430820000 0.205420392668 -0.322588191476
430830000 0.205225024574 -0.323317526271
430840000 0.205371918462 -0.323531624089
430850000 0.205570668323 -0.324314968591
430860000 0.205609594344 -0.324703775409
430870000 0.20539658198 -0.324960501465
430880000 0.205330476202 -0.324776438303
430890000 0.205621780241 -0.325327365701
430900000 0.205579586154 -0.326248076228
430910000 0.205822100654 -0.326793546877
430920000 0.205494192791 -0.327427301409
430930000 0.205203855966 -0.327303326589
430940000 0.205414769537 -0.327339214286
430950000 0.205307679546 -0.327913928604
430960000 0.205439953438 -0.328546645184
430970000 0.20556894021 -0.329290309305
430980000 0.205674540935 -0.329731043152
430990000 0.205735349555 -0.329628572817
431000000 0.205739338834 -0.330186122746
431010000 0.205371689912 -0.330272461571
431020000 0.205241198984 -0.330410145383
431030000 0.205673162736 -0.331082189414
431040000 0.206473844615 -0.331591187607
431050000 0.206405639646 -0.332213363628
431060000 0.206077169302 -0.332807359285
431070000 0.206363754318 -0.33284348336
431080000 0.206340127942 -0.333377933276
431090000 0.206450876736 -0.3342297933
431100000 0.205460252099 -0.33457592556
431110000 0.205186909611 -0.334655376804
431120000 0.206095730217 -0.334919696086
431130000 0.206187185077 -0.335456278226
431140000 0.206594343018 -0.336377758709
431150000 0.206162057897 -0.336412454516
431160000 0.206080231759 -0.337388707897
431170000 0.206040366268 -0.337339857921
431180000 0.205938275708 -0.33783214358
431190000 0.205867214996 -0.337647866342
431200000 0.206159333173 -0.338048748373
431210000 0.205655318217 -0.338614332146
431220000 0.206111793524 -0.33945910467
431230000 0.20592698291 -0.340370340342
431240000 0.206228085461 -0.340149308365
431250000 0.206187413707 -0.340059552356
431260000 0.206470137505 -0.341301790396
431270000 0.206307560242 -0.341084866791
431280000 0.206427319993 -0.341808355444
431290000 0.206681985699 -0.34205241309
431300000 0.206386307828 -0.342460536758
431310000 0.20683557703 -0.343253270535
431320000 0.207367266499 -0.344027649403
431330000 0.206271820605 -0.343615983946
431340000 0.20637735146 -0.344057303782
431350000 0.205849908252 -0.343540709181
431360000 0.206561583543 -0.345239601599
431370000 0.206695787413 -0.345346504328
431380000 0.206505047525 -0.346158119917
431390000 0.206725701354 -0.346321908278
431400000 0.206904981429 -0.346689949286
431410000 0.206779223103 -0.346928179172
431420000 0.207461290764 -0.347562689455
431430000 0.207154612752 -0.34754625368
431440000 0.206374404714 -0.348414078464
431450000 0.206226032091 -0.348471517101
431460000 0.206821008823 -0.347967113564
431470000 0.207055805392 -0.349012262227
431480000 0.206642327339 -0.350217282076
431490000 0.206606299139 -0.35007924542
431500000 0.207390660447 -0.351749162642
431510000 0.205987950575 -0.351611911251
431520000 0.206348502211 -0.352846584654
431530000 0.206898401319 -0.352724542266
431540000 0.206999016558 -0.353076704376
431550000 0.207382385258 -0.353537583528
431560000 0.20719178946 -0.353642687692
431570000 0.207185277929 -0.353662287658
431580000 0.20787953608 -0.354226771404
431590000 0.207767578748 -0.355068044229
431600000 0.20757109952 -0.354432893615
431610000 0.205616469931 -0.354904633704
431620000 0.206566283891 -0.355974219059
431630000 0.20807611223 -0.356970991839
431640000 0.206445299951 -0.355113998392
431650000 0.206844776287 -0.354835786832
431660000 0.207350080234 -0.355417496243
431670000 0.206473295485 -0.356417333284
431680000 0.206573966662 -0.358118304248
431690000 0.206688956875 -0.358839668516
431700000 0.206471790087 -0.359694045667
431710000 0.206354883077 -0.359957027618
431720000 0.207476968465 -0.360642326759
431730000 0.20792622608 -0.360269780773
431740000 0.207747353611 -0.361410054774
431750000 0.207129122405 -0.361371596484
431760000 0.20644255516 -0.362340131326
431770000 0.207172015244 -0.362583741383
431780000 0.207051238089 -0.362273220184
431790000 0.207071384579 -0.363514140704
431800000 0.206947914815 -0.364231800825
431810000 0.206777681576 -0.364305214886
431820000 0.206690021587 -0.364683415231
431830000 0.206502974642 -0.366056111578
431840000 0.206700843053 -0.36492669594
431850000 0.206653864852 -0.366232164699
431860000 0.206164006523 -0.366981140664
431870000 0.20640561327 -0.366504384503
431880000 0.206989501007 -0.367112166793
431890000 0.206963172125 -0.367111183398
431900000 0.207645863386 -0.367312721999
431910000 0.207243524254 -0.368309403925
431920000 0.207551786659 -0.368081291317
431930000 0.207201575251 -0.369030537686
431940000 0.206444578779 -0.369014445676
431950000 0.207363847341 -0.369433413986
431960000 0.20682228364 -0.370020885156
431970000 0.207377566367 -0.370887376202
431980000 0.206596894416 -0.371149706371
431990000 0.206755180576 -0.371900597905
432000000 0.207175924839 -0.372235225032
432010000 0.206871277922 -0.372185705171
432020000 0.206693212932 -0.373005150333
432030000 0.207260591754 -0.373453829363
432040000 0.206766240285 -0.373914450513
432050000 0.206368369299 -0.374416829017
432060000 0.207567552214 -0.374767060092
432070000 0.207123024444 -0.374526234291
432080000 0.206747532378 -0.37554453407
432090000 0.205970886312 -0.375562627888
432100000 0.20675068536 -0.375888028106
432110000 0.207544116689 -0.375730568048
432120000 0.206466626542 -0.376202526562
432130000 0.206949832417 -0.376976361127
432140000 0.206380365274 -0.37712193561
432150000 0.20567678413 -0.377078256083
432160000 0.205984822896 -0.379164734151
432170000 0.207251714996 -0.377967725902
432180000 0.207631117156 -0.379762963699
432190000 0.206369969393 -0.379627310574
432200000 0.206697280059 -0.381444330415
432210000 0.20639923515 -0.381472062335
432220000 0.20592646176 -0.381378089817
432230000 0.206878337783 -0.380957477129
432240000 0.206043084804 -0.381590020659
432250000 0.206089734216 -0.381768207636
432260000 0.205215475355 -0.381441156474
432270000 0.206179802172 -0.383734888114
432280000 0.205480605133 -0.382847009061
432290000 0.206910978697 -0.383968114949
432300000 0.207533694341 -0.383299121378
432310000 0.206070360359 -0.384929430163
432320000 0.206018571744 -0.385758644565
432330000 0.205737398133 -0.385768797822
432340000 0.206519764449 -0.385538603578
432350000 0.205642187391 -0.385777414077
432360000 0.205900231461 -0.387329071154
432370000 0.206676491619 -0.38766530775
432380000 0.20671656095 -0.387304783858
432390000 0.206975609153 -0.387627303191
432400000 0.20547688894 -0.388776570687
432410000 0.205782727198 -0.389229486145
432420000 0.205295085984 -0.390851276058
432430000 0.207175078839 -0.390075352839
432440000 0.20565286015 -0.390400368027
432450000 0.205887620077 -0.389269104432
432460000 0.205547368521 -0.392341823824
432470000 0.204893495259 -0.391113099388
432480000 0.206026892483 -0.391907674606
432490000 0.205951080802 -0.392109464455
432500000 0.205490541439 -0.392829491301
432510000 0.205593695161 -0.393338234044
432520000 0.206308934713 -0.392647949276
432530000 0.205203364815 -0.393405045432
432540000 0.20479642403 -0.393945033442
432550000 0.206714667445 -0.394837023081
432560000 0.207013754057 -0.39521961146
432570000 0.205331923632 -0.394211371659
432580000 0.204937250397 -0.395650107024
432590000 0.204756011947 -0.396651194229
432600000 0.205575478838 -0.396742974874
432610000 0.204556788572 -0.397818091678
432620000 0.205506399463 -0.397761670778
432630000 0.206308202722 -0.3975225837
432640000 0.205332778829 -0.398503631247
432650000 0.205371413466 -0.398892252136
432660000 0.20480230821 -0.399182466947
432670000 0.204725385585 -0.399820734676
432680000 0.204892181936 -0.400237280542
432690000 0.204979366761 -0.400490829915
432700000 0.205236836285 -0.400951452749
432710000 0.204838343409 -0.400999992553
432720000 0.204729943093 -0.401308875169
432730000 0.205504011859 -0.401911632686
432740000 0.204602230336 -0.402842114187
432750000 0.203901618691 -0.403415910558
432760000 0.203752326913 -0.403327472747
432770000 0.204143632684 -0.404188803045
432780000 0.204277358184 -0.404561861781
432790000 0.203796902955 -0.404561196944
432800000 0.203879952072 -0.404937248659
432810000 0.203965918188 -0.405242475889
432820000 0.204310627433 -0.405824703939
432830000 0.205080822067 -0.40563758903
432840000 0.204816334402 -0.405808046757
432850000 0.204487125928 -0.407032636535
432860000 0.20349480483 -0.407223613029
432870000 0.203659869211 -0.407551795749
432880000 0.203316397662 -0.408889246446
432890000 0.203743390185 -0.409425818036
432900000 0.204117973151 -0.409627832605
432910000 0.203489299094 -0.409819594053
432920000 0.203418383878 -0.410165303606
432930000 0.203949454199 -0.410855417094
432940000 0.203296485185 -0.411038024047
432950000 0.203362306032 -0.411511965236
432960000 0.203403271099 -0.412711218379
432970000 0.20416829785 -0.41247950553
432980000 0.202969586787 -0.413314631424
432990000 0.203111096858 -0.412807365255
433000000 0.203211513133 -0.41374251435
433010000 0.202135002542 -0.413012193495
433020000 0.201370885534 -0.413227501833
433030000 0.202710384204 -0.414884969399
433040000 0.203098211294 -0.414649966574
433050000 0.20201074643 -0.415449164854
433060000 0.202559108475 -0.415659699929
433070000 0.202421013676 -0.41714867549
433080000 0.201821441845 -0.416949469216
433090000 0.201389738485 -0.416549951789
433100000 0.20154115478 -0.417690281295
433110000 0.201515560734 -0.417799427245
433120000 0.200934315184 -0.418600046408
433130000 0.202230139433 -0.41848775815
433140000 0.201585018398 -0.418701395088
433150000 0.201128016207 -0.419930359362
433160000 0.201363962886 -0.420106636548
433170000 0.201785852668 -0.420356728805
433180000 0.20100086892 -0.421283483202
433190000 0.201901329744 -0.421760809092
433200000 0.200628771148 -0.42205596958
433210000 0.201383143584 -0.421998863027
433220000 0.200850249946 -0.422659845214
433230000 0.201124259797 -0.423325714365
433240000 0.201657840282 -0.423211488671
433250000 0.201262473005 -0.423964639098
433260000 0.200602687 -0.424412434205
433270000 0.199729727555 -0.423195153766
433280000 0.197423664384 -0.422893737641
433290000 0.194934841083 -0.421545163969
433300000 0.204209692149 -0.423023966927
433310000 0.195031459395 -0.421406243496
433320000 0.190652778985 -0.422054557342
433330000 0.196485018745 -0.432175685499
433340000 0.212289105776 -0.42326203775
433350000 0.201235251124 -0.426979975389
433360000 0.199753773447 -0.426852671236
433370000 0.199583648994 -0.428421028747
433380000 0.20027372279 -0.42783656107
433390000 0.199839704605 -0.429046777829
433400000 0.199644800952 -0.429652020364
433410000 0.200238580106 -0.429902037055
433420000 0.199885203932 -0.430599895391
433430000 0.19910090635 -0.431016666428
433440000 0.199141370818 -0.431373459647
433450000 0.199563405305 -0.431887988782
433460000 0.199620622801 -0.432047345767
433470000 0.200235149336 -0.432510771584
433480000 0.199317103993 -0.432916408959
433490000 0.198953522573 -0.433320395869
433500000 0.198531755022 -0.433862163917
433510000 0.19841264204 -0.434727527506
433520000 0.19862615 -0.434648784404
433530000 0.198072425987 -0.435299666613
433540000 0.197881214451 -0.435916938183
433550000 0.198749126968 -0.43648785517
433560000 0.19868815128 -0.436842388279
433570000 0.198972456239 -0.436863440437
433580000 0.198139073093 -0.437059420803
433590000 0.198278962637 -0.437927106207
433600000 0.19836552309 -0.43834697986
433610000 0.198426124312 -0.43965429408
433620000 0.19826896989 -0.438943748349
433630000 0.197307385264 -0.439580846716
433640000 0.197640959724 -0.439748192148
433650000 0.197390871987 -0.440336954587
433660000 0.197351290813 -0.440298212272
433670000 0.197966959735 -0.440700977398
433680000 0.197212916879 -0.44100213401
433690000 0.196873695709 -0.441903443752
433700000 0.196815866491 -0.442145068458
433710000 0.197257390226 -0.442868727818
433720000 0.196902055201 -0.443225635454
433730000 0.195993667589 -0.443375507223
433740000 0.196933449672 -0.444176955333
433750000 0.196627603334 -0.444518504982
433760000 0.196456432298 -0.444619493107
433770000 0.196660748902 -0.444905337323
433780000 0.196351141881 -0.444701522236
433790000 0.196650296667 -0.44578758902
433800000 0.195847268961 -0.446101189981
433810000 0.195856896536 -0.446949187738
433820000 0.196084833065 -0.446808898964
433830000 0.195577548817 -0.44774115617
433840000 0.196083601621 -0.44685566111
433850000 0.196398865211 -0.447949304567
433860000 0.195594236767 -0.447822032523
433870000 0.195403471736 -0.448466814821
433880000 0.195129081016 -0.449491577794
433890000 0.194374076219 -0.449727422476
433900000 0.194838580457 -0.450469219749
433910000 0.195359013636 -0.450603291094
433920000 0.195514032855 -0.450689894522
433930000 0.194658606853 -0.451262444907
433940000 0.193422673028 -0.452204732503
433950000 0.19413985679 -0.45173739514
433960000 0.193751059249 -0.452822630704
433970000 0.194373436944 -0.451613946017
433980000 0.1939741438 -0.454321850263
433990000 0.193395041986 -0.452798326728
434000000 0.19297381005 -0.453722027559
434010000 0.193258433753 -0.454479500697
434020000 0.193603026324 -0.455476286262
434030000 0.193291915371 -0.455312384104
434040000 0.192476662277 -0.456010896414
434050000 0.192745720992 -0.456818678322
434060000 0.192874544363 -0.456701435639
434070000 0.192606193845 -0.456466396255
434080000 0.192916641159 -0.458412873678
434090000 0.192503466879 -0.458568641759
434100000 0.191704005205 -0.459496965529
434110000 0.190279586255 -0.458417208129
434120000 0.192043313498 -0.459661909471
434130000 0.191898087265 -0.460243475494
434140000 0.19355553467 -0.460100345082
434150000 0.191708330451 -0.460190569987
434160000 0.192097031525 -0.460711649388
434170000 0.191582532819 -0.460932468209
434180000 0.191383109118 -0.461144954152
434190000 0.191799045616 -0.461836729002
434200000 0.191735057021 -0.462057603783
434210000 0.191732984764 -0.462561720399
434220000 0.190718539419 -0.46595765167
434230000 0.189050308988 -0.462562866302
434240000 0.189066347354 -0.465852913352
434250000 0.188885645089 -0.465657245201
434260000 0.18928354084 -0.464611159525
434270000 0.190099064148 -0.465409649487
434280000 0.189913949608 -0.465538766481
434290000 0.189552088991 -0.466459701692
434300000 0.189322250603 -0.466377597341
434310000 0.18919857834 -0.466501073355
434320000 0.188877966751 -0.466830075425
434330000 0.189265177311 -0.46705077651
434340000 0.189422499341 -0.467940672341
434350000 0.188783252945 -0.468133368773
434360000 0.188919570368 -0.469008130668
434370000 0.188428074871 -0.469506944138
434380000 0.18892650269 -0.469478430099
434390000 0.189392735774 -0.469748481425
434400000 0.18855211359 -0.469683291262
434410000 0.188749990512 -0.469827316096
434420000 0.188508395524 -0.470719468716
434430000 0.188045696506 -0.471273888754
434440000 0.188209945351 -0.471079413308
434450000 0.187551098719 -0.471449675182
434460000 0.187822506817 -0.472291871518
434470000 0.18783392949 -0.473023620897
434480000 0.187475814082 -0.473131079601
434490000 0.186966919889 -0.474170467181
434500000 0.187268212234 -0.474690909002
434510000 0.187234804475 -0.474709293282
434520000 0.187123187218 -0.474991487049
434530000 0.187148662806 -0.475815546155
434540000 0.185527768756 -0.474466921087
434550000 0.182812885511 -0.472804390153
434560000 0.182459249432 -0.470169330711
434570000 0.182960262698 -0.474233252044
434580000 0.185297250501 -0.476078559084
434590000 0.186341011092 -0.477290552777
434600000 0.186216615831 -0.478081426495
434610000 0.185558290947 -0.478537878042
434620000 0.186336548542 -0.478547009416
434630000 0.185823960162 -0.478603290839
434640000 0.184833796822 -0.480490200126
434650000 0.184573637476 -0.47953004719
434660000 0.184818166155 -0.479829114266
434670000 0.183355543644 -0.480746663769
434680000 0.184575579508 -0.480580083509
434690000 0.183837760507 -0.481600288316
434700000 0.184590063711 -0.481040767245
434710000 0.184147363666 -0.482183411673
434720000 0.183590164834 -0.482815232363
434730000 0.184017816849 -0.483489249283
434740000 0.183404776765 -0.483702533905
434750000 0.183446722375 -0.484308689507
434760000 0.182771812562 -0.484096832175
434770000 0.183031089583 -0.484718227712
434780000 0.182483694696 -0.484437087116
434790000 0.183256029156 -0.485055945291
434800000 0.183172221069 -0.486238064477
434810000 0.182918935921 -0.486574085561
434820000 0.181957133683 -0.486593112151
434830000 0.181506536094 -0.486969552641
434840000 0.181462565421 -0.487426477802
434850000 0.180863902969 -0.487823882595
434860000 0.181725959248 -0.488436770172
434870000 0.181865081866 -0.488816754337
434880000 0.181727474784 -0.489597330182
434890000 0.18087627377 -0.490004339036
434900000 0.180829132983 -0.489877875515
434910000 0.180354708503 -0.490434579172
434920000 0.180920784779 -0.491461448855
434930000 0.181662724234 -0.490949230751
434940000 0.180336817052 -0.492712173178
434950000 0.181304253106 -0.491368101515
434960000 0.181380111873 -0.491034797563
434970000 0.180911290755 -0.493346871189
434980000 0.179662481462 -0.49281052178
434990000 0.179732967774 -0.493179823104
435000000 0.180130462334 -0.494519415287
435010000 0.17998982747 -0.493088839539
435020000 0.178797972962 -0.495050457428
435030000 0.17936893989 -0.49459953694
435040000 0.178816985728 -0.49545205368
435050000 0.178613051449 -0.495276897188
435060000 0.181186474511 -0.495984448849
435070000 0.179040453491 -0.495199428147
435080000 0.179715319898 -0.496394843904
435090000 0.177677939494 -0.4966312039
435100000 0.177414119433 -0.497588585108
435110000 0.17734119445 -0.497721769992
435120000 0.1771110468 -0.497915210723
435130000 0.177099276766 -0.498356872855
435140000 0.176765256082 -0.4990954518
435150000 0.176534470976 -0.499368791331
435160000 0.176959500767 -0.500032873064
435170000 0.176427908493 -0.500895720152
435180000 0.176413435536 -0.500303114628
435190000 0.176283966043 -0.501086485975
435200000 0.175724372005 -0.501031883679
435210000 0.175578856155 -0.502080751913
435220000 0.175581062979 -0.501918097409
435230000 0.175456395545 -0.502586293305
435240000 0.175094665519 -0.502278449724
435250000 0.174927094292 -0.504011639595
435260000 0.175010179424 -0.504396173899
435270000 0.174185291207 -0.504691636678
435280000 0.174373309863 -0.505024980421
435290000 0.173996025602 -0.505783243958
435300000 0.173236010284 -0.505004245667
435310000 0.173595589861 -0.505343416423
435320000 0.17399027891 -0.506256700517
435330000 0.174029715522 -0.506093340392
435340000 0.174120827438 -0.506715147894
435350000 0.173831197374 -0.507669074439
435360000 0.173042406969 -0.508397512913
435370000 0.172181241493 -0.509165995251
435380000 0.17221459981 -0.50939333458
435390000 0.172697298443 -0.509171886352
435400000 0.171794241225 -0.509039119243
435410000 0.172557092449 -0.509695022844
435420000 0.171461355239 -0.509688078297
435430000 0.172212373103 -0.510079952452
435440000 0.171418435464 -0.510665571397
435450000 0.17085010398 -0.510286489666
435460000 0.171375970865 -0.511692158453
435470000 0.171082427278 -0.512120572091
435480000 0.17040055125 -0.513162818231
435490000 0.177306171743 -0.507415581677
435500000 0.17061643586 -0.512721889337
435510000 0.170399569304 -0.513788438262
435520000 0.169526843994 -0.514003678333
435530000 0.169763139938 -0.514184757484
435540000 0.1696141149 -0.514235049997
435550000 0.169267905542 -0.515064642611
435560000 0.168818752122 -0.515165166276
435570000 0.168840081602 -0.51568814985
435580000 0.168145521146 -0.516225454471
435590000 0.168530904669 -0.517592974461
435600000 0.16857402532 -0.517533576867
435610000 0.167928037973 -0.517496447142
435620000 0.16767969537 -0.517726119428
435630000 0.16762563168 -0.518047320327
435640000 0.167597921118 -0.518213483284
435650000 0.167317364215 -0.518754199697
435660000 0.166670659017 -0.518896654003
435670000 0.167037600952 -0.519259948131
435680000 0.165562280314 -0.519165948841
435690000 0.166401506772 -0.519885832795
435700000 0.166003884557 -0.520030919069
435710000 0.16562199367 -0.520318752413
435720000 0.16601846689 -0.520464536086
435730000 0.164728254817 -0.521135547901
435740000 0.165149331553 -0.521812461261
435750000 0.165377973321 -0.522116949574
435760000 0.164732416338 -0.522075929514
435770000 0.164941051591 -0.52314795196
435780000 0.164791844045 -0.52310273213
435790000 0.164857894838 -0.523648318562
435800000 0.164572958449 -0.523446076873
435810000 0.163788202807 -0.523474545763
435820000 0.164455462922 -0.523808178092
435830000 0.163947183315 -0.524347539238
435840000 0.163002682796 -0.524900342212
435850000 0.163041802019 -0.525322268678
435860000 0.162843855522 -0.526176554142
435870000 0.162082083103 -0.527166733808
435880000 0.162486563857 -0.527363732575
435890000 0.161945066306 -0.527785151715
435900000 0.162020179439 -0.528214178863
435910000 0.161292395547 -0.528699515463
435920000 0.161212043003 -0.52840349984
435930000 0.161332042754 -0.528521484012
435940000 0.16110606894 -0.528988351973
435950000 0.160708734895 -0.529653402271
435960000 0.160395922604 -0.529794469269
435970000 0.160107013525 -0.53047691063
435980000 0.160273270899 -0.530810815377
435990000 0.16026757946 -0.53071248047
436000000 0.159593595517 -0.531212350313
436010000 0.159290537763 -0.531909198013
436020000 0.159180420017 -0.531998021911
436030000 0.159616888456 -0.533373663138
436040000 0.158747309483 -0.533055915347
436050000 0.158793307128 -0.532936295846
436060000 0.158669106852 -0.533279974857
436070000 0.157947388198 -0.533573733499
436080000 0.157864608939 -0.534552218075
436090000 0.156958400685 -0.535175484545
436100000 0.157596783506 -0.534775667786
436110000 0.157322115747 -0.535283594962
436120000 0.157083424157 -0.535853304531
436130000 0.157041686803 -0.535909684072
436140000 0.157028202893 -0.536684943328
436150000 0.156564628091 -0.537214805541
436160000 0.156376431145 -0.536953856351
436170000 0.156450483732 -0.537459404898
436180000 0.155608289085 -0.538400159049
436190000 0.155974168429 -0.537895637223
436200000 0.155536925556 -0.538056155741
436210000 0.156600158147 -0.53851421759
436220000 0.154534440038 -0.540163037525
436230000 0.154597395282 -0.540207913383
436240000 0.154260101481 -0.540447206316
436250000 0.153307695124 -0.540047760556
436260000 0.153367587696 -0.540426559274
436270000 0.153313494248 -0.540854386341
436280000 0.153211734352 -0.540167685498
436290000 0.152438284754 -0.540478769163
436300000 0.152546890954 -0.541806632595
436310000 0.152199574209 -0.542665234632
436320000 0.151948762391 -0.543592659319
436330000 0.151966146451 -0.541189909227
436340000 0.152356804397 -0.542179821362
436350000 0.151693655475 -0.54353963522
436360000 0.151081005535 -0.543102999329
436370000 0.152279639028 -0.544443248796
436380000 0.150646750854 -0.54479172301
436390000 0.151265670789 -0.544887569016
436400000 0.149947523283 -0.545795209874
436410000 0.150894953251 -0.544908165359
436420000 0.149143676195 -0.545642089664
436430000 0.149987336734 -0.545682498768
436440000 0.149699979573 -0.546153558033
436450000 0.149324962587 -0.546659507479
436460000 0.150796313061 -0.546840821374
436470000 0.148932874767 -0.547209410444
436480000 0.148558592121 -0.547398336544
436490000 0.148357939359 -0.547664156548
436500000 0.148087680001 -0.548909110123
436510000 0.148721990322 -0.549277723893
436520000 0.147643968141 -0.548930928496
436530000 0.147001684158 -0.549326536664
436540000 0.146726157373 -0.549641755325
436550000 0.146328303405 -0.550844056855
436560000 0.145966159202 -0.550720185987
436570000 0.145720998061 -0.550872570288
436580000 0.145542434197 -0.551156606376
436590000 0.146107164622 -0.551798504932
436600000 0.144282027186 -0.551850428928
436610000 0.146204454265 -0.553050464407
436620000 0.146387138866 -0.55283677076
436630000 0.145351806375 -0.553232988324
436640000 0.145104124651 -0.552944417764
436650000 0.144554895971 -0.553723516889
436660000 0.14400725153 -0.554196830432
436670000 0.143858133746 -0.554374517372
436680000 0.14341885252 -0.555051246385
436690000 0.143787796433 -0.554898287409
436700000 0.14401772287 -0.555762096236
436710000 0.142991850513 -0.555969285377
436720000 0.142939936907 -0.555767208
436730000 0.142920958439 -0.55706371097
436740000 0.142736316382 -0.557031178938
436750000 0.142736125533 -0.557828564773
436760000 0.141868328691 -0.557965404746
436770000 0.141644302042 -0.557932825341
436780000 0.14106524689 -0.558143572735
436790000 0.141158136594 -0.558073237893
436800000 0.140268116594 -0.55762318574
436810000 0.140068661018 -0.558122726516
436820000 0.140577742669 -0.559297856182
436830000 0.139578847248 -0.560124066537
436840000 0.139707972348 -0.56017208369
436850000 0.139514932997 -0.560585068751
436860000 0.139944236562 -0.561000854752
436870000 0.138828124687 -0.562009832025
436880000 0.138768729275 -0.562096523896
436890000 0.137990808187 -0.562609904492
436900000 0.137948588966 -0.562266865186
436910000 0.137618969852 -0.563209057589
436920000 0.136802717444 -0.563207813356
436930000 0.137318562226 -0.564453046534
436940000 0.1361971443 -0.564680528552
436950000 0.136053918467 -0.564547704615
436960000 0.135810882677 -0.564418886426
436970000 0.137194761725 -0.565023629288
436980000 0.135955213063 -0.565582756776
436990000 0.135826650229 -0.565010320675
437000000 0.13526304464 -0.565291590504
437010000 0.134922031599 -0.565111963904
437020000 0.134242672391 -0.56645316908
437030000 0.133719969231 -0.565166107047
437040000 0.133394064236 -0.566302914995
437050000 0.133617936574 -0.56646607075
437060000 0.133517543405 -0.567231935394
437070000 0.133027914894 -0.567528232581
437080000 0.132232977067 -0.567327064332
437090000 0.132565024657 -0.567040416151
437100000 0.131891026386 -0.568652557971
437110000 0.131620333501 -0.568287023177
437120000 0.130947907023 -0.569231787177
437130000 0.131331356398 -0.570173249298
437140000 0.130067331031 -0.570621191401
437150000 0.130949805321 -0.570306378413
437160000 0.13115118039 -0.570461914482
437170000 0.130814169369 -0.57032947928
437180000 0.130253770208 -0.571874290228
437190000 0.129854495741 -0.571615274251
437200000 0.129610726202 -0.572371601902
437210000 0.130081975712 -0.57329989032
437220000 0.12955744493 -0.572187287954
437230000 0.129209085236 -0.573102447597
437240000 0.129604130179 -0.571315884353
437250000 0.131810347821 -0.568531413789
437260000 0.133018759093 -0.565510923617
437270000 0.132115839515 -0.56734335261
437280000 0.129611395277 -0.572356825698
437290000 0.128423160767 -0.574799846098
437300000 0.127120869071 -0.576424111787
437310000 0.126562700257 -0.576766793195
437320000 0.125567926314 -0.575991637827
437330000 0.125583440146 -0.575730379454
437340000 0.125469199598 -0.575721440902
437350000 0.12531149043 -0.577045849878
437360000 0.123978117364 -0.577115082075
437370000 0.124503775319 -0.576775035862
437380000 0.123436035593 -0.577098642049
437390000 0.123753411108 -0.577558207475
437400000 0.121730016412 -0.578754083741
437410000 0.123761466343 -0.579183895293
437420000 0.123861119616 -0.580277185538
437430000 0.123379645173 -0.580130013492
437440000 0.124181024747 -0.580795955067
437450000 0.123453817664 -0.580136351194
437460000 0.122445925303 -0.579827204765
437470000 0.122517481308 -0.580162529953
437480000 0.121903741456 -0.580059071076
437490000 0.121830021616 -0.581712036399
437500000 0.121376851873 -0.58194466797
437510000 0.120943186067 -0.582001460316
437520000 0.121043131115 -0.582183341565
437530000 0.120341847 -0.582350815363
437540000 0.120359567024 -0.582602284901
437550000 0.119885605743 -0.582750715669
437560000 0.119577072731 -0.582281765098
437570000 0.119895018181 -0.58370474217
437580000 0.118627667728 -0.583896019853
437590000 0.118425712726 -0.584643646795
437600000 0.118528090974 -0.584024325411
437610000 0.117452752308 -0.584348283436
437620000 0.117259520042 -0.585277068527
437630000 0.117310267811 -0.585343933545
437640000 0.117073676299 -0.586019748633
437650000 0.116916032383 -0.586102851185
437660000 0.117060825166 -0.586126767164
437670000 0.116454504264 -0.586460152428
437680000 0.115930564923 -0.586533843637
437690000 0.115761110642 -0.587012140221
437700000 0.115363706896 -0.587627268812
437710000 0.115116223375 -0.58823389915
437720000 0.114269360842 -0.588892236631
437730000 0.114656623318 -0.589511177011
437740000 0.11358117462 -0.588870398879
437750000 0.113145049315 -0.588901885957
437760000 0.113310255989 -0.588970973857
437770000 0.112497599554 -0.58984095707
437780000 0.11197978559 -0.589873666682
437790000 0.11190999146 -0.58976538678
437800000 0.11139902695 -0.589714619175
437810000 0.111601900239 -0.590421030214
437820000 0.110965299762 -0.590709367416
437830000 0.110690108633 -0.59161159538
437840000 0.110436185432 -0.591186802191
437850000 0.110772908293 -0.591561059146
437860000 0.109983018382 -0.591459813392
437870000 0.109776223191 -0.591950518622
437880000 0.109993473467 -0.592418866953
437890000 0.109069230033 -0.5936940362
437900000 0.109608754156 -0.592632028876
437910000 0.109235618624 -0.592819775751
437920000 0.108578420463 -0.593673641163
437930000 0.107779484101 -0.593184969176
437940000 0.107363632693 -0.594134867038
437950000 0.107749188921 -0.594941246429
437960000 0.1073996733 -0.594191683811
437970000 0.106617098321 -0.59502908749
437980000 0.105775220843 -0.594841943987
437990000 0.106542029694 -0.595668662503
438000000 0.105980736017 -0.595989251641
438010000 0.106007507353 -0.596300503835
438020000 0.106200230275 -0.596830971485
438030000 0.104782907162 -0.596612120836
438040000 0.104112926179 -0.596965177184
438050000 0.104952014211 -0.596906583144
438060000 0.104873302601 -0.597368517265
438070000 0.103166624502 -0.597858341285
438080000 0.103089250101 -0.598241934939
438090000 0.102641442701 -0.598515945331
438100000 0.102282980818 -0.598548638093
438110000 0.102250712066 -0.599021297647
438120000 0.102852434827 -0.599367305259
438130000 0.102550269825 -0.599956239798
438140000 0.102248500109 -0.600353602096
438150000 0.101202070314 -0.600012678835
438160000 0.101361422445 -0.600740536181
438170000 0.101096778732 -0.600350631075
438180000 0.100969185263 -0.601295876746
438190000 0.100195832647 -0.601062863925
438200000 0.0996416931479 -0.601380994232
438210000 0.0982476921804 -0.601797702549
438220000 0.0990234678227 -0.602108287265
438230000 0.098645792587 -0.602592159651
438240000 0.0974926218668 -0.602311464414
438250000 0.0975545166715 -0.603159522335
438260000 0.0971525705682 -0.604592322553
438270000 0.0965671235442 -0.602639626883
438280000 0.098267861604 -0.604592866921
438290000 0.0954677447666 -0.604429168577
438300000 0.0959604824606 -0.604680725207
438310000 0.0952390697189 -0.605454887844
438320000 0.0954119813559 -0.60558065776
438330000 0.0956855629701 -0.605166763324
438340000 0.0947141242633 -0.605104061492
438350000 0.0943477745672 -0.605835511461
438360000 0.0943810996 -0.605464474771
438370000 0.0938434949076 -0.60592003802
438380000 0.0947304307343 -0.605860675718
438390000 0.0937743133082 -0.606920619856
438400000 0.0919521152222 -0.607305771489
438410000 0.0926440158722 -0.607446887334
438420000 0.0931794135837 -0.607509279623
438430000 0.0917650795939 -0.607971741495
438440000 0.0925239717613 -0.608389173447
438450000 0.0909340289055 -0.607747908751
438460000 0.0904972887796 -0.609304981416
438470000 0.0902592258221 -0.609139543237
438480000 0.0893699231069 -0.609516302018
438490000 0.0895806079053 -0.609044121963
438500000 0.0895055051761 -0.609521074817
438510000 0.0890166667748 -0.609989674957
438520000 0.0891762677219 -0.609913835906
438530000 0.0884647507793 -0.609879189279
438540000 0.0875311214037 -0.610513465905
438550000 0.0876650550175 -0.610491908985
438560000 0.0874095381381 -0.610882902166
438570000 0.0870064019019 -0.61230061601
438580000 0.0872997430111 -0.612150485481
438590000 0.0869377374174 -0.613096337866
438600000 0.0859115457625 -0.612644389188
438610000 0.0861594134771 -0.612846227774
438620000 0.0858202151926 -0.613390927503
438630000 0.0853860459928 -0.613029831483
438640000 0.0853513161435 -0.613686012233
438650000 0.0841471769633 -0.61339891012
438660000 0.0826389650717 -0.613459280433
438670000 0.0817468822545 -0.612526234838
438680000 0.0821562905606 -0.612881743258
438690000 0.08188832812 -0.613645692342
438700000 0.082041820197 -0.614632344695
438710000 0.0821079853197 -0.61522684842
438720000 0.0829845979294 -0.614941568474
438730000 0.0800169471259 -0.61867188158
438740000 0.0804780631163 -0.61520310809
438750000 0.0807182440536 -0.615164845316
438760000 0.0806001343462 -0.616446256284
438770000 0.080109233696 -0.615252532312
438780000 0.0799796077302 -0.615327429318
438790000 0.0798354028511 -0.616486382275
438800000 0.0800910874247 -0.617977911725
438810000 0.0782890639815 -0.618573536932
438820000 0.0781745331186 -0.617983045832
438830000 0.0782324106055 -0.61888101598
438840000 0.0771819086301 -0.618147686192
438850000 0.077257707906 -0.618990178363
438860000 0.0775394314783 -0.618283886773
438870000 0.0777320506609 -0.619555762069
438880000 0.0759768868316 -0.620152650143
438890000 0.0761610898156 -0.618703617844
438900000 0.0747346538965 -0.61846229391
438910000 0.075802724114 -0.620197307462
438920000 0.0755444850377 -0.620481990271
438930000 0.074812304809 -0.619981721275
438940000 0.0738412998344 -0.619576791933
438950000 0.0738199249216 -0.619794669478
438960000 0.0742704843064 -0.620947853331
438970000 0.0735558971754 -0.620172065512
438980000 0.0734132556996 -0.621197724794
438990000 0.0731216634076 -0.62048783667
439000000 0.0724585767413 -0.621453219305
439010000 0.0714156882791 -0.621604078552
439020000 0.0715340466181 -0.621180157592
439030000 0.0706601303711 -0.622298612575
439040000 0.0701057944175 -0.622380657689
439050000 0.0703664262609 -0.623610528207
439060000 0.0700116903889 -0.624475924054
439070000 0.0689430241201 -0.622620556012
439080000 0.0692775717901 -0.622313725306
439090000 0.0686067995236 -0.622928610504
439100000 0.0683143655944 -0.626482998309
439110000 0.0655726985442 -0.623913424284
439120000 0.0683759017757 -0.625330150484
439130000 0.0669980329367 -0.625341700753
439140000 0.0669101957765 -0.62438509096
439150000 0.0663471728482 -0.625948448915
439160000 0.0659204601266 -0.625918565379
439170000 0.0655316543865 -0.626187804859
439180000 0.0650412259459 -0.625864526425
439190000 0.0656094654172 -0.626408673557
439200000 0.0645539528106 -0.626544394218
439210000 0.0655802907836 -0.627034180443
439220000 0.0643820252354 -0.628464677215
439230000 0.0650568102907 -0.626123244944
439240000 0.0641139063673 -0.627110411168
439250000 0.0622929415965 -0.627793059435
439260000 0.0626084806812 -0.626626326629
439270000 0.0598291660464 -0.627627334471
439280000 0.0604968948577 -0.627823548335
439290000 0.061567528299 -0.628717854068
439300000 0.0619880349208 -0.629385179452
439310000 0.062007765678 -0.629254413902
439320000 0.0612856803357 -0.62910754888
439330000 0.060577618303 -0.628954943753
439340000 0.0604455050816 -0.629594283577
439350000 0.0594454467711 -0.629511947015
439360000 0.0598277499406 -0.630009217998
439370000 0.0593252290391 -0.630333772869
439380000 0.0587022559377 -0.630829396967
439390000 0.0578044405064 -0.630719859735
439400000 0.0574143567585 -0.630505908309
439410000 0.0576590343375 -0.631609939734
439420000 0.0579286898687 -0.631277807059
439430000 0.0563323895496 -0.631173450534
439440000 0.0568122236716 -0.631481221931
439450000 0.0563460895076 -0.632143157523
439460000 0.0556093104449 -0.632053582758
439470000 0.0554588775766 -0.631438993329
439480000 0.0544406351717 -0.631010517041
439490000 0.0541899859632 -0.631931822729
439500000 0.0556191725042 -0.632157399497
439510000 0.0539431222568 -0.632445014647
439520000 0.0534739108526 -0.632798161326
439530000 0.0530149720288 -0.633238807625
439540000 0.0524813903487 -0.634065198685
439550000 0.0524523368416 -0.633735177524
439560000 0.0517896108897 -0.634056835387
439570000 0.0521757669675 -0.634888943978
439580000 0.0517886116416 -0.635020118259
439590000 0.0509688384818 -0.633869883488
439600000 0.0499585282746 -0.635145403346
439610000 0.0492538579194 -0.63624181503
439620000 0.0469027044437 -0.63590652021
439630000 0.0485106303339 -0.637845840027
439640000 0.0467722136677 -0.63630969562
439650000 0.0477260532431 -0.636216197457
439660000 0.0477632089068 -0.636032302238
439670000 0.0462633679414 -0.635509201507
439680000 0.0481013725589 -0.636608160995
439690000 0.0471776873351 -0.636474416222
439700000 0.0473077737019 -0.638074816367
439710000 0.0467029794965 -0.636904728641
439720000 0.0455060180366 -0.63679295183
439730000 0.0452040652544 -0.63833351521
439740000 0.0441718675556 -0.637655101756
439750000 0.0444583745175 -0.636720092054
439760000 0.0441415887332 -0.638280452925
439770000 0.0428771927784 -0.63795998488
439780000 0.0435045728593 -0.639054547728
439790000 0.0417950052357 -0.6377661594
439800000 0.0429417085947 -0.638676410207
439810000 0.0427221847959 -0.639792542472
439820000 0.0430468346264 -0.639840327724
439830000 0.0431967399803 -0.640115985416
439840000 0.0413385731435 -0.6385691441
439850000 0.0404295819926 -0.640024555704
439860000 0.0400328862204 -0.639554729682
439870000 0.0393972090729 -0.639273906637
439880000 0.0401119102664 -0.639986798521
439890000 0.0391069352974 -0.639847943263
439900000 0.0389571659003 -0.639883513685
439910000 0.0377753675538 -0.640514300261
439920000 0.036941780683 -0.640546037367
439930000 0.0396752485557 -0.642082510646
439940000 0.0382100890074 -0.639698339132
439950000 0.0377974169202 -0.641664920459
439960000 0.0370738424551 -0.642137734476
439970000 0.0358823072324 -0.641442903573
439980000 0.0354300995219 -0.641522361585
439990000 0.0355063736548 -0.642055274871
440000000 0.0349929848118 -0.641867541744
440010000 0.0352213678686 -0.642111696785
440020000 0.034085938341 -0.642611942584
440030000 0.0332084693086 -0.643497084324
440040000 0.0315675918324 -0.642616166229
440050000 0.0337925464966 -0.64494352939
440060000 0.0330380003252 -0.644976900137
440070000 0.0341259286555 -0.642270966127
440080000 0.0295557303506 -0.642611235677
440090000 0.0309839732428 -0.64280335488
440100000 0.0307141772899 -0.643919339064
440110000 0.031215474325 -0.645131451867
440120000 0.0304206818934 -0.644915928325
440130000 0.0302035284524 -0.645108188611
440140000 0.0290800409944 -0.644814600364
440150000 0.0296424018547 -0.64596603616
440160000 0.0281383361613 -0.645252957436
440170000 0.0283161412944 -0.644491649478
440180000 0.0278587087835 -0.645076122703
440190000 0.0273781747897 -0.645204671327
440200000 0.0273515874832 -0.645187589561
440210000 0.0273869983064 -0.646302757093
440220000 0.0263998879032 -0.645593703619
440230000 0.0256557004627 -0.645811724699
440240000 0.0258356182788 -0.645793034256
440250000 0.0250901815138 -0.646186684394
440260000 0.024797752283 -0.646605163755
440270000 0.024006295985 -0.646680132702
440280000 0.0228255412353 -0.646536575152
440290000 0.0228834488685 -0.646923577814
440300000 0.0230493497513 -0.646716858017
440310000 0.0220500313916 -0.646426981397
440320000 0.021194321402 -0.64728865005
440330000 0.0216513194087 -0.647990333869
440340000 0.0216100309309 -0.648112213626
440350000 0.0214565692982 -0.648355279665
440360000 0.0206238132168 -0.648726920922
440370000 0.0204305011133 -0.648850475747
440380000 0.019607607008 -0.648750610817
440390000 0.0188709720154 -0.648461813184
440400000 0.019431865237 -0.648388109457
440410000 0.0195582509677 -0.648848306583
440420000 0.0182187844866 -0.649144353203
440430000 0.0177125408423 -0.649860828256
440440000 0.0170957034664 -0.649091928451
440450000 0.0170438491798 -0.649199798482
440460000 0.0161518079241 -0.649490888876
440470000 0.0166762392721 -0.649857677002
440480000 0.017021861157 -0.649321515382
440490000 0.015874062233 -0.650304849614
440500000 0.0155524238338 -0.650764223575
440510000 0.0147881530579 -0.650215920141
440520000 0.0142130907784 -0.650544851918
440530000 0.0140850562984 -0.6490586829
440540000 0.0148580775908 -0.646309099783
440550000 0.0141684723265 -0.659998656019
440560000 0.0139673721243 -0.649553821917
440570000 0.0124354703615 -0.651611045506
440580000 0.0120093842166 -0.651640962246
440590000 0.0116654327827 -0.651677854411
440600000 0.0112860965403 -0.651518705652
440610000 0.0116258998318 -0.651251413834
440620000 0.0103372634667 -0.651942766504
440630000 0.0102207797917 -0.651735762596
440640000 0.00957309571413 -0.652243618016
440650000 0.00983386309543 -0.652809524149
440660000 0.00875172445262 -0.651629249543
440670000 0.00780687350749 -0.652132886808
440680000 0.00776898047081 -0.652426280397
440690000 0.00723456613374 -0.652716522888
440700000 0.00708672925725 -0.653000765742
440710000 0.006498344063 -0.652730016423
440720000 0.00632042014379 -0.653081299104
440730000 0.00571396458326 -0.653020898524
440740000 0.00740348177498 -0.652560132402
440750000 0.00448303914487 -0.653103362667
440760000 0.00477517834273 -0.652714849563
440770000 0.00377695030004 -0.652368114244
440780000 0.00350224209417 -0.654036727955
440790000 0.00340277167411 -0.6536309448
440800000 0.00361201067125 -0.654040996433
440810000 0.00275836345482 -0.653517621155
440820000 0.00199700896798 -0.654052121915
440830000 0.00189988074459 -0.655124781347
440840000 0.00131602189876 -0.654261943043
440850000 0.00197900518608 -0.655472475508
440860000 0.00256613706709 -0.65418787005
440870000 0.000516255857135 -0.655511026079
440880000 0.000390681426766 -0.656221653123
440890000 -0.000487270276694 -0.655705306016
440900000 -0.0019203733467 -0.654977224705
440910000 -0.0022525747545 -0.654754277586
440920000 -0.00223514519362 -0.654704538531
440930000 -0.00206631442723 -0.655696226141
440940000 -0.00245115520954 -0.654780119067
440950000 -0.00263429467251 -0.655150423626
440960000 -0.00261057305259 -0.65614226654
440970000 -0.0026698154226 -0.655430246831
440980000 -0.00326364886052 -0.65593334172
440990000 -0.00383107492742 -0.656387053659
441000000 -0.00423142230956 -0.656262819188
441010000 -0.00517256794952 -0.657336000686
441020000 -0.00557578255522 -0.656770377865
441030000 -0.00626531590792 -0.65697940464
441040000 -0.00664454351436 -0.656147065748
441050000 -0.00770007787452 -0.656270480345
441060000 -0.0079735613607 -0.65561093228
441070000 -0.00778845489354 -0.656324627726
441080000 -0.00852044591475 -0.656818731337
441090000 -0.00839357472338 -0.657595148648
441100000 -0.00946494830641 -0.65771063618
441110000 -0.00910588033533 -0.658114592331
441120000 -0.0103764253535 -0.65814765875
441130000 -0.0105483433671 -0.658450480148
441140000 -0.0109777902148 -0.658038347118
441150000 -0.0113145930943 -0.658596385081
441160000 -0.0115042422718 -0.657992097028
441170000 -0.0122600058996 -0.658357797624
441180000 -0.0121185261641 -0.658491685022
441190000 -0.0122546754555 -0.658496166067
441200000 -0.0127384809001 -0.658260092809
441210000 -0.0129418080259 -0.657738261809
441220000 -0.0131157551203 -0.659227441321
441230000 -0.0142194754906 -0.65916272632
441240000 -0.0149595992086 -0.658820036676
441250000 -0.0155371465833 -0.65943529549
441260000 -0.0157707700968 -0.659529505233
441270000 -0.016009190886 -0.660006968429
441280000 -0.0163488249079 -0.659375130222
441290000 -0.0169673629938 -0.659485003819
441300000 -0.0168135748843 -0.659687580579
441310000 -0.0292231931934 -0.666796499264
441320000 -0.0175025667555 -0.659236404809
441330000 -0.0182104160729 -0.659110753726
441340000 -0.0186174717393 -0.659404482582
441350000 -0.0192257444319 -0.659542443676
441360000 -0.0198463647312 -0.659826845977
441370000 -0.020190121623 -0.660887842001
441380000 -0.0204622470745 -0.660969018925
441390000 -0.0207057504042 -0.660193088361
441400000 -0.0215889914287 -0.661329850512
441410000 -0.0219805873709 -0.660174899641
441420000 -0.0219194303642 -0.660966587088
441430000 -0.022750760065 -0.660714084374
441440000 -0.0235292691468 -0.660298411883
441450000 -0.0235206903304 -0.660175859529
441460000 -0.0238191313064 -0.660211688033
441470000 -0.0250712480803 -0.660975890155
441480000 -0.0248811489129 -0.660803848883
441490000 -0.0252123750138 -0.661323254421
441500000 -0.0260892230596 -0.661281980092
441510000 -0.0263842646732 -0.662002738412
441520000 -0.0269376168114 -0.660295921463
441530000 -0.0269688361798 -0.66006815413
441540000 -0.0268651623155 -0.660269538666
441550000 -0.0271534887316 -0.660234026844
441560000 -0.0270595721351 -0.662237065725
441570000 -0.02767342332 -0.661352774356
441580000 -0.02905803864 -0.662218248635
441590000 -0.0300689205202 -0.66266270644
441600000 -0.0277906797183 -0.661309327097
441610000 -0.0332360635732 -0.663090431278
441620000 -0.0327120551335 -0.662901585754
441630000 -0.0312412130266 -0.661018415036
441640000 -0.0313817110525 -0.661533028645
441650000 -0.0313037360044 -0.663024087041
441660000 -0.0318721814908 -0.660594189143
441670000 -0.032936114549 -0.662566505026
441680000 -0.0318883517488 -0.662274995692
441690000 -0.0329201610199 -0.661096130061
441700000 -0.0335224565408 -0.661848130138
441710000 -0.0298527660818 -0.663387851813
441720000 -0.0373008889095 -0.662855012874
441730000 -0.0367565154862 -0.663386898174
441740000 -0.0330056573585 -0.665300683108
441750000 -0.0370110883714 -0.66283764307
441760000 -0.0369232464445 -0.66299700495
441770000 -0.0363931419769 -0.663489994968
441780000 -0.0381773121709 -0.66349238719
441790000 -0.0380344066289 -0.662969225459
441800000 -0.0381477297421 -0.662729869225
441810000 -0.0389408945159 -0.662899583484
441820000 -0.0388835860357 -0.662697632696
441830000 -0.0392668435647 -0.662998483978
441840000 -0.0395728294183 -0.662916293647
441850000 -0.0402438214647 -0.663308182867
441860000 -0.0399602828974 -0.662736912888
441870000 -0.0402315662368 -0.663910973782
441880000 -0.0409670996478 -0.662585208463
441890000 -0.0415221590921 -0.662979544644
441900000 -0.041283051049 -0.662739909695
441910000 -0.0430998909567 -0.663085406819
441920000 -0.0432135741704 -0.664127165259
441930000 -0.0446807271852 -0.663345491878
441940000 -0.0436104736865 -0.66397879242
441950000 -0.0440424932783 -0.663824727554
441960000 -0.0441796785875 -0.663531263202
441970000 -0.0456772273689 -0.663942535533
441980000 -0.0459020191177 -0.664715915125
441990000 -0.0412664343205 -0.666096410973
442000000 -0.0445826682718 -0.663771477274
442010000 -0.0479209714642 -0.663717042636
442020000 -0.0475879660651 -0.664557892894
442030000 -0.0482368977974 -0.663972584845
442040000 -0.048503608034 -0.665078747042
442050000 -0.0486588622068 -0.663946493042
442060000 -0.0486381448522 -0.663485600369
442070000 -0.0489083044521 -0.663122240657
442080000 -0.0511890638621 -0.661458983032
442090000 -0.0489798386444 -0.664739403787
442100000 -0.0498413740438 -0.664660702199
442110000 -0.0492616370927 -0.664830422082
442120000 -0.0503290529966 -0.661710552234
442130000 -0.0524539170382 -0.666104685881
442140000 -0.0541041311227 -0.664006780462
442150000 -0.0531266644333 -0.666086090948
442160000 -0.0532307741855 -0.668127426938
442170000 -0.0601191064912 -0.659476792794
442180000 -0.06003940397 -0.658150420258
442190000 -0.0542898344085 -0.662153830614
442200000 -0.0556828062874 -0.665249537474
442210000 -0.0549280363602 -0.664924911875
442220000 -0.0580408487428 -0.662126355473
442230000 -0.0663682916568 -0.665101562906
442240000 -0.0566074845808 -0.660134588639
442250000 -0.056938686798 -0.660418616304
442260000 -0.0553192417953 -0.668812513231
442270000 -0.0500424412823 -0.666024721991
442280000 -0.0594342506526 -0.666685199879
442290000 -0.0550674761539 -0.67468763793
442300000 -0.0558201321574 -0.670823233677
442310000 -0.0642396629347 -0.656515996221
442320000 -0.0675615153359 -0.659101696503
442330000 -0.05994183164 -0.681158157878
442340000 -0.0476874454639 -0.66468405961
442350000 -0.0680326305408 -0.660012213674
442360000 -0.0660920938278 -0.660060558975
442370000 -0.0610723368643 -0.680853733185
442380000 -0.0601030221797 -0.669956428803
442390000 -0.0564363292203 -0.672035896053
442400000 -0.0684392838012 -0.662335200018
442410000 -0.0806280011466 -0.660810370734
442420000 -0.0473933521846 -0.66773923342
442430000 -0.0722350429639 -0.665017810352
442440000 -0.06662912794 -0.672517412681
442450000 -0.0561016974048 -0.665198634079
442460000 -0.0816590009175 -0.663999963217
442470000 -0.0886775158705 -0.679379353755
442480000 -0.0673282201882 -0.654658514111
442490000 -0.0634204652316 -0.668885319995
442500000 -0.0933291497671 -0.65105330609
442510000 -0.0682034964227 -0.658475599507
442520000 -0.0936902775468 -0.676786110394
442530000 -0.050617561171 -0.672817321054
442540000 -0.0987091216288 -0.667961806736
442550000 -0.0799664606899 -0.657582406833
442560000 -0.0815747816652 -0.642555701444
442570000 -0.0714729028236 -0.690127696461
442580000 -0.0780259041271 -0.668516663116
442590000 -0.0605392169512 -0.67535168677
442600000 -0.0765694905272 -0.661864757545
442610000 -0.0584212316027 -0.662372262688
442620000 -0.0694774491103 -0.667808276354
442630000 -0.0580002588846 -0.659922602019
442640000 -0.0664858020221 -0.675960464588
442650000 -0.071634200082 -0.66833863877
442660000 -0.0789915099272 -0.657998351176
442670000 -0.0763927344716 -0.660307408536
442680000 -0.0714980656784 -0.665784232755
442690000 -0.0728052664947 -0.66103173821
442700000 -0.0760568900637 -0.663746469471
442710000 -0.0877900585712 -0.663901650634
442720000 -0.0795851794877 -0.66473829021
442730000 -0.0792148187144 -0.663328850305
442740000 -0.0847468225453 -0.659683049183
442750000 -0.0773550061152 -0.666822278757
442760000 -0.0777810387454 -0.663730708973
442770000 -0.0840227589988 -0.661068809804
442780000 -0.0800527146036 -0.66763288391
442790000 -0.0781388982635 -0.666120974926
442800000 -0.0814777169445 -0.664744940864
442810000 -0.0778900523445 -0.662279771814
442820000 -0.0716772226274 -0.673733765401
442830000 -0.0848290445903 -0.661957288888
442840000 -0.0805128906626 -0.665287136335
442850000 -0.0801447945183 -0.668337489082
442860000 -0.0834130790208 -0.663383349627
442870000 -0.0859890662594 -0.667048828556
442880000 -0.0820102219489 -0.665234836604
442890000 -0.0839210866387 -0.664848767839
442900000 -0.085120425331 -0.663619628376
442910000 -0.0847432932109 -0.665003310818
442920000 -0.0853112748124 -0.664634584023
442930000 -0.0870111236273 -0.662848850485
442940000 -0.0871035656831 -0.665158564511
442950000 -0.0881374822705 -0.663811661482
442960000 -0.0887342672151 -0.663663761736
442970000 -0.0884567935892 -0.664406713479
442980000 -0.0880215058072 -0.663526943229
442990000 -0.0868621869954 -0.663696597878
443000000 -0.0874201228608 -0.663362458561
443010000 -0.0883204653548 -0.665327886355
443020000 -0.0884268353341 -0.665354352057
443030000 -0.0895781831727 -0.66298552684
443040000 -0.0908230845885 -0.665654210038
443050000 -0.0898474203306 -0.664898147084
443060000 -0.0925804170281 -0.663867927748
443070000 -0.0922050924227 -0.663525206586
443080000 -0.0915224898724 -0.663898101424
443090000 -0.0928739071093 -0.663108396638
443100000 -0.0921060210765 -0.663822152685
443110000 -0.0928053485769 -0.663892758262
443120000 -0.0934124660187 -0.663704680852
443130000 -0.0938168444774 -0.664281545472
443140000 -0.0949094063088 -0.663657311055
443150000 -0.0940573143199 -0.664281406152
443160000 -0.0953163054587 -0.664556393862
443170000 -0.0956887039137 -0.662475356077
443180000 -0.0958535623067 -0.66276875459
443190000 -0.0961115649864 -0.663804341793
443200000 -0.0974245605033 -0.663338760911
443210000 -0.0968179017639 -0.663329043636
443220000 -0.0990015944566 -0.663206456384
443230000 -0.0984604331297 -0.662864398007
443240000 -0.0984441390123 -0.663693296412
443250000 -0.0987565595591 -0.663301106965
443260000 -0.0991406116377 -0.662038523567
443270000 -0.100789490115 -0.662757551693
443280000 -0.100299026685 -0.663480137765
443290000 -0.0996043253331 -0.663309716949
443300000 -0.100369539597 -0.662900678261
443310000 -0.10175741915 -0.66298591058
443320000 -0.101227142112 -0.663045287753
443330000 -0.10220463607 -0.662468132287
443340000 -0.10296941474 -0.662030039851
443350000 -0.103420297879 -0.661577225288
443360000 -0.103742566252 -0.662474562476
443370000 -0.104775724061 -0.662562852814
443380000 -0.105844342385 -0.6632591333
443390000 -0.106365390812 -0.664872415759
443400000 -0.104762469394 -0.66207944397
443410000 -0.106125667394 -0.662228991915
443420000 -0.105809580218 -0.663168791174
443430000 -0.107108580978 -0.662040874077
443440000 -0.10727531426 -0.662674117265
443450000 -0.107380249923 -0.662460604681
443460000 -0.107960645841 -0.663044600943
443470000 -0.107881925407 -0.661465467169
443480000 -0.108370342233 -0.661297859062
443490000 -0.109041547425 -0.661711370293
443500000 -0.110190919139 -0.66181908719
443510000 -0.109857729282 -0.662120394773
443520000 -0.109731015848 -0.661789810564
443530000 -0.110629588392 -0.66234304929
443540000 -0.111897101002 -0.661481094715
443550000 -0.111688232701 -0.660859297096
443560000 -0.112966452556 -0.661737011468
443570000 -0.11340612835 -0.661441100252
443580000 -0.112738347946 -0.661122856758
443590000 -0.113143450633 -0.661417941379
443600000 -0.113959015588 -0.660545485087
443610000 -0.11471701031 -0.660358392659
443620000 -0.114698727174 -0.66045102435
443630000 -0.115034093895 -0.660560588779
443640000 -0.115471926166 -0.660465065823
443650000 -0.115355561868 -0.660498120995
443660000 -0.116145014979 -0.66023791508
443670000 -0.116184759852 -0.660726336259
443680000 -0.115572193241 -0.660499072926
443690000 -0.116354018806 -0.661027237124
443700000 -0.117899328383 -0.65965778894
443710000 -0.117816624187 -0.66009883903
443720000 -0.118557614363 -0.660098789657
443730000 -0.119610423553 -0.659765951316
443740000 -0.119303482479 -0.659339696097
443750000 -0.119373252548 -0.659261123167
443760000 -0.119433148687 -0.659660809195
443770000 -0.120337572842 -0.659431586047
443780000 -0.120612170773 -0.659611918158
443790000 -0.12064097717 -0.660776446373
443800000 -0.121671924807 -0.659618673153
443810000 -0.121970832108 -0.659588262172
443820000 -0.122968178162 -0.659089827317
443830000 -0.122439507908 -0.658488726069
443840000 -0.123825318664 -0.658544759422
443850000 -0.123550252242 -0.658613004637
443860000 -0.123976018324 -0.658641517419
443870000 -0.124575233717 -0.658403356794
443880000 -0.124860629442 -0.658568730088
443890000 -0.125341497422 -0.658019831591
443900000 -0.125488559842 -0.658772907762
443910000 -0.126568370142 -0.659632755688
443920000 -0.127218441963 -0.658923371887
443930000 -0.127084384863 -0.657731742666
443940000 -0.127683183905 -0.658169284919
443950000 -0.127419004821 -0.657323797095
443960000 -0.127718134691 -0.658457820435
443970000 -0.128950575186 -0.658700818993
443980000 -0.129547620342 -0.657753501125
443990000 -0.130016938121 -0.658121596313
444000000 -0.130192225789 -0.657687607742
444010000 -0.129750255711 -0.656898692929
444020000 -0.129852632003 -0.65681986432
444030000 -0.13254894669 -0.656300791436
444040000 -0.131042844812 -0.656142854361
444050000 -0.132134251615 -0.657576699683
444060000 -0.131960985522 -0.656967871505
444070000 -0.133129594826 -0.656428102369
444080000 -0.133811244753 -0.656622673636
444090000 -0.133175328695 -0.657403255864
444100000 -0.132581141847 -0.65530544387
444110000 -0.134281766606 -0.65567648648
444120000 -0.135062834303 -0.656082605819
444130000 -0.134336852905 -0.655636992779
444140000 -0.134643958016 -0.658285075299
444150000 -0.132668233199 -0.653886923902
444160000 -0.125229544032 -0.655337587967
444170000 -0.129889257417 -0.655476292323
444180000 -0.133355838498 -0.657153954857
444190000 -0.137523849032 -0.65478489394
444200000 -0.138796355671 -0.654793770747
444210000 -0.137496639861 -0.653640524508
444220000 -0.139100364112 -0.653985959659
444230000 -0.138049609276 -0.655193994276
444240000 -0.139735192682 -0.656645857395
444250000 -0.140404829615 -0.654331369843
444260000 -0.140662061729 -0.654119654431
444270000 -0.140500003867 -0.656212665435
444280000 -0.140161966091 -0.654435755273
444290000 -0.141088140332 -0.653557488025
444300000 -0.142118676592 -0.654163263452
444310000 -0.141930069558 -0.652767671313
444320000 -0.142698161594 -0.653711299251
444330000 -0.142999406675 -0.652503408745
444340000 -0.143406551719 -0.652756967038
444350000 -0.144152707052 -0.652687108083
444360000 -0.144246879222 -0.65299872592
444370000 -0.143674612866 -0.652704636846
444380000 -0.144661952046 -0.652094294753
444390000 -0.143321515484 -0.652433567537
444400000 -0.145548386308 -0.651921461202
444410000 -0.145857042841 -0.652710547367
444420000 -0.147029511869 -0.652732813958
444430000 -0.147086808143 -0.6527986478
444440000 -0.147811021646 -0.652145657285
444450000 -0.147901449872 -0.652539275901
444460000 -0.148027070816 -0.651973272934
444470000 -0.149226856219 -0.651821203954
444480000 -0.149086817758 -0.650406123247
444490000 -0.149736959952 -0.650617033749
444500000 -0.149945336126 -0.650528001104
444510000 -0.150070903026 -0.651039463532
444520000 -0.151169689695 -0.651085780916
444530000 -0.15078970062 -0.650830514234
444540000 -0.151666350456 -0.650543812374
444550000 -0.152347602011 -0.649892385168
444560000 -0.152470911727 -0.651299627003
444570000 -0.154960857812 -0.650549706113
444580000 -0.153473766046 -0.649786623418
444590000 -0.153065664402 -0.649786835972
444600000 -0.1532209349 -0.649666659759
444610000 -0.153581622629 -0.649207881046
444620000 -0.154293395103 -0.649374431633
444630000 -0.155713284773 -0.648686914487
444640000 -0.155991143577 -0.649210364047
444650000 -0.15603384536 -0.649072569331
444660000 -0.155502567404 -0.648696553395
444670000 -0.156534541714 -0.647852055516
444680000 -0.156884407116 -0.64837090908
444690000 -0.155345841333 -0.64842508405
444700000 -0.157200254878 -0.648051982548
444710000 -0.157500523683 -0.647694209894
444720000 -0.158208432896 -0.647641369508
444730000 -0.15789355756 -0.647070187943
444740000 -0.158585644427 -0.64731121831
444750000 -0.160469405051 -0.647830431823
444760000 -0.159485305497 -0.64673133454
444770000 -0.159796676299 -0.647375896485
444780000 -0.160809762998 -0.647595833129
444790000 -0.161205752965 -0.646379819126
444800000 -0.161313384223 -0.645830535838
444810000 -0.162423612331 -0.646524205802
444820000 -0.1633231253 -0.646433935138
444830000 -0.162390715427 -0.645999119651
444840000 -0.164524320738 -0.645761971366
444850000 -0.163663353994 -0.645831224399
444860000 -0.163724581165 -0.645216749281
444870000 -0.16464912554 -0.646566611179
444880000 -0.164213158794 -0.646420573649
444890000 -0.165219249952 -0.644799670125
444900000 -0.165627371499 -0.643920079205
444910000 -0.166543869532 -0.642598886555
444920000 -0.166067402219 -0.641137711173
444930000 -0.166655639552 -0.641820131308
444940000 -0.163792630298 -0.647197350211
444950000 -0.167743769883 -0.64503011103
444960000 -0.167420814273 -0.645732561852
444970000 -0.167576639986 -0.642927187918
444980000 -0.168694300891 -0.642669665916
444990000 -0.16861766652 -0.642433501645
445000000 -0.168457289327 -0.642902738626
445010000 -0.169828407589 -0.642268698913
445020000 -0.170308182324 -0.641902036343
445030000 -0.169995241257 -0.642188857348
445040000 -0.169993702565 -0.641293281671
445050000 -0.17006697366 -0.642663601721
445060000 -0.168441488495 -0.642316261264
445070000 -0.17401524754 -0.644134021676
445080000 -0.171380002248 -0.641602192416
445090000 -0.172108609168 -0.641791794436
445100000 -0.173386554332 -0.639398129512
445110000 -0.17375939176 -0.640688939194
445120000 -0.173640614221 -0.640811636308
445130000 -0.174162480592 -0.640074722054
445140000 -0.174959035662 -0.639975772906
445150000 -0.175754594219 -0.640271472069
445160000 -0.175650376897 -0.639521733915
445170000 -0.175356339808 -0.63887858862
445180000 -0.175701368166 -0.639476720345
445190000 -0.175900049266 -0.639867195088
445200000 -0.176300047618 -0.640395850818
445210000 -0.17681637208 -0.639313498831
445220000 -0.176657211213 -0.639963541635
445230000 -0.176922340867 -0.639761120019
445240000 -0.177451411068 -0.639417247907
445250000 -0.178014970518 -0.638983730561
445260000 -0.178306593758 -0.638861012856
445270000 -0.17887800623 -0.638924047743
445280000 -0.178620829956 -0.637962961134
445290000 -0.179938170421 -0.637342420458
445300000 -0.180160388784 -0.637255321236
445310000 -0.180489605369 -0.636716684718
445320000 -0.18112067495 -0.63658957752
445330000 -0.182036472482 -0.636548641076
445340000 -0.181987703062 -0.636548999289
445350000 -0.182568183662 -0.637157382981
445360000 -0.182715144568 -0.635890445525
445370000 -0.183029113759 -0.636371392151
445380000 -0.183751884137 -0.63575580331
445390000 -0.183636805931 -0.635827885976
445400000 -0.183531389555 -0.635405516871
445410000 -0.184882549821 -0.634562091402
445420000 -0.184407008968 -0.634717617268
445430000 -0.185539401188 -0.634694269953
445440000 -0.185187228538 -0.634923609253
445450000 -0.185652282194 -0.634096827862
445460000 -0.186992401442 -0.635067699175
445470000 -0.186700014028 -0.633371945087
445480000 -0.18650310135 -0.633170371064
445490000 -0.187025884182 -0.633852558691
445500000 -0.187599742672 -0.633432755439
445510000 -0.189866028613 -0.634813798127
445520000 -0.187833358349 -0.633439513036
445530000 -0.18825508748 -0.63339952355
445540000 -0.188918707465 -0.633452583998
445550000 -0.189257624973 -0.63260393139
445560000 -0.189465032283 -0.631635408529
445570000 -0.189981580303 -0.631356783662
445580000 -0.190216772902 -0.631251300101
445590000 -0.19091157532 -0.631658237319
445600000 -0.190797010276 -0.63102649223
445610000 -0.191451827574 -0.630473826321
445620000 -0.192692800488 -0.630733845993
445630000 -0.190491079052 -0.631760163762
445640000 -0.191775849484 -0.629954721838
445650000 -0.192581757187 -0.630293102647
445660000 -0.192894836553 -0.629683491692
445670000 -0.193771476556 -0.629417062243
445680000 -0.193109957915 -0.628961222384
445690000 -0.194299546651 -0.629217913483
445700000 -0.195926220295 -0.631788110283
445710000 -0.195253649367 -0.629411032773
445720000 -0.193228969176 -0.629344098704
445730000 -0.195520587108 -0.627948476448
445740000 -0.195707385413 -0.627768986284
445750000 -0.195312695425 -0.626528273313
445760000 -0.196456198366 -0.628651395438
445770000 -0.201061737617 -0.626209608054
445780000 -0.195973407802 -0.628098725733
445790000 -0.197094925385 -0.625542269496
445800000 -0.197550362985 -0.627973857811
445810000 -0.197970532295 -0.627018284432
445820000 -0.198409553052 -0.626027514377
445830000 -0.199345389862 -0.625449989495
445840000 -0.199808442753 -0.624806085766
445850000 -0.199792070344 -0.625313143408
445860000 -0.201617173929 -0.625916456299
445870000 -0.200717716608 -0.625292905876
445880000 -0.199510455441 -0.622920991131
445890000 -0.201627350816 -0.626820786943
445900000 -0.203902630731 -0.625969404692
445910000 -0.200862763278 -0.623907525116
445920000 -0.202323315092 -0.624172722574
445930000 -0.20244149842 -0.623529442327
445940000 -0.202495237092 -0.623287155968
445950000 -0.202763824696 -0.623614671432
445960000 -0.203351012556 -0.623281290796
445970000 -0.203395990007 -0.622461219682
445980000 -0.203387000614 -0.622054751593
445990000 -0.204077403345 -0.621900371925
446000000 -0.203666788485 -0.621511505519
446010000 -0.204742289948 -0.622029385079
446020000 -0.205097157509 -0.621410324072
446030000 -0.204927724788 -0.621457777329
446040000 -0.203845073285 -0.621221918018
446050000 -0.206051256324 -0.620670799191
446060000 -0.207068305482 -0.620756643827
446070000 -0.207344824715 -0.620626085421
446080000 -0.207369023128 -0.620562968668
446090000 -0.207232601625 -0.620117741554
446100000 -0.207817708568 -0.619816363878
446110000 -0.208035245846 -0.619562241223
446120000 -0.209025801602 -0.619001332872
446130000 -0.208871761607 -0.619325300356
446140000 -0.209475407554 -0.619373797513
446150000 -0.209700450423 -0.619065799358
446160000 -0.209348018772 -0.618577496618
446170000 -0.210296781242 -0.617999768517
446180000 -0.210763426573 -0.618171514567
446190000 -0.210730475999 -0.617087619497
446200000 -0.210433170954 -0.616776668965
446210000 -0.210657442741 -0.61711433192
446220000 -0.210465256915 -0.616708552321
446230000 -0.211726361379 -0.616191405361
446240000 -0.212291027233 -0.616002665249
446250000 -0.212527973658 -0.616447137773
446260000 -0.213030056039 -0.615936057493
446270000 -0.213378189212 -0.61565464644
446280000 -0.213326714661 -0.615110670958
446290000 -0.213777312862 -0.614275171701
446300000 -0.213500920507 -0.614326747076
446310000 -0.213319138637 -0.613283134963
446320000 -0.214291745476 -0.613530338026
446330000 -0.213869135254 -0.613151959326
446340000 -0.215774100691 -0.613374154892
446350000 -0.216797242216 -0.613420407731
446360000 -0.217020031833 -0.6131852061
446370000 -0.216967044211 -0.612802273911
446380000 -0.217650378706 -0.612206939983
446390000 -0.217364484597 -0.612437915415
446400000 -0.218774548036 -0.611765152681
446410000 -0.218268751759 -0.611392507039
446420000 -0.218998484424 -0.610750799943
446430000 -0.218479989056 -0.611306979609
446440000 -0.218941788278 -0.610130161932
446450000 -0.218474334337 -0.610409925661
446460000 -0.219842763776 -0.61059133406
446470000 -0.21941146757 -0.610428624391
446480000 -0.219941922214 -0.610242471424
446490000 -0.220468925068 -0.609172160083
446500000 -0.220570432023 -0.609221623837
446510000 -0.220985810744 -0.60959072865
446520000 -0.220925074305 -0.609034023421
446530000 -0.220954501161 -0.607960170325
446540000 -0.221499421112 -0.608988759
446550000 -0.221923132366 -0.608603693014
446560000 -0.222029999654 -0.607960138544
446570000 -0.222370078829 -0.607887880038
446580000 -0.223764070798 -0.607461221762
446590000 -0.221445596265 -0.606698089114
446600000 -0.222270282628 -0.606428029458
446610000 -0.226095234457 -0.605085952173
446620000 -0.22436754451 -0.605862489653
446630000 -0.224499536004 -0.606019801807
446640000 -0.223726276259 -0.606400217778
446650000 -0.224768608773 -0.604810931888
446660000 -0.224483348881 -0.60507890911
446670000 -0.225201622268 -0.604269020016
446680000 -0.224715882537 -0.606505631408
446690000 -0.226161344322 -0.605310510111
446700000 -0.226563041917 -0.60465173899
446710000 -0.226185577783 -0.603499648082
446720000 -0.224902126203 -0.604731484415
446730000 -0.228998147318 -0.604201841502
446740000 -0.22795646018 -0.602580046937
446750000 -0.227672630183 -0.601285808935
446760000 -0.228465706374 -0.60230746867
446770000 -0.229335995302 -0.601367978691
446780000 -0.228694496928 -0.601596932095
446790000 -0.229987644471 -0.600789748996
446800000 -0.229685343189 -0.60048701697
446810000 -0.229473772411 -0.600716763097
446820000 -0.230636559552 -0.600332485018
446830000 -0.230926365784 -0.599311294623
446840000 -0.230950005243 -0.599816199327
446850000 -0.231090293731 -0.59922856939
446860000 -0.23283503373 -0.600912733816
446870000 -0.231782778082 -0.600591677079
446880000 -0.231764265893 -0.599414812126
446890000 -0.231737144856 -0.59871979752
446900000 -0.23192484375 -0.597278342198
446910000 -0.231875282645 -0.598105469284
446920000 -0.232281053861 -0.596902395582
446930000 -0.232497988015 -0.597243527462
446940000 -0.233013108174 -0.596809356419
446950000 -0.233633696321 -0.596424371964
446960000 -0.234307721827 -0.596416103249
446970000 -0.234598555812 -0.595944709248
446980000 -0.234553149855 -0.594839170769
446990000 -0.234762626362 -0.594646578218
447000000 -0.234551748356 -0.594758711418
447010000 -0.235591700251 -0.594222593874
447020000 -0.235892304419 -0.594293580119
447030000 -0.23551299875 -0.594572172317
447040000 -0.235342131058 -0.594303235708
447050000 -0.235617331739 -0.592660869655
447060000 -0.236765788295 -0.592202333232
447070000 -0.236140285137 -0.59242723524
447080000 -0.237323580237 -0.591664078357
447090000 -0.237724386584 -0.590800600465
447100000 -0.237223754062 -0.59018177254
447110000 -0.238534696011 -0.591243322015
447120000 -0.238383163473 -0.591021515187
447130000 -0.23809518355 -0.590311706835
447140000 -0.238635043414 -0.590441587188
447150000 -0.238556291126 -0.590682341252
447160000 -0.239577042294 -0.590259839729
447170000 -0.240489632362 -0.590389671077
447180000 -0.240210817385 -0.589279316501
447190000 -0.239876429412 -0.589309931159
447200000 -0.241290687423 -0.588727361607
447210000 -0.240842809789 -0.589617188256
447220000 -0.241432711354 -0.588250643622
447230000 -0.243323535411 -0.588193829782
447240000 -0.242990316788 -0.587461626556
447250000 -0.241835545657 -0.586637624869
447260000 -0.242604147188 -0.585310773519
447270000 -0.241267701794 -0.58751580093
447280000 -0.242900990202 -0.586514985151
447290000 -0.242858198651 -0.585852554725
447300000 -0.244197319237 -0.585119939924
447310000 -0.243921169735 -0.586872239331
447320000 -0.24581908765 -0.583128579278
447330000 -0.244014935334 -0.585114296673
447340000 -0.244543378506 -0.58403476729
447350000 -0.243959934666 -0.586225996776
447360000 -0.241634272708 -0.585127278896
447370000 -0.244226808325 -0.585751386083
447380000 -0.244970809351 -0.584835826285
447390000 -0.246623312258 -0.585821559106
447400000 -0.245027999224 -0.582389790545
447410000 -0.246427133855 -0.586769050932
447420000 -0.24264414248 -0.583694065546
447430000 -0.244017373946 -0.580812375225
447440000 -0.252038698724 -0.583455715018
447450000 -0.24974510709 -0.582405552859
447460000 -0.239532576207 -0.57267732965
447470000 -0.250020268553 -0.578513556435
447480000 -0.250276760157 -0.577880741338
447490000 -0.242724193919 -0.584120920742
447500000 -0.250100032332 -0.578591695678
447510000 -0.249300354365 -0.57974395362
447520000 -0.247085669738 -0.575569181777
447530000 -0.25037206418 -0.581015323218
447540000 -0.249321583727 -0.579088483536
447550000 -0.245432271559 -0.579255144419
447560000 -0.24836931277 -0.580011943191
447570000 -0.252891457847 -0.577048080753
447580000 -0.253050667137 -0.577163752885
447590000 -0.249899671209 -0.575944050988
447600000 -0.248503881298 -0.578123703392
447610000 -0.254079515901 -0.573613390306
447620000 -0.247622350897 -0.573860960838
447630000 -0.250922982525 -0.574631395821
447640000 -0.252714726401 -0.575087118291
447650000 -0.254492985539 -0.573459826359
447660000 -0.251359639135 -0.574615383375
447670000 -0.251205223571 -0.5746320057
447680000 -0.251455037531 -0.574674504168
447690000 -0.251191353407 -0.575547660334
447700000 -0.254421008675 -0.575010120455
447710000 -0.25426079114 -0.573958823677
447720000 -0.253867159365 -0.57060206204
447730000 -0.2547267028 -0.572600734758
447740000 -0.251986928058 -0.573164814985
447750000 -0.250796245314 -0.57482867312
447760000 -0.254845348568 -0.573836726643
447770000 -0.253494769085 -0.571377394854
447780000 -0.253172957712 -0.571087230278
447790000 -0.255512661603 -0.571144619752
447800000 -0.25530426008 -0.569673372153
447810000 -0.255465601041 -0.569996029811
447820000 -0.255689844262 -0.569622494202
447830000 -0.255632974581 -0.569256920054
447840000 -0.256379715933 -0.568310945308
447850000 -0.257551277466 -0.567733163565
447860000 -0.256910076479 -0.567149307423
447870000 -0.256919589569 -0.566586020149
447880000 -0.256933471729 -0.566621865389
447890000 -0.256710594501 -0.566397944339
447900000 -0.256642949761 -0.566604426474
447910000 -0.257114793396 -0.566279801447
447920000 -0.257728092085 -0.565766337352
447930000 -0.258151558961 -0.565684781402
447940000 -0.257892542242 -0.566039933708
447950000 -0.257927725061 -0.566515771796
447960000 -0.257604986873 -0.565541052395
447970000 -0.258598445789 -0.565222258753
447980000 -0.258760688611 -0.565158834678
447990000 -0.259618907847 -0.565168238738
448000000 -0.259699300434 -0.563107461776
448010000 -0.260041182854 -0.562787692436
448020000 -0.259610709373 -0.561657569091
448030000 -0.260053032853 -0.561976197892
448040000 -0.260386050895 -0.561280854037
448050000 -0.260474339968 -0.561456407085
448060000 -0.26114356117 -0.561131178105
448070000 -0.260792267413 -0.561412793793
448080000 -0.260966415388 -0.560263061528
448090000 -0.261755634628 -0.560709421414
448100000 -0.261368107639 -0.560183338614
448110000 -0.262538851378 -0.558285541956
448120000 -0.262461864443 -0.558577080008
448130000 -0.261127724409 -0.558436519851
448140000 -0.262283454033 -0.558331098726
448150000 -0.261419891322 -0.55784061845
448160000 -0.263066198372 -0.557673909849
448170000 -0.262841782195 -0.557438165509
448180000 -0.262728001876 -0.556467994803
448190000 -0.262153143827 -0.556412150302
448200000 -0.262902293402 -0.556821252446
448210000 -0.26268300988 -0.556312342401
448220000 -0.26296264561 -0.554959192124
448230000 -0.2635654069 -0.55493745787
448240000 -0.262969841617 -0.554572408834
448250000 -0.264028736518 -0.554563072927
448260000 -0.264977186301 -0.553188956169
448270000 -0.264471060774 -0.553558090303
448280000 -0.265384344089 -0.553040480195
448290000 -0.265815739757 -0.552760596342
448300000 -0.265785876169 -0.553307061901
448310000 -0.264831201412 -0.551644387419
448320000 -0.266891672783 -0.551953172481
448330000 -0.266504094442 -0.55176915988
448340000 -0.267037032134 -0.551334596484
448350000 -0.266850522176 -0.550820271101
448360000 -0.267103326018 -0.550939397416
448370000 -0.267564455864 -0.550499318112
448380000 -0.265940107223 -0.550413277395
448390000 -0.268412821936 -0.551173670457
448400000 -0.26771403978 -0.549080757183
448410000 -0.266744662637 -0.547949702077
448420000 -0.268437537384 -0.548597274521
448430000 -0.268542279096 -0.547830046274
448440000 -0.268176524151 -0.547354282121
448450000 -0.268371572018 -0.546902125929
448460000 -0.269330256444 -0.54688905958
448470000 -0.269535997748 -0.546911796621
448480000 -0.269852468884 -0.546521211185
448490000 -0.268235842327 -0.545438025788
448500000 -0.262608650224 -0.539724476598
448510000 -0.268011844238 -0.545551259052
448520000 -0.269837610614 -0.544918563113
448530000 -0.270114024471 -0.544474501016
448540000 -0.269855432618 -0.543922990848
448550000 -0.2694481117 -0.543673786586
448560000 -0.269670331802 -0.543725819885
448570000 -0.269856536557 -0.543097055392
448580000 -0.270247061822 -0.542943288093
448590000 -0.270692534123 -0.543238748409
448600000 -0.2707482992 -0.542344101994
448610000 -0.270591314272 -0.541905303712
448620000 -0.270887309786 -0.541434718978
448630000 -0.27091664892 -0.542251520703
448640000 -0.270893243772 -0.540549583817
448650000 -0.270959620627 -0.540683134493
448660000 -0.271169863816 -0.540238019755
448670000 -0.272265259846 -0.540080101655
448680000 -0.272591871553 -0.539645118484
448690000 -0.272506967151 -0.539701046324
448700000 -0.272540121661 -0.539024801598
448710000 -0.272036219421 -0.538717148344
448720000 -0.272222025028 -0.537708976765
448730000 -0.272095202335 -0.537515882507
448740000 -0.272371245119 -0.537049066884
448750000 -0.272633246498 -0.536418590629
448760000 -0.273036206536 -0.536533368212
448770000 -0.273665474519 -0.5363811458
448780000 -0.27337666993 -0.535859924783
448790000 -0.274046774508 -0.535934021715
448800000 -0.274005513709 -0.534887566989
448810000 -0.274098928888 -0.534877359923
448820000 -0.274636605524 -0.533917080192
448830000 -0.274498452058 -0.53433325378
448840000 -0.274298773964 -0.534124389619
448850000 -0.2738769803 -0.533025601786
448860000 -0.274430471095 -0.532498075323
448870000 -0.27450959158 -0.533410631074
448880000 -0.275333028122 -0.532436735183
448890000 -0.274756765575 -0.532015204293
448900000 -0.275333135196 -0.531135332622
448910000 -0.27547199599 -0.530207577853
448920000 -0.275846062817 -0.531686241618
448930000 -0.275675055462 -0.531069191657
448940000 -0.275610891868 -0.530715066254
448950000 -0.276375126406 -0.529768398338
448960000 -0.276957369148 -0.529039227263
448970000 -0.276364142448 -0.528798488856
448980000 -0.276064873135 -0.528961324232
448990000 -0.275354242148 -0.527666965981
449000000 -0.276039935511 -0.527826883805
449010000 -0.276778592914 -0.526851976868
449020000 -0.277417381758 -0.527023695139
449030000 -0.277217010458 -0.526588568933
449040000 -0.277805542296 -0.526226212747
449050000 -0.277875650764 -0.526563773171
449060000 -0.277380975142 -0.525426997674
449070000 -0.277780108889 -0.524595064303
449080000 -0.277831876864 -0.524492209686
449090000 -0.278919407257 -0.524009175433
449100000 -0.278538188567 -0.524150942174
449110000 -0.27841855675 -0.523540698923
449120000 -0.278812573472 -0.523437841531
449130000 -0.278863673984 -0.523335972417
449140000 -0.279096985292 -0.522635090447
449150000 -0.278503719144 -0.522028137002
449160000 -0.279210565233 -0.52214561204
449170000 -0.27891835594 -0.521400482045
449180000 -0.27932243522 -0.521610829107
449190000 -0.27992637412 -0.521141332286
449200000 -0.279227912104 -0.520488619309
449210000 -0.279062666097 -0.520576070808
449220000 -0.280637076944 -0.519583422527
449230000 -0.280740123714 -0.519146125239
449240000 -0.279492649256 -0.51923104962
449250000 -0.279606395413 -0.518861404678
449260000 -0.279436022706 -0.518680609353
449270000 -0.280253353905 -0.51761350707
449280000 -0.280423535229 -0.517991787897
449290000 -0.281212311228 -0.517512054335
449300000 -0.280731284783 -0.517386044666
449310000 -0.280615654459 -0.517253938385
449320000 -0.280526640509 -0.516533091813
449330000 -0.280853680002 -0.515378933493
449340000 -0.280560226677 -0.515209646726
449350000 -0.280856883975 -0.514921347649
449360000 -0.281270144669 -0.514813109359
449370000 -0.281289110668 -0.514175329972
449380000 -0.281430003497 -0.513663146432
449390000 -0.281729464772 -0.51280786993
449400000 -0.282216074305 -0.513043346816
449410000 -0.281310223561 -0.512465695507
449420000 -0.282494655606 -0.51196154251
449430000 -0.282110796402 -0.511872190575
449440000 -0.282585975042 -0.511359094872
449450000 -0.282569055351 -0.510922894158
449460000 -0.282964104483 -0.510702678184
449470000 -0.282406597802 -0.510039127745
449480000 -0.282366108271 -0.509780687705
449490000 -0.282966782778 -0.509858039683
449500000 -0.282752204155 -0.509766410728
449510000 -0.281771402324 -0.509263761304
449520000 -0.28105160587 -0.508911514748
449530000 -0.282915366615 -0.508444158244
449540000 -0.283213622862 -0.507088239177
449550000 -0.283275518269 -0.505726220021
449560000 -0.282515336898 -0.504013151248
449570000 -0.282099861763 -0.503158228105
449580000 -0.282718472319 -0.504009326447
449590000 -0.283444033816 -0.504760219717
449600000 -0.283440292226 -0.505892087193
449610000 -0.283050870165 -0.505238124996
449620000 -0.283757754775 -0.505102502371
449630000 -0.283091178508 -0.504484251258
449640000 -0.283836474009 -0.503391449539
449650000 -0.284094578559 -0.502954116191
449660000 -0.283911942695 -0.503687262317
449670000 -0.283787780029 -0.503564028358
449680000 -0.284088752163 -0.50303320315
449690000 -0.284209688804 -0.503182191873
449700000 -0.285171532688 -0.501292336048
449710000 -0.284894515042 -0.501616287904
449720000 -0.284976448536 -0.50085321477
449730000 -0.285227763005 -0.50122284522
449740000 -0.28368168758 -0.500585226575
449750000 -0.283049553212 -0.50126470524
449760000 -0.284994659057 -0.49932126314
449770000 -0.285258670764 -0.498125598796
449780000 -0.284905746026 -0.499471501814
449790000 -0.285535812295 -0.49755988373
449800000 -0.2853236024 -0.499355038427
449810000 -0.285172585737 -0.498227820786
449820000 -0.286113870731 -0.497681179502
449830000 -0.286475013827 -0.497145761312
449840000 -0.285741414762 -0.496791855507
449850000 -0.285749886737 -0.497091132291
449860000 -0.285974558044 -0.496100812815
449870000 -0.285139186417 -0.496060097249
449880000 -0.285837150002 -0.495402841438
449890000 -0.285921106769 -0.495021208563
449900000 -0.286222710131 -0.494966351283
449910000 -0.286395076142 -0.494732240228
449920000 -0.286571341182 -0.493874556534
449930000 -0.286704519902 -0.493439001992
449940000 -0.285855015422 -0.491203346939
449950000 -0.287303661074 -0.49190891096
449960000 -0.287079686181 -0.492567385054
449970000 -0.28660486665 -0.491680360546
449980000 -0.285857083139 -0.491505147349
449990000 -0.286197452581 -0.49099107001
450000000 -0.284672891251 -0.491005019895
