! Calibrated high-resolution NanoVNA antenna measurement
# Hz S RI R 50
5500000 0.285610882703 0.632522411261
5501500 0.286016196938 0.631608870431
5503000 0.286524867476 0.630655121309
5504500 0.2869240684 0.629891901351
5506000 0.287484662554 0.62912626054
5507500 0.287905415161 0.628300046872
5509000 0.288475626842 0.627490214804
5510500 0.288834725567 0.626508968647
5512000 0.289267135885 0.62573123625
5513500 0.28974505149 0.624900829367
5515000 0.2901467016 0.624145188277
5516500 0.290568860308 0.623233621997
5518000 0.291062820042 0.622369343291
5519500 0.291514399849 0.621529157613
5521000 0.291946569312 0.620707886761
5522500 0.29250822686 0.619925929663
5524000 0.292842098205 0.618958384159
5525500 0.293245700669 0.617978046406
5527000 0.293690832748 0.617263643208
5528500 0.294083901107 0.616476550726
5530000 0.294542378444 0.615662354235
5531500 0.294978987071 0.614682579139
5533000 0.295335512775 0.613767866882
5534500 0.295865068317 0.612966349638
5536000 0.296263679859 0.612031522886
5537500 0.296756155307 0.611179072645
5539000 0.297142224364 0.610283215102
5540500 0.297433464992 0.609455531766
5542000 0.297907034109 0.608603410158
5543500 0.29834651831 0.607713691705
5545000 0.298664625661 0.606839095355
5546500 0.299096463888 0.605855903377
5548000 0.299526889596 0.605081829394
5549500 0.299860705359 0.60409530393
5551000 0.300425232363 0.603206924507
5552500 0.30074811196 0.602301544199
5554000 0.301069168422 0.60143324185
5555500 0.301559021694 0.600601521584
5557000 0.301861898947 0.599803155129
5558500 0.302311798292 0.598790998004
5560000 0.302642415054 0.597939353634
5561500 0.303012792203 0.59696728628
5563000 0.303455620668 0.596138630398
5564500 0.303805515705 0.59514282788
5566000 0.304236921189 0.594256165318
5567500 0.304608113191 0.593279531269
5569000 0.30487475551 0.592516169382
5570500 0.305292355002 0.591616006418
5572000 0.305674825314 0.590715944759
5573500 0.30603873716 0.589773154617
5575000 0.306348404033 0.588838217948
5576500 0.306703717542 0.587910174057
5578000 0.307091276493 0.586996496741
5579500 0.307588910011 0.586007730369
5581000 0.307765478348 0.585026790901
5582500 0.308125652019 0.584195714718
5584000 0.308508259702 0.58331339219
5585500 0.308836847275 0.582353523315
5587000 0.309223111183 0.581454562081
5588500 0.309486117596 0.580559246978
5590000 0.309804410994 0.579552404005
5591500 0.310173908778 0.578642250419
5593000 0.310533912359 0.577671159756
5594500 0.310852133186 0.576594906605
5596000 0.311225094524 0.575726745131
5597500 0.311457084198 0.574870546352
5599000 0.311846382758 0.573923022251
5600500 0.312149786288 0.572981946418
5602000 0.312497602519 0.572026093956
5603500 0.312705254262 0.571102504414
5605000 0.313051042246 0.57015783286
5606500 0.313439722806 0.569226640498
5608000 0.313777351096 0.5681000971
5609500 0.313987636168 0.567116246159
5611000 0.314287926457 0.566253851218
5612500 0.314537177606 0.565375603155
5614000 0.314941822513 0.564471809373
5615500 0.315145421276 0.563453872128
5617000 0.315508711066 0.562501019922
5618500 0.315738714563 0.561555875877
5620000 0.316096342205 0.560606181907
5621500 0.316353414055 0.559548651128
5623000 0.316653026786 0.558541887527
5624500 0.316911068169 0.557560564454
5626000 0.317130531909 0.556699235589
5627500 0.317480888647 0.555748266135
5629000 0.317738278082 0.554894584261
5630500 0.317977420247 0.553797583205
5632000 0.31822515509 0.552809058914
5633500 0.318501948429 0.55183939062
5635000 0.318797658705 0.550920893971
5636500 0.319154577459 0.54973528067
5638000 0.319287797904 0.548767364876
5639500 0.319495357248 0.547823198555
5641000 0.319810583552 0.546949740004
5642500 0.320058266805 0.54598688487
5644000 0.320406014845 0.544981470611
5645500 0.320527008459 0.543924695024
5647000 0.3207248926 0.542968227746
5648500 0.321020418329 0.541983101358
5650000 0.321263489454 0.540905291843
5651500 0.321470568263 0.539989631419
5653000 0.321699823872 0.538859833736
5654500 0.321918639275 0.537904695824
5656000 0.322165286537 0.536837866879
5657500 0.322417142998 0.535979973406
5659000 0.322668394459 0.535032152999
5660500 0.32284854205 0.533952048943
5662000 0.322928439023 0.532999003323
5663500 0.323206873998 0.531976251066
5665000 0.323436198551 0.530985978787
5666500 0.323580174713 0.529874811964
5668000 0.323912234027 0.528755090428
5669500 0.323973131512 0.527778644101
5671000 0.324201102875 0.526846915757
5672500 0.32444884048 0.525770916628
5674000 0.324619342356 0.524789654505
5675500 0.324768879081 0.523875581962
5677000 0.324968114405 0.522870341225
5678500 0.3252172873 0.521909645465
5680000 0.325396585683 0.520760576833
5681500 0.325500006281 0.519592056957
5683000 0.325651209406 0.518635227962
5684500 0.325826146337 0.517511457362
5686000 0.326067718249 0.516646836503
5687500 0.326218508155 0.515654535172
5689000 0.326282103971 0.514588146987
5690500 0.326448061443 0.513520023175
5692000 0.326597622191 0.51248389536
5693500 0.326815987627 0.511470415616
5695000 0.326982059005 0.510365072579
5696500 0.327000547354 0.509229365098
5698000 0.327088649136 0.50815517666
5699500 0.327301297 0.507224548291
5701000 0.327452462787 0.506096591778
5702500 0.327698757515 0.505160344708
5704000 0.327711758151 0.504137089686
5705500 0.327815846163 0.50309561402
5707000 0.327989601195 0.502113700104
5708500 0.328144970344 0.500903250366
5710000 0.3281678417 0.49976229568
5711500 0.328192304579 0.498772205207
5713000 0.328377928081 0.497655324171
5714500 0.328569131845 0.496675743265
5716000 0.328650879808 0.495639006536
5717500 0.328660359109 0.494571870847
5719000 0.328760514514 0.493576549674
5720500 0.328867642259 0.492500707676
5722000 0.329009038078 0.491418677132
5723500 0.329103737786 0.490243454731
5725000 0.32907122343 0.489163410093
5726500 0.329127924326 0.488070934771
5728000 0.329197763155 0.487043834027
5729500 0.329313519596 0.485906725753
5731000 0.329447133719 0.484920374143
5732500 0.32947076016 0.483906922154
5734000 0.3295133246 0.482784390021
5735500 0.329629079116 0.481811336891
5737000 0.329664956492 0.480599043116
5738500 0.329589767678 0.479409331064
5740000 0.329636845059 0.478329369198
5741500 0.329655034369 0.477207666863
5743000 0.329794333015 0.476219952404
5744500 0.329818379297 0.475050952641
5746000 0.329791682147 0.474093551144
5747500 0.329865489069 0.473028227408
5749000 0.329896762523 0.471943674709
5750500 0.329954478662 0.470824501283
5752000 0.329937044958 0.469653033043
5753500 0.32978309774 0.468521399748
5755000 0.329748396403 0.467377179594
5756500 0.329822503165 0.466325035134
5758000 0.329821164547 0.465170570032
5759500 0.329870555471 0.464143442283
5761000 0.329867418466 0.463112618963
5762500 0.329798208167 0.462009342515
5764000 0.329834993978 0.460963476372
5765500 0.32978373842 0.459703467346
5767000 0.329634020393 0.458518074145
5768500 0.329658636818 0.457491779405
5770000 0.329550217682 0.456289673396
5771500 0.329644508816 0.455279573651
5773000 0.329558027138 0.454117468694
5774500 0.32953156344 0.453130933643
5776000 0.329433845207 0.452003472165
5777500 0.329368544691 0.4509147236
5779000 0.329377057903 0.449776382771
5780500 0.32925971822 0.448599362221
5782000 0.329107538177 0.447443818916
5783500 0.328958507061 0.446273538687
5785000 0.328863539351 0.445225754766
5786500 0.328871715934 0.444004118211
5788000 0.328904453532 0.44304721107
5789500 0.328732787038 0.44197229113
5791000 0.328585999706 0.440879249026
5792500 0.328574991211 0.439746645448
5794000 0.328386993626 0.438482217896
5795500 0.328183735683 0.437303236111
5797000 0.328104241473 0.436226403387
5798500 0.32789832888 0.435036382672
5800000 0.327912140527 0.43396650672
5801500 0.327733038685 0.432856570005
5803000 0.327529746517 0.431605648894
5804500 0.327377945248 0.430564674321
5806000 0.327372977134 0.429597640562
5807500 0.327159840129 0.428381280819
5809000 0.327113345126 0.427326478611
5810500 0.326877166734 0.426155812166
5812000 0.326635072997 0.425071608817
5813500 0.326492283686 0.423868720538
5815000 0.326187547042 0.422607286573
5816500 0.326124118393 0.421544903095
5818000 0.325806954946 0.420358937567
5819500 0.32565285029 0.419350518478
5821000 0.325537961804 0.418250786762
5822500 0.325355900216 0.417050962358
5824000 0.325211494782 0.415941158377
5825500 0.325047744024 0.414427549121
5827000 0.324809205707 0.413784073077
5828500 0.324295673147 0.412398335496
5830000 0.324221354359 0.411376323922
5831500 0.323918927039 0.410146178136
5833000 0.323635227206 0.409092196467
5834500 0.323645449037 0.408070230198
5836000 0.323264896723 0.406871157593
5837500 0.323155318183 0.405810873721
5839000 0.322816886193 0.404623131849
5840500 0.322526213817 0.403566608648
5842000 0.32226251496 0.40237772061
5843500 0.321841581529 0.401136459688
5845000 0.321702712879 0.400098073334
5846500 0.321330088556 0.398901205247
5848000 0.321113013934 0.397910763945
5849500 0.321491725209 0.396630337319
5851000 0.320469865813 0.395659006357
5852500 0.320484316206 0.394436376845
5854000 0.31994526663 0.393363691164
5855500 0.319764916525 0.392226141053
5857000 0.319179398808 0.39101532422
5858500 0.318943616812 0.389990251954
5860000 0.318539866198 0.388699535948
5861500 0.31818943735 0.387706895362
5863000 0.318029603875 0.386597570339
5864500 0.317568174246 0.385463181973
5866000 0.317447944057 0.384373910584
5867500 0.31701351563 0.38315752697
5869000 0.316580398591 0.382133109481
5870500 0.316272612601 0.380959560113
5872000 0.31564157266 0.379781763487
5873500 0.315475496396 0.378693002665
5875000 0.314914544326 0.377575228898
5876500 0.314622170506 0.376514539938
5878000 0.314369435808 0.375419477262
5879500 0.313896938428 0.374335549653
5881000 0.313688388372 0.373138337928
5882500 0.313093667676 0.372030824951
5884000 0.312829101051 0.370913992171
5885500 0.312097582918 0.36980777483
5887000 0.311760058519 0.368678897787
5888500 0.31129011592 0.367467441236
5890000 0.310810001655 0.366480139404
5891500 0.310669978693 0.365326929301
5893000 0.310089211163 0.364304017749
5894500 0.309889860864 0.363174705276
5896000 0.309491586141 0.362006763224
5897500 0.308860647401 0.360968278523
5899000 0.308440468196 0.359788552715
5900500 0.307668829711 0.358674261061
5902000 0.30737772537 0.357577546109
5903500 0.306716699606 0.356492182739
5905000 0.306332461372 0.355414274368
5906500 0.305951243023 0.354400303978
5908000 0.305392863401 0.353363655692
5909500 0.305198403986 0.352133700937
5911000 0.303979223331 0.351191867524
5912500 0.303896706669 0.350007212062
5914000 0.303204361615 0.348914001367
5915500 0.302770451085 0.347801904265
5917000 0.302213105027 0.346618773749
5918500 0.301691360625 0.345719458512
5920000 0.301410806937 0.344821491599
5921500 0.300638687386 0.343614491955
5923000 0.300264134313 0.342445589372
5924500 0.299719877888 0.341304092007
5926000 0.299159778022 0.340337050719
5927500 0.298676032194 0.339139842542
5929000 0.297758349447 0.338151404998
5930500 0.297419672101 0.337013501525
5932000 0.296644466566 0.335917049269
5933500 0.296110116773 0.335076067803
5935000 0.295671922977 0.334187769592
5936500 0.29500075831 0.332878197635
5938000 0.294603772791 0.331695271888
5939500 0.293857969639 0.330792052967
5941000 0.293350502651 0.329635898949
5942500 0.292472252913 0.328696531339
5944000 0.291872798446 0.327618808188
5945500 0.291193590255 0.326455649228
5947000 0.290548946483 0.325593688001
5948500 0.290159580603 0.32439401831
5950000 0.289447839689 0.323511926432
5951500 0.288690592989 0.322410633707
5953000 0.288283355383 0.32135680977
5954500 0.287679424143 0.320381401646
5956000 0.287116263368 0.319223927443
5957500 0.286326949402 0.318272136444
5959000 0.285696498651 0.317228912504
5960500 0.284837964188 0.316278456198
5962000 0.283961826229 0.315297994762
5963500 0.283356112348 0.314172910623
5965000 0.282620443554 0.313269360598
5966500 0.28205275687 0.312242312267
5968000 0.281495484218 0.311242046603
5969500 0.280986690584 0.31016541026
5971000 0.280142004917 0.309087982057
5972500 0.279430971635 0.308231204415
5974000 0.27868506577 0.307202342885
5975500 0.277598369888 0.306350815939
5977000 0.276879709538 0.305289719323
5978500 0.276169319309 0.304216948834
5980000 0.275495125434 0.303348712681
5981500 0.274974287831 0.302282906062
5983000 0.274308558628 0.301315162316
5984500 0.273625236961 0.300194610782
5986000 0.272788481081 0.299325677278
5987500 0.272000944567 0.298334663436
5989000 0.271091616468 0.297475306455
5990500 0.270132527321 0.296597595115
5992000 0.269441183806 0.295555548301
5993500 0.268602492993 0.294717776944
5995000 0.267880355152 0.293733014311
5996500 0.267296895503 0.292733599908
5998000 0.266692544534 0.291711771129
5999500 0.265752849524 0.290696320582
6001000 0.2649360107 0.289922598271
6002500 0.264068596504 0.288902987036
6004000 0.263016463138 0.288236457703
6005500 0.262103723691 0.287275675902
6007000 0.261292994935 0.286250528826
6008500 0.260610571994 0.285382613147
6010000 0.259910768183 0.284353682121
6011500 0.259174400554 0.283477270497
6013000 0.258417297573 0.282440155649
6014500 0.257432695052 0.281581335308
6016000 0.256578881806 0.280723003581
6017500 0.255632103197 0.279900118041
6019000 0.254626429519 0.279139350683
6020500 0.253712192102 0.278134424619
6022000 0.252940024828 0.277360637634
6023500 0.252058450471 0.276357404684
6025000 0.251409404175 0.27545152048
6026500 0.250706436722 0.274457789693
6028000 0.249596517509 0.273576442332
6029500 0.248811772026 0.272853620939
6031000 0.247818838048 0.271914668777
6032500 0.2467494149 0.271373244884
6034000 0.245715080218 0.270475827419
6035500 0.244783003257 0.26949435435
6037000 0.244027380327 0.26878637155
6038500 0.243249561503 0.267770248664
6040000 0.24238699087 0.266957534766
6041500 0.241532260881 0.265908844684
6043000 0.240443399767 0.265179539461
6044500 0.239576490021 0.264410949178
6046000 0.238592734027 0.263617012831
6047500 0.237547137936 0.26298949558
6049000 0.236506148229 0.26209338269
6050500 0.235636028089 0.261370296652
6052000 0.234682288413 0.260471510963
6053500 0.233931094415 0.259579921977
6055000 0.233039150136 0.258669946112
6056500 0.231960805058 0.257904316349
6058000 0.231057895985 0.257171473871
6059500 0.230012166016 0.256386950872
6061000 0.228958763597 0.255903239664
6062500 0.227841163307 0.255134015812
6064000 0.226799664152 0.254299427208
6065500 0.225976767404 0.253543056244
6067000 0.225076466391 0.252631850757
6068500 0.224192283824 0.251889468179
6070000 0.223219585758 0.25100245605
6071500 0.222076071245 0.250271209887
6073000 0.221109101284 0.249604138577
6074500 0.219986417571 0.248927285638
6076000 0.218956284849 0.248394180352
6077500 0.217832918916 0.247588969569
6079000 0.216878723413 0.246963345779
6080500 0.215826693975 0.246147230653
6082000 0.215004424007 0.245268377056
6083500 0.214010426142 0.244483299414
6085000 0.212845977885 0.243733697924
6086500 0.211911967514 0.243186975702
6088000 0.210773649404 0.242450493607
6089500 0.209714627704 0.242016489054
6091000 0.208557287328 0.24136982942
6092500 0.207403578869 0.24061543083
6094000 0.206505282596 0.239950118894
6095500 0.205496163087 0.23917037491
6097000 0.204561347322 0.238490338649
6098500 0.203430199657 0.237567860981
6100000 0.202212282207 0.237055392321
6101500 0.201222231645 0.236484566954
6103000 0.200101596077 0.235762938278
6104500 0.199149541614 0.235188677431
6106000 0.198108385803 0.2345868565
6107500 0.19674575951 0.234126063776
6109000 0.195747870547 0.233579935073
6110500 0.194497885586 0.232880592694
6112000 0.193737634389 0.232250765256
6113500 0.19260203037 0.231520052198
6115000 0.191355682298 0.230919823715
6116500 0.190318747696 0.230264340193
6118000 0.188953146266 0.229666541563
6119500 0.188230791933 0.22911999979
6121000 0.186954480049 0.228548229559
6122500 0.185708655265 0.228196337518
6124000 0.184610448783 0.227571941247
6125500 0.183422160253 0.226994129988
6127000 0.182537981587 0.226396273408
6128500 0.181309488679 0.225515449585
6130000 0.18012848337 0.225205228709
6131500 0.178940529544 0.224576942095
6133000 0.177867663987 0.224028463706
6134500 0.176837950841 0.223551045389
6136000 0.175469260521 0.223176559376
6137500 0.17432116903 0.222748896206
6139000 0.173061831609 0.222228015749
6140500 0.172205236091 0.221615845024
6142000 0.170991571615 0.221017626064
6143500 0.169691986771 0.220492713542
6145000 0.168603440336 0.219976661089
6146500 0.167159207671 0.219528356392
6148000 0.166370120465 0.218990589445
6149500 0.165056488919 0.218554660112
6151000 0.16378620037 0.218346864209
6152500 0.162628056527 0.217819817576
6154000 0.16133142023 0.217401086183
6155500 0.160432221248 0.21680558501
6157000 0.15913911666 0.216118928358
6158500 0.157929996539 0.215865168265
6160000 0.156689787708 0.215419449498
6161500 0.155524903427 0.214939778599
6163000 0.154462185735 0.214515359285
6164500 0.15307471117 0.214311405228
6166000 0.151907096409 0.213918675502
6167500 0.150602258092 0.213573645648
6169000 0.149594446609 0.213004167593
6170500 0.148415189505 0.212512832491
6172000 0.147055219692 0.212192402201
6173500 0.145882493469 0.211792187599
6175000 0.144427436121 0.211529720533
6176500 0.143541593514 0.210967359707
6178000 0.142267749304 0.210695864857
6179500 0.14093873374 0.210583588805
6181000 0.139744977515 0.210229203379
6182500 0.138361040483 0.209904789629
6184000 0.13740486241 0.209386836782
6185500 0.136078294199 0.208883860055
6187000 0.134794767736 0.208761438863
6188500 0.133531897815 0.208407609265
6190000 0.132282003145 0.208057515464
6191500 0.131204984904 0.207679496604
6193000 0.129826694207 0.207604720298
6194500 0.12859191918 0.207379924631
6196000 0.12728178452 0.207207190566
6197500 0.126196559262 0.206701431731
6199000 0.124939071634 0.206323160174
6200500 0.123596180923 0.206141175117
6202000 0.122360918531 0.205876103923
6203500 0.120944260312 0.205808481884
6205000 0.119956645637 0.205249023369
6206500 0.118654501163 0.205070812295
6208000 0.117377548183 0.205102123774
6209500 0.116125484443 0.204880255022
6211000 0.114724138394 0.204824548923
6212500 0.113655410184 0.204253780983
6214000 0.112274571028 0.203949430409
6215500 0.111034408832 0.20396201181
6217000 0.10976952528 0.203743200508
6218500 0.108455124615 0.203554932268
6220000 0.107328793574 0.203217704412
6221500 0.10598154629 0.203332591466
6223000 0.104773849446 0.203216658185
6224500 0.103457142609 0.203141294854
6226000 0.102236966886 0.202761190495
6227500 0.100970509998 0.202512898744
6229000 0.0996572757882 0.202412165764
6230500 0.0983721194749 0.202329538874
6232000 0.0970566403944 0.202428840379
6233500 0.0958848736754 0.20195815965
6235000 0.0946025053169 0.201908299401
6236500 0.0933279168629 0.202089884602
6238000 0.0920881561577 0.201985301148
6239500 0.0907637477395 0.202122184267
6241000 0.0895484607886 0.201604131582
6242500 0.0881935292406 0.201453026322
6244000 0.0869467648966 0.201567780559
6245500 0.0857062595905 0.201532300365
6247000 0.0844114419801 0.201501817153
6248500 0.0831651984625 0.201209605357
6250000 0.0818743922043 0.201419896125
6251500 0.0806369722607 0.201354651783
6253000 0.0794147501386 0.201444678892
6254500 0.07814294578 0.201533386432
6256000 0.0768931270265 0.201500922707
6257500 0.0755715958159 0.201301920191
6259000 0.0742508930229 0.201301236013
6260500 0.0729593237233 0.201133383052
6262000 0.0717187972185 0.20119482359
6263500 0.0704836390098 0.201337450208
6265000 0.0691623640466 0.20125412153
6266500 0.0680424229796 0.201562316832
6268000 0.0667481037599 0.201607738132
6269500 0.0655169555563 0.201676920977
6271000 0.0642620163899 0.201720513907
6272500 0.0628905326552 0.201575906958
6274000 0.0616138314596 0.201645896057
6275500 0.0603617324824 0.20163962027
6277000 0.0591396578047 0.20188948747
6278500 0.0578944498581 0.202011061324
6280000 0.0566400393892 0.202089997296
6281500 0.0554017826706 0.202267351635
6283000 0.0541921040409 0.202447139789
6284500 0.0529653516783 0.202567343497
6286000 0.0516072062653 0.202517113958
6287500 0.0503735682359 0.202655650237
6289000 0.0490293898214 0.202617022418
6290500 0.0478618252743 0.202814721439
6292000 0.0466516825037 0.203114524018
6293500 0.0453144933344 0.203136108102
6295000 0.0442068211098 0.203545098592
6296500 0.0429355114423 0.203704332745
6298000 0.0417443037261 0.203891822092
6299500 0.0405290744211 0.204046050855
6301000 0.0391126942793 0.204063942142
6302500 0.0379466023202 0.204281565968
6304000 0.0366353638049 0.204339794503
6305500 0.0355077675244 0.204725472154
6307000 0.0342882267744 0.204926781098
6308500 0.0329917164622 0.205117489242
6310000 0.0318259293936 0.205441808081
6311500 0.0306452995952 0.205753247898
6313000 0.0295317248191 0.20593542743
6314500 0.0282058241867 0.206101240095
6316000 0.0269366550409 0.206268071457
6317500 0.0256020202098 0.206418435786
6319000 0.0244380842622 0.206755473215
6320500 0.0233801990311 0.207123555401
6322000 0.0219997250871 0.207289442526
6323500 0.0209996253338 0.207708053541
6325000 0.0197366894692 0.208041550459
6326500 0.018584080478 0.208309012313
6328000 0.0174289627408 0.208552720948
6329500 0.0160246459131 0.208804240938
6331000 0.0148936659434 0.209118187973
6332500 0.0136227246468 0.209332272263
6334000 0.0125656542741 0.209714494134
6335500 0.0113479197998 0.21004532246
6337000 0.010100173971 0.210328696445
6338500 0.00900736009774 0.210772207646
6340000 0.00783630563053 0.211165380485
6341500 0.00680043284168 0.211462326747
6343000 0.00550045295028 0.211755787043
6344500 0.00426298566627 0.212034256013
6346000 0.00298469434014 0.212326229927
6347500 0.00190787399114 0.212696040827
6349000 0.000828447721279 0.213137852478
6350500 -0.000491689987965 0.213518631705
6352000 -0.00146042919722 0.213953939955
6353500 -0.00268734007737 0.21445088778
6355000 -0.00377491262475 0.214778389102
6356500 -0.00489240216942 0.215125032277
6358000 -0.00627152566421 0.215509780783
6359500 -0.00731777151665 0.215882402347
6361000 -0.00858133706198 0.216264790921
6362500 -0.00955120285234 0.216656232368
6364000 -0.0106762069585 0.217125699842
6365500 -0.0119143702313 0.217534921218
6367000 -0.0129513625262 0.218061191317
6368500 -0.0141290323059 0.218513833758
6370000 -0.0150622329567 0.218860929579
6371500 -0.0163517131967 0.219336182037
6373000 -0.0175371405217 0.219718133018
6374500 -0.0187521995299 0.220184267851
6376000 -0.0198223146687 0.220574998943
6377500 -0.0207592414838 0.221042621367
6379000 -0.0220797493055 0.221632163537
6380500 -0.0230644767348 0.222054434947
6382000 -0.024182943103 0.222683070641
6383500 -0.0252201336795 0.223089774467
6385000 -0.0262928027942 0.223530406238
6386500 -0.0276085476658 0.22407904205
6388000 -0.0286073870655 0.224480907571
6389500 -0.0298202021582 0.225040780849
6391000 -0.0307902987437 0.225404837134
6392500 -0.0318826595451 0.225971939241
6394000 -0.0330461225993 0.226584974506
6395500 -0.0340004512811 0.2271466542
6397000 -0.0351220312887 0.227726966729
6398500 -0.0360729496529 0.228090168812
6400000 -0.0372544061024 0.228718073427
6401500 -0.0382625390141 0.229160113295
6403000 -0.0393385496686 0.229732691107
6404500 -0.0405097911474 0.230387854147
6406000 -0.0416737903814 0.230889336434
6407500 -0.0426806836233 0.231433232091
6409000 -0.0435258067449 0.231837935171
6410500 -0.0447328062371 0.232517895538
6412000 -0.0458583037581 0.23317306294
6413500 -0.046806522839 0.23386916903
6415000 -0.0478114437974 0.234340128087
6416500 -0.0487857773591 0.234773313893
6418000 -0.049962620209 0.235532717977
6419500 -0.0510871099546 0.236180377549
6421000 -0.0521100442893 0.236691768815
6422500 -0.0530530636398 0.23719939921
6424000 -0.0540413910612 0.23774106305
6425500 -0.0551611537582 0.238518227527
6427000 -0.056157125059 0.239252294773
6428500 -0.0571109984854 0.239872708336
6430000 -0.0580976177785 0.240309257118
6431500 -0.0591025937533 0.240976160538
6433000 -0.0602155004093 0.241686819447
6434500 -0.0612615114305 0.242373333863
6436000 -0.0622442625379 0.242969726659
6437500 -0.0631974083663 0.243407968786
6439000 -0.0642072530353 0.244199678226
6440500 -0.0652103444938 0.244956646153
6442000 -0.0661176078613 0.245711242281
6443500 -0.0670844224797 0.246293073629
6445000 -0.068036686087 0.246770100189
6446500 -0.0691382262538 0.247633944599
6448000 -0.0701372887506 0.248436662656
6449500 -0.0711287863791 0.249020038141
6451000 -0.0720173632585 0.249601192143
6452500 -0.072976292803 0.25023511994
6454000 -0.0739669090007 0.25110408588
6455500 -0.0749243939291 0.251940299418
6457000 -0.0757897505227 0.252623637927
6458500 -0.0767592500957 0.253117033448
6460000 -0.077715172964 0.253891594641
6461500 -0.0787013505659 0.254758927172
6463000 -0.0796860930025 0.255407493835
6464500 -0.0805819000099 0.256120906322
6466000 -0.0815069994928 0.256645825671
6467500 -0.0824652918452 0.257531035113
6469000 -0.0833534681567 0.258377227088
6470500 -0.0842173485874 0.259203453837
6472000 -0.085136078556 0.259840964259
6473500 -0.0860710580041 0.260450197084
6475000 -0.0870214157173 0.261416091917
6476500 -0.0879016926782 0.26219852869
6478000 -0.088801502446 0.262910152431
6479500 -0.0896764622579 0.263587025343
6481000 -0.090604450382 0.264287339434
6482500 -0.0914640777996 0.26522723579
6484000 -0.0923203767346 0.266121482821
6485500 -0.0931678061958 0.266931075283
6487000 -0.0940598300681 0.267503604674
6488500 -0.094964171888 0.268266889593
6490000 -0.0957951084172 0.269240135794
6491500 -0.0966864695387 0.270034932677
6493000 -0.0976037978707 0.270833169063
6494500 -0.0985048948524 0.271426145481
6496000 -0.0993043814998 0.272354493117
6497500 -0.100114980805 0.273296645903
6499000 -0.10088667705 0.274175447862
6500500 -0.101771203807 0.274945026225
6502000 -0.102674257988 0.275623285789
6503500 -0.103443863143 0.276592798892
6505000 -0.104256982501 0.277471662847
6506500 -0.105092272901 0.278230710713
6508000 -0.105941979059 0.279025508738
6509500 -0.106847464116 0.279813313709
6511000 -0.107535336998 0.280832630222
6512500 -0.108267851841 0.281735451982
6514000 -0.109043324866 0.282630892545
6515500 -0.109943027121 0.283322806176
6517000 -0.110707497391 0.284239511484
6518500 -0.111428644085 0.285184687161
6520000 -0.112236779172 0.286018040585
6521500 -0.113003155023 0.286876728117
6523000 -0.113906639827 0.287656839068
6524500 -0.114587322399 0.288546399242
6526000 -0.115277295144 0.289522847632
6527500 -0.116013071758 0.290471611533
6529000 -0.116787810942 0.29137584504
6530500 -0.117649325754 0.292135176592
6532000 -0.118301828954 0.293106208739
6533500 -0.119007466922 0.29405123069
6535000 -0.119794702039 0.294864921797
6536500 -0.120568825557 0.29574868353
6538000 -0.121356440934 0.296618893725
6539500 -0.121910418261 0.297613090889
6541000 -0.122569196908 0.298604080268
6542500 -0.123275035771 0.299590993276
6544000 -0.124104953565 0.300351640084
6545500 -0.124826214889 0.301309677865
6547000 -0.125405704353 0.302276877965
6548500 -0.126091393109 0.303176221484
6550000 -0.126839948075 0.304140286372
6551500 -0.127526949546 0.304990656741
6553000 -0.128271706732 0.305919362008
6554500 -0.128922400435 0.306901989674
6556000 -0.129510446747 0.30788825282
6557500 -0.130065125716 0.308874382127
6559000 -0.130756872235 0.309831027198
6560500 -0.1315568876 0.310725174592
6562000 -0.132105711193 0.311657335967
6563500 -0.13271405748 0.312629715258
6565000 -0.133350110566 0.313555278864
6566500 -0.134036360264 0.314493500339
6568000 -0.13476827808 0.315433800511
6569500 -0.135300275037 0.316426892964
6571000 -0.135853865572 0.317445204505
6572500 -0.136430603996 0.318477696659
6574000 -0.137096709131 0.319440674133
6575500 -0.137796422075 0.320324999158
6577000 -0.138300980185 0.321319738585
6578500 -0.13883314748 0.322300995073
6580000 -0.139464695154 0.32325044215
6581500 -0.140116749112 0.32421979435
6583000 -0.140701619845 0.325202492224
6584500 -0.141191295268 0.32619934341
6586000 -0.141718601853 0.327269607971
6587500 -0.142253100529 0.328283716099
6589000 -0.142953369104 0.329214807625
6590500 -0.14346752307 0.330210448351
6592000 -0.14396056946 0.331190709644
6593500 -0.144484974949 0.332197416227
6595000 -0.145110664927 0.333166932978
6596500 -0.145692670385 0.33415745282
6598000 -0.146190963245 0.335116986967
6599500 -0.146637324052 0.336199570519
6601000 -0.147094902242 0.337285628018
6602500 -0.147667439469 0.338277750713
6604000 -0.148227769631 0.339284534559
6605500 -0.148686614218 0.340234303978
6607000 -0.149122437717 0.341213247684
6608500 -0.149687126478 0.342217691966
6610000 -0.150239789783 0.343283248016
6611500 -0.150756521203 0.344264676973
6613000 -0.151090113358 0.345284817625
6614500 -0.151551800631 0.346376147944
6616000 -0.152001295645 0.347438071927
6617500 -0.152559732023 0.348446105766
6619000 -0.152956145614 0.349418759684
6620500 -0.153421567473 0.350454898848
6622000 -0.153837167482 0.351448585077
6623500 -0.154336497641 0.352481620497
6625000 -0.154878862255 0.353539891217
6626500 -0.1552996043 0.354604036961
6628000 -0.15565219593 0.355595186773
6629500 -0.15597306003 0.356680115114
6631000 -0.156478298631 0.357756741258
6632500 -0.156951084024 0.358784892045
6634000 -0.157375609031 0.359808439544
6635500 -0.157681596565 0.360802328042
6637000 -0.158120586474 0.361813160187
6638500 -0.158534712167 0.362889873705
6640000 -0.158979008074 0.363972480849
6641500 -0.159294696305 0.364971147093
6643000 -0.159649428473 0.366055648402
6644500 -0.159961285173 0.367166746338
6646000 -0.160429780071 0.368216032753
6647500 -0.160752505306 0.369271202515
6649000 -0.161071582383 0.370223697587
6650500 -0.161460840849 0.371234126842
6652000 -0.161842082257 0.372287521592
6653500 -0.162196289769 0.373396944144
6655000 -0.162505011826 0.374457056804
6656500 -0.162829579159 0.375531128288
6658000 -0.163096176367 0.376598082998
6659500 -0.163475742724 0.377670144937
6661000 -0.163798575706 0.378752544414
6662500 -0.164086270968 0.379797396067
6664000 -0.164408856795 0.380749610826
6665500 -0.164736142073 0.381805472764
6667000 -0.165038604455 0.382931524896
6668500 -0.165364879773 0.383968926347
6670000 -0.165638454569 0.385005254726
6671500 -0.165876231114 0.386067518721
6673000 -0.166114028433 0.387197760749
6674500 -0.166427030535 0.388277652299
6676000 -0.166719331525 0.389318183125
6677500 -0.166884151371 0.390324363392
6679000 -0.167185286139 0.3913435138
6680500 -0.167467811211 0.392413440034
6682000 -0.167771694128 0.393560096726
6683500 -0.167961423366 0.394576698095
6685000 -0.168212589643 0.395646081726
6686500 -0.168344378987 0.396781621366
6688000 -0.168616265919 0.397887481479
6689500 -0.168818519718 0.398974508382
6691000 -0.169073842522 0.399987028249
6692500 -0.169276807431 0.400984286241
6694000 -0.169479172059 0.401979281722
6695500 -0.16972692034 0.403119524284
6697000 -0.169896540536 0.404244419248
6698500 -0.170142916568 0.405237001315
6700000 -0.170267581217 0.406314869828
6701500 -0.170473893269 0.407336301646
6703000 -0.170590889079 0.408371371493
6704500 -0.170758943776 0.409509026391
6706000 -0.170927122186 0.410650338279
6707500 -0.171171268743 0.411675820249
6709000 -0.171295791283 0.412689796956
6710500 -0.171454365871 0.413704771022
6712000 -0.171569040808 0.414825587788
6713500 -0.171756216781 0.415872269421
6715000 -0.171902045962 0.416955066247
6716500 -0.172023711502 0.417965787671
6718000 -0.172095633895 0.419019344304
6719500 -0.172224491595 0.420209951511
6721000 -0.17233134474 0.42125270939
6722500 -0.172579683236 0.422322023542
6724000 -0.172568018341 0.423280947782
6725500 -0.17268284176 0.42432715872
6727000 -0.172800406459 0.425409936513
6728500 -0.172969715305 0.426485070064
6730000 -0.173023860376 0.427500972673
6731500 -0.173079516874 0.428513792689
6733000 -0.173147919156 0.429668152854
6734500 -0.173218607366 0.430753158052
6736000 -0.17333999498 0.431805460083
6737500 -0.173396030539 0.432767155703
6739000 -0.173491962237 0.433814828736
6740500 -0.173497282688 0.434907612162
6742000 -0.173594840816 0.435948318924
6743500 -0.173666434225 0.437020430039
6745000 -0.173730345662 0.438027155104
6746500 -0.173699866338 0.43907662367
6748000 -0.173707622748 0.440227019139
6749500 -0.173775741319 0.441243985437
6751000 -0.173819556803 0.442257370211
6752500 -0.173839533791 0.443209027158
6754000 -0.173841488975 0.444266632188
6755500 -0.173843311019 0.445393217134
6757000 -0.173884040163 0.446418965619
6758500 -0.173927666218 0.447478448942
6760000 -0.173899227434 0.448465452469
6761500 -0.173857261871 0.449527703607
6763000 -0.173836949592 0.45063755092
6764500 -0.173834254588 0.451716268878
6766000 -0.173852634406 0.452672972191
6767500 -0.173836263943 0.453635490999
6769000 -0.173839787973 0.454705574576
6770500 -0.173789110477 0.455718652314
6772000 -0.17384570839 0.456800622451
6773500 -0.173750690347 0.457777573874
6775000 -0.173682846854 0.45880438853
6776500 -0.173558180019 0.459897132992
6778000 -0.173540333882 0.460898173854
6779500 -0.173539847107 0.461943542057
6781000 -0.173463638008 0.462873184485
6782500 -0.173441417328 0.463870390605
6784000 -0.173371661477 0.464928308567
6785500 -0.173318805036 0.465973461943
6787000 -0.173276924249 0.467018442012
6788500 -0.173185062108 0.467978434501
6790000 -0.173020567826 0.46901199748
6791500 -0.172919178055 0.470092296243
6793000 -0.172918492479 0.471082089415
6794500 -0.172804614092 0.472127368786
6796000 -0.172724150637 0.473002319923
6797500 -0.172636337916 0.474024625559
6799000 -0.172492320579 0.475061577775
6800500 -0.17244285111 0.476083915693
6802000 -0.172278559703 0.477081007754
6803500 -0.1721319507 0.478057312599
6805000 -0.172032440542 0.479083228915
6806500 -0.171918819944 0.480138978482
6808000 -0.171806290752 0.48112712069
6809500 -0.17164358113 0.48202660489
6811000 -0.171531159078 0.483018533929
6812500 -0.171400868118 0.484042971137
6814000 -0.171214819467 0.485011820035
6815500 -0.171170466055 0.486051089504
6817000 -0.171004401378 0.486971362731
6818500 -0.170816341784 0.488007556246
6820000 -0.170663825012 0.488974968517
6821500 -0.170426425893 0.490004908496
6823000 -0.170345914705 0.490970853915
6824500 -0.170186718254 0.491912982078
6826000 -0.170009011981 0.492865822198
6827500 -0.169868015477 0.493896933888
6829000 -0.169675111369 0.494926040604
6830500 -0.16955561706 0.495861410325
6832000 -0.169292459628 0.496763336769
6833500 -0.16909677881 0.497744881954
6835000 -0.168902517525 0.49879930597
6836500 -0.168690682391 0.499766659109
6838000 -0.168513439812 0.500627953035
6839500 -0.168407352113 0.501564006378
6841000 -0.16812899177 0.502563732452
6842500 -0.167923494113 0.503581551634
6844000 -0.167739987206 0.504544565116
6845500 -0.16756368905 0.505368054376
6847000 -0.167292591995 0.506368627005
6848500 -0.16695550354 0.507384396065
6850000 -0.166796069504 0.508350264508
6851500 -0.1665763683 0.509246649058
6853000 -0.16635617308 0.510211422172
6854500 -0.166155305895 0.511087926689
6856000 -0.165968565073 0.511992692024
6857500 -0.165717545869 0.512905398143
6859000 -0.165456303939 0.513907615436
6860500 -0.165246190617 0.514904551596
6862000 -0.164967418083 0.515757844969
6863500 -0.164639295136 0.516725883833
6865000 -0.164368026877 0.517687503148
6866500 -0.164148114115 0.518662029707
6868000 -0.163897839428 0.519583701829
6869500 -0.163669035509 0.520352697678
6871000 -0.163482748952 0.521308288851
6872500 -0.163130256674 0.522234098439
6874000 -0.162905969221 0.523201066124
6875500 -0.162578720814 0.524079489083
6877000 -0.162313489151 0.524989622563
6878500 -0.16193970315 0.52595000005
6880000 -0.161684361717 0.526881666341
6881500 -0.161451172353 0.527824632351
6883000 -0.161107184432 0.528623662979
6884500 -0.160922727273 0.529502158375
6886000 -0.160600334209 0.530420162411
6887500 -0.160295137076 0.531341204566
6889000 -0.159983977549 0.532270065194
6890500 -0.159673826278 0.533090729
6892000 -0.159321739246 0.534063263255
6893500 -0.158996742501 0.534945991923
6895000 -0.158664479178 0.53591735553
6896500 -0.158394097728 0.536757982541
6898000 -0.158135113314 0.537528485761
6899500 -0.157829796872 0.538383096136
6901000 -0.157450086148 0.539308617949
6902500 -0.157182960294 0.540256428883
6904000 -0.156796269904 0.541090154061
6905500 -0.156510900726 0.54198344773
6907000 -0.156096964015 0.542853812838
6908500 -0.155683313925 0.543776145879
6910000 -0.155351012163 0.544656014383
6911500 -0.155133809743 0.545431192607
6913000 -0.15485668634 0.546258722648
6914500 -0.154512077333 0.547153630469
6916000 -0.154087928679 0.548042226282
6917500 -0.153752301598 0.548973972835
6919000 -0.153427482378 0.549705527992
6920500 -0.153008516214 0.550589946076
6922000 -0.152625278885 0.55143552426
6923500 -0.152221733416 0.552375588478
6925000 -0.151902714291 0.5531484337
6926500 -0.151622640344 0.55394141244
6928000 -0.15127761434 0.554768588652
6929500 -0.150848630019 0.555655978011
6931000 -0.15045008284 0.556488792767
6932500 -0.150084257038 0.557381135391
6934000 -0.149729938678 0.558160279882
6935500 -0.149323039858 0.559035311826
6937000 -0.148863115549 0.55987214026
6938500 -0.148488448806 0.560700301328
6940000 -0.14815902476 0.561465877215
6941500 -0.147867665925 0.562299001629
6943000 -0.147455495155 0.563104149764
6944500 -0.147067538187 0.563961395779
6946000 -0.146616917684 0.564775010299
6947500 -0.146254398912 0.565554097849
6949000 -0.145835284468 0.566398192814
6950500 -0.14536039386 0.567266482083
6952000 -0.144987105427 0.568075565628
6953500 -0.144557304075 0.568880733532
6955000 -0.144291637969 0.569603470145
6956500 -0.14389462129 0.570406587438
6958000 -0.143380235776 0.571231781786
6959500 -0.143021872293 0.572018830768
6961000 -0.142597934311 0.572810627548
6962500 -0.14218657686 0.57361117574
6964000 -0.141730568779 0.57444884041
6965500 -0.141232776848 0.575228686579
6967000 -0.140779538065 0.576030058298
6968500 -0.140464440541 0.57679969269
6970000 -0.140102931882 0.577559134775
6971500 -0.139687908735 0.578351729084
6973000 -0.139216887271 0.579156554038
6974500 -0.13872023613 0.579940282888
6976000 -0.138308910227 0.580631137463
6977500 -0.137886105385 0.581486234316
6979000 -0.137389208622 0.582292843335
6980500 -0.136896152709 0.583070190638
6982000 -0.136484020437 0.583790468915
6983500 -0.136164428511 0.584521593944
6985000 -0.135744913235 0.585292690724
6986500 -0.135239995381 0.586044075791
6988000 -0.134805725562 0.586902437949
6989500 -0.134343797058 0.587597115819
6991000 -0.133905136557 0.588300806522
6992500 -0.133398306699 0.589122216737
6994000 -0.132818141431 0.589870585511
6995500 -0.132440732293 0.590661401383
6997000 -0.13203138233 0.591348826867
6998500 -0.131660792202 0.5920702295
7000000 -0.131203882107 0.592824885719
7001500 -0.130784938977 0.593581605065
7003000 -0.130205887982 0.594288852338
7004500 -0.129640383472 0.59505924244
7006000 -0.129282833243 0.595745447541
7007500 -0.128820122069 0.596497461584
7009000 -0.128237805819 0.597285858886
7010500 -0.127691109927 0.597983335673
7012000 -0.127286831966 0.598767111936
7013500 -0.126895205543 0.599447401916
7015000 -0.126448577047 0.600166502267
7016500 -0.125968242953 0.600860979294
7018000 -0.125443993371 0.601573928041
7019500 -0.124933764584 0.602287278742
7021000 -0.124512547551 0.602986047203
7022500 -0.123927274032 0.603786155029
7024000 -0.123375531192 0.604475214577
7025500 -0.122815579663 0.605192683762
7027000 -0.122396564045 0.605935700617
7028500 -0.122058459006 0.606548727264
7030000 -0.121570278327 0.607276549389
7031500 -0.120915709259 0.607931284992
7033000 -0.120490661166 0.60871411062
7034500 -0.119994456015 0.609330523438
7036000 -0.119513115766 0.610048849125
7037500 -0.118927915455 0.610794258305
7039000 -0.118314944126 0.611433637472
7040500 -0.117885552192 0.612124772388
7042000 -0.117440823775 0.612767710334
7043500 -0.117037166891 0.61348918541
7045000 -0.116455387604 0.614151716477
7046500 -0.11589049945 0.614816973105
7048000 -0.115406949914 0.615550463862
7049500 -0.11494882984 0.616202257267
7051000 -0.114305061104 0.616871311177
7052500 -0.11368913611 0.617618459729
7054000 -0.113159348001 0.61819639243
7055500 -0.112674849584 0.618843234024
7057000 -0.112349121736 0.619553354082
7058500 -0.111798715929 0.620223067599
7060000 -0.111149307102 0.620881569051
7061500 -0.110626176766 0.621556453881
7063000 -0.110210558174 0.622195939093
7064500 -0.109689266754 0.622842535835
7066000 -0.109005800048 0.623550687374
7067500 -0.108437872361 0.624142547612
7069000 -0.107932961514 0.624781761209
7070500 -0.107469949088 0.625481932862
7072000 -0.107036932488 0.626154306212
7073500 -0.106492158676 0.626737638189
7075000 -0.105843548271 0.627431929144
7076500 -0.105333261649 0.62799881444
7078000 -0.104819624637 0.628671622916
7079500 -0.104180404817 0.629357672676
7081000 -0.103560075236 0.629940511454
7082500 -0.102970518078 0.630594617741
7084000 -0.102514934946 0.631219257201
7085500 -0.102086460576 0.631814848253
7087000 -0.101562630581 0.63244338046
7088500 -0.100861489145 0.633038586059
7090000 -0.100277125836 0.633633840879
7091500 -0.0997527996099 0.634297947801
7093000 -0.0992985406195 0.634933882217
7094500 -0.0985936108342 0.635514369372
7096000 -0.0979571664222 0.636142264636
7097500 -0.0973963569912 0.636691373785
7099000 -0.0969731815574 0.637321836865
7100500 -0.0965133840951 0.637983254174
7102000 -0.0959092009704 0.638542787536
7103500 -0.095214593567 0.639156380978
7105000 -0.0946896259345 0.639737774808
7106500 -0.0942248668521 0.640314483769
7108000 -0.093576757681 0.64098121745
7109500 -0.092861388275 0.641511354299
7111000 -0.0923341697497 0.642081012904
7112500 -0.0917755307264 0.642650626248
7114000 -0.0913746317584 0.643341243728
7115500 -0.0908067600998 0.643902057765
7117000 -0.0901118962218 0.644441835295
7118500 -0.0895114073706 0.644969155744
7120000 -0.089021008984 0.645590223794
7121500 -0.0885361811178 0.646245824614
7123000 -0.0877521477305 0.646806965739
7124500 -0.0870839973464 0.647262090956
7126000 -0.0865195787821 0.647809646992
7127500 -0.0860663464151 0.648497988875
7129000 -0.0856186535967 0.649045914965
7130500 -0.0849840649405 0.649612743386
7132000 -0.0843003875463 0.650152660049
7133500 -0.083659973703 0.650625580753
7135000 -0.0832511870581 0.651320686048
7136500 -0.0825881059698 0.651841964315
7138000 -0.0818241841741 0.652307344536
7139500 -0.0813268539421 0.652852959984
7141000 -0.0806609243931 0.653510850555
7142500 -0.0802604908925 0.654060693877
7144000 -0.0797308419612 0.654637241871
7145500 -0.0790154118928 0.655082946672
7147000 -0.0783839256691 0.655534946804
7148500 -0.0778371991911 0.656126598058
7150000 -0.0773626890984 0.656781031561
7151500 -0.0766064988122 0.657173981953
7153000 -0.0759736968308 0.657737296396
7154500 -0.0753133619504 0.658204658875
7156000 -0.0746490931583 0.658667084976
7157500 -0.0741215426382 0.659361537418
7159000 -0.0736521688864 0.659873293406
7160500 -0.0730097905308 0.660354433276
7162000 -0.0725384257186 0.660887909711
7163500 -0.0719362819073 0.661387243929
7165000 -0.0712185763995 0.66188872678
7166500 -0.070645136874 0.662445769227
7168000 -0.0698906635675 0.66287443668
7169500 -0.0692430984303 0.663389973945
7171000 -0.0687282495982 0.663868157924
7172500 -0.0680921180701 0.664349114555
7174000 -0.0676358230556 0.664956287701
7175500 -0.0670446678117 0.665445087523
7177000 -0.0664448133467 0.665974709536
7178500 -0.0658484956151 0.666531355198
7180000 -0.065105738692 0.666934683482
7181500 -0.0644702657508 0.667349970018
7183000 -0.0638071444721 0.667848403991
7184500 -0.0631690927692 0.668307347049
7186000 -0.0626172479967 0.668876256046
7187500 -0.062097022604 0.669332898671
7189000 -0.0615640295613 0.669873206409
7190500 -0.0609823990086 0.670391514479
7192000 -0.0603419116842 0.670832939746
7193500 -0.0597070467223 0.671281348082
7195000 -0.0589293143256 0.671734741921
7196500 -0.0583132789715 0.672097116716
7198000 -0.0575766193313 0.672582274725
7199500 -0.0570670590148 0.673106164737
7201000 -0.0564974378699 0.673524769628
7202500 -0.0559622479465 0.674108259078
7204000 -0.0553745835124 0.674579166232
7205500 -0.0547874571348 0.674968518535
7207000 -0.0541838284613 0.675560740713
7208500 -0.0534830929821 0.675918531463
7210000 -0.0527338049119 0.676294653893
7211500 -0.0520853569795 0.676743120516
7213000 -0.051426406514 0.677186597993
7214500 -0.0509762138328 0.677635858641
7216000 -0.0503502454579 0.678097606411
7217500 -0.0497707467467 0.678638968033
7219000 -0.0491877340663 0.679085115813
7220500 -0.0486239622384 0.679526587586
7222000 -0.0479188151973 0.679953186257
7223500 -0.0471972404212 0.680344972752
7225000 -0.0465316672375 0.680706691816
7226500 -0.0458601103444 0.681029080351
7228000 -0.0452752138269 0.681578726579
7229500 -0.0447215262446 0.681981869055
7231000 -0.0441645055994 0.682498399723
7232500 -0.0435841997611 0.682870304278
7234000 -0.0429564987649 0.683338222634
7235500 -0.0422997021309 0.683854599875
7237000 -0.0416450564273 0.684160262773
7238500 -0.0409610450035 0.684498535832
7240000 -0.0402911731736 0.684878784838
7241500 -0.0396427790061 0.685275002691
7243000 -0.0390180008866 0.685810804021
7244500 -0.0384371440125 0.686221828607
7246000 -0.0379107579547 0.686608777295
7247500 -0.0373199177268 0.687114613146
7249000 -0.0367911614533 0.687493239498
7250500 -0.0360145730102 0.687942963009
7252000 -0.0353287980651 0.68825973578
7253500 -0.0346624272905 0.688563718258
7255000 -0.0340304134516 0.688957145976
7256500 -0.0334091492245 0.689318791416
7258000 -0.032811281068 0.689708558195
7259500 -0.0322532467891 0.690258724492
7261000 -0.031649659701 0.690653233402
7262500 -0.0310892973036 0.691077541844
7264000 -0.0304165412962 0.691505953098
7265500 -0.0298035532554 0.691732983131
7267000 -0.029008030315 0.692150585155
7268500 -0.0284022718935 0.692390488921
7270000 -0.0277704869875 0.69271479404
7271500 -0.0271294038217 0.693271707812
7273000 -0.0266328905414 0.693596690692
7274500 -0.0259604707538 0.694040277545
7276000 -0.0254214150382 0.694481745653
7277500 -0.0248124321513 0.694864123364
7279000 -0.024067751689 0.695233973108
7280500 -0.0234021045079 0.695484254888
7282000 -0.022746883065 0.69576055315
7283500 -0.0220646049488 0.696134835588
7285000 -0.0214795638093 0.6965265269
7286500 -0.0208928258849 0.696895874114
7288000 -0.020331199345 0.697402518275
7289500 -0.0197021447418 0.697708258612
7291000 -0.0191185231269 0.698127797373
7292500 -0.0184556914077 0.698559328296
7294000 -0.0177930131175 0.698770091272
7295500 -0.0170890604393 0.699095308633
7297000 -0.0164945380642 0.699341890731
7298500 -0.0158772724538 0.699672708257
7300000 -0.0151542232947 0.700174136609
7301500 -0.0145473817688 0.70021213197
7303000 -0.0139597149763 0.700786445997
7304500 -0.0132804989206 0.70130323786
7306000 -0.0127832850824 0.701572804206
7307500 -0.0122284524733 0.70185004568
7309000 -0.0116426709957 0.702274945212
7310500 -0.0109517452279 0.702670244538
7312000 -0.0101988520013 0.703172567042
7313500 -0.00950767297458 0.703040870812
7315000 -0.00896753992298 0.703338014411
7316500 -0.00837047578032 0.703612831995
7318000 -0.0076019912324 0.704240959702
7319500 -0.00702568337392 0.70465188039
7321000 -0.00654306445307 0.704897675262
7322500 -0.00591911817942 0.705151170854
7324000 -0.00525564161755 0.705620578173
7325500 -0.0045221000565 0.706104567812
7327000 -0.00385952512364 0.706193093487
7328500 -0.00336370612149 0.706239662714
7330000 -0.00275416609256 0.70653440458
7331500 -0.00200909448892 0.70709160206
7333000 -0.00128963927069 0.707534905006
7334500 -0.000901547753368 0.707958340186
7336000 -0.000305258392855 0.708084528764
7337500 0.000256002399507 0.708364957638
7339000 0.00105410775104 0.708885836612
7340500 0.0018111533557 0.709099073909
7342000 0.00236977540009 0.709195726327
7343500 0.00291048975644 0.70929556639
7345000 0.00350725721695 0.709758107692
7346500 0.00432201658054 0.710224421045
7348000 0.0049200053189 0.710626237944
7349500 0.00539165452228 0.710870234251
7351000 0.00593382408154 0.711102957329
7352500 0.00668565028353 0.711565627481
7354000 0.00745240851586 0.711958692198
7355500 0.00810277018343 0.712074211371
7357000 0.00853604578956 0.712168900188
7358500 0.00906477042854 0.712438309589
7360000 0.00992402517495 0.712855949166
7361500 0.0106047236576 0.713256754028
7363000 0.0111277705962 0.713561098799
7364500 0.0115807515327 0.713701296967
7366000 0.0121944163395 0.714242548287
7367500 0.013024319222 0.714557946272
7369000 0.0137810328346 0.714906836069
7370500 0.0142093357136 0.714847427395
7372000 0.0147226777043 0.714977035994
7373500 0.0153950840534 0.715381855977
7375000 0.016204071248 0.715791882703
7376500 0.0168837024467 0.716183444814
7378000 0.0172776365456 0.716413833523
7379500 0.0178606124299 0.71669898499
7381000 0.018518652483 0.717034060565
7382500 0.0193958264277 0.717391475996
7384000 0.0199998958903 0.717480418519
7385500 0.0204093241808 0.717583108205
7387000 0.0209171440836 0.717797489455
7388500 0.0218092936352 0.718249469154
7390000 0.0226334647854 0.718621727177
7391500 0.0229802506818 0.718890794204
7393000 0.0235192766152 0.719159724934
7394500 0.0241120650243 0.719400036525
7396000 0.0248857001045 0.719758538767
7397500 0.025678481746 0.720046369762
7399000 0.0261209761558 0.720088493983
7400500 0.0266412701727 0.720223643574
7402000 0.027253108467 0.720569608867
7403500 0.0280992189583 0.720901368959
7405000 0.0288434905799 0.721311006535
7406500 0.0291647081605 0.721527969402
7408000 0.029721503098 0.721857791565
7409500 0.0303469224969 0.722140653691
7411000 0.031252601687 0.722454248842
7412500 0.0318908146072 0.722497230976
7414000 0.0322990474359 0.722636947765
7415500 0.0328540049988 0.722832546622
7417000 0.0336655244941 0.72320442182
7418500 0.0344610988777 0.723527932676
7420000 0.0349259794383 0.723816272176
7421500 0.035400559742 0.724062519135
7423000 0.035906332858 0.724456082173
7424500 0.0368271453136 0.724673784059
7426000 0.03758194211 0.724866770575
7427500 0.0379915442204 0.724955295617
7429000 0.0385297692468 0.725096514242
7430500 0.0390688738897 0.725370793585
7432000 0.0400123105913 0.725689506118
7433500 0.040727829252 0.726062824891
7435000 0.0411406705275 0.726288314926
7436500 0.041731359511 0.726545235442
7438000 0.0422893850159 0.726831217784
7439500 0.0432181423776 0.727030972172
7441000 0.0437677022344 0.727193222396
7442500 0.0442478647436 0.727294850123
7444000 0.0447830343779 0.72756974881
7445500 0.0455316151849 0.727830148149
7447000 0.0463879188502 0.728093745678
7448500 0.0468724653129 0.728412681326
7450000 0.0473504997689 0.728671782848
7451500 0.0479124133551 0.728869105292
7453000 0.0486496875026 0.729084327658
7454500 0.0493361260503 0.729313252766
7456000 0.0500435771129 0.729582069223
7457500 0.0506228573405 0.729695598446
7459000 0.0510492713367 0.730007128232
7460500 0.0517836465708 0.730138442912
7462000 0.0524877968007 0.730332701613
7463500 0.0531639782303 0.730514888376
7465000 0.053600981613 0.730866443959
7466500 0.0542452228022 0.731119022649
7468000 0.0549236544123 0.73130708399
7469500 0.055687802568 0.73154625126
7471000 0.0563415726249 0.731697217534
7472500 0.0567429216837 0.73195476145
7474000 0.0574485941896 0.732058140376
7475500 0.058051270753 0.732347595686
7477000 0.0588252510235 0.732455439764
7478500 0.059358857571 0.732772639339
7480000 0.0598589484682 0.7330547004
7481500 0.0605955761756 0.733222419755
7483000 0.0613067196579 0.733459599029
7484500 0.0619868933316 0.733639512541
7486000 0.0625063950632 0.73383670899
7487500 0.0630117261543 0.734049306609
7489000 0.0637244211146 0.734224515637
7490500 0.0644556257356 0.73437694165
7492000 0.065098475016 0.734584950636
7493500 0.0656001973336 0.734937608037
7495000 0.06623668776 0.735058703422
7496500 0.066899767375 0.735281306396
7498000 0.0676584976969 0.735452531843
7499500 0.0682564904927 0.735659939648
7501000 0.0686784799833 0.735830579861
7502500 0.0693866779245 0.736019047412
7504000 0.0699886912661 0.73622297252
7505500 0.0707786639664 0.736388735576
7507000 0.0713633334148 0.736639890766
7508500 0.071858244382 0.736869213686
7510000 0.0725710325361 0.737099763658
7511500 0.0732608652761 0.737259811997
7513000 0.0739521203233 0.737406012272
7514500 0.0745137216985 0.737567884896
7516000 0.0750638872157 0.737818075589
7517500 0.0757289529321 0.737871520953
7519000 0.0764263036527 0.738024928148
7520500 0.0770396494978 0.738240824467
7522000 0.0775997945654 0.738508773192
7523500 0.0782733950497 0.738725053918
7525000 0.0788834287522 0.738925861263
7526500 0.0796390807912 0.739049372366
7528000 0.0802668751492 0.739245332391
7529500 0.0807309978992 0.739461711271
7531000 0.0814541473359 0.739575925712
7532500 0.0820411252646 0.739760061331
7534000 0.0827609980644 0.739872113391
7535500 0.0833681085811 0.740082559553
7537000 0.0838600958657 0.740398592832
7538500 0.0845945233366 0.740556956184
7540000 0.0852403203126 0.740695833005
7541500 0.085982505126 0.740810501715
7543000 0.0864817983662 0.740993305836
7544500 0.0870612329847 0.741193747671
7546000 0.0877325660859 0.741282117685
7547500 0.0884230051901 0.741396299972
7549000 0.0891251307641 0.74157418554
7550500 0.0896909496362 0.741852795667
7552000 0.090290803689 0.742039185797
7553500 0.0909294210825 0.742159828595
7555000 0.0916616995876 0.742308939412
7556500 0.0923079659361 0.742482194862
7558000 0.0927937817725 0.74266449223
7559500 0.0934576552016 0.742750118505
7561000 0.0941012876966 0.742959691042
7562500 0.0947961228646 0.743015393395
7564000 0.0954473561049 0.743200069474
7565500 0.0960210284847 0.743492043846
7567000 0.0966697502784 0.743574580379
7568500 0.0973566579883 0.743790254191
7570000 0.0980938632106 0.743916491338
7571500 0.0986452646322 0.743945285373
7573000 0.0991572473961 0.744208978777
7574500 0.099817440188 0.744283443181
7576000 0.100471023349 0.744369350743
7577500 0.10117973429 0.74446705975
7579000 0.10175028069 0.744768281697
7580500 0.10236550399 0.744973658405
7582000 0.103051717185 0.745059407017
7583500 0.103768805799 0.745183479522
7585000 0.104377965117 0.745299421542
7586500 0.104968612269 0.745531680982
7588000 0.105561813638 0.745628744942
7589500 0.106192972715 0.745740789065
7591000 0.106931416741 0.745755412996
7592500 0.107518197133 0.745951960231
7594000 0.108132967986 0.74624946147
7595500 0.10879398827 0.746300401284
7597000 0.109246841155 0.746714377542
7598500 0.110083779077 0.746530952849
7600000 0.11071525212 0.746657280202
7601500 0.111368836386 0.746836776062
7603000 0.11187131034 0.747017947464
7604500 0.112677411216 0.747040555516
7606000 0.113281581346 0.747139420821
7607500 0.113846844488 0.747289212921
7609000 0.114461790623 0.747436967612
7610500 0.115136264138 0.747572309859
7612000 0.115823312076 0.747579939624
7613500 0.116503904288 0.747773916334
7615000 0.117056694815 0.747970332215
7616500 0.117650444668 0.748130527184
7618000 0.118318208879 0.748187347081
7619500 0.119006051194 0.748243212251
7621000 0.119628700468 0.748309568191
7622500 0.120283706873 0.748424232267
7624000 0.12085521694 0.74866891238
7625500 0.121568632705 0.748723907215
7627000 0.122175300662 0.748808963246
7628500 0.122872694147 0.748936001729
7630000 0.123433903628 0.749100819156
7631500 0.124100379325 0.749218120223
7633000 0.124771362391 0.749238948043
7634500 0.125401580652 0.749318354061
7636000 0.125975916337 0.749460529573
7637500 0.1266371545 0.749617837047
7639000 0.127225151854 0.749723765277
7640500 0.127932872615 0.749750945215
7642000 0.12854987444 0.749920356566
7643500 0.129244127527 0.750005901481
7645000 0.129789613691 0.750187473575
7646500 0.130481225481 0.750202235261
7648000 0.131150676565 0.750244356657
7649500 0.131773637475 0.750307237748
7651000 0.132365940957 0.750481703147
7652500 0.132995688285 0.75062408188
7654000 0.133648459257 0.750625018516
7655500 0.134298454015 0.750738418712
7657000 0.134938466936 0.75088316788
7658500 0.135562862935 0.75104405957
7660000 0.136172998658 0.751143696039
7661500 0.136883226218 0.751113479195
7663000 0.137480869295 0.751168994232
7664500 0.138114946569 0.75124328093
7666000 0.138749792148 0.751421808165
7667500 0.139361225479 0.751501862193
7669000 0.14002681288 0.751525478597
7670500 0.140672221978 0.751605292288
7672000 0.141319657226 0.751741361575
7673500 0.141915219483 0.751846074535
7675000 0.142590871452 0.751902294938
7676500 0.143240786099 0.751848767266
7678000 0.143852861011 0.752002830303
7679500 0.144474332666 0.752066443343
7681000 0.145117111557 0.752274277363
7682500 0.145746991255 0.752257496384
7684000 0.146375949405 0.752263841819
7685500 0.147070276886 0.752429915135
7687000 0.147665985424 0.752522610978
7688500 0.148302167083 0.75263778408
7690000 0.148994306091 0.752562901663
7691500 0.149541431043 0.752681054186
7693000 0.15019205871 0.75270827359
7694500 0.15085235506 0.752786005055
7696000 0.151480132271 0.752919194557
7697500 0.152129298759 0.752893619132
7699000 0.152773987915 0.753020879908
7700500 0.153373511345 0.753099046314
7702000 0.154020747966 0.753157484856
7703500 0.154637220511 0.753238589513
7705000 0.1552872598 0.753222548183
7706500 0.155894203801 0.753234106425
7708000 0.156528554668 0.753341915804
7709500 0.157198679487 0.753440538168
7711000 0.157796674249 0.753474786377
7712500 0.158450008856 0.753500127378
7714000 0.159075104349 0.75359099565
7715500 0.159716260333 0.753734213756
7717000 0.160381206071 0.753768880252
7718500 0.160964773879 0.753711807354
7720000 0.161617160131 0.753781978419
7721500 0.162220742672 0.753795443799
7723000 0.162894606997 0.753891091799
7724500 0.163516998826 0.754004150687
7726000 0.164154773556 0.753948503474
7727500 0.164743943492 0.754061068516
7729000 0.165386281605 0.754114531171
7730500 0.16606207295 0.754174497059
7732000 0.166695525926 0.754227107384
7733500 0.167315988164 0.754189481514
7735000 0.167920254287 0.754209559276
7736500 0.168589582544 0.75424600191
7738000 0.169198024795 0.754344720527
7739500 0.169819012866 0.754367387507
7741000 0.170481382168 0.754360753232
7742500 0.171091627502 0.754443721965
7744000 0.171733077597 0.754540792398
7745500 0.172357516253 0.754586788528
7747000 0.173016129276 0.754515921285
7748500 0.173600748969 0.7545737008
7750000 0.174234475617 0.754560130035
7751500 0.174912367094 0.754617225283
7753000 0.175471793493 0.754655719033
7754500 0.176141686706 0.754698059238
7756000 0.17673608512 0.754675412606
7757500 0.177385222072 0.754737058519
7759000 0.178063673955 0.7548127971
7760500 0.178627590411 0.754911453569
7762000 0.179315083642 0.754822897066
7763500 0.17991755454 0.754828183943
7765000 0.18051251311 0.754847879626
7766500 0.181150809415 0.754872684068
7768000 0.181792870019 0.754936468973
7769500 0.182424033563 0.754892057119
7771000 0.18303976407 0.754910785795
7772500 0.183657416959 0.754935484375
7774000 0.184330701297 0.75506977151
7775500 0.184908555638 0.755126753969
7777000 0.185566775131 0.755045477928
7778500 0.186167765324 0.754975470005
7780000 0.186814185975 0.755006435758
7781500 0.187456253892 0.755088193295
7783000 0.188051224355 0.755061712673
7784500 0.188699227155 0.754988543559
7786000 0.189333410887 0.755051352776
7787500 0.189942344345 0.755175699387
7789000 0.190602167795 0.755224718943
7790500 0.191174008874 0.755161932827
7792000 0.191819732001 0.755108929282
7793500 0.192442545589 0.75510178673
7795000 0.193057906224 0.755115294188
7796500 0.193660974772 0.755203678474
7798000 0.194293429314 0.755086231571
7799500 0.194916810555 0.755069114058
7801000 0.195543750302 0.755170879667
7802500 0.196190059237 0.755235816449
7804000 0.196791397228 0.755257860422
7805500 0.197443583726 0.755169099823
7807000 0.198045023571 0.755134185951
7808500 0.198660010417 0.755113678405
7810000 0.199244153196 0.755164829025
7811500 0.199941892864 0.755177358245
7813000 0.200512840296 0.755103809584
7814500 0.201141007251 0.755091420207
7816000 0.201833444835 0.755153502547
7817500 0.202376337971 0.755223997853
7819000 0.20304808084 0.755143135102
7820500 0.20369258053 0.755107632031
7822000 0.204236555011 0.755114673943
7823500 0.20492479157 0.755118283552
7825000 0.205519748628 0.75509566446
7826500 0.20610082015 0.755038477057
7828000 0.206739145307 0.755010919366
7829500 0.207404613268 0.755086152812
7831000 0.207969205867 0.755112842374
7832500 0.208624579076 0.755097008247
7834000 0.209212426215 0.75502299368
7835500 0.209847561389 0.754951554964
7837000 0.210484181602 0.754948199742
7838500 0.21104386162 0.754945452278
7840000 0.211703933638 0.754938656958
7841500 0.212304717717 0.754867317746
7843000 0.212953528236 0.754815467991
7844500 0.213585637232 0.75490485425
7846000 0.214139775149 0.754917126748
7847500 0.214840319569 0.754845353576
7849000 0.215434398959 0.75482102978
7850500 0.216032852179 0.754758352863
7852000 0.216637763569 0.754725057548
7853500 0.217207870625 0.754749027231
7855000 0.217860686781 0.754599633855
7856500 0.218515965722 0.754622662304
7858000 0.219117024991 0.754624892468
7859500 0.219726940525 0.754702741853
7861000 0.220335311643 0.754687169518
7862500 0.220959436513 0.754550383553
7864000 0.221576266019 0.754488244478
7865500 0.222178708795 0.754421857796
7867000 0.222814835814 0.754437026338
7868500 0.223441687314 0.754393978844
7870000 0.224028519676 0.754338482748
7871500 0.224658188041 0.754311658465
7873000 0.225291579872 0.754371010036
7874500 0.225907390914 0.754364299925
7876000 0.226489742393 0.754270551887
7877500 0.227094651733 0.754242295955
7879000 0.227717307631 0.754082425988
7880500 0.228280914632 0.754047260182
7882000 0.228896396866 0.754094783297
7883500 0.229562596484 0.754024877561
7885000 0.23012985555 0.753946063821
7886500 0.230763168108 0.753943246909
7888000 0.23145481306 0.75396813689
7889500 0.232061229542 0.753913820867
7891000 0.232657650114 0.753817288107
7892500 0.233210042534 0.753743938102
7894000 0.233838368853 0.753694760146
7895500 0.234464496555 0.753654477589
7897000 0.235041824711 0.753624679733
7898500 0.235666246912 0.753532848581
7900000 0.236282909238 0.753461750866
7901500 0.236886664633 0.753361379147
7903000 0.237540692887 0.753405988678
7904500 0.238097464064 0.753435565173
7906000 0.238755088567 0.753379096364
7907500 0.239357675026 0.753229893291
7909000 0.239966779525 0.753175719269
7910500 0.240504830218 0.753104381418
7912000 0.241123634252 0.753121578314
7913500 0.241771715792 0.753008084272
7915000 0.242429513519 0.752885149573
7916500 0.242957835994 0.752852387964
7918000 0.243573412646 0.752924392265
7919500 0.244228776081 0.752931542395
7921000 0.244830668976 0.752771089156
7922500 0.24541835522 0.752611866947
7924000 0.245988325216 0.752511874481
7925500 0.246592264018 0.752554792263
7927000 0.24721236031 0.752509391735
7928500 0.247792477543 0.752377712736
7930000 0.248443708387 0.752257583362
7931500 0.249058231135 0.752252046001
7933000 0.249725651549 0.752357505042
7934500 0.250301642318 0.752199959787
7936000 0.250907726129 0.752039725707
7937500 0.251460852025 0.751982450992
7939000 0.252055164704 0.751864575719
7940500 0.252637295969 0.751839594781
7942000 0.253200730474 0.751771893312
7943500 0.253873277394 0.751599423965
7945000 0.254504511772 0.751551232933
7946500 0.255084004145 0.751584214564
7948000 0.255738648164 0.751529348583
7949500 0.256328806777 0.751480120282
7951000 0.256912757327 0.75129006372
7952500 0.257491998206 0.751203331468
7954000 0.258120444241 0.751153051683
7955500 0.258685313623 0.751127261337
7957000 0.259252368789 0.751045098039
7958500 0.259850195927 0.750854180881
7960000 0.260515701239 0.750843301222
7961500 0.261111049111 0.750814984053
7963000 0.261703187678 0.75081646857
7964500 0.262349729979 0.750649556582
7966000 0.262872174366 0.750482073057
7967500 0.263450081386 0.750381304162
7969000 0.264049566009 0.750285791605
7970500 0.264690507677 0.75023959319
7972000 0.265271762467 0.750147831274
7973500 0.265861341182 0.750025253626
7975000 0.266493814757 0.750024399443
7976500 0.267081265304 0.749964256002
7978000 0.267747685691 0.749881732751
7979500 0.268296774321 0.74969487839
7981000 0.268853158011 0.74961943777
7982500 0.269443060196 0.749530539494
7984000 0.270155190232 0.749428578572
7985500 0.270646344771 0.749305768703
7987000 0.271247179072 0.749194640124
7988500 0.271862224633 0.749165210597
7990000 0.272454277304 0.749122232102
7991500 0.273044813181 0.74903058235
7993000 0.273625620759 0.748891722433
7994500 0.274222851242 0.748717831115
7996000 0.274823015455 0.748609676248
7997500 0.275391879502 0.748543659259
7999000 0.276033297104 0.748397441737
8000500 0.276552935114 0.748319641758
8002000 0.277171784713 0.748231712818
8003500 0.277757608528 0.748192428866
8005000 0.278396183674 0.748147069239
8006500 0.279011852446 0.748022577247
8008000 0.279526041794 0.747871964915
8009500 0.280113553666 0.74770175365
8011000 0.280784943728 0.74767265017
8012500 0.28130723124 0.747540901889
8014000 0.281941654861 0.74746457808
8015500 0.282480554656 0.747267832916
8017000 0.283087615989 0.747222578711
8018500 0.283689717465 0.747094235316
8020000 0.284333246911 0.747103024825
8021500 0.28488077877 0.746904614985
8023000 0.285464074986 0.746736857252
8024500 0.28598938557 0.746670501038
8026000 0.286625833378 0.746518207757
8027500 0.28721523145 0.746370925508
8029000 0.287742004354 0.746281136959
8030500 0.288365857087 0.746123691979
8032000 0.288991914328 0.746108570242
8033500 0.289536906127 0.746064077854
8035000 0.290270045276 0.746016870219
8036500 0.290708424444 0.745737280794
8038000 0.291283599651 0.745607787222
8039500 0.291864114559 0.745473800547
8041000 0.29238624862 0.74535834736
8042500 0.293066981092 0.745241379196
8044000 0.293613967577 0.745070456118
8045500 0.294269143584 0.745009329795
8047000 0.294895993351 0.744983499522
8048500 0.295477803603 0.744978597643
8050000 0.296031664929 0.744661947957
8051500 0.296569619392 0.744609061799
8053000 0.297123205081 0.744477903947
8054500 0.297729193854 0.744244286601
8056000 0.29828913855 0.74416271117
8057500 0.298855301272 0.744049086644
8059000 0.299451322014 0.743821686662
8060500 0.300056652697 0.743698589099
8062000 0.30066385176 0.743614333428
8063500 0.301182353465 0.74352084319
8065000 0.301865932556 0.74340202986
8066500 0.302367506825 0.743215692521
8068000 0.302997197014 0.743062128335
8069500 0.303488102238 0.742992240578
8071000 0.304094696267 0.742838971642
8072500 0.304702262863 0.742703102707
8074000 0.305231887672 0.742579679696
8075500 0.305785694814 0.742430613098
8077000 0.306386643233 0.742300541668
8078500 0.307037056542 0.74222341456
8080000 0.307600326003 0.742043350553
8081500 0.30812066194 0.741941321308
8083000 0.308703508924 0.741742489931
8084500 0.309278238575 0.741629954158
8086000 0.309888145068 0.741452764976
8087500 0.310389426996 0.741237665016
8089000 0.31096334656 0.741215704485
8090500 0.311556007016 0.741109972318
8092000 0.312166668743 0.740949711865
8093500 0.312745596985 0.740868496668
8095000 0.313371113874 0.740762304475
8096500 0.313933449014 0.740562655252
8098000 0.314420663454 0.740327505968
8099500 0.314973623154 0.740242998651
8101000 0.315550973944 0.740112339338
8102500 0.316139512579 0.739958876314
8104000 0.316696522668 0.73977929689
8105500 0.317304868086 0.739595259481
8107000 0.317864987881 0.73953409052
8108500 0.318511498946 0.739404132101
8110000 0.319090658776 0.739309695649
8111500 0.319550562476 0.739031539208
8113000 0.320123045383 0.7389377713
8114500 0.320805897936 0.738704633864
8116000 0.321283353084 0.738647393528
8117500 0.3217985686 0.738396400107
8119000 0.322398636937 0.738225915386
8120500 0.322974707686 0.73816424466
8122000 0.323632095151 0.738111711056
8123500 0.324117461178 0.737887820745
8125000 0.324733995026 0.737695438962
8126500 0.325229336142 0.737623313873
8128000 0.325812113376 0.737334737231
8129500 0.326484195629 0.737121439918
8131000 0.326960079614 0.737116639529
8132500 0.327478487842 0.736921135794
8134000 0.328075514251 0.736742238934
8135500 0.328663097335 0.736606417449
8137000 0.329281081454 0.736460166656
8138500 0.329890714921 0.736297447745
8140000 0.330330994372 0.736137898397
8141500 0.330906163902 0.735959718103
8143000 0.331307180981 0.735811965558
8144500 0.331956242604 0.735637961311
8146000 0.332537753314 0.735467135607
8147500 0.333113989196 0.735283061217
8149000 0.333767130756 0.735142072959
8150500 0.334315590155 0.735092594355
8152000 0.334864473425 0.734851616477
8153500 0.335409300896 0.73461130458
8155000 0.33594206968 0.734469854666
8156500 0.336452576615 0.73428729649
8158000 0.337055419839 0.734260065581
8159500 0.337605882354 0.734069199931
8161000 0.3381518394 0.733839647284
8162500 0.338730803451 0.733651278803
8164000 0.339335361918 0.733484801583
8165500 0.339963631732 0.733335825594
8167000 0.340503051165 0.733175135141
8168500 0.341023864869 0.73295740846
8170000 0.341516090992 0.732816058087
8171500 0.342112126584 0.732626891001
8173000 0.342684283771 0.732442693124
8174500 0.343134047248 0.732259144166
8176000 0.343740493383 0.732075299904
8177500 0.344266772197 0.731942085308
8179000 0.344876207365 0.731867181692
8180500 0.345405781794 0.731654646473
8182000 0.34599136617 0.731403612322
8183500 0.346478166259 0.731171917884
8185000 0.347031810878 0.731076320381
8186500 0.347623368616 0.730968299438
8188000 0.348185956438 0.730770613104
8189500 0.348692377114 0.73049126218
8191000 0.349301739443 0.730326785499
8192500 0.349832038354 0.730162824693
8194000 0.350453987588 0.730079364695
8195500 0.351023600312 0.729790311371
8197000 0.351497136044 0.729607338294
8198500 0.351997953763 0.729447782318
8200000 0.352603501562 0.7292294711
8201500 0.353163905451 0.729080652132
8203000 0.353682186679 0.728814927002
8204500 0.354209767464 0.728713807849
8206000 0.354786777037 0.728483933882
8207500 0.355348933126 0.728298613256
8209000 0.355857365706 0.728217320574
8210500 0.356506639811 0.728088392329
8212000 0.357053918924 0.727843401559
8213500 0.357494487305 0.727613583866
8215000 0.358078913788 0.727390051015
8216500 0.358584437324 0.727315841165
8218000 0.359105122366 0.727044798645
8219500 0.35965895622 0.726844272933
8221000 0.360259916859 0.726647801191
8222500 0.360775066474 0.726535935069
8224000 0.361313070367 0.726322342991
8225500 0.361933426996 0.726062657265
8227000 0.362479215828 0.725875853307
8228500 0.362980072874 0.725693454513
8230000 0.363544966999 0.725451840568
8231500 0.364071939265 0.725340048695
8233000 0.364619658347 0.725094652823
8234500 0.365160439044 0.724937915183
8236000 0.365709445455 0.724756229622
8237500 0.366270676087 0.72457538343
8239000 0.366922473647 0.724411219771
8240500 0.367363054899 0.724120651626
8242000 0.367834488721 0.723956105197
8243500 0.368381455467 0.723760553438
8245000 0.368941773855 0.723600004366
8246500 0.369442395538 0.723311432686
8248000 0.370031376139 0.723148015051
8249500 0.370538800486 0.722921095513
8251000 0.371146511673 0.722768616864
8252500 0.371721302827 0.722691204236
8254000 0.372187018005 0.7223727098
8255500 0.372767070658 0.722135115094
8257000 0.373222561639 0.721956632943
8258500 0.373763978573 0.721706857284
8260000 0.374361204975 0.721555455688
8261500 0.374868837483 0.721257756578
8263000 0.37536075623 0.721178569368
8264500 0.375913587845 0.720940864441
8266000 0.376451678492 0.720793275738
8267500 0.377026958861 0.720523324222
8269000 0.377601070528 0.72037900169
8270500 0.378087225179 0.72014002375
8272000 0.378593318332 0.719878191134
8273500 0.379116694866 0.719645054306
8275000 0.379691700441 0.719528847542
8276500 0.380177941048 0.719254574795
8278000 0.380693688273 0.719080784245
8279500 0.381290950661 0.718917754431
8281000 0.38196239603 0.718788246987
8282500 0.382458476548 0.718476207307
8284000 0.382846812527 0.718257101701
8285500 0.383375411901 0.718075101248
8287000 0.383963961782 0.717750827213
8288500 0.384504446865 0.717618305261
8290000 0.385034615083 0.717533603522
8291500 0.385483836302 0.717132430064
8293000 0.386075816414 0.716964266533
8294500 0.386653442917 0.71679082843
8296000 0.387162746092 0.716469733084
8297500 0.387703927529 0.716374350531
8299000 0.388164211339 0.716104831746
8300500 0.388676936713 0.715884391895
8302000 0.389178112891 0.71569623286
8303500 0.389710323392 0.715479746083
8305000 0.390290337763 0.715243857347
8306500 0.390814913013 0.715018195339
8308000 0.391446233003 0.714824245616
8309500 0.391790799481 0.714590558085
8311000 0.392446822843 0.714465506137
8312500 0.392969494545 0.714176286762
8314000 0.393457227137 0.713953327435
8315500 0.393957494779 0.713707287968
8317000 0.394446869047 0.713477932585
8318500 0.395028327168 0.713306288623
8320000 0.395571222072 0.714594330769
8321500 0.396247126952 0.712774667235
8323000 0.396648134265 0.712679794715
8324500 0.397186238777 0.712508281653
8326000 0.397664618157 0.712165473997
8327500 0.398199063392 0.71194142181
8329000 0.398669382294 0.711730161876
8330500 0.399212085865 0.711532670035
8332000 0.399760919135 0.711255205478
8333500 0.400252071701 0.710944367106
8335000 0.400800713341 0.710809277611
8336500 0.401331701459 0.710608509176
8338000 0.401891266135 0.710332057917
8339500 0.402356984764 0.710211660256
8341000 0.402892197269 0.709942552816
8342500 0.403388710567 0.709659776988
8344000 0.403821044932 0.709464119512
8345500 0.404384116418 0.709213388257
8347000 0.404937170291 0.708953293114
8348500 0.405429826864 0.708766428196
8350000 0.405968629985 0.708576439645
8351500 0.406531996988 0.708279437618
8353000 0.406981711484 0.708116801341
8354500 0.407542941564 0.707851269121
8356000 0.408120660696 0.707672092716
8357500 0.408568185013 0.707336059174
8359000 0.409075617256 0.70704329556
8360500 0.409586484457 0.706838441279
8362000 0.410115543775 0.706599598971
8363500 0.410642831393 0.706325439314
8365000 0.411149409465 0.706201441301
8366500 0.411664397529 0.705955934182
8368000 0.412217955483 0.705733377369
8369500 0.41269593237 0.705478208933
8371000 0.413280249691 0.70522884997
8372500 0.413686605923 0.704987961803
8374000 0.414216716909 0.704809847066
8375500 0.414641923241 0.704495453327
8377000 0.415256592555 0.704292950115
8378500 0.415767199095 0.704074883311
8380000 0.416330978105 0.703806472208
8381500 0.416821062213 0.703549887859
8383000 0.417274635576 0.703346920397
8384500 0.417872205489 0.70310545729
8386000 0.418340808694 0.702886871063
8387500 0.418855386355 0.702640908319
8389000 0.419334169578 0.702396931917
8390500 0.419789048913 0.702104019531
8392000 0.420321739149 0.701819958116
8393500 0.420852628345 0.70156404135
8395000 0.421436422959 0.701359262929
8396500 0.421841535938 0.701097661039
8398000 0.422389109342 0.70088544646
8399500 0.422915240458 0.700673379465
8401000 0.423408121861 0.700383676334
8402500 0.423932022537 0.700090721853
8404000 0.424385057012 0.69988616365
8405500 0.424933374633 0.699630368206
8407000 0.425439125784 0.699360725744
8408500 0.425919484624 0.699157410775
8410000 0.426433926853 0.698940296626
8411500 0.42698289837 0.69862201898
8413000 0.427476935988 0.698395612742
8414500 0.427995474994 0.698155436213
8416000 0.428507031048 0.697860207455
8417500 0.428936694586 0.697728307479
8419000 0.429410358184 0.69728343308
8420500 0.429981596027 0.697062853611
8422000 0.430474499727 0.696886328997
8423500 0.430963389436 0.696635811455
8425000 0.431564246464 0.696428705059
8426500 0.432004969578 0.696152280708
8428000 0.432602690311 0.69585585534
8429500 0.433047352302 0.695571360734
8431000 0.433476766956 0.695362900839
8432500 0.433970232954 0.695117746383
8434000 0.434462001166 0.694792931537
8435500 0.434963841887 0.694602747895
8437000 0.435518474805 0.694350055343
8438500 0.435971836783 0.693999917856
8440000 0.436556967873 0.693785306243
8441500 0.437022376545 0.693564776048
8443000 0.437511145655 0.693318535621
8444500 0.437951262327 0.693040030554
8446000 0.438514256371 0.692743420269
8447500 0.439050589116 0.692579129619
8449000 0.439488908423 0.692225285341
8450500 0.439965016945 0.691999297968
8452000 0.440485310836 0.691740326687
8453500 0.441035193702 0.691464058152
8455000 0.441488255544 0.69121935184
8456500 0.442005701356 0.690982779974
8458000 0.44245506722 0.690645318906
8459500 0.443010997621 0.690436589382
8461000 0.44347437424 0.690197545348
8462500 0.443982727775 0.689928912882
8464000 0.444389155606 0.689601626536
8465500 0.444913860934 0.689375721327
8467000 0.445452499398 0.689107094825
8468500 0.44595078254 0.688801780512
8470000 0.446459681787 0.68860499482
8471500 0.446927805486 0.688302770616
8473000 0.447371129173 0.688044719628
8474500 0.447893877844 0.687733906363
8476000 0.448469859641 0.687545245821
8477500 0.448836219852 0.687174295394
8479000 0.449378303053 0.686959181409
8480500 0.449830756852 0.686641266867
8482000 0.450373974471 0.686440612154
8483500 0.450868161101 0.686213664516
8485000 0.451412867657 0.685843596041
8486500 0.45183691021 0.685627756862
8488000 0.452276649016 0.685317927042
8489500 0.452829982286 0.685095193362
8491000 0.453306931749 0.684772028974
8492500 0.453794292832 0.684472011236
8494000 0.454241814346 0.684193607206
8495500 0.4546789395 0.683977588918
8497000 0.455274202554 0.683702367081
8498500 0.455769965158 0.683373673607
8500000 0.456246337743 0.683140473292
