! Calibrated averaged scanner-service zoom
# Hz S RI R 50
902000000 0.156438277658 -0.345753563434
902013000 0.155729530439 -0.343348417885
902026000 0.155008769402 -0.340659143326
902039000 0.155417986344 -0.341149789836
902052000 0.155536168714 -0.341041739223
902065000 0.15950407481 -0.339454854621
902078000 0.154089694871 -0.340203578763
902091000 0.153241300148 -0.335178665556
902104000 0.153720166343 -0.339161974791
902117000 0.157631785162 -0.340734504101
902130000 0.154670289472 -0.342260707029
902143000 0.155534697112 -0.341405156363
902156000 0.153973785419 -0.339031848755
902169000 0.154602667556 -0.338145186889
902182000 0.154886793215 -0.34174315623
902195000 0.155525538514 -0.337542232283
902208000 0.155227535179 -0.33837024017
902221000 0.154826621939 -0.336786240637
902234000 0.152011174563 -0.3372861789
902247000 0.153432762578 -0.339241661845
902260000 0.151216588529 -0.341055743386
902273000 0.154922868261 -0.340788106587
902286000 0.154786952108 -0.338783864236
902299000 0.153388433898 -0.335756636226
902312000 0.153872473206 -0.336097615411
902325000 0.15485963209 -0.337683820945
902338000 0.152478522507 -0.335942299654
902351000 0.153555993904 -0.335121074044
902364000 0.152512534431 -0.334392828048
902377000 0.149358860131 -0.33703932939
902390000 0.152804836614 -0.337348292922
902403000 0.15143057135 -0.334792444853
902416000 0.148956078711 -0.332947670107
902429000 0.152957921056 -0.332793988024
902442000 0.148958106651 -0.335354567566
902455000 0.150615615566 -0.336734520971
902468000 0.152568050203 -0.331960802631
902481000 0.150570838233 -0.336348642189
902494000 0.151142487085 -0.332992561801
902507000 0.152496838895 -0.335328346692
902520000 0.1503778608 -0.335345724777
902533000 0.150612287314 -0.333135842776
902546000 0.15143672856 -0.333908709282
902559000 0.146895510968 -0.334556272531
902572000 0.146784716407 -0.330593995224
902585000 0.148532617885 -0.334661851839
902598000 0.146125403677 -0.335993061333
902611000 0.149979334325 -0.335741321608
902624000 0.150050983845 -0.334916909645
902637000 0.152039372095 -0.33445346365
902650000 0.151730364915 -0.335897050292
902663000 0.15177831032 -0.333937944669
902676000 0.153226038597 -0.333789647367
902689000 0.149496477786 -0.331628140004
902702000 0.148529996634 -0.329733114227
902715000 0.149813405968 -0.330229586747
902728000 0.150187856989 -0.331113190734
902741000 0.147399594315 -0.329619809849
902754000 0.146931761462 -0.326951817148
902767000 0.145929502354 -0.331104652802
902780000 0.14521197364 -0.332384745286
902793000 0.143790470293 -0.333464959765
902806000 0.147895588318 -0.332940880786
902819000 0.147014866515 -0.331638792833
902832000 0.143454279349 -0.328705677096
902845000 0.145103889339 -0.327129003666
902858000 0.144776302017 -0.32926254136
902871000 0.143740247921 -0.328720855767
902884000 0.146184897045 -0.327137856568
902897000 0.147143893672 -0.327982859779
902910000 0.145358576554 -0.32962972705
902923000 0.144080165836 -0.329463693872
902936000 0.143796718883 -0.328425831056
902949000 0.144937540578 -0.32969093119
902962000 0.144650340362 -0.328749818148
902975000 0.147187714461 -0.328838124322
902988000 0.145502456461 -0.328879165042
903001000 0.145350450442 -0.328570686642
903014000 0.14679825519 -0.328979192058
903027000 0.148732902134 -0.33017947846
903040000 0.152793630261 -0.331776184567
903053000 0.149567934855 -0.32772793074
903066000 0.149337113914 -0.326892353197
903079000 0.14891274573 -0.328040293641
903092000 0.147276095208 -0.324461156879
903105000 0.14680238767 -0.324082446245
903118000 0.145009313267 -0.322069948481
903131000 0.145339889439 -0.321275564124
903144000 0.14360904709 -0.323220002132
903157000 0.140697743738 -0.323129569366
903170000 0.141494536709 -0.325249036891
903183000 0.142574900742 -0.322209414973
903196000 0.141822483393 -0.323089051557
903209000 0.141447975077 -0.323664227879
903222000 0.140571572726 -0.326865770757
903235000 0.139502019223 -0.322545996773
903248000 0.140867008353 -0.322975289308
903261000 0.140505168649 -0.321591137705
903274000 0.142679496028 -0.324163525676
903287000 0.143064403394 -0.322653505838
903300000 0.140174694851 -0.322940784514
903313000 0.142856552653 -0.322570376527
903326000 0.13927632924 -0.326219979729
903339000 0.139243743902 -0.324792718292
903352000 0.13839447835 -0.32521823385
903365000 0.139981254218 -0.324805158323
903378000 0.141924270752 -0.322058664601
903391000 0.141422155256 -0.318074850727
903404000 0.140877715906 -0.319689114153
903417000 0.140408480427 -0.317458070002
903430000 0.140646300624 -0.31959332188
903443000 0.140543181453 -0.320962372648
903456000 0.14161593931 -0.321169693218
903469000 0.137325535496 -0.31890831987
903482000 0.135949839786 -0.310561353465
903495000 0.140669421888 -0.315625978117
903508000 0.143547662145 -0.319338811587
903521000 0.139391748997 -0.321308183039
903534000 0.140211469317 -0.317734870969
903547000 0.139847425126 -0.317252202414
903560000 0.137579571441 -0.319627160402
903573000 0.13783337783 -0.318199150704
903586000 0.139020060591 -0.31655671765
903599000 0.138744106131 -0.316364229737
903612000 0.139209994066 -0.316904146205
903625000 0.136789586865 -0.317146331978
903638000 0.138042816284 -0.31760766895
903651000 0.136953979861 -0.317286945259
903664000 0.13816986771 -0.312697647334
903677000 0.137436433543 -0.317485048901
903690000 0.136734568773 -0.317091584369
903703000 0.138583952903 -0.315055827107
903716000 0.137026421196 -0.314651413159
903729000 0.134535921341 -0.313796160315
903742000 0.136276839747 -0.315489268814
903755000 0.137643764247 -0.314094153254
903768000 0.138131755708 -0.314384279904
903781000 0.135660903405 -0.316476815079
903794000 0.137603257937 -0.314735912718
903807000 0.135190247774 -0.314428233196
903820000 0.13813837103 -0.312869269059
903833000 0.136467549905 -0.313212304091
903846000 0.134897533619 -0.309939711469
903859000 0.132088202066 -0.313896427635
903872000 0.134395817231 -0.313210981979
903885000 0.131757593326 -0.316057623394
903898000 0.132886369188 -0.314568912094
903911000 0.131898026678 -0.312896428391
903924000 0.131689249747 -0.31483959747
903937000 0.133668225913 -0.312235336817
903950000 0.136056950717 -0.310808467445
903963000 0.135842805798 -0.3149930867
903976000 0.135854872529 -0.309831382096
903989000 0.133773169566 -0.308610836002
904002000 0.135968626143 -0.310489698868
904015000 0.137516195943 -0.310023625474
904028000 0.133683202601 -0.30998162913
904041000 0.134220823654 -0.312201573954
904054000 0.13220568787 -0.314622261457
904067000 0.130497201025 -0.311505818709
904080000 0.130976443484 -0.312786244134
904093000 0.133263232292 -0.30939567855
904106000 0.131271417608 -0.310686597154
904119000 0.133272506499 -0.30992235544
904132000 0.133171768902 -0.307402174974
904145000 0.131849566645 -0.307337123207
904158000 0.127239891999 -0.305856072758
904171000 0.125766150213 -0.30618502223
904184000 0.132958237777 -0.305785341179
904197000 0.13373652988 -0.305369093935
904210000 0.131964089533 -0.308557581576
904223000 0.131228969394 -0.305754817196
904236000 0.130283647595 -0.304336285411
904249000 0.128698933318 -0.30741602388
904262000 0.126525977691 -0.3074301343
904275000 0.133421506537 -0.306973619037
904288000 0.129750653245 -0.304888485422
904301000 0.130416943449 -0.307241771684
904314000 0.13128901045 -0.303997590283
904327000 0.132823139145 -0.305555349863
904340000 0.129656166173 -0.303138545836
904353000 0.129800740683 -0.302132787832
904366000 0.128239018869 -0.299306041408
904379000 0.127298041951 -0.302427367897
904392000 0.129060107623 -0.302809545175
904405000 0.127985133124 -0.301622588043
904418000 0.132237783988 -0.304264472024
904431000 0.130910115075 -0.304691878722
904444000 0.130170072425 -0.303620619412
904457000 0.130410374738 -0.303436700519
904470000 0.126568615063 -0.301966229614
904483000 0.129685663422 -0.302510574916
904496000 0.129549086022 -0.303191266249
904509000 0.129638461516 -0.303409626701
904522000 0.128334606391 -0.305239756739
904535000 0.129567818249 -0.3000115536
904548000 0.131283577103 -0.301181408246
904561000 0.125627627859 -0.302050422619
904574000 0.127024904113 -0.302637255837
904587000 0.124423906686 -0.298498893515
904600000 0.127368509819 -0.301294443434
904613000 0.12776950391 -0.302186165939
904626000 0.128154707986 -0.305067710004
904639000 0.125998938061 -0.297733808369
904652000 0.123837750481 -0.301303933413
904665000 0.126455290849 -0.300526399561
904678000 0.127446676055 -0.302139506218
904691000 0.126502251214 -0.299689201231
904704000 0.125452199127 -0.300383969696
904717000 0.124244718391 -0.301076967167
904730000 0.125457573131 -0.299954062015
904743000 0.128631365167 -0.301380494756
904756000 0.124941445259 -0.299937347328
904769000 0.127926437825 -0.299178116967
904782000 0.126658460075 -0.298125396093
904795000 0.123698671191 -0.297448515377
904808000 0.124969397716 -0.296476245343
904821000 0.125272813804 -0.295564598527
904834000 0.123136908274 -0.2977101738
904847000 0.122488102117 -0.295467130122
904860000 0.119868501499 -0.296968544477
904873000 0.127220067429 -0.295221151312
904886000 0.124401420168 -0.296002379968
904899000 0.126161272242 -0.296447096093
904912000 0.122539857376 -0.297089176849
904925000 0.123441185379 -0.297843001537
904938000 0.12183719208 -0.294515201409
904951000 0.124466770074 -0.292830176465
904964000 0.124051612523 -0.294340845855
904977000 0.126759939006 -0.292483995689
904990000 0.124651115303 -0.293004365392
905003000 0.125005157704 -0.295911135151
905016000 0.125336401166 -0.293617991573
905029000 0.123419613634 -0.292575089683
905042000 0.124432639813 -0.293428496559
905055000 0.121052447966 -0.294606474766
905068000 0.121045055892 -0.293700830543
905081000 0.121875889624 -0.291346337124
905094000 0.120730875786 -0.294622914726
905107000 0.122783457076 -0.291366306277
905120000 0.125930003133 -0.291153983324
905133000 0.1203948175 -0.292374099097
905146000 0.120422727503 -0.292043322849
905159000 0.118718142712 -0.291095039657
905172000 0.122474431487 -0.293059209482
905185000 0.120316131205 -0.287297862335
905198000 0.120857361817 -0.289772464751
905211000 0.123154694321 -0.290377420992
905224000 0.120624619783 -0.287303128025
905237000 0.121354300997 -0.28851549366
905250000 0.120038181972 -0.286482669475
905263000 0.122495290442 -0.289579467932
905276000 0.123261685336 -0.289057818953
905289000 0.119704020943 -0.28578945168
905302000 0.116610437387 -0.287841420782
905315000 0.118952963219 -0.29089416269
905328000 0.119434671942 -0.286147696626
905341000 0.117520474644 -0.290297633194
905354000 0.117044027602 -0.289894463497
905367000 0.11624552071 -0.292285602125
905380000 0.119027151113 -0.289591748124
905393000 0.116567656998 -0.28722227009
905406000 0.116062678715 -0.283764067585
905419000 0.115891881778 -0.285867742833
905432000 0.116617961334 -0.285556310721
905445000 0.115579038817 -0.283616473864
905458000 0.115608176664 -0.283017006457
905471000 0.115430155874 -0.285115957475
905484000 0.116821223467 -0.284051566803
905497000 0.117935843299 -0.282979137901
905510000 0.119056682846 -0.281874965139
905523000 0.120348845777 -0.285713944727
905536000 0.116860236675 -0.283361092137
905549000 0.118316827487 -0.28031416564
905562000 0.116001797872 -0.280543269087
905575000 0.116556815654 -0.284281816862
905588000 0.118539449523 -0.282207661119
905601000 0.120197857901 -0.281615318779
905614000 0.116159183094 -0.28084730706
905627000 0.116944185614 -0.281029919621
905640000 0.117616754258 -0.283922905893
905653000 0.116682040821 -0.28096641719
905666000 0.117568625316 -0.282906240982
905679000 0.118985705466 -0.284707223377
905692000 0.115763942626 -0.28293744659
905705000 0.113652546873 -0.280345038872
905718000 0.113469526139 -0.279878077316
905731000 0.114183002481 -0.277870766716
905744000 0.114849221606 -0.278864760322
905757000 0.116693890499 -0.280519744818
905770000 0.116823114121 -0.282723118671
905783000 0.115508234528 -0.279950235695
905796000 0.113806485105 -0.27991502487
905809000 0.113623741867 -0.276403500329
905822000 0.115582603417 -0.278466924279
905835000 0.117957597581 -0.278547928966
905848000 0.114054423707 -0.278628514844
905861000 0.111596305608 -0.275001797011
905874000 0.113895188466 -0.278713607363
905887000 0.11402806144 -0.279421935557
905900000 0.116992810582 -0.279346568393
905913000 0.116985313972 -0.274476873851
905926000 0.114846796738 -0.276381469668
905939000 0.113960366992 -0.277067536376
905952000 0.115190221327 -0.279973601914
905965000 0.112708675814 -0.27623494903
905978000 0.112746314887 -0.273834814867
905991000 0.111097599075 -0.274014525713
906004000 0.110182597727 -0.272852172161
906017000 0.113640842889 -0.27680107715
906030000 0.112430384115 -0.276277045838
906043000 0.111919459661 -0.275670582738
906056000 0.108547676948 -0.275937003302
906069000 0.114374761898 -0.275322861624
906082000 0.112201567798 -0.276839051172
906095000 0.116347469632 -0.274687011878
906108000 0.112636023391 -0.271634497473
906121000 0.111477565739 -0.268376033919
906134000 0.108932652803 -0.268292792279
906147000 0.110674355304 -0.270018491842
906160000 0.109594900261 -0.269410795475
906173000 0.11079789444 -0.26921553884
906186000 0.111102507945 -0.27246439892
906199000 0.110169804145 -0.268268622806
906212000 0.108797344018 -0.270200005512
906225000 0.106676536574 -0.269891101198
906238000 0.110721741509 -0.272962941888
906251000 0.111597092012 -0.270325985385
906264000 0.108165208831 -0.270957209679
906277000 0.107961445316 -0.268234482613
906290000 0.108576525071 -0.266702265864
906303000 0.112709080286 -0.268623191954
906316000 0.112827797902 -0.271744409421
906329000 0.109910412957 -0.269298590797
906342000 0.108793238976 -0.268285341408
906355000 0.105973393421 -0.270182657684
906368000 0.108610034701 -0.268196278041
906381000 0.107559846933 -0.270603959256
906394000 0.11030089823 -0.267776376842
906407000 0.107848604153 -0.26491016352
906420000 0.110771918597 -0.267614653764
906433000 0.105130189764 -0.268354626976
906446000 0.105596676716 -0.26501462994
906459000 0.107491155354 -0.26547757317
906472000 0.111811072624 -0.265329194462
906485000 0.112695119356 -0.262463299263
906498000 0.115111396044 -0.260795211898
906511000 0.114802593398 -0.261260704857
906524000 0.112594030231 -0.263226016185
906537000 0.107441382104 -0.262830496581
906550000 0.107870885882 -0.262758799436
906563000 0.108790617639 -0.264101921244
906576000 0.108375958632 -0.265069094162
906589000 0.104384965507 -0.26564645193
906602000 0.108608028552 -0.26432510216
906615000 0.110890345612 -0.263905998873
906628000 0.110271262739 -0.260641793707
906641000 0.110849821342 -0.259697785051
906654000 0.109153292996 -0.257587481167
906667000 0.106242018957 -0.260175983338
906680000 0.107294883622 -0.261171283222
906693000 0.106259623148 -0.263780469225
906706000 0.104630707344 -0.260454208501
906719000 0.108511009929 -0.260606087092
906732000 0.108551574643 -0.256749016542
906745000 0.107127042957 -0.261496601934
906758000 0.104584846029 -0.261886867538
906771000 0.103212601281 -0.262031344712
906784000 0.103450589794 -0.256424912945
906797000 0.10289325752 -0.256168586615
906810000 0.103293601933 -0.257214864284
906823000 0.104366068206 -0.256376018037
906836000 0.102892777666 -0.26107565113
906849000 0.104448646978 -0.256725776956
906862000 0.104437748082 -0.255587616115
906875000 0.105043954019 -0.257266596761
906888000 0.106459919156 -0.256043979519
906901000 0.110168757052 -0.258859860087
906914000 0.104987978677 -0.257005773074
906927000 0.102674807725 -0.253045841849
906940000 0.105704489124 -0.255355677509
906953000 0.105622623015 -0.254855944899
906966000 0.105870215513 -0.25609964904
906979000 0.110062465084 -0.255819780594
906992000 0.108338541038 -0.255160389282
907005000 0.104597150646 -0.254308268416
907018000 0.10514778058 -0.25482769441
907031000 0.105942191328 -0.254707494098
907044000 0.105346128323 -0.2546861062
907057000 0.106252509849 -0.253124960345
907070000 0.107371580673 -0.250133773019
907083000 0.101371777038 -0.253466816328
907096000 0.101051842913 -0.252527249919
907109000 0.102680087915 -0.250143157646
907122000 0.104426265721 -0.250276745274
907135000 0.103769053985 -0.248925050719
907148000 0.103329111181 -0.250236404407
907161000 0.103336965538 -0.25074690065
907174000 0.102570831179 -0.249778540875
907187000 0.101485228615 -0.249844112126
907200000 0.102473446677 -0.253071255512
907213000 0.103887052884 -0.249105512311
907226000 0.105002879925 -0.248098872932
907239000 0.103149640439 -0.252146979355
907252000 0.10273479383 -0.249080110323
907265000 0.10015143133 -0.248417324451
907278000 0.106333231869 -0.248342217672
907291000 0.10479750788 -0.249363408176
907304000 0.103825606507 -0.248554064583
907317000 0.104324872452 -0.247973918747
907330000 0.107243862521 -0.247491094871
907343000 0.102959929395 -0.246817727541
907356000 0.10348646295 -0.245644593834
907369000 0.0974756528663 -0.246497248343
907382000 0.0994604245585 -0.24500731145
907395000 0.100502913221 -0.245276314651
907408000 0.101852198514 -0.242894676475
907421000 0.103883878228 -0.244927673579
907434000 0.0991978100063 -0.238647399198
907447000 0.0989152770873 -0.239821809608
907460000 0.0978570863888 -0.242277533146
907473000 0.0983297348618 -0.240341772484
907486000 0.100187512838 -0.238602705258
907499000 0.0973079940926 -0.241225746006
907512000 0.0991265404731 -0.242904831816
907525000 0.0971387418957 -0.240532833929
907538000 0.0990997859409 -0.242293796268
907551000 0.100781114758 -0.240756650227
907564000 0.0983952634146 -0.241646099845
907577000 0.10217076183 -0.236392792434
907590000 0.0998103127742 -0.239636229015
907603000 0.0995769825688 -0.240848028503
907616000 0.0963374176334 -0.239305091407
907629000 0.0964638910707 -0.238620750611
907642000 0.0997569503475 -0.238322537338
907655000 0.099493803221 -0.23884250235
907668000 0.0969172715381 -0.238239071795
907681000 0.0973507598014 -0.235973412583
907694000 0.0986930679523 -0.232625831834
907707000 0.102010189351 -0.235830558961
907720000 0.0978852195924 -0.235191026583
907733000 0.0984178055203 -0.236554018687
907746000 0.0977013564193 -0.239760460443
907759000 0.0977976257617 -0.23965279259
907772000 0.0981529778953 -0.243067276832
907785000 0.0987340353784 -0.240201918474
907798000 0.0963376621656 -0.237062174251
907811000 0.0985904295875 -0.235080046645
907824000 0.0942332401847 -0.234760054673
907837000 0.095921026335 -0.234019446735
907850000 0.0977525040873 -0.233207134295
907863000 0.0977727859341 -0.232378095175
907876000 0.0997059594005 -0.234322246604
907889000 0.0976603020104 -0.232850957716
907902000 0.0975215475383 -0.231713204044
907915000 0.098697031118 -0.231597544107
907928000 0.0952256588141 -0.233337183849
907941000 0.0981156538675 -0.234095316085
907954000 0.101420224737 -0.231243995764
907967000 0.0970420625172 -0.233040623917
907980000 0.0984066933358 -0.229569983935
907993000 0.0965052009742 -0.230533321228
908006000 0.0968657760754 -0.231469052359
908019000 0.0960862532302 -0.22908338835
908032000 0.0977692022987 -0.229886969747
908045000 0.0953061774924 -0.227170936093
908058000 0.09619560914 -0.226604883451
908071000 0.0972203613755 -0.227548433297
908084000 0.0997805343076 -0.227878309982
908097000 0.0996826053434 -0.229860914461
908110000 0.0980795781205 -0.227020364206
908123000 0.0974535401428 -0.230137051928
908136000 0.0975907104656 -0.229992529838
908149000 0.0969737803416 -0.227809097046
908162000 0.0969843346504 -0.227131889246
908175000 0.0960594915559 -0.225541863148
908188000 0.0950278758211 -0.222561883562
908201000 0.094721171394 -0.224563724594
908214000 0.0965333426882 -0.222948136539
908227000 0.094840178119 -0.224815804689
908240000 0.0968467956292 -0.222465277825
908253000 0.0968177641606 -0.223314249916
908266000 0.100041320056 -0.224992393082
908279000 0.097941053206 -0.220825990229
908292000 0.0963141030161 -0.224048800084
908305000 0.0987298730131 -0.228219399766
908318000 0.0966382217505 -0.224382070635
908331000 0.0921336313143 -0.226535983258
908344000 0.0944194184559 -0.225224965693
908357000 0.0955441993486 -0.225511225583
908370000 0.0936542156459 -0.223669985865
908383000 0.0924147663393 -0.218261650767
908396000 0.0929969065791 -0.219149038968
908409000 0.0950647128961 -0.215997592278
908422000 0.0963607661976 -0.21355158219
908435000 0.0944292310809 -0.213680941958
908448000 0.0939675669935 -0.221965576091
908461000 0.0924145670774 -0.21833258231
908474000 0.09411991196 -0.219309617272
908487000 0.0915469152404 -0.220087881013
908500000 0.0905428952897 -0.218006495186
908513000 0.0910350974988 -0.219607952097
908526000 0.0935725773887 -0.222566677763
908539000 0.0932132393837 -0.219482061572
908552000 0.0945703632288 -0.219820846153
908565000 0.0947287593067 -0.218715784007
908578000 0.093758611344 -0.21649802913
908591000 0.0916681600696 -0.216761482972
908604000 0.0949654703687 -0.219402551479
908617000 0.096849944867 -0.216704513992
908630000 0.0991476275596 -0.216266509379
908643000 0.0954436597765 -0.216668824865
908656000 0.0931794555773 -0.213359499712
908669000 0.0896325354513 -0.212327984157
908682000 0.0865685115961 -0.214370777065
908695000 0.0901945010972 -0.21470392276
908708000 0.0941585139503 -0.214645216461
908721000 0.0953890283613 -0.219926992988
908734000 0.0934261816135 -0.21920303426
908747000 0.0977408569852 -0.216664632257
908760000 0.0939370584336 -0.214284988121
908773000 0.0945158655005 -0.214944135399
908786000 0.0928322524592 -0.214929463603
908799000 0.095849701284 -0.212982907521
908812000 0.0916526931797 -0.212787962466
908825000 0.090896660366 -0.213972905129
908838000 0.0956528649831 -0.213164625644
908851000 0.0961775467059 -0.213208706504
908864000 0.0922101590404 -0.209657027962
908877000 0.0920221420486 -0.208486616676
908890000 0.0945801358484 -0.206397014525
908903000 0.0910868234452 -0.210604191654
908916000 0.0915188683053 -0.212843633823
908929000 0.095109120205 -0.208969748933
908942000 0.0927678285014 -0.211473661933
908955000 0.0910247495603 -0.208741376614
908968000 0.0886187740948 -0.208793703336
908981000 0.0944104854161 -0.208676349855
908994000 0.0922255918394 -0.207275373412
909007000 0.0928218276089 -0.209035012506
909020000 0.0920766352619 -0.206925702194
909033000 0.092200243776 -0.207388370376
909046000 0.094855769233 -0.202798162885
909059000 0.0908045393013 -0.204483595925
909072000 0.0931056853376 -0.204297499854
909085000 0.0902790569885 -0.210076264924
909098000 0.0907507744184 -0.208889393995
909111000 0.0926807385366 -0.206640643227
909124000 0.0957655596466 -0.20677074128
909137000 0.0927150004723 -0.203365716258
909150000 0.0897181335337 -0.198973083887
909163000 0.0931907162269 -0.198771016177
909176000 0.0907476645298 -0.202476903908
909189000 0.0893184716536 -0.203124760128
909202000 0.0910297701624 -0.201716570187
909215000 0.0860244084231 -0.200578772427
909228000 0.0915967266883 -0.199088760014
909241000 0.0905718303835 -0.200619751179
909254000 0.0913381177049 -0.199522781462
909267000 0.0907068903877 -0.201599147483
909280000 0.0922790229399 -0.197009634645
909293000 0.0911209455851 -0.199575002903
909306000 0.0886920203764 -0.201148109284
909319000 0.0870860863923 -0.199309290243
909332000 0.088213528835 -0.197892541034
909345000 0.0879037068294 -0.199302492403
909358000 0.0876909093264 -0.197807821569
909371000 0.0853501484493 -0.199413110843
909384000 0.0895676042559 -0.199894753777
909397000 0.0927792124751 -0.201156445803
909410000 0.0908169004917 -0.1996897516
909423000 0.0895886961165 -0.19423365016
909436000 0.0900432688173 -0.198458649382
909449000 0.0889428381515 -0.196486991588
909462000 0.0897407381388 -0.195435487992
909475000 0.0926477120723 -0.193174008864
909488000 0.0917164515824 -0.190732182778
909501000 0.092891627712 -0.190530801233
909514000 0.0910099229531 -0.194481273133
909527000 0.0877639601731 -0.192294586825
909540000 0.092952078002 -0.190707103385
909553000 0.0872780267891 -0.193423804948
909566000 0.0869940436283 -0.197873703804
909579000 0.0895744631196 -0.198602290669
909592000 0.0890699458944 -0.189381813355
909605000 0.0883692503864 -0.192937520847
909618000 0.0827828759841 -0.191514185985
909631000 0.0872021052918 -0.18961461976
909644000 0.0865007576034 -0.189620894712
909657000 0.089758795049 -0.190490734491
909670000 0.0871478142344 -0.188580210651
909683000 0.0853999240766 -0.189472837553
909696000 0.0890038914671 -0.191164791025
909709000 0.0924618884554 -0.189139401194
909722000 0.0933114831878 -0.187786773697
909735000 0.088013280028 -0.193000689963
909748000 0.0915152849862 -0.188415408897
909761000 0.09544547488 -0.190218083648
909774000 0.0902432943245 -0.187953556821
909787000 0.0857948864048 -0.189983100954
909800000 0.0952346051642 -0.191555411913
909813000 0.0957905438504 -0.206075587596
909826000 0.0779853286173 -0.175719504488
909839000 0.0942912744749 -0.188399034916
909852000 0.0909062167166 -0.182430022594
909865000 0.0916294365143 -0.186076718529
909878000 0.0895126201166 -0.184865939756
909891000 0.089806094518 -0.182079270446
909904000 0.0846855945788 -0.186143638191
909917000 0.0917723075279 -0.178737355178
909930000 0.0935790449626 -0.177819714211
909943000 0.0889118298669 -0.168369878979
909956000 0.0946618063284 -0.171967277022
909969000 0.0960749442633 -0.180326764798
909982000 0.0874508778642 -0.166351685679
909995000 0.0720829697626 -0.162982268839
910008000 0.0791340264031 -0.177934570157
910021000 0.0765383864299 -0.186307893044
910034000 0.0837522171549 -0.193728108369
910047000 0.0889723170508 -0.187316785497
910060000 0.0961267860448 -0.184628802654
910073000 0.0892698534577 -0.184067554894
910086000 0.0828747178796 -0.175177734937
910099000 0.0845387042823 -0.177932344886
910112000 0.0928532005853 -0.179568230305
910125000 0.0866784894844 -0.181299114202
910138000 0.0875928468447 -0.179418179342
910151000 0.0886395257678 -0.182063438146
910164000 0.0858638950881 -0.176429725427
910177000 0.0907915899277 -0.181718921104
910190000 0.0943772417997 -0.177513152135
910203000 0.0918276900988 -0.174413499778
910216000 0.0871242152804 -0.173190549248
910229000 0.0698396856204 -0.184508282391
910242000 0.0898291022083 -0.155223796066
910255000 0.089494256834 -0.172562641784
910268000 0.0856966073223 -0.171686592469
910281000 0.089367759428 -0.17436271066
910294000 0.0913994962915 -0.181003101874
910307000 0.0896394139407 -0.173844816124
910320000 0.0851948054018 -0.17004311299
910333000 0.0896191186115 -0.172904839575
910346000 0.0890724104436 -0.170329563193
910359000 0.0856415473386 -0.166850725866
910372000 0.0898156237311 -0.171920767665
910385000 0.0849490304772 -0.170950810348
910398000 0.088166025815 -0.169553292673
910411000 0.086213601122 -0.172754440091
910424000 0.0854159793271 -0.173150379787
910437000 0.0857356454956 -0.169761413407
910450000 0.0829006064009 -0.166671886369
910463000 0.0865583929928 -0.169364860712
910476000 0.0878588134252 -0.168304392536
910489000 0.0896479619971 -0.170967065954
910502000 0.0876377631924 -0.167571174939
910515000 0.0877538652601 -0.162252077339
910528000 0.0876163112968 -0.170114947323
910541000 0.090498753507 -0.166421152773
910554000 0.0883958047135 -0.164044888998
910567000 0.0892170315054 -0.163931184402
910580000 0.0897136052174 -0.16187608539
910593000 0.0872967114472 -0.165426096298
910606000 0.0861908935467 -0.167382943921
910619000 0.0871294981087 -0.163651859364
910632000 0.0820057719706 -0.165419571133
910645000 0.0879414726439 -0.163783712129
910658000 0.0857287177409 -0.162472028006
910671000 0.0874283288261 -0.154318299104
910684000 0.0934777903666 -0.16140098747
910697000 0.0895236744091 -0.166518706573
910710000 0.0872180753061 -0.162179694874
910723000 0.0903813171838 -0.158267519549
910736000 0.0869010877511 -0.15960960814
910749000 0.0893613306671 -0.157490228805
910762000 0.0892645465069 -0.163999743933
910775000 0.0853089873194 -0.163461614666
910788000 0.0892376160922 -0.160708525392
910801000 0.0934510317122 -0.162989113375
910814000 0.089926491269 -0.15917263341
910827000 0.0866247267004 -0.160630797738
910840000 0.0864020382954 -0.160414541876
910853000 0.0896586062897 -0.158084276968
910866000 0.086743077897 -0.160198592128
910879000 0.0864836122617 -0.157585584705
910892000 0.0851517228791 -0.153929548916
910905000 0.08638510249 -0.154497019026
910918000 0.08634416488 -0.152021419533
910931000 0.0875381980963 -0.15628228741
910944000 0.0929989001431 -0.158733530923
910957000 0.0865991074284 -0.156251360319
910970000 0.0873773328625 -0.153529802509
910983000 0.0846522823847 -0.153511991715
910996000 0.0878797894658 -0.152664462057
911009000 0.091740034595 -0.155227097804
911022000 0.0896446849257 -0.154295341733
911035000 0.0867855312838 -0.152192032662
911048000 0.0884406237335 -0.154631207036
911061000 0.0880925786665 -0.154907978756
911074000 0.0886167190067 -0.152997115587
911087000 0.0896847349643 -0.151921363668
911100000 0.0871682313863 -0.154908108354
911113000 0.0876498436276 -0.152362057116
911126000 0.0890702659134 -0.149037331439
911139000 0.0870999231854 -0.151068934784
911152000 0.0895115906362 -0.148883332842
911165000 0.0876991129589 -0.152138354218
911178000 0.0895853407238 -0.155687949189
911191000 0.0859123576741 -0.15147712349
911204000 0.0886973889359 -0.151220917032
911217000 0.0929944887385 -0.146254668815
911230000 0.0922380200688 -0.148013652285
911243000 0.0924095086853 -0.146013140557
911256000 0.09125244672 -0.147889105632
911269000 0.0918938512856 -0.149449409645
911282000 0.0871965697026 -0.145323468147
911295000 0.0888183367796 -0.144676389256
911308000 0.0888438927033 -0.14418720019
911321000 0.0891915195091 -0.149256744923
911334000 0.0908301452203 -0.144726275122
911347000 0.0901134610124 -0.147203649133
911360000 0.0877381021848 -0.147048147295
911373000 0.0859985139078 -0.144799891361
911386000 0.0871790383799 -0.143163621278
911399000 0.086769148927 -0.143947261319
911412000 0.0886572254263 -0.143259985945
911425000 0.0913666546014 -0.143773370381
911438000 0.0899991306358 -0.141952086402
911451000 0.0887765086133 -0.145700265721
911464000 0.0877254583021 -0.145676851921
911477000 0.0885107040317 -0.148206509375
911490000 0.088145109761 -0.137432269635
911503000 0.0939254442814 -0.139386135205
911516000 0.0936477462059 -0.136692064528
911529000 0.0906102328736 -0.135962284747
911542000 0.0887472730571 -0.139374398089
911555000 0.0867585181596 -0.136759817182
911568000 0.0908803138511 -0.139859202782
911581000 0.0869453112035 -0.138431420316
911594000 0.0875795442361 -0.140060779478
911607000 0.0870499111223 -0.136775626159
911620000 0.0878030006356 -0.136795755971
911633000 0.087312803837 -0.139677117446
911646000 0.0907717872302 -0.137865754943
911659000 0.0889398951206 -0.141536583117
911672000 0.089711666707 -0.136652056504
911685000 0.0871857604835 -0.134401070329
911698000 0.0892367574216 -0.138078224091
911711000 0.0869419880157 -0.132931703576
911724000 0.0871266879956 -0.132201364462
911737000 0.0876099321571 -0.133489638417
911750000 0.0904548650087 -0.134192340662
911763000 0.0940454693762 -0.135522000468
911776000 0.089267848276 -0.13532633926
911789000 0.0923316799808 -0.134842300165
911802000 0.0923909534662 -0.132397339123
911815000 0.0904364529742 -0.131003897368
911828000 0.091838727513 -0.132370994353
911841000 0.0920717291559 -0.132036402915
911854000 0.0876814729932 -0.129762969334
911867000 0.0861641829301 -0.129750890849
911880000 0.0893290847433 -0.128036137215
911893000 0.0867978668134 -0.127850482151
911906000 0.0882615636068 -0.130522247128
911919000 0.0875401028959 -0.12818808082
911932000 0.0892730895804 -0.131631354679
911945000 0.0892599671685 -0.127116185982
911958000 0.0924742607465 -0.126822388151
911971000 0.0911828099035 -0.125767290089
911984000 0.0923013986019 -0.125363790132
911997000 0.0889078932037 -0.127539324707
912010000 0.0920961903549 -0.126115137889
912023000 0.0940526071769 -0.127787952949
912036000 0.0888214822384 -0.12441521549
912049000 0.0925107316322 -0.125290913967
912062000 0.0889199870761 -0.123224437399
912075000 0.0888651683988 -0.124173299089
912088000 0.0894745209023 -0.124350848636
912101000 0.0880003973168 -0.128903640079
912114000 0.0938430741654 -0.122369174285
912127000 0.0911026893001 -0.12361627402
912140000 0.0921149243232 -0.126174937235
912153000 0.0904516056716 -0.126613705411
912166000 0.0917645124026 -0.120942525516
912179000 0.0916162462865 -0.122267809138
912192000 0.0908154671873 -0.120979519411
912205000 0.0901096999927 -0.122045860971
912218000 0.0891183996696 -0.122226878618
912231000 0.0869987393863 -0.124744412719
912244000 0.084449440783 -0.122644237358
912257000 0.0908287915486 -0.122122982085
912270000 0.0913024123122 -0.119732031271
912283000 0.0897983965528 -0.120010049193
912296000 0.0919649650794 -0.11903122658
912309000 0.0924217169771 -0.120887700829
912322000 0.0918436571646 -0.120271465298
912335000 0.093011227474 -0.119897898928
912348000 0.0935908723533 -0.118913111083
912361000 0.0921111186043 -0.117475595761
912374000 0.0932192274141 -0.116433786283
912387000 0.0959696041928 -0.114585149533
912400000 0.0882424006411 -0.116747593591
912413000 0.0891680641001 -0.120097675808
912426000 0.0915427775964 -0.120042875814
912439000 0.0872970721072 -0.114186332829
912452000 0.0892478572429 -0.115630775696
912465000 0.0915779600459 -0.115923798403
912478000 0.0959163989154 -0.114376064033
912491000 0.0950904302402 -0.110885494838
912504000 0.0912363579725 -0.111722357327
912517000 0.0893076904377 -0.109463180912
912530000 0.0899686129264 -0.111984608531
912543000 0.0900780427403 -0.111401038489
912556000 0.0938223043124 -0.113057122084
912569000 0.0942670582044 -0.112193196116
912582000 0.0934757099242 -0.10924207248
912595000 0.096084619603 -0.110937542733
912608000 0.0926338565215 -0.112563142134
912621000 0.0908588076112 -0.109314716718
912634000 0.0919846911345 -0.109373941162
912647000 0.0895247720251 -0.109542884158
912660000 0.0917447783738 -0.10945931815
912673000 0.0908920100114 -0.108860725965
912686000 0.091106719695 -0.108216685757
912699000 0.0904102099004 -0.108639207222
912712000 0.0905726306723 -0.106847978763
912725000 0.0892025399359 -0.105343175899
912738000 0.0942415736574 -0.103718793833
912751000 0.0936532219503 -0.107603599268
912764000 0.0933066305817 -0.107908081565
912777000 0.0903810222376 -0.106360682437
912790000 0.0930077673378 -0.104806652767
912803000 0.0917815208076 -0.106694292229
912816000 0.0942250385723 -0.104451913884
912829000 0.0924779317518 -0.106768730892
912842000 0.0908066819432 -0.107834263503
912855000 0.0937240506886 -0.107133253113
912868000 0.0912606865238 -0.103481341725
912881000 0.0947234599396 -0.105449670796
912894000 0.0928557075035 -0.104839195127
912907000 0.0935180518288 -0.104870503396
912920000 0.0938911509989 -0.104040284536
912933000 0.0911502089361 -0.105159374312
912946000 0.0911176310543 -0.102542909163
912959000 0.0925049315298 -0.102913674538
912972000 0.0905011495724 -0.0990795801441
912985000 0.0966539221274 -0.100650331951
912998000 0.0948289781716 -0.0976908413479
913011000 0.0975931888133 -0.0975171874248
913024000 0.095602596525 -0.101403736683
913037000 0.0976990790338 -0.0990716034678
913050000 0.0960434833134 -0.100058284811
913063000 0.0921295077109 -0.100567856991
913076000 0.0927003102883 -0.0999870677094
913089000 0.093802957377 -0.0977937375323
913102000 0.0950874019019 -0.0958266952904
913115000 0.0967846376047 -0.0969112661842
913128000 0.0960366468163 -0.0964116495674
913141000 0.0965219955163 -0.0970441696095
913154000 0.0956183589258 -0.0960591110044
913167000 0.0949402264597 -0.0949543475739
913180000 0.0968967362529 -0.0934081629843
913193000 0.0970852245355 -0.0962898825993
913206000 0.0962570717556 -0.0946097305421
913219000 0.0968576019715 -0.0935844818885
913232000 0.095940950151 -0.092264307062
913245000 0.0920607122816 -0.0921802008358
913258000 0.0961608218267 -0.0933226311339
913271000 0.096287894187 -0.0897611640049
913284000 0.0941600342735 -0.091213431517
913297000 0.0968110967288 -0.0938606145333
913310000 0.0954675439801 -0.0921271712083
913323000 0.0973500272154 -0.0917882622469
913336000 0.0939988271853 -0.0884462244038
913349000 0.094313920137 -0.0885216982663
913362000 0.0956227655844 -0.0915702150344
913375000 0.0967221968736 -0.092387933223
913388000 0.100328550383 -0.0890535016766
913401000 0.0989500369863 -0.0907862907569
913414000 0.102005856663 -0.0899864019214
913427000 0.0997163507147 -0.0896272574388
913440000 0.0991711829355 -0.0886372099751
913453000 0.0982029073228 -0.0883079866167
913466000 0.0966943436444 -0.0898249217733
913479000 0.0941159288235 -0.089122530371
913492000 0.0999471275402 -0.0869199274257
913505000 0.093772261078 -0.0872347333115
913518000 0.0982651744712 -0.0863126445268
913531000 0.0985404770042 -0.0856605057534
913544000 0.0982438548916 -0.0878507667003
913557000 0.0967103943322 -0.0890825484027
913570000 0.0965623569322 -0.0856954245782
913583000 0.100595092303 -0.0864694189092
913596000 0.0973272945882 -0.0854039073842
913609000 0.0993305040846 -0.0842693842453
913622000 0.101047822329 -0.0836427919351
913635000 0.0969626589834 -0.0842523141856
913648000 0.0983588187297 -0.0803551018999
913661000 0.101294964954 -0.0836019952434
913674000 0.104809485749 -0.0763612145415
913687000 0.0996459803591 -0.0798957355928
913700000 0.101717029827 -0.0783662832905
913713000 0.100759948382 -0.0807022884322
913726000 0.101716964534 -0.0781856380085
913739000 0.0983549341045 -0.0789203147584
913752000 0.10104897705 -0.0795741205254
913765000 0.100551194687 -0.0786402338417
913778000 0.0998756745244 -0.0796673509431
913791000 0.101677191481 -0.0799450970709
913804000 0.103475403101 -0.0785130775325
913817000 0.103846549634 -0.075560024015
913830000 0.105175339144 -0.0775018653513
913843000 0.100638744635 -0.0742622599984
913856000 0.101975458641 -0.0773260672369
913869000 0.0995435846401 -0.0768964632277
913882000 0.102365474569 -0.0824369836798
913895000 0.103194972843 -0.0763397734708
913908000 0.0994988122845 -0.0737841429061
913921000 0.10256183695 -0.0736403439801
913934000 0.10458552866 -0.0786802691715
913947000 0.103235123104 -0.0766620525176
913960000 0.101965898659 -0.0755906919938
913973000 0.102991197092 -0.0749320806735
913986000 0.102203053821 -0.0704512391098
913999000 0.104773577325 -0.0703554097484
914012000 0.102601840813 -0.0724314016459
914025000 0.0988473964108 -0.0690435399681
914038000 0.10255308009 -0.0667972093964
914051000 0.100186596126 -0.0675961207982
914064000 0.103855338492 -0.071665325005
914077000 0.10058428926 -0.0682630915756
914090000 0.102892006643 -0.0708891061454
914103000 0.107392256023 -0.0729737508496
914116000 0.104617347363 -0.0708831179548
914129000 0.105605816497 -0.068797651255
914142000 0.104375406135 -0.0662742726347
914155000 0.104037210594 -0.06270628839
914168000 0.101514334461 -0.0672178188482
914181000 0.101926055174 -0.0663952600723
914194000 0.107340771202 -0.0646008178937
914207000 0.107203182267 -0.0610961396489
914220000 0.105586277213 -0.0670397083197
914233000 0.105499605139 -0.0626000816755
914246000 0.105091938777 -0.0650064062276
914259000 0.103824747587 -0.0658087242223
914272000 0.106605732286 -0.0659597436643
914285000 0.106859483781 -0.0656258607285
914298000 0.105566253658 -0.0639958872386
914311000 0.103247964943 -0.0619232795284
914324000 0.1022606069 -0.0611596028435
914337000 0.104173836393 -0.0598190540918
914350000 0.102958988415 -0.0605787002697
914363000 0.107349835247 -0.0627735525727
914376000 0.107863219405 -0.0642990697929
914389000 0.107949612513 -0.0605844688709
914402000 0.109646758108 -0.0611581730448
914415000 0.104424696242 -0.0613870924376
914428000 0.106390986898 -0.0571829437812
914441000 0.106432452865 -0.0550627012702
914454000 0.108107859001 -0.0588613176807
914467000 0.107960475529 -0.0591464611971
914480000 0.103157286893 -0.0586104875223
914493000 0.105603550857 -0.0590338898614
914506000 0.108166532627 -0.0590035610773
914519000 0.107748859628 -0.0592597968843
914532000 0.111847673667 -0.0613846693614
914545000 0.112527886711 -0.0608555239677
914558000 0.109163337017 -0.056535717443
914571000 0.107221566941 -0.0553364047982
914584000 0.108439342194 -0.0549902399827
914597000 0.106466006501 -0.054266111043
914610000 0.102968813714 -0.0543545929897
914623000 0.107215397491 -0.0543016932357
914636000 0.106901554581 -0.0506479331762
914649000 0.107541241709 -0.0535016212187
914662000 0.107192346362 -0.0490438201832
914675000 0.107021050847 -0.0513993133719
914688000 0.106530716844 -0.0492722561675
914701000 0.110118727808 -0.0491393007712
914714000 0.107334505931 -0.052693670255
914727000 0.108567100805 -0.0498462400821
914740000 0.110259109316 -0.0502350156439
914753000 0.110818163814 -0.0502372876973
914766000 0.112587618929 -0.0478172137764
914779000 0.112383166845 -0.0496018769914
914792000 0.108901803166 -0.0490769671443
914805000 0.109209485668 -0.0520326915596
914818000 0.109909334286 -0.0484679638936
914831000 0.110718790387 -0.0501972671395
914844000 0.111067003286 -0.0493695387943
914857000 0.112170918679 -0.0496727173198
914870000 0.111701772338 -0.051091619022
914883000 0.109609081872 -0.0492996234304
914896000 0.11203676513 -0.0518273713775
914909000 0.112709863801 -0.0466196236974
914922000 0.112468138527 -0.0477328977234
914935000 0.109607934589 -0.0434828013946
914948000 0.109212531631 -0.0437241103283
914961000 0.115350386339 -0.0456216348117
914974000 0.112914832393 -0.0476349483378
914987000 0.113467802857 -0.0463614498194
915000000 0.113533220351 -0.0459829952963
915013000 0.112673976129 -0.045741370667
915026000 0.112463918973 -0.0491746458043
915039000 0.113304965431 -0.0448302245671
915052000 0.112771810167 -0.0440769584719
915065000 0.11260496008 -0.0419600609028
915078000 0.10878797001 -0.0406232166715
915091000 0.11165745103 -0.044279916754
915104000 0.111838426734 -0.0420195893954
915117000 0.117047034622 -0.0415332540584
915130000 0.112033851263 -0.0419417469602
915143000 0.114927388828 -0.0413451590761
915156000 0.115528621536 -0.0378906812828
915169000 0.116486675436 -0.041226538135
915182000 0.116055130261 -0.041038691674
915195000 0.117872062162 -0.0415596761332
915208000 0.121046670308 -0.0434063966932
915221000 0.118137516387 -0.0395739461032
915234000 0.115117454026 -0.0364863233217
915247000 0.112251467462 -0.0390547213514
915260000 0.117083084986 -0.0395766970564
915273000 0.116123512615 -0.0382227610605
915286000 0.119628065556 -0.0370868001136
915299000 0.119911445804 -0.0385440171835
915312000 0.117486647374 -0.0389497302612
915325000 0.116413488547 -0.0370279756153
915338000 0.118410657342 -0.0355511880526
915351000 0.116549518335 -0.0344826958592
915364000 0.120416411313 -0.0375130157876
915377000 0.116546939489 -0.039563826701
915390000 0.115625279108 -0.0366974956289
915403000 0.118052118654 -0.0362216837752
915416000 0.116320269956 -0.0341569239241
915429000 0.119169168043 -0.0330110700092
915442000 0.115580991652 -0.0312576293781
915455000 0.117052409089 -0.034257266974
915468000 0.116192692434 -0.0345908370618
915481000 0.115813553991 -0.0337823734398
915494000 0.12061849976 -0.0306246983963
915507000 0.118484178378 -0.0298242901533
915520000 0.119691289226 -0.0285876874242
915533000 0.12234034195 -0.0329872252319
915546000 0.117892690927 -0.0296429538246
915559000 0.121182978975 -0.0281203886066
915572000 0.117855989485 -0.0300122031172
915585000 0.117283366156 -0.0294879728149
915598000 0.118727958733 -0.0282092305153
915611000 0.119750607755 -0.0296637812728
915624000 0.122905085026 -0.0313297571134
915637000 0.124065851437 -0.0319471058125
915650000 0.119548002019 -0.0279751286465
915663000 0.117234498657 -0.0258662943875
915676000 0.120753685911 -0.0263599499649
915689000 0.123949316328 -0.025316549021
915702000 0.120011923934 -0.0285829390023
915715000 0.123729101424 -0.0268938941077
915728000 0.124791353319 -0.0305937053905
915741000 0.120940030236 -0.0211526097234
915754000 0.124112441005 -0.0239021647162
915767000 0.124572149789 -0.0213480148391
915780000 0.124302001944 -0.0197198558776
915793000 0.123193885834 -0.0233579797283
915806000 0.122054843823 -0.0225172654449
915819000 0.124643142642 -0.0246697456729
915832000 0.123234146029 -0.022634592653
915845000 0.123004797087 -0.0237577015022
915858000 0.121888403756 -0.023131301041
915871000 0.123695820339 -0.0192378283757
915884000 0.126264446186 -0.0206001166942
915897000 0.124598218837 -0.0204232885218
915910000 0.126802559075 -0.018415956922
915923000 0.128215154192 -0.0226492811353
915936000 0.125235993821 -0.0207136066074
915949000 0.126242136181 -0.0147322272568
915962000 0.124806059862 -0.0202867988078
915975000 0.125822620176 -0.0222379477098
915988000 0.124238544341 -0.0183660419301
916001000 0.127141910542 -0.0191617678125
916014000 0.125496360265 -0.0185199016728
916027000 0.126951413079 -0.0190192277325
916040000 0.127190502881 -0.01841002289
916053000 0.131089275062 -0.0187971117139
916066000 0.128918046766 -0.0167046153867
916079000 0.129035245531 -0.015571758522
916092000 0.130479835927 -0.0158174712877
916105000 0.133008260959 -0.0150641724668
916118000 0.130090156403 -0.0122379979658
916131000 0.127880269155 -0.0120688516863
916144000 0.128557437949 -0.0119320316981
916157000 0.128191155141 -0.0114672768711
916170000 0.130609042045 -0.0117060871682
916183000 0.128861775682 -0.0129075032759
916196000 0.128898755934 -0.0119485122563
916209000 0.124930995024 -0.014483398602
916222000 0.129868170933 -0.0116845252036
916235000 0.133721859762 -0.0133486067002
916248000 0.131977874163 -0.00968322920355
916261000 0.133281417533 -0.00987270422211
916274000 0.129283223563 -0.00512016714067
916287000 0.129036974138 -0.0095771531582
916300000 0.130109864786 -0.0129340890751
916313000 0.133084076713 -0.0104220583679
916326000 0.131915631583 -0.012394136416
916339000 0.129488443806 -0.00812477614131
916352000 0.133479494724 -0.00815215525418
916365000 0.132508232727 -0.0100324015164
916378000 0.13450123166 -0.0104800824759
916391000 0.134698305207 -0.0098934927566
916404000 0.133886289509 -0.00761754558579
916417000 0.133515545338 -0.00806671425302
916430000 0.132697954372 -0.0061632660168
916443000 0.135005007795 -0.00632124358835
916456000 0.132369434518 -0.00758660855975
916469000 0.133956916514 -0.00863768310603
916482000 0.131882896514 -0.00506666935453
916495000 0.135127335845 -0.00645444719605
916508000 0.132940154262 -0.00410934826846
916521000 0.135730506298 -0.00594805562977
916534000 0.13529636156 -0.00665558544176
916547000 0.133116695702 -0.00863789000422
916560000 0.138215126124 -0.00498249221078
916573000 0.135532468413 -0.0073266972726
916586000 0.13448721511 -0.00175302253096
916599000 0.133187662188 -0.00113061386484
916612000 0.136937377095 -0.00104479047709
916625000 0.134237981938 -0.00224551647184
916638000 0.13633369784 -0.00209979225585
916651000 0.13560709363 -0.00204851619433
916664000 0.137429334363 0.000696709195793
916677000 0.135944193696 -0.00158496223433
916690000 0.137194919269 -0.0013474046177
916703000 0.139685579835 -0.00290502316953
916716000 0.138649414184 0.000395753257456
916729000 0.136951252179 0.000195715567569
916742000 0.138485722221 0.00343078004721
916755000 0.135971323096 0.000511800875923
916768000 0.138706709736 0.00047210755665
916781000 0.134296554748 -0.00149083702465
916794000 0.13649178453 0.00366865317052
916807000 0.134909152434 0.00392075699613
916820000 0.139650395486 0.00324005299099
916833000 0.139293898659 0.00217643191191
916846000 0.143143294644 0.00225258226097
916859000 0.141045838742 0.00363389297369
916872000 0.136942162196 0.006871088478
916885000 0.139408509829 0.00541481769481
916898000 0.142442086975 0.00675971307156
916911000 0.138229112695 0.00880429823879
916924000 0.138268103394 0.00647262074661
916937000 0.140235821302 0.00738877086579
916950000 0.143348108354 0.00853292929011
916963000 0.144331102013 0.00439706524464
916976000 0.14355479266 0.00742773755186
916989000 0.142481373463 0.00715108138113
917002000 0.145343218424 0.00515976922065
917015000 0.144138246018 0.0076490237342
917028000 0.144097468095 0.00406771351422
917041000 0.145300919002 0.0051385826601
917054000 0.141178987322 0.00752262580361
917067000 0.141084602764 0.00989803465188
917080000 0.143720557896 0.00740527205561
917093000 0.145743676622 0.0100151677274
917106000 0.145154735554 0.00525173342162
917119000 0.147769610343 0.00883973537277
917132000 0.147084563436 0.0102589132713
917145000 0.143117350646 0.0100211688673
917158000 0.144417533165 0.0116186760359
917171000 0.145424331677 0.0149686610485
917184000 0.149160287616 0.0159793529848
917197000 0.146206207275 0.0118148046732
917210000 0.147124485692 0.0130213254779
917223000 0.148635341575 0.0142971564628
917236000 0.147247379195 0.0130780260272
917249000 0.151066701152 0.0119554032482
917262000 0.150721579521 0.0134242897531
917275000 0.14987654605 0.00960925710651
917288000 0.14993096751 0.0132202134737
917301000 0.152207639931 0.0180808897282
917314000 0.149662436761 0.013281490537
917327000 0.150604152739 0.0133147488425
917340000 0.148815545216 0.0176709254488
917353000 0.149552484352 0.0159376961216
917366000 0.147909773357 0.0133857987036
917379000 0.148805172943 0.0154005227344
917392000 0.148116850538 0.0155823007783
917405000 0.14943818452 0.0165641647773
917418000 0.148659920666 0.0196402360756
917431000 0.150468009456 0.0202588730083
917444000 0.150113797378 0.0161179091536
917457000 0.148943097092 0.0177486284305
917470000 0.149729419905 0.0184426751058
917483000 0.150249378104 0.0173369047604
917496000 0.152654869703 0.0191674276226
917509000 0.151958370347 0.0211445492428
917522000 0.149275302783 0.0210431783266
917535000 0.14858498229 0.019808629428
917548000 0.149618777873 0.0207834706119
917561000 0.148937855103 0.0182626289437
917574000 0.150009753452 0.0197834553538
917587000 0.153363705486 0.0220894203272
917600000 0.154870981368 0.0216071791439
917613000 0.156079147192 0.0226195752151
917626000 0.155957739065 0.0243404741074
917639000 0.154567446371 0.0258578507398
917652000 0.154689602898 0.0252022476235
917665000 0.15646563401 0.0267845351268
917678000 0.155832528974 0.0252260620587
917691000 0.155141811581 0.0248545616049
917704000 0.156217152156 0.0253756232358
917717000 0.156669765353 0.023571865232
917730000 0.159293879875 0.0230544645307
917743000 0.158966169667 0.0222600460803
917756000 0.154620652888 0.0250279202201
917769000 0.156302833278 0.0258236922021
917782000 0.156442460744 0.0271182469916
917795000 0.163589667491 0.0296832696559
917808000 0.15927522086 0.0303811105591
917821000 0.156984404519 0.0296922975044
917834000 0.161406865873 0.0305348922528
917847000 0.157532312888 0.0286207868522
917860000 0.159965125347 0.027996697078
917873000 0.160140030478 0.0266284344185
917886000 0.160813856591 0.0280372984999
917899000 0.161022723556 0.0254918762275
917912000 0.159676421196 0.0271419262702
917925000 0.161338260896 0.0288951660095
917938000 0.16220650197 0.0295666418777
917951000 0.158778243881 0.0307357660459
917964000 0.160530086574 0.030558206041
917977000 0.162999626384 0.029770959016
917990000 0.159205846633 0.0280185365758
918003000 0.165479474717 0.0305250348667
918016000 0.164439350254 0.0278619546393
918029000 0.165193269139 0.0290610268243
918042000 0.163484070837 0.0312233025649
918055000 0.16192577712 0.033845409208
918068000 0.166727414042 0.0349290819409
918081000 0.167982203689 0.0323673639267
918094000 0.168162121524 0.031497326099
918107000 0.161695735426 0.0358424343337
918120000 0.166739640875 0.031808761301
918133000 0.163208942095 0.0314903853038
918146000 0.165400543533 0.032492595729
918159000 0.168297413241 0.0341434992679
918172000 0.167839239795 0.0362172713762
918185000 0.169017156999 0.0319826614298
918198000 0.165558420193 0.0359937283013
918211000 0.164165663549 0.0349755607441
918224000 0.166448522087 0.0411436130985
918237000 0.169615279058 0.0386224715
918250000 0.169848164412 0.0339331468086
918263000 0.169443910355 0.0376920026542
918276000 0.167715564686 0.0375989406972
918289000 0.168386950229 0.0368361190988
918302000 0.164741871055 0.035123008873
918315000 0.167924890567 0.0367649707818
918328000 0.167360253475 0.038415776909
918341000 0.169864267151 0.0393969598874
918354000 0.168900860355 0.039467359144
918367000 0.172566369906 0.0399187626405
918380000 0.173202592031 0.0386189540321
918393000 0.172646474347 0.0405002267447
918406000 0.171782527803 0.0384556898804
918419000 0.167620395484 0.040736473807
918432000 0.170152826056 0.0397685254745
918445000 0.168220760288 0.0416171152585
918458000 0.172496240406 0.0397729295401
918471000 0.169644301687 0.0394359927953
918484000 0.171790316204 0.0422199374424
918497000 0.171018347241 0.0405568260971
918510000 0.170897363225 0.0390525282534
918523000 0.173644220347 0.0438960153691
918536000 0.172498747693 0.0433339932963
918549000 0.172494582964 0.0423753982855
918562000 0.175199167851 0.0469350920976
918575000 0.174405327431 0.0443729975426
918588000 0.17545158994 0.0426763282877
918601000 0.175767539806 0.0416829839049
918614000 0.176058794657 0.0428655180567
918627000 0.175368419431 0.0455503469759
918640000 0.175090089671 0.0442798829292
918653000 0.174410965719 0.0435111641639
918666000 0.177004947744 0.0460925006693
918679000 0.176555205828 0.0451709833632
918692000 0.174623350718 0.0455436958084
918705000 0.176116172933 0.0453864636672
918718000 0.177397192305 0.0445640880378
918731000 0.176704207016 0.0477030739861
918744000 0.179988469948 0.0464914760438
918757000 0.179038451068 0.0467636645058
918770000 0.179499255964 0.0472174352522
918783000 0.179972716846 0.0467423242237
918796000 0.179232149133 0.0510799553272
918809000 0.181714865946 0.0485192097226
918822000 0.17889901382 0.0495433407254
918835000 0.178487475626 0.0500345595441
918848000 0.178216409204 0.0502324834935
918861000 0.180652364466 0.0526877419386
918874000 0.180434024787 0.0509617800024
918887000 0.179986811753 0.0482507443696
918900000 0.179815509008 0.0511286739862
918913000 0.181957516921 0.0504241586457
918926000 0.182679461445 0.0500140649481
918939000 0.180765718333 0.0515876708394
918952000 0.187215296203 0.0523118582788
918965000 0.185423377126 0.0517306679765
918978000 0.185386543778 0.0474988354349
918991000 0.188368422266 0.0544391394801
919004000 0.187676724796 0.0483508786555
919017000 0.187120853452 0.0519956200752
919030000 0.183897498017 0.0535745403747
919043000 0.184309030613 0.0524868206866
919056000 0.183283215858 0.055012100554
919069000 0.184527894047 0.0472794859084
919082000 0.185605464336 0.0464306000839
919095000 0.187207433643 0.047829273785
919108000 0.187522699751 0.0530370756309
919121000 0.183750900162 0.058432128405
919134000 0.182819105235 0.0569490548557
919147000 0.186413336518 0.0560565229617
919160000 0.188570133511 0.0556768026968
919173000 0.189055300401 0.0576666323474
919186000 0.190928036422 0.0524273494633
919199000 0.18714274405 0.0541974339256
919212000 0.189441158308 0.0598265260117
919225000 0.193962584877 0.0603877720918
919238000 0.191140931538 0.0602402043306
919251000 0.195112088641 0.0573481501077
919264000 0.191740213563 0.0547808878985
919277000 0.191120266044 0.0574698982145
919290000 0.192738239635 0.0576589030021
919303000 0.191946586245 0.0580635792559
919316000 0.191740246625 0.0571496616022
919329000 0.193494484001 0.0626286049855
919342000 0.195625779975 0.0536111479042
919355000 0.190184759093 0.0566544243045
919368000 0.191929901281 0.0625177315981
919381000 0.193415819668 0.0605558188135
919394000 0.194201398024 0.0584854646053
919407000 0.193569852065 0.0582974888722
919420000 0.194646586491 0.0634213560677
919433000 0.187030192759 0.0618428400496
919446000 0.194116145149 0.0624792077202
919459000 0.193793510257 0.0614530620249
919472000 0.194946600749 0.0633929610487
919485000 0.198351112124 0.0640083753621
919498000 0.194329647336 0.0639590930891
919511000 0.199484972523 0.0646568486366
919524000 0.197114012446 0.0636808356172
919537000 0.194739954676 0.0636401839426
919550000 0.195245842809 0.059061402789
919563000 0.198164385211 0.0633975413053
919576000 0.199101247261 0.0593677446736
919589000 0.197503276852 0.0653365715698
919602000 0.194735006827 0.0626415271324
919615000 0.200882006768 0.0655224775812
919628000 0.202380617878 0.0646111924998
919641000 0.202044166926 0.0646287995622
919654000 0.199496353254 0.0626449153984
919667000 0.201502709462 0.0674566640701
919680000 0.204253587347 0.0685988566837
919693000 0.201401014783 0.0610477437221
919706000 0.203232984003 0.0657553681049
919719000 0.203965889699 0.065565383335
919732000 0.199987906484 0.0682271854163
919745000 0.205207825938 0.0634355103254
919758000 0.201666104804 0.0648299130311
919771000 0.203904450449 0.0643909679624
919784000 0.203817700627 0.067543256621
919797000 0.205877329188 0.0673172294808
919810000 0.20659288374 0.0682151598898
919823000 0.207884506872 0.0646570871277
919836000 0.204374855874 0.0660877696356
919849000 0.209296469591 0.0650592825738
919862000 0.202566353775 0.067523103068
919875000 0.201108609188 0.0705670987074
919888000 0.198974834885 0.0741136250783
919901000 0.207075707623 0.0717065223997
919914000 0.207453727529 0.0716713354822
919927000 0.204059907463 0.0679667100779
919940000 0.208442145687 0.0709782231098
919953000 0.208305620902 0.0721454920192
919966000 0.203205812313 0.0708804374135
919979000 0.207884784205 0.0725649102535
919992000 0.208781564727 0.0738076980081
920005000 0.20852363495 0.0749947294786
920018000 0.204599434972 0.0717579983992
920031000 0.207474447985 0.07274169521
920044000 0.207205096446 0.077601908271
920057000 0.205058473799 0.0727977013611
920070000 0.212791614724 0.0724175022651
920083000 0.206629998558 0.0759237227761
920096000 0.211417757902 0.0716800601494
920109000 0.206513606252 0.0696797433526
920122000 0.212651317481 0.0721645103132
920135000 0.213657869718 0.07423968333
920148000 0.208801170834 0.0747195107751
920161000 0.211089684357 0.0752722744787
920174000 0.213251744755 0.0743515263819
920187000 0.211563486592 0.0773695610698
920200000 0.213961697571 0.0767459084535
920213000 0.213588461963 0.0755005840062
920226000 0.214497713076 0.0732662809493
920239000 0.216315917817 0.0820934510315
920252000 0.214277111637 0.0787305841477
920265000 0.210616699975 0.0790927910167
920278000 0.215916752677 0.0774877485446
920291000 0.209184009843 0.0748887905524
920304000 0.217333863897 0.0778340281552
920317000 0.218465040198 0.076238193082
920330000 0.218062771508 0.0814678185574
920343000 0.216268814733 0.0771473168651
920356000 0.215572868611 0.0784330135864
920369000 0.216700583063 0.0786532592708
920382000 0.220259427022 0.0783297372986
920395000 0.217649434145 0.0766120262966
920408000 0.224063338566 0.0784929406159
920421000 0.224315489188 0.077450567022
920434000 0.220010283802 0.0752485781653
920447000 0.223505292264 0.0751378109767
920460000 0.220528309362 0.0836857773443
920473000 0.217919091393 0.080994055772
920486000 0.220200490996 0.0803437112645
920499000 0.220366835299 0.0813885259181
920512000 0.22040729947 0.0839367829186
920525000 0.218127801321 0.0804679818444
920538000 0.219804442024 0.0796781604801
920551000 0.220851574374 0.0798736456822
920564000 0.222625272315 0.0807022911136
920577000 0.224854700478 0.0843355292735
920590000 0.223846128667 0.0842763279215
920603000 0.222740306284 0.0805308721011
920616000 0.222968911159 0.0773039051618
920629000 0.221789133603 0.0820330703767
920642000 0.225660241623 0.0851941248576
920655000 0.227546719927 0.0853474479059
920668000 0.228710819939 0.0854162621306
920681000 0.226036468547 0.0808161066476
920694000 0.227730899627 0.0886957125056
920707000 0.230547662848 0.0851830813942
920720000 0.229896353513 0.0810752517711
920733000 0.227823939793 0.0824478626394
920746000 0.229386312612 0.080815115299
920759000 0.229431540642 0.0842984145208
920772000 0.227327934048 0.0843160870352
920785000 0.222890508465 0.0819606453058
920798000 0.224814789095 0.0859609188267
920811000 0.224914486055 0.0865025484179
920824000 0.227363366768 0.0871949373318
920837000 0.229213241987 0.0857269732776
920850000 0.225991722865 0.0923711727812
920863000 0.230473154902 0.0864406263287
920876000 0.233342295036 0.0852789151235
920889000 0.228778304687 0.0893611511303
920902000 0.230024359409 0.0874095998621
920915000 0.232951534119 0.0862025633522
920928000 0.230693421944 0.0867279527157
920941000 0.230781899771 0.0837957636623
920954000 0.231876246903 0.0888984993061
920967000 0.237372899735 0.0885525556849
920980000 0.232820380908 0.0896917345705
920993000 0.232744806987 0.0873826810394
921006000 0.236333509393 0.0910614491231
921019000 0.231382361292 0.0895724324996
921032000 0.234476388582 0.0919734025052
921045000 0.239724485645 0.0880174990868
921058000 0.23826658804 0.0900437847788
921071000 0.236875926285 0.0865142065261
921084000 0.235785196211 0.0936589556013
921097000 0.239882804076 0.0899270928067
921110000 0.236851531691 0.0935692796764
921123000 0.23861034026 0.0867630805374
921136000 0.238537626851 0.091421910269
921149000 0.242301166803 0.0887296741067
921162000 0.236075857933 0.0905368516112
921175000 0.238567861014 0.0860870712231
921188000 0.240482643175 0.0891795414223
921201000 0.237545261534 0.0897145957278
921214000 0.237245037491 0.0917259641491
921227000 0.237903834094 0.0914683869974
921240000 0.240186813364 0.0917926934248
921253000 0.241550579504 0.0893319006422
921266000 0.237721280546 0.0926379063585
921279000 0.238116422715 0.0918656627959
921292000 0.244001977965 0.0935064606336
921305000 0.239685353434 0.0969819024173
921318000 0.245343282731 0.0927783795807
921331000 0.243630637111 0.0951155692344
921344000 0.24533698559 0.0931634332263
921357000 0.245256160666 0.0908237266737
921370000 0.242979680435 0.0962349273644
921383000 0.24635078762 0.099902855067
921396000 0.24645765146 0.0970408031049
921409000 0.246644109543 0.0966390898134
921422000 0.245125634257 0.0968715431128
921435000 0.242109429995 0.0918829579716
921448000 0.241550135645 0.0895885446347
921461000 0.244600308653 0.0935124883851
921474000 0.248592389748 0.096508294157
921487000 0.246828596201 0.0954529446339
921500000 0.247776420917 0.092926474378
921513000 0.248837857269 0.0954169840063
921526000 0.246155264816 0.0943678993261
921539000 0.247365892521 0.0914622948855
921552000 0.250739783989 0.0923830645313
921565000 0.247197399995 0.0946346389135
921578000 0.250507357804 0.0956870733987
921591000 0.251148517987 0.0956137579472
921604000 0.251047347975 0.0953508344106
921617000 0.248136600919 0.0959916867725
921630000 0.251530110728 0.0944591852139
921643000 0.249364002975 0.0939545661204
921656000 0.253968151042 0.0900311472726
921669000 0.251760237526 0.0939572140845
921682000 0.250353954478 0.0959278091706
921695000 0.251588069756 0.0968404216446
921708000 0.252292183868 0.097358861962
921721000 0.250896961882 0.0957806427671
921734000 0.252546688749 0.0981367573427
921747000 0.250843455774 0.0971848096588
921760000 0.254053745778 0.101056337265
921773000 0.256354465455 0.0998660488309
921786000 0.252810966212 0.0958417204441
921799000 0.253841022869 0.0940484918417
921812000 0.253774848227 0.098199603397
921825000 0.254749281127 0.0938905586002
921838000 0.252626405499 0.0980321858219
921851000 0.254173841271 0.098651755451
921864000 0.256759419254 0.0981111736373
921877000 0.256659870617 0.0972246125523
921890000 0.260945252426 0.104243232349
921903000 0.25528252467 0.102883211401
921916000 0.261252935882 0.104061271781
921929000 0.260834955081 0.100122607625
921942000 0.257566880789 0.10037135497
921955000 0.2556218041 0.0994611618392
921968000 0.258701495598 0.100418192272
921981000 0.262504826437 0.100322651446
921994000 0.261379035509 0.100464839776
922007000 0.263235862722 0.100073099416
922020000 0.261315173583 0.0991530718896
922033000 0.265585771726 0.10015512225
922046000 0.259528482152 0.100809952133
922059000 0.26071965574 0.101462435926
922072000 0.263678197736 0.0982912846301
922085000 0.26632056773 0.098019529378
922098000 0.266478240877 0.103068157601
922111000 0.25921421874 0.103217552077
922124000 0.26258183655 0.103259580152
922137000 0.264988768309 0.100488697507
922150000 0.267494098087 0.101018759277
922163000 0.267565656373 0.0976637717458
922176000 0.266379132711 0.10429702337
922189000 0.261878092763 0.102676857917
922202000 0.266260475091 0.102889829016
922215000 0.267682626825 0.102872716271
922228000 0.270804092611 0.103115344421
922241000 0.268900473065 0.103357124753
922254000 0.270739461075 0.102292130274
922267000 0.272369989571 0.102412294687
922280000 0.270248401314 0.10518395008
922293000 0.269317446901 0.102444559827
922306000 0.272702102163 0.104350194613
922319000 0.26753157875 0.105812272231
922332000 0.271146326926 0.10547208389
922345000 0.266065339015 0.101328945629
922358000 0.273414615416 0.101294066326
922371000 0.270944096807 0.110800338321
922384000 0.269485474657 0.105154455451
922397000 0.270255625806 0.106726778688
922410000 0.271399556543 0.10640271105
922423000 0.271074398531 0.108788686228
922436000 0.272175553658 0.105682360931
922449000 0.272137659145 0.105230186308
922462000 0.275505889317 0.103464987043
922475000 0.272039460875 0.102859397741
922488000 0.27343677619 0.108722743605
922501000 0.270711905281 0.106053320979
922514000 0.267049842578 0.105268866474
922527000 0.270419612514 0.103751517587
922540000 0.277043588007 0.104866346988
922553000 0.279287247041 0.106309685655
922566000 0.277360565073 0.105095525262
922579000 0.276942721179 0.1079298201
922592000 0.278695364568 0.108535117043
922605000 0.28317831687 0.108164993969
922618000 0.280277280846 0.110945496965
922631000 0.28166596645 0.109069758133
922644000 0.280883534337 0.109110279528
922657000 0.278101894377 0.109200168468
922670000 0.280465291838 0.11111055079
922683000 0.280922052775 0.105202408254
922696000 0.280070245055 0.107669731522
922709000 0.285726330253 0.108754177347
922722000 0.283359812665 0.110499589092
922735000 0.282538016234 0.109615110156
922748000 0.283012785822 0.108164251822
922761000 0.283940165761 0.106640690871
922774000 0.281494515359 0.110848546036
922787000 0.286073906084 0.111780884341
922800000 0.2846335988 0.110538061486
922813000 0.284058513482 0.11039917112
922826000 0.284827373092 0.110018705848
922839000 0.28334087805 0.112092404997
922852000 0.28211893981 0.110748978246
922865000 0.280629638939 0.108846209453
922878000 0.281582620953 0.111940272061
922891000 0.286383298248 0.111660262224
922904000 0.286269354957 0.11205066263
922917000 0.288178167922 0.113920623123
922930000 0.283853977251 0.113354179626
922943000 0.28729519954 0.114831745634
922956000 0.286419629027 0.113831152172
922969000 0.287836983933 0.109441600467
922982000 0.290489497229 0.108961274763
922995000 0.289911967894 0.108725225244
923008000 0.285974074158 0.11498920875
923021000 0.283586843752 0.112291271138
923034000 0.290382717445 0.11183513421
923047000 0.290337838149 0.112576020199
923060000 0.293179837588 0.107098224896
923073000 0.287636942898 0.113493931453
923086000 0.288489768247 0.110253510778
923099000 0.293782047553 0.104055425947
923112000 0.293800093532 0.115950305298
923125000 0.293486905894 0.111254302556
923138000 0.294293580645 0.104735271468
923151000 0.285901772458 0.108691722246
923164000 0.292637331061 0.112104363843
923177000 0.294302794297 0.113648431995
923190000 0.290774374978 0.112741187917
923203000 0.294216519644 0.114017077783
923216000 0.29168465767 0.115693912747
923229000 0.295192949858 0.110883480475
923242000 0.296136862545 0.111795260908
923255000 0.299947492953 0.11449817561
923268000 0.294313567153 0.110300522456
923281000 0.303278704069 0.112953349596
923294000 0.301084321636 0.113592024766
923307000 0.302351233005 0.111182634217
923320000 0.297059968448 0.115603323255
923333000 0.296118145767 0.118239741706
923346000 0.297134237285 0.114518609889
923359000 0.299537143088 0.112235603302
923372000 0.297199413606 0.111940162744
923385000 0.300554377522 0.11641072605
923398000 0.301677981146 0.118154242661
923411000 0.29794468328 0.121408195352
923424000 0.303764865069 0.124290576726
923437000 0.301344300597 0.119114203313
923450000 0.300362703821 0.114060175822
923463000 0.302941975721 0.111751000096
923476000 0.302400783545 0.115609731549
923489000 0.300768551281 0.115349190381
923502000 0.299600695426 0.113024573946
923515000 0.305615965285 0.112477808034
923528000 0.304488620701 0.111166417767
923541000 0.301744846247 0.110979223302
923554000 0.308922879013 0.112084835674
923567000 0.305251921469 0.1184381467
923580000 0.302153152305 0.118930867158
923593000 0.302567227264 0.114890272097
923606000 0.303673641062 0.114960727535
923619000 0.303906686555 0.111147028612
923632000 0.310037695121 0.119074366334
923645000 0.308560142638 0.112653078049
923658000 0.309070744882 0.119758598073
923671000 0.312273817669 0.116642032883
923684000 0.304061027604 0.118235996436
923697000 0.309666281715 0.116966011618
923710000 0.305783378475 0.119001889444
923723000 0.308956635243 0.11969749794
923736000 0.305244131762 0.115094957369
923749000 0.308800364101 0.11309704738
923762000 0.309505853442 0.112535356178
923775000 0.307316698948 0.116150807677
923788000 0.308379975934 0.116598180919
923801000 0.310187357957 0.121815491096
923814000 0.309987741453 0.120053381689
923827000 0.31119406998 0.118489526402
923840000 0.315676669765 0.112046855956
923853000 0.309921528931 0.109611527942
923866000 0.302729842441 0.114941448686
923879000 0.326274290151 0.120146865501
923892000 0.309561176724 0.106318364064
923905000 0.31248358876 0.112652777736
923918000 0.310698164114 0.111648779472
923931000 0.315005842012 0.120015140497
923944000 0.317726409716 0.113525012261
923957000 0.318423882318 0.117444188119
923970000 0.318873385183 0.118102893896
923983000 0.31564319958 0.115018906491
923996000 0.316038604994 0.117888102057
924009000 0.318375008921 0.124342314433
924022000 0.313997641775 0.116958819112
924035000 0.317528588234 0.136898124483
924048000 0.323872492655 0.114710086161
924061000 0.316069749858 0.126328903115
924074000 0.317702065163 0.117042654163
924087000 0.319965943617 0.118650725458
924100000 0.32144640671 0.119408245552
924113000 0.320844239624 0.121983421071
924126000 0.323803162471 0.120158314318
924139000 0.321076872162 0.11927647504
924152000 0.319154687574 0.109826394131
924165000 0.323856360139 0.118303225125
924178000 0.322348557124 0.11843044886
924191000 0.31805832624 0.119226642124
924204000 0.327742680688 0.112922384212
924217000 0.318056449877 0.117498160335
924230000 0.32190058021 0.121322978639
924243000 0.323350072857 0.116329266719
924256000 0.322465615365 0.111155055765
924269000 0.325893098303 0.124789697769
924282000 0.327022764696 0.114962948417
924295000 0.321806938527 0.125210093994
924308000 0.321709329434 0.116557763703
924321000 0.323910903006 0.115156068843
924334000 0.325265389319 0.114346290885
924347000 0.333692566627 0.125314397205
924360000 0.328516555168 0.126699503874
924373000 0.338007140177 0.123166208505
924386000 0.326636199033 0.121474503416
924399000 0.329472721667 0.123328207028
924412000 0.327529288896 0.124474978898
924425000 0.328721614237 0.121613581383
924438000 0.329359362305 0.123810517164
924451000 0.331727925367 0.123894229602
924464000 0.335252170285 0.12349214327
924477000 0.323276487289 0.115961199599
924490000 0.330505957916 0.120771414177
924503000 0.328930792026 0.122748582087
924516000 0.328341311541 0.121290839355
924529000 0.337230099976 0.125072309571
924542000 0.332186607755 0.116052209874
924555000 0.33229852042 0.119502588735
924568000 0.329611571211 0.121354047825
924581000 0.332659132252 0.12599471111
924594000 0.337225824668 0.119127204168
924607000 0.33299153085 0.126178205895
924620000 0.338009696334 0.116544781812
924633000 0.340531229814 0.113667201973
924646000 0.338116970994 0.121584667483
924659000 0.334139113241 0.115552288882
924672000 0.334724264169 0.126293036618
924685000 0.337885854268 0.121576619914
924698000 0.335145488087 0.128000767288
924711000 0.338793960202 0.123503678633
924724000 0.337368449796 0.125252765243
924737000 0.338201530833 0.123695194615
924750000 0.34439386565 0.114960191743
924763000 0.346170658949 0.120327600958
924776000 0.334562663934 0.127296814478
924789000 0.334247772981 0.118265109427
924802000 0.344034002079 0.121400959335
924815000 0.338428697837 0.113805281331
924828000 0.340934815703 0.126091881498
924841000 0.341795750648 0.116316779083
924854000 0.344659083877 0.122060565731
924867000 0.338071985172 0.117823152168
924880000 0.337866872724 0.120763073187
924893000 0.339448002828 0.123078615806
924906000 0.346286007714 0.124009696404
924919000 0.348358348872 0.12248833498
924932000 0.347074817107 0.121848126874
924945000 0.343772666291 0.122633632686
924958000 0.338811468091 0.127738293036
924971000 0.338889637735 0.121566918651
924984000 0.336557425414 0.121199698326
924997000 0.3459974537 0.11270043837
925010000 0.349635401964 0.118228892818
925023000 0.342441768996 0.122211936653
925036000 0.344296123413 0.118673956632
925049000 0.354929592945 0.124804358097
925062000 0.348505141004 0.120935173639
925075000 0.344130570123 0.118683078845
925088000 0.34485167372 0.129394058403
925101000 0.345564477516 0.124412677874
925114000 0.34323776594 0.127529591714
925127000 0.343817691595 0.129410876875
925140000 0.344758895458 0.129295668902
925153000 0.339607456495 0.12753303166
925166000 0.345747343976 0.123882610081
925179000 0.354604031282 0.123393813743
925192000 0.349473286349 0.123221344668
925205000 0.3520563937 0.122253438643
925218000 0.355353191003 0.125377721046
925231000 0.351647104046 0.126734952943
925244000 0.346877390999 0.12618312032
925257000 0.359747480128 0.12767719759
925270000 0.358835600219 0.127640334797
925283000 0.358377502187 0.12526363874
925296000 0.352707669431 0.127587356869
925309000 0.352315700568 0.118545186903
925322000 0.350933010576 0.119988193728
925335000 0.350052142736 0.122550262392
925348000 0.354923785939 0.12777384944
925361000 0.355814805074 0.130423279037
925374000 0.353259202446 0.118601589649
925387000 0.365526473303 0.127478170736
925400000 0.370067962526 0.128505851984
925413000 0.36198306255 0.127367993813
925426000 0.358327937463 0.125104725194
925439000 0.359085857293 0.121162653726
925452000 0.357610161913 0.127194576419
925465000 0.359407633025 0.122550061281
925478000 0.360539791234 0.123266000779
925491000 0.357516140933 0.121602014466
925504000 0.365993413367 0.123163400465
925517000 0.359170856737 0.127267791253
925530000 0.358940603353 0.122582046993
925543000 0.367409126979 0.131533686953
925556000 0.351413460376 0.131987740169
925569000 0.355043657311 0.129348112572
925582000 0.371472551872 0.129296138022
925595000 0.362469615736 0.127398951354
925608000 0.360993256891 0.122510896278
925621000 0.367207983119 0.124626115454
925634000 0.365536352609 0.123435935904
925647000 0.364145292417 0.122295959722
925660000 0.363913913224 0.129716492829
925673000 0.362277920164 0.125208014266
925686000 0.372036632472 0.124243355525
925699000 0.361400620537 0.123342334633
925712000 0.369482659479 0.116171108806
925725000 0.371258252022 0.125668200775
925738000 0.364472067581 0.117502900854
925751000 0.365909120678 0.138732073996
925764000 0.369006223906 0.125044329215
925777000 0.370362373015 0.127471009835
925790000 0.367610798919 0.131292150468
925803000 0.370843587074 0.119491500426
925816000 0.375526643833 0.116915840714
925829000 0.364055753832 0.129286257156
925842000 0.361522065786 0.113449896887
925855000 0.370602375081 0.121412020061
925868000 0.374738302077 0.117456138358
925881000 0.362677346867 0.130571752487
925894000 0.358347356431 0.128807548844
925907000 0.357711383332 0.114958631745
925920000 0.362942694194 0.119327082876
925933000 0.373776589575 0.121707830786
925946000 0.368360313882 0.125499544532
925959000 0.372050536462 0.119064145319
925972000 0.374029992226 0.124884359321
925985000 0.377619021559 0.116047818548
925998000 0.370058425244 0.120632436557
926011000 0.383694565109 0.123218587572
926024000 0.374855102312 0.123996280666
926037000 0.372354710088 0.126748709209
926050000 0.37083515716 0.126130581977
926063000 0.368986282214 0.13537110981
926076000 0.372612608756 0.125502001269
926089000 0.372077049043 0.123904732614
926102000 0.377115874209 0.126047951663
926115000 0.376133146855 0.123150265155
926128000 0.377628276456 0.122108263864
926141000 0.378632579459 0.123747040645
926154000 0.372939793781 0.125885819276
926167000 0.37734934138 0.122412733718
926180000 0.380759871056 0.124850688734
926193000 0.376716901858 0.127345483306
926206000 0.381654232015 0.123651035104
926219000 0.376358844231 0.121760426109
926232000 0.373844679226 0.122444503695
926245000 0.37111189319 0.125654837108
926258000 0.373355615264 0.126180049165
926271000 0.376404435476 0.125025670182
926284000 0.378017162886 0.124357287275
926297000 0.385268773983 0.122476053374
926310000 0.381017162401 0.124806255898
926323000 0.377391197623 0.120966012603
926336000 0.37690721272 0.127847373688
926349000 0.379478625344 0.121013166216
926362000 0.382563194367 0.119682302705
926375000 0.384365550837 0.123004574239
926388000 0.383688717015 0.126388718684
926401000 0.379502943861 0.119156732975
926414000 0.382230935399 0.127358842954
926427000 0.383432011097 0.125586254846
926440000 0.388842083847 0.122717099187
926453000 0.387780683819 0.123943967481
926466000 0.382945691417 0.132163639633
926479000 0.381898393981 0.119385561777
926492000 0.381293185362 0.127877639873
926505000 0.384141483273 0.128699594273
926518000 0.37874569884 0.128897761181
926531000 0.385727964353 0.131009501219
926544000 0.382411044948 0.126993788774
926557000 0.386339454631 0.111116940664
926570000 0.377793805679 0.13286374078
926583000 0.389034857496 0.124804653352
926596000 0.390799065002 0.132043934681
926609000 0.389125491481 0.121449970357
926622000 0.387183909304 0.12966505003
926635000 0.389445113516 0.135349439114
926648000 0.376483135933 0.121067255897
926661000 0.391777166099 0.117156388659
926674000 0.397201560119 0.128311195097
926687000 0.393156990955 0.128709148374
926700000 0.38981259057 0.125720469377
926713000 0.400105452661 0.118996033207
926726000 0.379266845235 0.128542345144
926739000 0.394464771574 0.125686648064
926752000 0.383391857782 0.126730362828
926765000 0.387093667587 0.117565718013
926778000 0.391602475761 0.114878153668
926791000 0.39605136939 0.117658010635
926804000 0.393777458975 0.122230511073
926817000 0.388441254033 0.117825952605
926830000 0.401542301302 0.116446420255
926843000 0.39270623449 0.119241300774
926856000 0.398266558688 0.11979393142
926869000 0.398826917823 0.120740943728
926882000 0.393195333141 0.125138946454
926895000 0.401553094034 0.116035030311
926908000 0.395575339571 0.119293853764
926921000 0.393698967535 0.126342512619
926934000 0.392867113317 0.124185013369
926947000 0.396593744649 0.123576241119
926960000 0.401100278682 0.121272824321
926973000 0.397839346409 0.11867105177
926986000 0.395273433199 0.118723867968
926999000 0.393076901133 0.120673021061
927012000 0.399914192945 0.125891301675
927025000 0.400931760127 0.12731660417
927038000 0.398141122588 0.12781998344
927051000 0.403652523425 0.123675180035
927064000 0.400373909861 0.127428701342
927077000 0.397314624539 0.119606255965
927090000 0.406605184948 0.12128081213
927103000 0.403931088861 0.121321816555
927116000 0.403556501171 0.127213526511
927129000 0.40629599315 0.122051838862
927142000 0.402449665129 0.125504200125
927155000 0.403443696902 0.123743218138
927168000 0.404614475337 0.127473637974
927181000 0.39775497626 0.124933525183
927194000 0.409891644713 0.123473085688
927207000 0.400778616127 0.125700093185
927220000 0.407377230861 0.12130249447
927233000 0.40415345679 0.127487565389
927246000 0.402428981744 0.117991241483
927259000 0.409815668585 0.125895273393
927272000 0.40838458322 0.126646303438
927285000 0.410105187482 0.124796602141
927298000 0.399124060893 0.117375872872
927311000 0.413428755997 0.118204493827
927324000 0.408533487076 0.116504014251
927337000 0.397506660413 0.120079923985
927350000 0.411692351755 0.128739636649
927363000 0.405676602506 0.124292024326
927376000 0.410891038828 0.117591338978
927389000 0.410362527248 0.127309868784
927402000 0.40968975028 0.129471707424
927415000 0.399022356126 0.124515710187
927428000 0.405882654081 0.114882419982
927441000 0.412408346819 0.120775211665
927454000 0.405661780651 0.121916109963
927467000 0.412254142297 0.121910823044
927480000 0.416997054612 0.128026018924
927493000 0.417817130506 0.123930882362
927506000 0.41660357115 0.115743564165
927519000 0.41147365176 0.114392559667
927532000 0.410385110136 0.124012588299
927545000 0.413516545669 0.128942766098
927558000 0.416642501774 0.129541951992
927571000 0.418229449258 0.123564125837
927584000 0.414539890172 0.124006513024
927597000 0.411572608534 0.122655223062
927610000 0.417064743059 0.123318964546
927623000 0.415468134721 0.119721281484
927636000 0.418527305398 0.122910800004
927649000 0.416504550328 0.116267824377
927662000 0.416719506048 0.124066163329
927675000 0.418302059733 0.121973615801
927688000 0.420538989294 0.112760990499
927701000 0.421549632568 0.122226519687
927714000 0.418737092445 0.119404327768
927727000 0.418277174624 0.121588614948
927740000 0.417518608566 0.115532482111
927753000 0.417108713314 0.113519496118
927766000 0.417400620453 0.115871684114
927779000 0.415657396421 0.120349282078
927792000 0.421600931449 0.121869836906
927805000 0.41772873834 0.116226348389
927818000 0.417190150626 0.119720610265
927831000 0.419157565867 0.115449398325
927844000 0.41750269067 0.116914634361
927857000 0.413075270047 0.118090292774
927870000 0.420196241395 0.12249120834
927883000 0.422707767887 0.115653736272
927896000 0.42373166806 0.117480763154
927909000 0.420715918409 0.122450524342
927922000 0.417667820245 0.114054077586
927935000 0.423348833705 0.123465800369
927948000 0.424222562971 0.122983340714
927961000 0.426344947132 0.118971721484
927974000 0.426889217488 0.119748340849
927987000 0.425528193783 0.115179712772
928000000 0.424840518341 0.120481026325
