! Calibrated averaged scanner-service zoom
# Hz S RI R 50
769000000 0.53442945519 -0.260021807816
769006000 0.534668806712 -0.259598245966
769012000 0.534777543977 -0.260158485041
769018000 0.534384918501 -0.260703400685
769024000 0.534918247466 -0.260532124954
769030000 0.535087881775 -0.260263340907
769036000 0.535139354525 -0.260494694003
769042000 0.534476260955 -0.260152000962
769048000 0.534332059297 -0.26023988269
769054000 0.534383762253 -0.260542221338
769060000 0.533706318626 -0.260043580337
769066000 0.53426169018 -0.260537361429
769072000 0.53386025918 -0.259954233939
769078000 0.53449196226 -0.260152887029
769084000 0.534711826662 -0.261187863475
769090000 0.533823538478 -0.260695832927
769096000 0.534116609618 -0.260230837724
769102000 0.533998616907 -0.260775189476
769108000 0.534134414449 -0.259987744617
769114000 0.534413962143 -0.260241211339
769120000 0.534745221167 -0.261248893671
769126000 0.534687534925 -0.26147833811
769132000 0.53404350459 -0.261082258349
769138000 0.53389435393 -0.26095577602
769144000 0.535812116581 -0.257077397204
769150000 0.534238101912 -0.261480962538
769156000 0.534082044309 -0.259675730491
769162000 0.535152761895 -0.261044496584
769168000 0.535299918007 -0.26036046348
769174000 0.534253533322 -0.261004986677
769180000 0.534665156418 -0.260363040062
769186000 0.533998822864 -0.26053605943
769192000 0.534332427963 -0.260720087993
769198000 0.534412749341 -0.261158803247
769204000 0.534529338538 -0.25982048533
769210000 0.533319414267 -0.259429932138
769216000 0.533322400948 -0.260316980365
769222000 0.534522843244 -0.260498930717
769228000 0.534586460809 -0.260534856617
769234000 0.534179691013 -0.260840499309
769240000 0.534315327564 -0.260778713093
769246000 0.534843543836 -0.26013158304
769252000 0.534592364392 -0.260941824553
769258000 0.534693169206 -0.261858243627
769264000 0.534682950975 -0.261228338094
769270000 0.534931158404 -0.26101524793
769276000 0.534640724176 -0.260789216513
769282000 0.535559721941 -0.260983578086
769288000 0.535564241933 -0.260839434852
769294000 0.534691220607 -0.260407966129
769300000 0.535400563272 -0.260311171826
769306000 0.535255409135 -0.260884802373
769312000 0.535566730462 -0.260280467137
769318000 0.536240715753 -0.260824372056
769324000 0.534771555036 -0.26100485393
769330000 0.535094009728 -0.261754476027
769336000 0.534755463685 -0.261282817152
769342000 0.534943846551 -0.260955228682
769348000 0.53346012436 -0.261442931431
769354000 0.534392320289 -0.261192223244
769360000 0.533945276482 -0.261232454962
769366000 0.534524773081 -0.26095243788
769372000 0.534480213643 -0.2599080625
769378000 0.535227350918 -0.260773633825
769384000 0.534677584565 -0.261100517231
769390000 0.534220788978 -0.261007178526
769396000 0.534792335524 -0.260862764942
769402000 0.535849063484 -0.261385481704
769408000 0.534842092586 -0.261326325112
769414000 0.534713743148 -0.261230582743
769420000 0.534748395638 -0.261209326174
769426000 0.53501204078 -0.26082546879
769432000 0.535942553695 -0.260681148881
769438000 0.535421480021 -0.260429109157
769444000 0.534988988817 -0.260423088865
769450000 0.534192039483 -0.260052653465
769456000 0.534808086202 -0.260785297135
769462000 0.534160261346 -0.260027557036
769468000 0.534710516185 -0.260790838541
769474000 0.534467555262 -0.260594351738
769480000 0.534226997808 -0.26105822544
769486000 0.534810929047 -0.261769348157
769492000 0.535315645783 -0.261090327921
769498000 0.534910105832 -0.261119089883
769504000 0.534620223087 -0.261056468179
769510000 0.535237765652 -0.261984899988
769516000 0.534697432322 -0.261051130543
769522000 0.534684168734 -0.261504124625
769528000 0.534773080978 -0.260941796385
769534000 0.533861981861 -0.261385536965
769540000 0.534300640698 -0.261510566901
769546000 0.534810302352 -0.26233316764
769552000 0.535178612564 -0.262130230535
769558000 0.535071090574 -0.262009226014
769564000 0.534690209725 -0.261855221704
769570000 0.534427947115 -0.262436809705
769576000 0.534731567589 -0.261758744792
769582000 0.534838311755 -0.261590145229
769588000 0.534695110006 -0.261897972097
769594000 0.534267705887 -0.261516087722
769600000 0.534700222669 -0.262826607469
769606000 0.535254319954 -0.262142525795
769612000 0.53518555891 -0.262673463141
769618000 0.535539815212 -0.262480233285
769624000 0.535038225644 -0.26279115984
769630000 0.535201499278 -0.262350818562
769636000 0.534660028019 -0.262292779661
769642000 0.535094420971 -0.26132049915
769648000 0.535451510879 -0.262614592546
769654000 0.535170014715 -0.261525557807
769660000 0.53479127654 -0.262483549655
769666000 0.535696469243 -0.262109781709
769672000 0.534959528342 -0.261831509816
769678000 0.535272065523 -0.26169520707
769684000 0.534803701967 -0.261997671705
769690000 0.534281998394 -0.262523360242
769696000 0.534302946575 -0.261355908086
769702000 0.534724470806 -0.261340491575
769708000 0.534270936017 -0.261135124108
769714000 0.535616972535 -0.26176411065
769720000 0.535000336638 -0.261937289055
769726000 0.534035728828 -0.262025888781
769732000 0.534498582186 -0.262711815076
769738000 0.534389400576 -0.262469530427
769744000 0.534858072023 -0.262108861441
769750000 0.534856682056 -0.262212649905
769756000 0.534347937945 -0.262370761648
769762000 0.534410330295 -0.262086327672
769768000 0.534893187768 -0.262478645732
769774000 0.533915944701 -0.262304033477
769780000 0.535256949419 -0.262748968551
769786000 0.535434799627 -0.2614898764
769792000 0.535772266572 -0.262261771692
769798000 0.535498063355 -0.261919008723
769804000 0.535365796223 -0.261824463227
769810000 0.535831519186 -0.26203053776
769816000 0.535522534796 -0.261808200442
769822000 0.534298585541 -0.261984149753
769828000 0.535359954865 -0.26224093776
769834000 0.535095324935 -0.261799078547
769840000 0.53502296849 -0.261473107168
769846000 0.534756345986 -0.261839959846
769852000 0.534758936607 -0.26263584099
769858000 0.535746117625 -0.262168110302
769864000 0.534091857062 -0.261751831643
769870000 0.534877315213 -0.261822628932
769876000 0.53557273745 -0.262154393625
769882000 0.535475627519 -0.262178721157
769888000 0.53587534642 -0.262049051628
769894000 0.535740355624 -0.261893863856
769900000 0.535834691629 -0.263239126388
769906000 0.535464432685 -0.262591636797
769912000 0.535495167864 -0.262073461125
769918000 0.534218489074 -0.261706389617
769924000 0.534093476815 -0.262494295512
769930000 0.534082177314 -0.262418539881
769936000 0.534232797792 -0.263154730241
769942000 0.534512500183 -0.262065518358
769948000 0.534623582257 -0.262033356627
769954000 0.535654731103 -0.262604138056
769960000 0.535073041401 -0.262805241985
769966000 0.535145398356 -0.262563534711
769972000 0.535513638216 -0.262481896242
769978000 0.534849316852 -0.262966639484
769984000 0.53464738526 -0.263649829253
769990000 0.534547818276 -0.263564402507
769996000 0.535105098709 -0.263291323327
770002000 0.535740405093 -0.263373959379
770008000 0.534456954245 -0.262196916336
770014000 0.5357608524 -0.26335337903
770020000 0.535960562013 -0.262813986023
770026000 0.535266836309 -0.262300402674
770032000 0.535455003482 -0.261947873771
770038000 0.535201574455 -0.262722237723
770044000 0.534169766443 -0.262103209898
770050000 0.534978783006 -0.262035639471
770056000 0.535382429036 -0.262589363477
770062000 0.534501878708 -0.263279374711
770068000 0.53444196054 -0.262135057537
770074000 0.534727763372 -0.263046470003
770080000 0.534478697023 -0.262609239115
770086000 0.534033424109 -0.261944677624
770092000 0.534817826179 -0.26253802742
770098000 0.53256444347 -0.263601772852
770104000 0.534925157092 -0.262430699355
770110000 0.534631094368 -0.262939101501
770116000 0.535092652711 -0.262477534501
770122000 0.535386447211 -0.263774055661
770128000 0.534814615232 -0.263346465634
770134000 0.535579456954 -0.263213022673
770140000 0.535006111028 -0.263300612526
770146000 0.534999201841 -0.263160364961
770152000 0.534719689867 -0.263349849012
770158000 0.53446410673 -0.262687021863
770164000 0.53446581389 -0.263278938852
770170000 0.535515998661 -0.263642922999
770176000 0.534364604684 -0.263148822111
770182000 0.53497344724 -0.262603563253
770188000 0.535357264553 -0.26338965339
770194000 0.535106447137 -0.263338923637
770200000 0.535399603292 -0.263243484445
770206000 0.535516106359 -0.263591937442
770212000 0.535720842896 -0.263501887769
770218000 0.534909455567 -0.263574731343
770224000 0.534784495568 -0.263436247289
770230000 0.535617238493 -0.263702454246
770236000 0.534873095707 -0.26322991748
770242000 0.534476886523 -0.26376988692
770248000 0.534916934306 -0.263239781647
770254000 0.535469617964 -0.263671204572
770260000 0.536107817829 -0.264348811236
770266000 0.53565515773 -0.263434714422
770272000 0.535397443087 -0.263499491729
770278000 0.535771682531 -0.263855900344
770284000 0.535556600892 -0.263744047386
770290000 0.535259292525 -0.263806707926
770296000 0.534864058419 -0.263289652323
770302000 0.535037570127 -0.262665471584
770308000 0.53478015255 -0.262561783957
770314000 0.534704572184 -0.263627658949
770320000 0.535577513381 -0.263180555114
770326000 0.533900039642 -0.263168975856
770332000 0.535670878957 -0.263474811525
770338000 0.534672405231 -0.26280417113
770344000 0.535171272875 -0.262828091737
770350000 0.534125834557 -0.263715122314
770356000 0.535205859105 -0.262522998221
770362000 0.535028154243 -0.263414086214
770368000 0.534779802222 -0.263515307954
770374000 0.534895437664 -0.263110940213
770380000 0.534883271007 -0.263605720051
770386000 0.53455992183 -0.264025452799
770392000 0.534729200779 -0.263801082641
770398000 0.535261999091 -0.263876423341
770404000 0.534529371652 -0.263448072046
770410000 0.534308307699 -0.263641645676
770416000 0.534320828499 -0.26476811559
770422000 0.534547755737 -0.264010336029
770428000 0.534008616096 -0.264287221171
770434000 0.5342031965 -0.263378283593
770440000 0.535579838773 -0.264160683609
770446000 0.53506531353 -0.263485784227
770452000 0.534976071549 -0.263450194814
770458000 0.534815178106 -0.263152926384
770464000 0.534896314519 -0.264098557007
770470000 0.534592093653 -0.264127951249
770476000 0.535115865946 -0.263771439311
770482000 0.535382111384 -0.263095696093
770488000 0.534708744435 -0.263656754517
770494000 0.534681963135 -0.263064962555
770500000 0.533592042633 -0.262999102847
770506000 0.534436310012 -0.26376401547
770512000 0.535108010221 -0.264349931983
770518000 0.534872140041 -0.263782928206
770524000 0.535116924428 -0.263433378068
770530000 0.534961626926 -0.263398275337
770536000 0.535446393914 -0.263887523691
770542000 0.535738391268 -0.26373038574
770548000 0.534765112842 -0.263344294616
770554000 0.534801327388 -0.264098272665
770560000 0.53421374992 -0.263860560886
770566000 0.534862695735 -0.263456280855
770572000 0.535062108621 -0.263665249408
770578000 0.534750935492 -0.264064736297
770584000 0.534859455787 -0.263216400533
770590000 0.534344313879 -0.263874671763
770596000 0.535102722007 -0.264104126481
770602000 0.534583855905 -0.263659725497
770608000 0.535178837269 -0.263801828835
770614000 0.534754372275 -0.264115136238
770620000 0.53549713789 -0.264044388068
770626000 0.534735990497 -0.263890713963
770632000 0.534740815365 -0.264054849224
770638000 0.534588403557 -0.263660056277
770644000 0.534952083012 -0.264704326414
770650000 0.534849463873 -0.264099553222
770656000 0.535167343038 -0.264226877368
770662000 0.534978664958 -0.263846326604
770668000 0.534634038759 -0.265155272648
770674000 0.53500973939 -0.264127152555
770680000 0.535734723971 -0.264450977399
770686000 0.535215595488 -0.26448713489
770692000 0.534261802986 -0.26441008973
770698000 0.535185388392 -0.267635001524
770704000 0.534930491688 -0.264576639506
770710000 0.534327220528 -0.264453852614
770716000 0.534687768944 -0.264794589257
770722000 0.534099445873 -0.264054733222
770728000 0.534811225612 -0.264081332595
770734000 0.534508465108 -0.264308153818
770740000 0.534484931986 -0.264661479015
770746000 0.535107031394 -0.264113435154
770752000 0.535000257361 -0.263945786382
770758000 0.535187320109 -0.26395689989
770764000 0.5351901971 -0.264412548985
770770000 0.535076007794 -0.264396558219
770776000 0.535172554938 -0.264016066055
770782000 0.534769851882 -0.264496980895
770788000 0.534320330105 -0.2639441501
770794000 0.534120911226 -0.264344889536
770800000 0.53442795169 -0.264220262035
770806000 0.534466551528 -0.265480064448
770812000 0.535567610404 -0.26505241214
770818000 0.535108506035 -0.264284081766
770824000 0.535301852032 -0.26458413665
770830000 0.534512634875 -0.264690074614
770836000 0.534594163742 -0.264958703204
770842000 0.535035764936 -0.264313626702
770848000 0.534495014952 -0.264901061718
770854000 0.53467430359 -0.265233530177
770860000 0.534839922448 -0.264288547733
770866000 0.535338984211 -0.265117474846
770872000 0.534161255706 -0.264804255357
770878000 0.534599400648 -0.26474170105
770884000 0.535171675584 -0.264376902022
770890000 0.534163198067 -0.264748202623
770896000 0.534486277875 -0.265297697129
770902000 0.534110199086 -0.264359814046
770908000 0.534730121876 -0.264503184673
770914000 0.534449930513 -0.264833948918
770920000 0.535532007445 -0.265017550002
770926000 0.535303104744 -0.264896229192
770932000 0.535163541005 -0.264975932802
770938000 0.53538354622 -0.26466156962
770944000 0.534791561236 -0.264831541725
770950000 0.535846237983 -0.264898464762
770956000 0.535342650938 -0.265139676837
770962000 0.535607529262 -0.264885384972
770968000 0.535458265976 -0.264640526465
770974000 0.534423749831 -0.265535845262
770980000 0.534815892319 -0.265658446155
770986000 0.534594722198 -0.26475090626
770992000 0.534956161907 -0.265220937604
770998000 0.533506424613 -0.267143892644
771004000 0.534584557632 -0.264874052242
771010000 0.535337826009 -0.264471387229
771016000 0.535084475271 -0.264832500252
771022000 0.534652980567 -0.264440549735
771028000 0.534805593194 -0.264665974045
771034000 0.534453843697 -0.265110567939
771040000 0.535365972528 -0.264860322384
771046000 0.534897159377 -0.265297388552
771052000 0.535537959244 -0.264201673571
771058000 0.535533132656 -0.265420505494
771064000 0.535286816235 -0.265628068541
771070000 0.535203225258 -0.265641892493
771076000 0.534694823659 -0.265296419732
771082000 0.535176921512 -0.265120389891
771088000 0.534340111301 -0.265772531908
771094000 0.534731138302 -0.265723473971
771100000 0.535182751902 -0.266494468294
771106000 0.533924036259 -0.26568031285
771112000 0.534643251369 -0.265365831597
771118000 0.534970320789 -0.264850616605
771124000 0.534361318272 -0.265357379693
771130000 0.535116280991 -0.265435213982
771136000 0.534782733527 -0.265219961578
771142000 0.534091884632 -0.265914350095
771148000 0.53463956297 -0.265933641088
771154000 0.534755205891 -0.266125262369
771160000 0.534541620317 -0.264223121715
771166000 0.53503186485 -0.265711914393
771172000 0.534838526785 -0.265870947643
771178000 0.535204802038 -0.26508246798
771184000 0.534976543105 -0.264875375315
771190000 0.535504480535 -0.265658014566
771196000 0.535334844205 -0.265197053522
771202000 0.535137663678 -0.265223263857
771208000 0.535101640349 -0.264684746154
771214000 0.534918937783 -0.265545445022
771220000 0.534600769605 -0.265008495636
771226000 0.535053589185 -0.265424344418
771232000 0.534627749679 -0.265002613184
771238000 0.533949258623 -0.265001564885
771244000 0.533618134299 -0.266162359163
771250000 0.533471116191 -0.265052595079
771256000 0.534252650913 -0.266020132547
771262000 0.533550972555 -0.265798026216
771268000 0.534714339503 -0.265683457744
771274000 0.535137881495 -0.264951301168
771280000 0.534628749445 -0.266000402543
771286000 0.535392657566 -0.265609965936
771292000 0.534928650244 -0.265653042257
771298000 0.534555634713 -0.265466399805
771304000 0.534801128558 -0.266126413473
771310000 0.534455854276 -0.265303023626
771316000 0.535365251108 -0.265927849158
771322000 0.536759654684 -0.265896671955
771328000 0.535259183887 -0.266075461924
771334000 0.53537963072 -0.266249620489
771340000 0.535838869145 -0.265933811746
771346000 0.535650558626 -0.266104424943
771352000 0.53522411368 -0.265582562249
771358000 0.534445585524 -0.266496343651
771364000 0.534947870803 -0.266116082994
771370000 0.534605799011 -0.265960674699
771376000 0.534387209773 -0.266135753799
771382000 0.534296903676 -0.266394848185
771388000 0.534437007858 -0.265858336089
771394000 0.534325869606 -0.265639718031
771400000 0.535366326463 -0.265364204994
771406000 0.534747200798 -0.26654562042
771412000 0.533374515278 -0.266019861836
771418000 0.534599021708 -0.2661494992
771424000 0.534372977361 -0.26682064202
771430000 0.534034741478 -0.266585924142
771436000 0.533828318586 -0.266954220941
771442000 0.534968755602 -0.266142369501
771448000 0.534072100415 -0.267146898466
771454000 0.535213899362 -0.266547951977
771460000 0.534661495775 -0.26618456801
771466000 0.533449491727 -0.265235436165
771472000 0.534295241813 -0.266057960192
771478000 0.534736538042 -0.265693655755
771484000 0.534426915273 -0.265805937184
771490000 0.534628486209 -0.265204965405
771496000 0.534992289103 -0.26567613412
771502000 0.534433758693 -0.266376869947
771508000 0.5350542709 -0.265657820661
771514000 0.534235750217 -0.26564904511
771520000 0.535066460804 -0.266769834654
771526000 0.534925454764 -0.266527940032
771532000 0.535121618792 -0.266012179004
771538000 0.534862966348 -0.266657760776
771544000 0.534800132511 -0.267396256521
771550000 0.534389754615 -0.266784987017
771556000 0.534009510557 -0.266688907736
771562000 0.534960425098 -0.266516758849
771568000 0.534129979333 -0.266367722924
771574000 0.534123942484 -0.265684753129
771580000 0.535108718923 -0.266099854917
771586000 0.535338389927 -0.265772550113
771592000 0.534408230155 -0.266553759431
771598000 0.535368443915 -0.265899506642
771604000 0.534703257321 -0.266084135005
771610000 0.534931329092 -0.26665324477
771616000 0.534432766444 -0.266201349695
771622000 0.534312615468 -0.265978351388
771628000 0.534068477056 -0.265384057046
771634000 0.534653432362 -0.266501135798
771640000 0.534514657687 -0.266485615311
771646000 0.535243497409 -0.266442359545
771652000 0.53452769367 -0.266751716033
771658000 0.534182689424 -0.266461121715
771664000 0.535036094834 -0.266708676186
771670000 0.534775513928 -0.266648062498
771676000 0.534895592728 -0.266742002664
771682000 0.534714343367 -0.265849759641
771688000 0.53462068235 -0.266560639697
771694000 0.534904116566 -0.266438627916
771700000 0.534687618001 -0.266017458976
771706000 0.535528009749 -0.266615992515
771712000 0.534737102903 -0.266477253426
771718000 0.534423321887 -0.266475924545
771724000 0.534761892045 -0.265765738742
771730000 0.534593699047 -0.265958478087
771736000 0.534342955287 -0.266316016199
771742000 0.534486429837 -0.266451289453
771748000 0.534312641414 -0.26651591734
771754000 0.534244392287 -0.266346069125
771760000 0.533749987185 -0.266952586418
771766000 0.534956104264 -0.267130376789
771772000 0.534877526294 -0.267309129549
771778000 0.534180715684 -0.267555106371
771784000 0.534793700044 -0.265956783419
771790000 0.533666200586 -0.267292320545
771796000 0.533792625617 -0.267478823972
771802000 0.534243441743 -0.266989709212
771808000 0.534316268864 -0.266068389428
771814000 0.53455541061 -0.267376822413
771820000 0.53532370605 -0.265783547042
771826000 0.534669100289 -0.267252710517
771832000 0.535337928491 -0.26624768331
771838000 0.535353407928 -0.267352301778
771844000 0.535953886031 -0.267277090235
771850000 0.535164751133 -0.268269350054
771856000 0.533767056783 -0.269678701249
771862000 0.536095029468 -0.267431376239
771868000 0.534808675347 -0.267909755727
771874000 0.535564415834 -0.266722754219
771880000 0.53454100206 -0.267415721357
771886000 0.534229818181 -0.266762816813
771892000 0.534780441255 -0.267181304464
771898000 0.534845483961 -0.267010354896
771904000 0.534769257263 -0.267034858906
771910000 0.535497227996 -0.266098802536
771916000 0.534762058474 -0.266200910392
771922000 0.535556791483 -0.266591115335
771928000 0.535435432033 -0.266994865694
771934000 0.535469178677 -0.267420704693
771940000 0.534693411482 -0.266828159617
771946000 0.534458439126 -0.266565933606
771952000 0.535673278688 -0.267387413639
771958000 0.535436231748 -0.266282725904
771964000 0.535315008447 -0.267401324953
771970000 0.535683082807 -0.266908745539
771976000 0.535328053719 -0.26740860543
771982000 0.535011051614 -0.267062814033
771988000 0.535553783571 -0.26719765166
771994000 0.535118170815 -0.267447502841
772000000 0.534856212814 -0.267465655401
772006000 0.534300941094 -0.267203517342
772012000 0.533947120392 -0.267251924157
772018000 0.534702039856 -0.267215194872
772024000 0.534620936338 -0.267021821396
772030000 0.533694524666 -0.266118809143
772036000 0.534360956928 -0.266731162796
772042000 0.53335993087 -0.266568934336
772048000 0.534013367481 -0.266963770748
772054000 0.534308078055 -0.266573026559
772060000 0.534133833045 -0.267056164431
772066000 0.534652380845 -0.267585222617
772072000 0.532935968559 -0.266684283042
772078000 0.533722915381 -0.267679807388
772084000 0.534056590624 -0.267367958374
772090000 0.534236120566 -0.267359713593
772096000 0.534057528996 -0.267238048886
772102000 0.533865534006 -0.267315672477
772108000 0.534305749815 -0.266789999418
772114000 0.535060432259 -0.267195399121
772120000 0.534354530142 -0.267618172893
772126000 0.533979839098 -0.268590679482
772132000 0.534943879899 -0.267741373915
772138000 0.534547160087 -0.267584043282
772144000 0.534083558909 -0.267433267999
772150000 0.534032800053 -0.268332579122
772156000 0.53373053026 -0.267661180716
772162000 0.534318368006 -0.267859637146
772168000 0.534399289435 -0.267670356931
772174000 0.534458692302 -0.267799573637
772180000 0.534458346083 -0.268734987701
772186000 0.535003351101 -0.267480780908
772192000 0.534056755266 -0.266937716447
772198000 0.534613475506 -0.267758921748
772204000 0.534608177427 -0.267011448318
772210000 0.534438927124 -0.267674260817
772216000 0.534794303352 -0.267398460546
772222000 0.53483227323 -0.267999234215
772228000 0.534308311018 -0.268165774097
772234000 0.534660632844 -0.268419213604
772240000 0.534933096406 -0.268089098707
772246000 0.534902869459 -0.268186116384
772252000 0.535117306951 -0.267917772772
772258000 0.534261411218 -0.267358289151
772264000 0.535151744617 -0.267553352028
772270000 0.534950757924 -0.267247638805
772276000 0.534897329931 -0.267821840589
772282000 0.535369905826 -0.268192738627
772288000 0.535208482487 -0.268328376859
772294000 0.535216452564 -0.267608388049
772300000 0.53521575212 -0.268008838043
772306000 0.534076919597 -0.267721595509
772312000 0.533760155956 -0.26730358961
772318000 0.53411671417 -0.266590213727
772324000 0.533935289646 -0.267178064952
772330000 0.534190396478 -0.266685803315
772336000 0.534338447943 -0.268222740989
772342000 0.534096815102 -0.267064620842
772348000 0.533814425303 -0.267179737793
772354000 0.534241406177 -0.267226816143
772360000 0.53431706179 -0.267160670065
772366000 0.533911946698 -0.267980682675
772372000 0.534207255086 -0.267877152239
772378000 0.534684753121 -0.267924281939
772384000 0.534599718629 -0.26747048765
772390000 0.534927649698 -0.267249363704
772396000 0.534578672272 -0.267470988438
772402000 0.534121889622 -0.268000102502
772408000 0.535147952476 -0.266431881218
772414000 0.53436558175 -0.267482145598
772420000 0.534282892187 -0.268090039127
772426000 0.534192786856 -0.267945394857
772432000 0.534426131731 -0.267751733559
772438000 0.53487749438 -0.267836560438
772444000 0.534423809196 -0.269046768733
772450000 0.533958874055 -0.268373332629
772456000 0.533975541822 -0.269073682859
772462000 0.534153908219 -0.267442386423
772468000 0.534372929856 -0.268542472903
772474000 0.534653741986 -0.268332208934
772480000 0.535008875245 -0.267835234656
772486000 0.534706770678 -0.267504313562
772492000 0.534514142772 -0.267780917939
772498000 0.534608385187 -0.268296761957
772504000 0.533956077891 -0.26772259945
772510000 0.534207598563 -0.267792118578
772516000 0.534259971131 -0.268020646314
772522000 0.533835355787 -0.26810823909
772528000 0.534294271375 -0.267664823668
772534000 0.533676028713 -0.26812130277
772540000 0.534500850165 -0.268203132803
772546000 0.534331161246 -0.268435922314
772552000 0.534042977871 -0.26871578805
772558000 0.53390666048 -0.269158209031
772564000 0.534595719512 -0.268451403285
772570000 0.534736662376 -0.26834963684
772576000 0.534960514381 -0.268333642027
772582000 0.534598761177 -0.268591816228
772588000 0.53475927322 -0.26767143465
772594000 0.534833050426 -0.26831453808
772600000 0.534557107833 -0.268065201863
772606000 0.534823665518 -0.268368231792
772612000 0.534220192601 -0.267543606474
772618000 0.534647399164 -0.26822602171
772624000 0.534816318179 -0.26807729558
772630000 0.5340215761 -0.267755727912
772636000 0.534332659451 -0.267551368636
772642000 0.53387643415 -0.267966866814
772648000 0.534480133378 -0.267640205772
772654000 0.534158878497 -0.268169541795
772660000 0.533997735086 -0.267505350007
772666000 0.534003928503 -0.268450555054
772672000 0.534006686259 -0.267169535085
772678000 0.533037023048 -0.268070484243
772684000 0.53384919197 -0.268570986688
772690000 0.534695900225 -0.268093915265
772696000 0.534232520957 -0.268745753161
772702000 0.533736658825 -0.268243341586
772708000 0.534588667969 -0.267489936488
772714000 0.534049663796 -0.267826302794
772720000 0.534646248939 -0.267652913279
772726000 0.533767103992 -0.268524941351
772732000 0.534733694837 -0.268666196423
772738000 0.533780607636 -0.268101823937
772744000 0.533490152086 -0.268188595101
772750000 0.533984975279 -0.268391917191
772756000 0.534460432847 -0.268102090554
772762000 0.534494902393 -0.268317175298
772768000 0.534306466625 -0.268701114006
772774000 0.534631533879 -0.268621925746
772780000 0.534325132979 -0.269163470836
772786000 0.534584017134 -0.269108997674
772792000 0.53350975135 -0.268711606253
772798000 0.534168892225 -0.268820602217
772804000 0.534699218762 -0.268375900496
772810000 0.534534542885 -0.269359457993
772816000 0.533991992658 -0.268136312799
772822000 0.533812631069 -0.268791110037
772828000 0.533715565462 -0.268389213793
772834000 0.534283242541 -0.268018514763
772840000 0.533792698352 -0.268062218199
772846000 0.534163365888 -0.268530411279
772852000 0.534362972709 -0.26816872416
772858000 0.534138097044 -0.268070246881
772864000 0.534746807828 -0.268035052281
772870000 0.534934922522 -0.268572485878
772876000 0.53479347689 -0.268626675249
772882000 0.534078590998 -0.26857164914
772888000 0.534277203948 -0.268348831231
772894000 0.534297814764 -0.268543727746
772900000 0.533720977818 -0.269059396351
772906000 0.53419644341 -0.268753837778
772912000 0.534825882691 -0.268339963831
772918000 0.53329993504 -0.268385357165
772924000 0.535327567424 -0.269283782408
772930000 0.533764759879 -0.268987078266
772936000 0.533882395676 -0.269216733908
772942000 0.534273793712 -0.269304651106
772948000 0.534407875528 -0.268952952759
772954000 0.534588640971 -0.269046505949
772960000 0.534458442561 -0.268896907346
772966000 0.534263026799 -0.269883502203
772972000 0.53407501654 -0.269307111646
772978000 0.534005744193 -0.269808677628
772984000 0.533998757258 -0.268788914741
772990000 0.533579963342 -0.268233454676
772996000 0.532846329388 -0.268138948402
773002000 0.533621036814 -0.268447665521
773008000 0.533131287079 -0.26887120879
773014000 0.533942540199 -0.268225381423
773020000 0.533310643168 -0.268848111202
773026000 0.53241735355 -0.268381060613
773032000 0.533676359997 -0.269409083625
773038000 0.533106357426 -0.268504574571
773044000 0.534692099028 -0.269057122211
773050000 0.534234876189 -0.268992866233
773056000 0.534389769798 -0.268517806622
773062000 0.534330330433 -0.268025495981
773068000 0.533730803425 -0.26878945784
773074000 0.534679077712 -0.269666043289
773080000 0.534665429199 -0.268550726508
773086000 0.534704640069 -0.26858540494
773092000 0.533858653525 -0.268855888914
773098000 0.534283749761 -0.268377759049
773104000 0.533005250464 -0.268849129574
773110000 0.533885892261 -0.268864491275
773116000 0.53410642582 -0.268820555627
773122000 0.534762128306 -0.268397343852
773128000 0.534571631195 -0.270092053153
773134000 0.533845650237 -0.269376602057
773140000 0.533253179069 -0.269331049041
773146000 0.533657282833 -0.269319322248
773152000 0.534141888136 -0.269747288475
773158000 0.533503354084 -0.270033887744
773164000 0.533343485931 -0.26893657327
773170000 0.534545031242 -0.269497728129
773176000 0.533105432686 -0.267774345676
773182000 0.533573926177 -0.269483285923
773188000 0.53385587044 -0.269812202422
773194000 0.53261689776 -0.269203008785
773200000 0.534074383413 -0.268819943832
773206000 0.533759380413 -0.269658394525
773212000 0.534016380898 -0.26951984012
773218000 0.533469245479 -0.269060158421
773224000 0.533437183625 -0.268858909512
773230000 0.534517258645 -0.269079945046
773236000 0.534433032305 -0.268989140911
773242000 0.534322987762 -0.269815080082
773248000 0.533291755069 -0.268656734152
773254000 0.533824033161 -0.269504458018
773260000 0.533327892364 -0.269266174715
773266000 0.533937624417 -0.269511236535
773272000 0.533333799832 -0.269679396498
773278000 0.533815855958 -0.27006194515
773284000 0.53374363406 -0.269812412325
773290000 0.534408571613 -0.269523024016
773296000 0.534214812539 -0.269465368301
773302000 0.533442652588 -0.269956879814
773308000 0.533839822524 -0.269998666366
773314000 0.533805177981 -0.270820774304
773320000 0.533817520602 -0.269187006517
773326000 0.533783753004 -0.269815732937
773332000 0.533879142835 -0.270429824145
773338000 0.533737001329 -0.269641917261
773344000 0.533581057946 -0.269875038345
773350000 0.533928666954 -0.269979598288
773356000 0.534567147105 -0.269602149808
773362000 0.533398597788 -0.26955344385
773368000 0.533897466825 -0.268695922987
773374000 0.534153172962 -0.269149401769
773380000 0.534217889568 -0.269617531974
773386000 0.533848302264 -0.269587302368
773392000 0.534411969092 -0.270330133075
773398000 0.533542658644 -0.269474124549
773404000 0.533589925887 -0.270052480695
773410000 0.534280078899 -0.269437520536
773416000 0.534579919814 -0.270078311282
773422000 0.533619035545 -0.26983289093
773428000 0.533021926224 -0.269933774651
773434000 0.534139733112 -0.269880351129
773440000 0.533757236394 -0.269939786787
773446000 0.533355988998 -0.269930839737
773452000 0.53476644592 -0.26934376806
773458000 0.533856721041 -0.26874919133
773464000 0.532935863387 -0.268545389302
773470000 0.534320340739 -0.268473102574
773476000 0.533204289092 -0.268825442537
773482000 0.532959613562 -0.274780860311
773488000 0.534348976763 -0.268822249883
773494000 0.525986306328 -0.269895903634
773500000 0.532959716722 -0.270385570247
773506000 0.535953161043 -0.271031264781
773512000 0.534622500282 -0.270217110923
773518000 0.533277700865 -0.269635854536
773524000 0.534374633984 -0.269846057793
773530000 0.53341452097 -0.270121953933
773536000 0.534163125501 -0.270082673733
773542000 0.534807366405 -0.270227946454
773548000 0.533503387131 -0.270404016351
773554000 0.533853270481 -0.270708629774
773560000 0.534364940175 -0.269789656898
773566000 0.533931438208 -0.270119250064
773572000 0.533633191632 -0.270685924336
773578000 0.533816466555 -0.270586218428
773584000 0.533723738696 -0.270483587737
773590000 0.533670314194 -0.269838943499
773596000 0.533989442655 -0.270043510007
773602000 0.53434680962 -0.26994862885
773608000 0.533585492069 -0.269946276643
773614000 0.533500782218 -0.270292645217
773620000 0.533744143156 -0.269735870861
773626000 0.533650435578 -0.269996408599
773632000 0.533475456438 -0.269636038531
773638000 0.534109804894 -0.269013110187
773644000 0.533533630659 -0.269748858564
773650000 0.534833550347 -0.269296034164
773656000 0.53425268897 -0.269178684608
773662000 0.534513873159 -0.269198852146
773668000 0.534333077723 -0.269347463582
773674000 0.533979173276 -0.269414103927
773680000 0.533711246241 -0.269308608895
773686000 0.533751812826 -0.26937615136
773692000 0.533468200182 -0.270223196458
773698000 0.533407923265 -0.270441317687
773704000 0.53391078438 -0.270131505267
773710000 0.533405490405 -0.270399587606
773716000 0.534065013974 -0.270069211736
773722000 0.534336856208 -0.26978781793
773728000 0.534022133239 -0.270076026843
773734000 0.534567381524 -0.269114426288
773740000 0.534035136681 -0.269070029892
773746000 0.534422304231 -0.269977558774
773752000 0.533530603578 -0.269780230986
773758000 0.533751702443 -0.269261544303
773764000 0.533667309734 -0.269561320051
773770000 0.533469731819 -0.269173066278
773776000 0.53318823106 -0.27000530276
773782000 0.533607875516 -0.26996053679
773788000 0.533888250003 -0.268938959969
773794000 0.532895632485 -0.269736880059
773800000 0.532943459156 -0.269814790138
773806000 0.532542212595 -0.26899453034
773812000 0.533438958069 -0.269102924669
773818000 0.533477447131 -0.269660582413
773824000 0.534129049577 -0.269548080207
773830000 0.53358773298 -0.269788084892
773836000 0.533967784661 -0.269251211918
773842000 0.53334719792 -0.268731580653
773848000 0.533548417346 -0.269591181721
773854000 0.533329903776 -0.269713248132
773860000 0.534117450986 -0.269678091071
773866000 0.533230781661 -0.269786084383
773872000 0.533782690181 -0.269840111984
773878000 0.533504896236 -0.269572513929
773884000 0.534057224202 -0.270195923968
773890000 0.534188464992 -0.269693277689
773896000 0.534015863987 -0.270073498748
773902000 0.533638051931 -0.270023235926
773908000 0.53364026364 -0.270071468671
773914000 0.533450845505 -0.270106598274
773920000 0.533941309079 -0.270728878541
773926000 0.533989307197 -0.270732483247
773932000 0.533563082037 -0.270610329529
773938000 0.532556452589 -0.270822966995
773944000 0.533889291151 -0.270489205065
773950000 0.533578660478 -0.270371492053
773956000 0.533116486428 -0.26949364347
773962000 0.533700648796 -0.270390270108
773968000 0.533721936217 -0.268873704538
773974000 0.533496603122 -0.269989208994
773980000 0.534522100369 -0.270431182539
773986000 0.533487701543 -0.26967528352
773992000 0.534050693479 -0.270040098176
773998000 0.533600081698 -0.270052025859
774004000 0.534273380875 -0.270615672534
774010000 0.533432230123 -0.270383327307
774016000 0.534505044224 -0.270642263862
774022000 0.534195833665 -0.269803995818
774028000 0.533630369582 -0.270683153939
774034000 0.534467910253 -0.270652646774
774040000 0.534732818482 -0.270530280618
774046000 0.533881836749 -0.270623579166
774052000 0.534156292177 -0.270949594097
774058000 0.533775237193 -0.270446190168
774064000 0.533783297845 -0.269702330981
774070000 0.533453583247 -0.270025201726
774076000 0.533186377826 -0.271366150236
774082000 0.533702946243 -0.270090911724
774088000 0.533545677135 -0.270301881647
774094000 0.533760766924 -0.27022688744
774100000 0.533267759637 -0.26997299665
774106000 0.534027291106 -0.269685010594
774112000 0.534579574755 -0.270755169258
774118000 0.533968983106 -0.27038465353
774124000 0.533364253464 -0.270825030084
774130000 0.534089548568 -0.270315014242
774136000 0.534137771217 -0.270413192264
774142000 0.533967077256 -0.270267193488
774148000 0.533561259222 -0.270209264296
774154000 0.533741785468 -0.270548639193
774160000 0.533738572957 -0.271075947256
774166000 0.533851529051 -0.271130104578
774172000 0.53458382678 -0.270930022727
774178000 0.533474220176 -0.270979868698
774184000 0.533787698485 -0.271368523071
774190000 0.533550129214 -0.271782651479
774196000 0.533360145801 -0.271645832834
774202000 0.533378042329 -0.270890152848
774208000 0.532911820828 -0.270999839864
774214000 0.532483235162 -0.271579194338
774220000 0.532748568056 -0.271222480648
774226000 0.533098576812 -0.270449905886
774232000 0.533217955541 -0.271088675208
774238000 0.533652796995 -0.270726496895
774244000 0.533505895234 -0.271270527682
774250000 0.533851182999 -0.270394566615
774256000 0.533970102357 -0.2712070654
774262000 0.533711649207 -0.271198113948
774268000 0.533735970305 -0.271444486912
774274000 0.532719537488 -0.270609152824
774280000 0.532714440205 -0.270691243216
774286000 0.533633076096 -0.270643604176
774292000 0.534279766226 -0.270783605172
774298000 0.533434067045 -0.270415695461
774304000 0.533346953505 -0.272028009175
774310000 0.533648081372 -0.270824092433
774316000 0.533477011902 -0.270921290835
774322000 0.535292908864 -0.270889383331
774328000 0.534059472453 -0.271224676021
774334000 0.533562363605 -0.270804973368
774340000 0.533843945158 -0.27034770431
774346000 0.534051178638 -0.271112959961
774352000 0.534326426018 -0.271267239837
774358000 0.532970612496 -0.271921899806
774364000 0.533493837685 -0.271486257004
774370000 0.534120067011 -0.271312262913
774376000 0.534101899955 -0.27144926251
774382000 0.533636637838 -0.271709592168
774388000 0.533926672118 -0.271903705518
774394000 0.534119184109 -0.271964632233
774400000 0.534281596921 -0.270999147178
774406000 0.533498584371 -0.271828193802
774412000 0.533843157189 -0.270635678699
774418000 0.53351473048 -0.271933763384
774424000 0.534472559138 -0.271144581486
774430000 0.534008270519 -0.270900672494
774436000 0.53391990602 -0.271066681591
774442000 0.533577935665 -0.271385246084
774448000 0.533363303655 -0.271025418773
774454000 0.533585469097 -0.270484045306
774460000 0.533531379984 -0.270598936926
774466000 0.533373083484 -0.270682209018
774472000 0.532833172452 -0.270573143223
774478000 0.533131228146 -0.270630486188
774484000 0.533255749163 -0.269815032485
774490000 0.53336926844 -0.269994205208
774496000 0.533448736815 -0.270223178066
774502000 0.53314939367 -0.269972006734
774508000 0.532578824969 -0.270347841047
774514000 0.532683412516 -0.269662967331
774520000 0.532626352485 -0.270358160932
774526000 0.533504903337 -0.270803091019
774532000 0.533363670946 -0.270246058115
774538000 0.532922503363 -0.2704412709
774544000 0.533395356804 -0.271523101062
774550000 0.53335538582 -0.27170566397
774556000 0.533980307869 -0.271857533501
774562000 0.534027348365 -0.271156565477
774568000 0.533379364234 -0.272582093169
774574000 0.533425551327 -0.271132559447
774580000 0.533019129383 -0.271350753183
774586000 0.532694569937 -0.271228605207
774592000 0.533905336416 -0.27133309992
774598000 0.533852043455 -0.270998364263
774604000 0.533945104117 -0.270662694138
774610000 0.53367886941 -0.272356294986
774616000 0.533938943238 -0.27235044167
774622000 0.533703196675 -0.271472162397
774628000 0.533407130383 -0.271847708572
774634000 0.533547566418 -0.271225600033
774640000 0.532561879011 -0.270811217625
774646000 0.53393395622 -0.271112628848
774652000 0.532921205996 -0.271662808745
774658000 0.533200152882 -0.271760451001
774664000 0.533035495163 -0.272144880367
774670000 0.53334096513 -0.271468864593
774676000 0.533551183674 -0.271408581412
774682000 0.533227533251 -0.271321015643
774688000 0.533327153729 -0.271726983584
774694000 0.533317192267 -0.271045759045
774700000 0.533635068042 -0.271021881521
774706000 0.53302327482 -0.272110426787
774712000 0.533299241529 -0.271298202499
774718000 0.533194451407 -0.270628571807
774724000 0.534131425961 -0.271490659846
774730000 0.533361765982 -0.270966518153
774736000 0.532712987694 -0.271715427287
774742000 0.533805596553 -0.269863558849
774748000 0.534104090325 -0.271246041574
774754000 0.53356128047 -0.271186113029
774760000 0.533035423673 -0.271236725896
774766000 0.533742560666 -0.271193634266
774772000 0.533631618502 -0.271162134738
774778000 0.533155816992 -0.272046441094
774784000 0.532900021588 -0.27093298207
774790000 0.533931605278 -0.27163352454
774796000 0.533822902887 -0.271642296815
774802000 0.533501503701 -0.271662627733
774808000 0.533825288 -0.271478157998
774814000 0.534054323243 -0.271249057148
774820000 0.5332886532 -0.271119331711
774826000 0.533490822393 -0.271269737047
774832000 0.533783574651 -0.271310510043
774838000 0.533165731561 -0.271581644346
774844000 0.533430880031 -0.272479569457
774850000 0.533707023068 -0.271460900483
774856000 0.533736878611 -0.270946997821
774862000 0.532913952235 -0.271560341757
774868000 0.533329866704 -0.271003555839
774874000 0.533932518881 -0.270985095049
774880000 0.534143664458 -0.27129018669
774886000 0.533926272619 -0.271513363497
774892000 0.533543873606 -0.271740287837
774898000 0.534118780545 -0.271475839773
774904000 0.53415111721 -0.271635285279
774910000 0.533304418503 -0.27175868062
774916000 0.53395351567 -0.271856438159
774922000 0.533382870299 -0.271902040343
774928000 0.533400846281 -0.271550700778
774934000 0.533522549917 -0.271424985511
774940000 0.533354875101 -0.271294870013
774946000 0.532718592359 -0.271655460863
774952000 0.533566543729 -0.271650073125
774958000 0.533419446649 -0.271462502386
774964000 0.533829558855 -0.271343049112
774970000 0.533456864781 -0.271612737824
774976000 0.532744194368 -0.271858351955
774982000 0.533176930064 -0.272305318977
774988000 0.5335328301 -0.272331594027
774994000 0.533344498516 -0.272659219805
775000000 0.532092165249 -0.271963688239
