! Calibrated averaged scanner-service zoom
# Hz S RI R 50
118000000 0.552552908544 -0.407158610923
118009500 0.552062092795 -0.407690652524
118019000 0.551735652371 -0.407666849226
118028500 0.55173909912 -0.407307828035
118038000 0.551567772275 -0.407535949422
118047500 0.551431159864 -0.408071312808
118057000 0.550921149522 -0.408609357674
118066500 0.550441313239 -0.408544047802
118076000 0.550600636956 -0.408180083962
118085500 0.550609622865 -0.408533386753
118095000 0.550447492836 -0.409051155428
118104500 0.549800259265 -0.409428185157
118114000 0.549488159608 -0.409180820384
118123500 0.54951763029 -0.408760430886
118133000 0.549614874998 -0.40914700309
118142500 0.549292697099 -0.409758478277
118152000 0.548773490045 -0.409927360167
118161500 0.548655068629 -0.409636756368
118171000 0.548659157887 -0.409767790923
118180500 0.548529798367 -0.410083568164
118190000 0.548055340174 -0.410547176477
118199500 0.54767820518 -0.410529641096
118209000 0.547733044733 -0.410268733996
118218500 0.547571674976 -0.410423381314
118228000 0.547498307035 -0.410882301654
118237500 0.546929308299 -0.411400268373
118247000 0.546542360749 -0.411284713268
118256500 0.546643591023 -0.411009002488
118266000 0.546587441829 -0.411296395831
118275500 0.546367291932 -0.411711311903
118285000 0.545741330963 -0.412018699649
118294500 0.545412534041 -0.411791070705
118304000 0.545564802383 -0.411452464498
118313500 0.545530281269 -0.411914323675
118323000 0.54513297967 -0.412442355936
118332500 0.544698533171 -0.412567513642
118342000 0.544538615005 -0.412409379007
118351500 0.544590977939 -0.412401050915
118361000 0.544439964289 -0.412682589701
118370500 0.543975406952 -0.413124686276
118380000 0.543663446897 -0.413149040988
118389500 0.54375213777 -0.412860010694
118399000 0.543559766801 -0.412864689104
118408500 0.543440749119 -0.413337644475
118418000 0.542856968201 -0.413818562328
118427500 0.542491489239 -0.413626050047
118437000 0.542696422661 -0.413378544746
118446500 0.542588985364 -0.413794352733
118456000 0.542277680829 -0.414139214078
118465500 0.541676521761 -0.414380026528
118475000 0.541467812907 -0.414169401833
118484500 0.541594353668 -0.413874246634
118494000 0.541513899292 -0.414376692234
118503500 0.541196898645 -0.414845656276
118513000 0.5406466266 -0.414855484827
118522500 0.540619031414 -0.414693252848
118532000 0.540629346782 -0.414669940792
118541500 0.540520957141 -0.41499117432
118551000 0.540017130437 -0.415320899543
118560500 0.539701428943 -0.415311668318
118570000 0.539722015253 -0.415049753152
118579500 0.53961793288 -0.415111866165
118589000 0.539503375235 -0.415533964472
118598500 0.538909603245 -0.415911365099
118608000 0.5385551041 -0.415779224831
118617500 0.538713282065 -0.415609488513
118627000 0.53867537141 -0.416021656812
118636500 0.538372732267 -0.416339968934
118646000 0.537780558763 -0.416490182851
118655500 0.53759956286 -0.416250188126
118665000 0.537755195719 -0.416070155098
118674500 0.537719834667 -0.416503291646
118684000 0.537294197996 -0.416936689107
118693500 0.536741579907 -0.416901952723
118703000 0.536643408617 -0.41678827971
118712500 0.536720250417 -0.416731615686
118722000 0.536536610894 -0.417121938641
118731500 0.536103306285 -0.417391107895
118741000 0.53579259786 -0.417431768024
118750500 0.535855605658 -0.41722260047
118760000 0.535807395072 -0.417168960691
118769500 0.535626592868 -0.417611544071
118779000 0.535070083452 -0.41795184126
118788500 0.534825036602 -0.41777085119
118798000 0.535000138641 -0.41759895822
118807500 0.53478212351 -0.418055593035
118817000 0.53454541598 -0.4183042933
118826500 0.533945290585 -0.418354703472
118836000 0.533886835788 -0.418203570438
118845500 0.533960770927 -0.418099147672
118855000 0.533862803661 -0.418462927202
118864500 0.533515966347 -0.418736398242
118874000 0.533063293961 -0.418842633661
118883500 0.532909372971 -0.41870467546
118893000 0.532939452098 -0.418655688596
118902500 0.532774584067 -0.418997360344
118912000 0.532327903999 -0.419337993282
118921500 0.532052460938 -0.419266433992
118931000 0.532006447315 -0.419052745427
118940500 0.531923389845 -0.419013669243
118950000 0.531820881236 -0.419555164627
118959500 0.531344304556 -0.419648547074
118969000 0.531233463462 -0.419486806908
118978500 0.531249955974 -0.419344509512
118988000 0.531112823291 -0.4199041301
118997500 0.53074727523 -0.420127933865
119007000 0.530371678544 -0.419995375269
119016500 0.530472448767 -0.419971758265
119026000 0.530322884313 -0.420129807125
119035500 0.530100904376 -0.42039730097
119045000 0.529593213367 -0.420501382972
119054500 0.529535615905 -0.420327532578
119064000 0.529536415994 -0.42031063334
119073500 0.529367158531 -0.420614064075
119083000 0.529141537094 -0.420885922705
119092500 0.528703072597 -0.420947880389
119102000 0.528530599924 -0.420856068641
119111500 0.528610678314 -0.420820693371
119121000 0.528339007571 -0.421176644913
119130500 0.528088050857 -0.421353253248
119140000 0.527686999162 -0.42137594277
119149500 0.527617709538 -0.421276877114
119159000 0.527666019988 -0.421139947258
119168500 0.527479771236 -0.421587462385
119178000 0.52709370356 -0.421891468816
119187500 0.52684598878 -0.421662243684
119197000 0.526833728395 -0.421693601214
119206500 0.526763237919 -0.421873675
119216000 0.526544873846 -0.422117217797
119225500 0.526121967288 -0.422179244559
119235000 0.526023248801 -0.422056801636
119244500 0.526062160807 -0.422035672013
119254000 0.525734574352 -0.422353240528
119263500 0.525518956419 -0.422631383984
119273000 0.525137968123 -0.422668752017
119282500 0.524998658 -0.422565171134
119292000 0.525083788701 -0.42259677563
119301500 0.524815866981 -0.422958535275
119311000 0.524608956953 -0.423084432354
119320500 0.52427365392 -0.423152885408
119330000 0.524269873767 -0.423026527269
119339500 0.524207676239 -0.422821640989
119349000 0.523991293709 -0.42334576967
119358500 0.523683165031 -0.423544188676
119368000 0.523373961676 -0.423469478589
119377500 0.523386985701 -0.423491427519
119387000 0.523265249296 -0.423556625856
119396500 0.523119227061 -0.423911042131
119406000 0.522682817258 -0.42401774831
119415500 0.522638865799 -0.423855173999
119425000 0.522655886265 -0.423825824447
119434500 0.522525364122 -0.424044291284
119444000 0.522195981027 -0.424359560682
119453500 0.521864517104 -0.424385391679
119463000 0.521840343381 -0.424284423024
119472500 0.52179756079 -0.424351079699
119482000 0.521494735853 -0.424696525387
119491500 0.52125956707 -0.424873379158
119501000 0.520923025167 -0.424809654228
119510500 0.520900363271 -0.424744553315
119520000 0.520823725774 -0.42459792439
119529500 0.52060565906 -0.425213673452
119539000 0.52027007079 -0.425306145022
119548500 0.520082441949 -0.425196062673
119558000 0.52006183855 -0.425219836702
119567500 0.519930262149 -0.425425666309
119577000 0.519640014078 -0.425754982832
119586500 0.51938098971 -0.425749413076
119596000 0.519331259374 -0.425717981896
119605500 0.519256830571 -0.425747577484
119615000 0.519098227651 -0.42585411301
119624500 0.518830111695 -0.426191758874
119634000 0.518562348819 -0.426322001151
119643500 0.518481660263 -0.426163535758
119653000 0.518489647782 -0.426230020194
119662500 0.518177403489 -0.42659189647
119672000 0.517933268794 -0.426739446551
119681500 0.517639724056 -0.426639238491
119691000 0.517767547912 -0.42663631693
119700500 0.517622932016 -0.426537201837
119710000 0.517303951383 -0.427008803086
119719500 0.517004205345 -0.427102113897
119729000 0.516842959269 -0.42708053982
119738500 0.51677543979 -0.427171290265
119748000 0.516606597696 -0.427244912768
119757500 0.516358924441 -0.427606434729
119767000 0.516118326435 -0.427668559952
119776500 0.51612550656 -0.427640940188
119786000 0.51602346696 -0.42763127909
119795500 0.515863486331 -0.427685071516
119805000 0.515534196432 -0.428096282486
119814500 0.515230690675 -0.428192274319
119824000 0.51517206521 -0.428026826356
119833500 0.515140322681 -0.428167565661
119843000 0.514832886343 -0.428504675683
119852500 0.514513543875 -0.42868203802
119862000 0.514329806829 -0.428652475309
119871500 0.514425594022 -0.428665302198
119881000 0.514319071057 -0.428568850428
119890500 0.513906438042 -0.42911159837
119900000 0.513696149324 -0.429198751862
119909500 0.513676920417 -0.429294734256
119919000 0.513546480741 -0.429264435723
119928500 0.51312846304 -0.429301238673
119938000 0.513154600063 -0.429484022332
119947500 0.513009866269 -0.429343749176
119957000 0.512902705755 -0.429762031885
119966500 0.512425122801 -0.429858087949
119976000 0.512192958126 -0.43009927818
119985500 0.512143376056 -0.429957938845
119995000 0.512056540547 -0.430150486674
120004500 0.511761275517 -0.430291985185
120014000 0.511514598806 -0.430320686032
120023500 0.511473096694 -0.430537257364
120033000 0.51125663648 -0.430584997844
120042500 0.511079912519 -0.430635151453
120052000 0.510908504102 -0.430840485858
120061500 0.510551871682 -0.431105679002
120071000 0.510409999357 -0.431192670058
120080500 0.510371103409 -0.430942110245
120090000 0.510154715538 -0.431390180513
120099500 0.510106935132 -0.431367898096
120109000 0.509696744551 -0.431375084978
120118500 0.509650981665 -0.431640695202
120128000 0.509518933047 -0.431559212236
120137500 0.509315693072 -0.431854254135
120147000 0.508887604798 -0.431893399181
120156500 0.508676902537 -0.432285867367
120166000 0.508636997049 -0.432180778633
120175500 0.508537135676 -0.432308399267
120185000 0.508286468983 -0.432464184598
120194500 0.508114266172 -0.432535165319
120204000 0.50792091692 -0.432682405377
120213500 0.507758341238 -0.432723219617
120223000 0.507587576136 -0.432755095439
120232500 0.507371016048 -0.433013573901
120242000 0.506949176337 -0.433228079285
120251500 0.506748760402 -0.43333278742
120261000 0.506761582217 -0.433133725283
120270500 0.506626077045 -0.433581266233
120280000 0.506411158851 -0.433472456746
120289500 0.506031211232 -0.433588628946
120299000 0.505989591025 -0.433832797785
120308500 0.505980643472 -0.433791822302
120318000 0.50565685808 -0.434101829032
120327500 0.50530445415 -0.434116363243
120337000 0.504991452449 -0.434446971695
120346500 0.505074646769 -0.434375585254
120356000 0.504883418428 -0.434436660967
120365500 0.504529775735 -0.434603279333
120375000 0.504416225149 -0.434640707172
120384500 0.504213691172 -0.434860069676
120394000 0.504043210564 -0.434879734221
120403500 0.503821205243 -0.434886314341
120413000 0.503613630155 -0.435136309984
120422500 0.503114783321 -0.435373873826
120432000 0.502990439944 -0.435524785178
120441500 0.502982547201 -0.435316244776
120451000 0.502798192269 -0.435801449648
120460500 0.502587160529 -0.435759295257
120470000 0.502278061781 -0.435737088409
120479500 0.502166016525 -0.435994973455
120489000 0.502148071247 -0.435950203071
120498500 0.501861867266 -0.43630626145
120508000 0.501436384444 -0.436277291956
120517500 0.501144398505 -0.436504139314
120527000 0.501235489303 -0.436507567787
120536500 0.501010344033 -0.436608179082
120546000 0.500663559082 -0.436770894016
120555500 0.500488865636 -0.436798024811
120565000 0.500330776005 -0.43696207348
120574500 0.500184472813 -0.437152068769
120584000 0.500009543579 -0.43705424137
120593500 0.499779155406 -0.437301870552
120603000 0.499290192822 -0.437456985721
120612500 0.499107819361 -0.437710029201
120622000 0.499106153266 -0.437489351015
120631500 0.498906557614 -0.437936277251
120641000 0.498766745081 -0.437878230605
120650500 0.498330807071 -0.437874439215
120660000 0.498260872384 -0.438111207398
120669500 0.498185308758 -0.438013751597
120679000 0.497856501112 -0.438332405494
120688500 0.497493683564 -0.438373635617
120698000 0.497087427563 -0.438598388875
120707500 0.497190866623 -0.438724011215
120717000 0.497011655018 -0.43869646379
120726500 0.496663606439 -0.438967375104
120736000 0.496491123948 -0.438965757525
120745500 0.496320250663 -0.439154174331
120755000 0.496146162354 -0.439345157041
120764500 0.495995462335 -0.439264529995
120774000 0.495746557109 -0.439531414873
120783500 0.495202030687 -0.439615359398
120793000 0.495090860431 -0.439868466059
120802500 0.495092187609 -0.439701288149
120812000 0.494705239908 -0.440072595946
120821500 0.494566218678 -0.439957162546
120831000 0.494230971115 -0.439932655884
120840500 0.494136541663 -0.440233387459
120850000 0.493999526035 -0.440227308966
120859500 0.493837613244 -0.440286356941
120869000 0.493343469768 -0.440587509505
120878500 0.493255925893 -0.440627595374
120888000 0.492930937628 -0.440610052417
120897500 0.492791728928 -0.441009563109
120907000 0.492705021664 -0.440835878133
120916500 0.492319650017 -0.441069848518
120926000 0.492015358043 -0.441136904499
120935500 0.491645862167 -0.441269953879
120945000 0.49164935438 -0.441478674803
120954500 0.491499526555 -0.441483673896
120964000 0.491093499069 -0.441609784
120973500 0.490904617581 -0.441618573891
120983000 0.490793208546 -0.441760804631
120992500 0.490603213254 -0.441886748512
121002000 0.490388492804 -0.442062504139
121011500 0.49011328716 -0.44213137987
121021000 0.489597963074 -0.442271298102
121030500 0.489428400414 -0.442537165742
121040000 0.489536648664 -0.442335349507
121049500 0.489076406865 -0.442689562436
121059000 0.488954852654 -0.442795460321
121068500 0.488690118397 -0.442711174078
121078000 0.488489391403 -0.443087126027
121087500 0.488439071836 -0.442921748287
121097000 0.487954962695 -0.443153819093
121106500 0.48766207564 -0.443174809963
121116000 0.487294386363 -0.443242859508
121125500 0.4873463523 -0.443528057809
121135000 0.487218428304 -0.443465183111
121144500 0.486707863656 -0.443566982626
121154000 0.486622724831 -0.443548251787
121163500 0.486453668914 -0.443748614527
121173000 0.486209899496 -0.443912273967
121182500 0.485942241416 -0.444103547077
121192000 0.485668116774 -0.444100363533
121201500 0.485118106871 -0.444220441677
121211000 0.484999838114 -0.444422933141
121220500 0.485062766829 -0.444276960804
121230000 0.484634024426 -0.444696715834
121239500 0.484444209267 -0.444693744121
121249000 0.484128420804 -0.44456259838
121258500 0.483931622565 -0.44498727142
121268000 0.483910385094 -0.44491403674
121277500 0.48342979418 -0.445101266843
121287000 0.483157065064 -0.445068843805
121296500 0.482815414279 -0.445151969938
121306000 0.482751689168 -0.445506344238
121315500 0.4826045288 -0.445416629504
121325000 0.482116494974 -0.445467976816
121334500 0.482037332635 -0.445520064478
121344000 0.481871041502 -0.445664931649
121353500 0.481571836025 -0.445855325887
121363000 0.481412907457 -0.446025507718
121372500 0.481133935272 -0.446046250363
121382000 0.48057939979 -0.44612603791
121391500 0.480416154049 -0.446329637973
121401000 0.48044421178 -0.446228553067
121410500 0.479985761192 -0.446555116387
121420000 0.479789960279 -0.446441059959
121429500 0.479549699271 -0.446402515628
121439000 0.479362687914 -0.446891613284
121448500 0.479340604114 -0.446727334167
121458000 0.478741055789 -0.44694734686
121467500 0.478507616461 -0.446944088487
121477000 0.478117774978 -0.446973742776
121486500 0.478004896286 -0.447374634738
121496000 0.477959436413 -0.447181975483
121505500 0.47746196393 -0.447286810212
121515000 0.477321756035 -0.44742953887
121524500 0.477152302322 -0.44745382405
121534000 0.476884946679 -0.447694838934
121543500 0.476582064982 -0.447799134566
121553000 0.476252291871 -0.447814848511
121562500 0.475880751335 -0.447845123725
121572000 0.475715239804 -0.448042652243
121581500 0.475728208026 -0.448058383691
121591000 0.475167307349 -0.448330317333
121600500 0.474977264924 -0.448305439369
121610000 0.474881777424 -0.448153883097
121619500 0.474593455072 -0.448503480098
121629000 0.474493270278 -0.448420318088
121638500 0.473916212337 -0.448589923717
121648000 0.473743938887 -0.448594804075
121657500 0.473258709619 -0.448623116207
121667000 0.473156952943 -0.44905274364
121676500 0.473038071933 -0.448864040066
121686000 0.4725142374 -0.449039233404
121695500 0.472470197487 -0.449163643312
121705000 0.47230967631 -0.449210125347
121714500 0.471941103987 -0.449453261619
121724000 0.471725373867 -0.449428145658
121733500 0.471432918487 -0.449519439008
121743000 0.470979056507 -0.449594354333
121752500 0.470816838233 -0.449680526966
121762000 0.470813261211 -0.449718711386
121771500 0.470298936701 -0.450043448898
121781000 0.470070622654 -0.449980724992
121790500 0.469954058296 -0.449846072147
121800000 0.469661630028 -0.450262990661
121809500 0.469257471175 -0.450133982602
121819000 0.46874657347 -0.450174089531
121828500 0.46869651256 -0.450372627158
121838000 0.468554660245 -0.450337869501
121847500 0.468292725768 -0.450594345849
121857000 0.467998262808 -0.450518745547
121866500 0.467738807097 -0.450630054796
121876000 0.467503315938 -0.450872502936
121885500 0.467125475855 -0.450712629441
121895000 0.466558083656 -0.450849605288
121904500 0.466517661592 -0.450774067396
121914000 0.46616512261 -0.451059550345
121923500 0.466082428872 -0.451046837288
121933000 0.465799779433 -0.451126323308
121942500 0.465719661797 -0.451205783573
121952000 0.465401930654 -0.451290337491
121961500 0.465068669896 -0.451593327107
121971000 0.464956165102 -0.451440767287
121980500 0.464119761111 -0.45169716726
121990000 0.464064843812 -0.451554590961
121999500 0.46363983491 -0.451584547556
122009000 0.463593454862 -0.45184268716
122018500 0.463378080984 -0.451743475547
122028000 0.463135714194 -0.452026137203
122037500 0.463005711521 -0.4518874342
122047000 0.462566442733 -0.452042874575
122056500 0.462363834928 -0.452328506828
122066000 0.461891679054 -0.452155105628
122075500 0.461335485851 -0.452249785771
122085000 0.461397695156 -0.452214867927
122094500 0.460969331609 -0.452477573909
122104000 0.460949208294 -0.452487341039
122113500 0.460649631063 -0.452499638379
122123000 0.460503136236 -0.452589053949
122132500 0.460087796803 -0.452548101507
122142000 0.459834159832 -0.45288736913
122151500 0.459720795465 -0.45277943271
122161000 0.458835928407 -0.452907156491
122170500 0.458750161545 -0.452923384684
122180000 0.458412276786 -0.452849308569
122189500 0.458317909171 -0.453189868684
122199000 0.458116555327 -0.452999774786
122208500 0.457729340655 -0.45335857153
122218000 0.457602428394 -0.4532423063
122227500 0.457342151574 -0.453233220553
122237000 0.457084732049 -0.453571040921
122246500 0.456687507434 -0.453362950103
122256000 0.45604660655 -0.453436148813
122265500 0.456094345258 -0.453403977915
122275000 0.455594276744 -0.453616304304
122284500 0.455477341754 -0.453672572238
122294000 0.455163369533 -0.453630047564
122303500 0.455065938772 -0.453810935642
122313000 0.454690460862 -0.453801751707
122322500 0.454337476337 -0.45407989805
122332000 0.454258661857 -0.453952295342
122341500 0.453401936353 -0.453977917015
122351000 0.453326607097 -0.453946636029
122360500 0.453077873273 -0.453892882673
122370000 0.452869340385 -0.454260795249
122379500 0.452686563555 -0.4540556714
122389000 0.452224265007 -0.454417858031
122398500 0.452077164458 -0.454336892965
122408000 0.451897013722 -0.454339795261
122417500 0.451564894575 -0.454643845613
122427000 0.451207394365 -0.45445088072
122436500 0.450489239791 -0.454430036934
122446000 0.450644475114 -0.454509891636
122455500 0.450160334364 -0.454589173662
122465000 0.450012250044 -0.454725424963
122474500 0.449676911257 -0.454601167002
122484000 0.449569951094 -0.454781628115
122493500 0.449351057539 -0.45480540693
122503000 0.448874288886 -0.455027204269
122512500 0.448735526302 -0.454883609162
122522000 0.447946413581 -0.454828825642
122531500 0.447866047016 -0.454849259605
122541000 0.447646793865 -0.454770221267
122550500 0.447405448156 -0.455124036377
122560000 0.447233912683 -0.454889167256
122569500 0.446650827568 -0.45518208052
122579000 0.446666956008 -0.455160158216
122588500 0.446373206905 -0.455148874041
122598000 0.4460294597 -0.455487839709
122607500 0.44566933458 -0.455221969126
122617000 0.444895656468 -0.45520285905
122626500 0.445057344429 -0.455266915065
122636000 0.444598602955 -0.455334695928
122645500 0.444407046644 -0.455499660499
122655000 0.444117960854 -0.455302010624
122664500 0.443914529388 -0.455553944652
122674000 0.443665069947 -0.455463582245
122683500 0.443277818685 -0.45569103677
122693000 0.443200919998 -0.455632044286
122702500 0.442363078888 -0.455431287618
122712000 0.442260026377 -0.455464204521
122721500 0.442036958811 -0.455463431511
122731000 0.441823262317 -0.455805550537
122740500 0.441697640367 -0.455630126036
122750000 0.441136621509 -0.455817200046
122759500 0.441077284229 -0.455800394258
122769000 0.440209086048 -0.455418301734
122778500 0.440357387683 -0.455904647226
122788000 0.440209431152 -0.455766521583
122797500 0.439612867783 -0.456076779519
122807000 0.43944244222 -0.455688655104
122816500 0.439112942693 -0.456030301796
122826000 0.439064987259 -0.456010393781
122835500 0.438670948387 -0.45586070482
122845000 0.438409742418 -0.456306377012
122854500 0.437999912616 -0.455953887086
122864000 0.437174632265 -0.455881997774
122873500 0.437495793751 -0.456000694486
122883000 0.43686236474 -0.455965037342
122892500 0.436882665586 -0.455990789107
122902000 0.436385235837 -0.455937183341
122911500 0.436180785258 -0.456413026482
122921000 0.43604963903 -0.456103623132
122930500 0.435276607811 -0.456415025439
122940000 0.435382976949 -0.456302289551
122949500 0.43452736748 -0.455755155352
122959000 0.434632811981 -0.456336160247
122968500 0.434477178376 -0.45623537877
122978000 0.433653088498 -0.456498657158
122987500 0.433750311063 -0.45602789125
122997000 0.433411153504 -0.456301077838
123006500 0.433422424058 -0.456530845087
123016000 0.433035929168 -0.456245292432
123025500 0.432653219708 -0.456643874851
123035000 0.432310622831 -0.456211227036
123044500 0.431459491532 -0.456101148259
123054000 0.431783464039 -0.456332551282
123063500 0.431160363003 -0.456204110704
123073000 0.431287556733 -0.45635721425
123082500 0.430752299449 -0.456167118733
123092000 0.430415974718 -0.456790072861
123101500 0.430316799703 -0.456348316147
123111000 0.429578917071 -0.456579843646
123120500 0.429681354336 -0.456590666814
123130000 0.42896782936 -0.455918383201
123139500 0.428889628939 -0.456502045215
123149000 0.428776555357 -0.456354272576
123158500 0.427834120575 -0.456583473647
123168000 0.427965515131 -0.456128675704
123177500 0.42762751403 -0.456328317148
123187000 0.427614515971 -0.456699326045
123196500 0.427251355754 -0.45644618449
123206000 0.426756664895 -0.456842064341
123215500 0.426545609947 -0.456317596412
123225000 0.425777023252 -0.456107988734
123234500 0.425988820327 -0.456535947454
123244000 0.425494972707 -0.456249268337
123253500 0.425460427945 -0.456451522941
123263000 0.424998025439 -0.456185865005
123272500 0.424506076111 -0.456850739334
123282000 0.424579251995 -0.456466966916
123291500 0.423887849566 -0.456489788098
123301000 0.423852454188 -0.456699377003
123310500 0.423185338865 -0.456008106632
123320000 0.422952676159 -0.456536546821
123329500 0.423009020245 -0.456371194731
123339000 0.422096885234 -0.456535947963
123348500 0.422330205516 -0.456186237667
123358000 0.421870683727 -0.456221068303
123367500 0.42184009783 -0.45674974755
123377000 0.421542723715 -0.456417041587
123386500 0.420853655812 -0.456772372609
123396000 0.420728255069 -0.456219501414
123405500 0.420106340446 -0.455810070768
123415000 0.420219491619 -0.456488120329
123424500 0.41977832953 -0.456133792234
123434000 0.419586973521 -0.456375266438
123443500 0.41928599648 -0.455917180556
123453000 0.418711036739 -0.456610248402
123462500 0.418780953975 -0.456289785079
123472000 0.418159725774 -0.456239903321
123481500 0.41819101862 -0.456485476582
123491000 0.417578265502 -0.455753780547
123500500 0.417136404191 -0.456225242233
123510000 0.417187030948 -0.456179148952
123519500 0.416335439485 -0.456083514517
123529000 0.416570412863 -0.45590402332
123538500 0.41612523257 -0.455948872752
123548000 0.415923125965 -0.456452733901
123557500 0.41572389651 -0.45611922497
123567000 0.414935722959 -0.456333411895
123576500 0.41491078223 -0.4558767629
123586000 0.414396676109 -0.455385073601
123595500 0.414342648293 -0.456100121671
123605000 0.41399558771 -0.455788007668
123614500 0.413650102714 -0.45598432555
123624000 0.413551579128 -0.45552806041
123633500 0.412886158819 -0.456104818989
123643000 0.412899492765 -0.455874300604
123652500 0.412312356958 -0.455707854945
123662000 0.412217848241 -0.456080839408
123671500 0.411759551692 -0.455218313599
123681000 0.411192765005 -0.455659321284
123690500 0.411343299258 -0.455640353411
123700000 0.410512811327 -0.455439777038
123709500 0.410536357266 -0.45592941325
123719000 0.410161713662 -0.455830493292
123728500 0.409898656933 -0.455543042618
123738000 0.40960778351 -0.455048901553
123747500 0.409137406767 -0.454976008912
123757000 0.409000338927 -0.455458812651
123766500 0.408782383226 -0.455662266078
123776000 0.408459261061 -0.455207073765
123785500 0.408171849134 -0.454963129404
123795000 0.407813692651 -0.455348847849
123804500 0.407604497909 -0.455603492349
123814000 0.407284882578 -0.455536574036
123823500 0.406753050846 -0.454948142445
123833000 0.406556587946 -0.454460422569
123842500 0.406252077679 -0.454658302899
123852000 0.405914206708 -0.455158533494
123861500 0.405682562299 -0.455017281913
123871000 0.405422044318 -0.454459793303
123880500 0.405094993404 -0.454525066165
123890000 0.404647524934 -0.454976699944
123899500 0.404259373951 -0.455021483402
123909000 0.404105003404 -0.454664159619
123918500 0.40383782317 -0.45404130861
123928000 0.403412777309 -0.453938634644
123937500 0.403223733455 -0.454483108904
123947000 0.402941267563 -0.454666249296
123956500 0.402766154568 -0.454259091211
123966000 0.402503784437 -0.453946183997
123975500 0.401963423022 -0.45419761687
123985000 0.401719067677 -0.454567141773
123994500 0.401419961893 -0.454419612138
124004000 0.4009859883 -0.45377742864
124013500 0.400769287817 -0.453241503629
124023000 0.400516817595 -0.453521810358
124032500 0.400123018561 -0.454020686545
124042000 0.399942845641 -0.453844717123
124051500 0.399724104909 -0.453365156276
124061000 0.399321863914 -0.453347503795
124070500 0.398872750902 -0.453824273485
124080000 0.398546750542 -0.453852201663
124089500 0.39839306259 -0.453539224225
124099000 0.398112075937 -0.452852124649
124108500 0.397722023584 -0.452664346717
124118000 0.397457162806 -0.453179077366
124127500 0.397167625252 -0.453394438813
124137000 0.397046443204 -0.452930226556
124146500 0.396827102996 -0.452550993489
124156000 0.396294818901 -0.452808844748
124165500 0.395917377437 -0.453238355609
124175000 0.395676765493 -0.453024705519
124184500 0.395414089258 -0.452388590246
124194000 0.395252026489 -0.451884073204
124203500 0.394875051203 -0.452114604155
124213000 0.394363366456 -0.452597530083
124222500 0.394379879704 -0.452499583842
124232000 0.394186963222 -0.451930406791
124241500 0.393770907551 -0.451852415315
124251000 0.393209201282 -0.452320029508
124260500 0.392918063813 -0.45227238921
124270000 0.392784443313 -0.452014720219
124279500 0.392638889526 -0.451293935503
124289000 0.392275340588 -0.451015543648
124298500 0.391952054852 -0.451527355693
124308000 0.391621268061 -0.451795550902
124317500 0.391597349494 -0.451376090107
124327000 0.391383913051 -0.450960161644
124336500 0.390806641901 -0.451102086008
124346000 0.390338714209 -0.451530861222
124355500 0.390152881595 -0.451413715811
124365000 0.38994891242 -0.450791996222
124374500 0.389873856839 -0.450156314256
124384000 0.389467645193 -0.450320332433
124393500 0.389003598473 -0.450878333485
124403000 0.388930206179 -0.450756985317
124412500 0.388858276195 -0.450192934415
124422000 0.38847528303 -0.450077974843
124431500 0.387837399786 -0.450394020185
124441000 0.387540191865 -0.450458005565
124450500 0.387496447385 -0.450199169555
124460000 0.387444161871 -0.449495256414
124469500 0.387069969123 -0.449186687639
124479000 0.386653049551 -0.449653071384
124488500 0.386291180052 -0.449947718066
124498000 0.386352120646 -0.449638742131
124507500 0.38625157362 -0.449121537647
124517000 0.385664029971 -0.449131722284
124526500 0.385083095731 -0.449619368999
124536000 0.384965927581 -0.449490591299
124545500 0.384889254543 -0.448868216899
124555000 0.38487896955 -0.448229173035
124564500 0.38446353759 -0.448359307458
124574000 0.383932088889 -0.448830361198
124583500 0.383889886257 -0.448830518862
124593000 0.384017661594 -0.44820606865
124602500 0.38358104795 -0.448019954535
124612000 0.382848149161 -0.448295416403
124621500 0.382573098591 -0.448531561535
124631000 0.382520321042 -0.44832550747
124640500 0.382553877752 -0.447569567403
124650000 0.382350066254 -0.447184069558
124659500 0.38204588051 -0.447601032554
124669000 0.381463752051 -0.447824249088
124678500 0.381123408289 -0.447844775174
124688000 0.381198076777 -0.44733049911
124697500 0.380892599164 -0.446986242158
124707000 0.380721380029 -0.446883229794
124716500 0.380280289864 -0.447059010515
124726000 0.380265532691 -0.447020735004
124735500 0.380210319592 -0.446780849884
124745000 0.379736772163 -0.446762665963
124754500 0.379362153271 -0.446728983502
124764000 0.378831752376 -0.446867855422
124773500 0.379008263743 -0.446469985431
124783000 0.378992824132 -0.446032145736
124792500 0.378702197599 -0.44576114967
124802000 0.378378228888 -0.445916647048
124811500 0.377935238985 -0.446218142695
124821000 0.378003186068 -0.445946147179
124830500 0.37772116764 -0.445668880133
124840000 0.377485750214 -0.44556605422
124849500 0.376955544648 -0.445712161722
124859000 0.376587461642 -0.445821683257
124868500 0.37677044576 -0.445291949891
124878000 0.376505038956 -0.445010548094
124887500 0.376372153814 -0.444908862813
124897000 0.375981826792 -0.445063128707
124906500 0.375898670643 -0.445117736781
124916000 0.375893157469 -0.444940766517
124925500 0.375437676238 -0.444805365561
124935000 0.375082357308 -0.444733044268
124944500 0.374571218521 -0.444853720538
124954000 0.374770205252 -0.444504204296
124963500 0.374834039464 -0.444168770942
124973000 0.374495271287 -0.443905700518
124982500 0.374154775332 -0.444001807272
124992000 0.373657946798 -0.444301216182
125001500 0.373827573418 -0.444051610313
125011000 0.373636612883 -0.443790286704
125020500 0.373383599986 -0.44369361665
125030000 0.372854844297 -0.443866221165
125039500 0.372442588124 -0.443984453824
125049000 0.372659959593 -0.443511779984
125058500 0.372582172262 -0.443143244073
125068000 0.372414712883 -0.443083493853
125077500 0.37201327736 -0.443244675881
125087000 0.371811816806 -0.443348771454
125096500 0.371818768236 -0.443217072613
125106000 0.371418807796 -0.44304851504
125115500 0.371084501293 -0.442956737341
125125000 0.37057125755 -0.443167372879
125134500 0.370696839658 -0.442943763428
125144000 0.370804061418 -0.442520829933
125153500 0.370482466505 -0.442259472493
125163000 0.370175488078 -0.442330056695
125172500 0.369687497389 -0.442654150376
125182000 0.369890242004 -0.442527105799
125191500 0.36968684858 -0.442223390897
125201000 0.369419182052 -0.442161372716
125210500 0.368879127446 -0.442258978149
125220000 0.368422945878 -0.442352635178
125229500 0.368750059916 -0.441924144117
125239000 0.36869498013 -0.441657257479
125248500 0.368517308817 -0.441502934575
125258000 0.368061855144 -0.441709720035
125267500 0.36780349258 -0.44187710641
125277000 0.367894291336 -0.441702750123
125286500 0.367475349943 -0.441539430245
125296000 0.367203290064 -0.441408496781
125305500 0.366664954583 -0.441648095736
125315000 0.366757606858 -0.441455359769
125324500 0.36693550164 -0.441183411946
125334000 0.36665947756 -0.440934712381
125343500 0.366318574106 -0.440988481039
125353000 0.365718576405 -0.44122426858
125362500 0.366006727876 -0.441157870277
125372000 0.365910671657 -0.440981916737
125381500 0.36552480375 -0.440782213313
125391000 0.364946209727 -0.44080454629
125400500 0.364451077742 -0.44090728707
125410000 0.364768038944 -0.440706566178
125419500 0.364687477823 -0.440453583369
125429000 0.364589914331 -0.440216483625
125438500 0.36416366679 -0.440488463549
125448000 0.363737536621 -0.440624768729
125457500 0.363841656595 -0.440485430228
125467000 0.363510336538 -0.440221344983
125476500 0.363242925219 -0.440252355255
125486000 0.362627129843 -0.440365182446
125495500 0.362643287236 -0.440236901071
125505000 0.362934579523 -0.440026617935
125514500 0.362637330897 -0.439805881105
125524000 0.362313875814 -0.439775464925
125533500 0.361784033804 -0.440022186148
125543000 0.361956185209 -0.440161713942
125552500 0.361886220435 -0.43999382021
125562000 0.361533510396 -0.439701517523
125571500 0.361004563407 -0.439691487811
125581000 0.360384075976 -0.43987577533
125590500 0.360684303176 -0.439683643571
125600000 0.360793425134 -0.439477095775
125609500 0.360415240175 -0.439893643443
125619000 0.360878022538 -0.439404650468
125628500 0.359646522274 -0.43912620664
125638000 0.359003998492 -0.439353625039
125647500 0.358953195091 -0.439778040821
125657000 0.359432936016 -0.439272666444
125666500 0.359907045639 -0.438744870671
125676000 0.358833330471 -0.438801261955
125685500 0.35813060312 -0.439208074435
125695000 0.358014063745 -0.439590629884
125704500 0.358617749855 -0.439252430524
125714000 0.358478803529 -0.438780810554
125723500 0.357249614437 -0.438809690189
125733000 0.356775753927 -0.439134758413
125742500 0.356830332573 -0.439192507804
125752000 0.357696436211 -0.438548288195
125761500 0.357389889628 -0.438316556633
125771000 0.356351518292 -0.438559456469
125780500 0.356001399272 -0.439005745588
125790000 0.356170850558 -0.4390431851
125799500 0.356698922842 -0.438555512977
125809000 0.355630352195 -0.438180185752
125818500 0.354857208481 -0.438350931779
125828000 0.354673549337 -0.438818905237
125837500 0.35518204402 -0.438413592299
125847000 0.355770834966 -0.437885429308
125856500 0.354680752577 -0.437915989895
125866000 0.353807162255 -0.438196292465
125875500 0.353647045702 -0.438597000252
125885000 0.354317933426 -0.438341978577
125894500 0.354195068004 -0.437909574833
125904000 0.352932485703 -0.437795620966
125913500 0.352384384952 -0.438039844792
125923000 0.352441020844 -0.438355866663
125932500 0.353321477734 -0.437780689023
125942000 0.353080218805 -0.437549790974
125951500 0.352017389956 -0.437546802076
125961000 0.351507168413 -0.438008200401
125970500 0.351599206372 -0.438113158479
125980000 0.352263179887 -0.437706063944
125989500 0.351359628869 -0.437263014765
125999000 0.350416203537 -0.437340729687
126008500 0.35010372959 -0.437834353485
126018000 0.350651772013 -0.437554539694
126027500 0.351337793255 -0.437127190283
126037000 0.350249439674 -0.437006842497
126046500 0.349389174957 -0.437235772227
126056000 0.349156807944 -0.437720725132
126065500 0.349772558925 -0.437611609836
126075000 0.349739544989 -0.437123499075
126084500 0.348503737835 -0.436835769586
126094000 0.347964500421 -0.437065176741
126103500 0.347823226978 -0.437477885118
126113000 0.348683266429 -0.436988694474
126122500 0.348585283145 -0.436630326305
126132000 0.347451991174 -0.436652477196
126141500 0.346922469291 -0.437040773253
126151000 0.346882273159 -0.437277137245
126160500 0.347620482939 -0.436909154229
126170000 0.346784283784 -0.436477288079
126179500 0.345876730739 -0.436442324079
126189000 0.345451630256 -0.436935832863
126198500 0.345909141955 -0.436734965448
126208000 0.346693894288 -0.436312346366
126217500 0.345634538625 -0.436072317556
126227000 0.344713577608 -0.436153461405
126236500 0.344392051661 -0.436840102764
126246000 0.344949980636 -0.436723723144
126255500 0.345081295987 -0.436301740541
126265000 0.343852789298 -0.435823937806
126274500 0.34321569176 -0.43596592157
126284000 0.343043779524 -0.436543989106
126293500 0.343974077115 -0.436127444283
126303000 0.343901539919 -0.435809988364
126312500 0.342786442043 -0.435698886165
126322000 0.342037609286 -0.435997056449
126331500 0.341948761765 -0.436214487524
126341000 0.342672514652 -0.435995637168
126350500 0.342023578819 -0.435397633914
126360000 0.341087347696 -0.435302041267
126369500 0.340572089868 -0.435851431007
126379000 0.340885713965 -0.435742727354
126388500 0.341793883766 -0.435386476673
126398000 0.340919402637 -0.435072918435
126407500 0.339924735354 -0.435151214805
126417000 0.33945248803 -0.435783259621
126426500 0.339951557615 -0.435630294202
126436000 0.340305121835 -0.43520241653
126445500 0.339036226558 -0.434722965938
126455000 0.338305240689 -0.434824697734
126464500 0.337935396365 -0.435366357598
126474000 0.338961734139 -0.435059506684
126483500 0.339101351119 -0.434726254572
126493000 0.337914626393 -0.434545822091
126502500 0.337122677483 -0.43471755753
126512000 0.336970946751 -0.435118553021
126521500 0.337750452549 -0.434963239546
126531000 0.337166520433 -0.434393728938
126540500 0.336226329101 -0.434136815649
126550000 0.335642711751 -0.434596642847
126559500 0.335595766469 -0.434444207397
126569000 0.335814961974 -0.434429607444
126578500 0.336016745415 -0.434485800232
126588000 0.335192864919 -0.433861351882
126597500 0.335021285453 -0.434034198213
126607000 0.334008036693 -0.434129172834
126616500 0.334828488339 -0.4339332717
126626000 0.334726830884 -0.434098183148
126635500 0.334129001255 -0.433506459366
126645000 0.333800736003 -0.433647014083
126654500 0.332982659998 -0.434123752914
126664000 0.33353688524 -0.43384985564
126673500 0.332967767454 -0.43373609638
126683000 0.332628944934 -0.433333703671
126692500 0.331979836735 -0.433279390839
126702000 0.331589722005 -0.433592009271
126711500 0.332352300577 -0.4332364581
126721000 0.33173393717 -0.433104803411
126730500 0.331610312766 -0.43292422741
126740000 0.330617004885 -0.432973919371
126749500 0.330698258729 -0.432998952864
126759000 0.330913484722 -0.433167297814
126768500 0.330138838847 -0.432470873955
126778000 0.33004337232 -0.432702576872
126787500 0.328913967976 -0.432711475783
126797000 0.329752171729 -0.432534784226
126806500 0.329650796786 -0.432835326651
126816000 0.329156357713 -0.432165746094
126825500 0.328739737633 -0.432232910096
126835000 0.32778144566 -0.432720252277
126844500 0.328467726595 -0.43237079779
126854000 0.327917505865 -0.432327029002
126863500 0.327566438537 -0.43180181331
126873000 0.326909300412 -0.431776410564
126882500 0.326339158954 -0.432149792375
126892000 0.327282231253 -0.43188123058
126901500 0.326635177172 -0.431722926065
126911000 0.326474329797 -0.431599326592
126920500 0.32553844239 -0.431544051947
126930000 0.325571728674 -0.431713135983
126939500 0.325855570887 -0.431750059797
126949000 0.32507392168 -0.430959449748
126958500 0.32496624399 -0.431096947805
126968000 0.323881840867 -0.431082861905
126977500 0.324602846695 -0.431060673397
126987000 0.324513650919 -0.431270416879
126996500 0.324033889481 -0.430599906613
127006000 0.32371956806 -0.430702184251
127015500 0.322494801678 -0.431099774805
127025000 0.323296164016 -0.430743580973
127034500 0.322816142098 -0.430828969482
127044000 0.322529865015 -0.430191042646
127053500 0.321944660799 -0.430136369766
127063000 0.32106801467 -0.430524178284
127072500 0.322217138513 -0.430213756273
127082000 0.321501800269 -0.430167716794
127091500 0.321480420184 -0.429968837733
127101000 0.320439039514 -0.429823427042
127110500 0.320300369403 -0.43009470108
127120000 0.32068780511 -0.430074858024
127129500 0.319984328334 -0.429356554133
127139000 0.319869711786 -0.429406156703
127148500 0.318734957297 -0.429251178627
127158000 0.319353058264 -0.429360472542
127167500 0.319359965827 -0.429592920302
127177000 0.318887659608 -0.428902163667
127186500 0.318623037735 -0.429067471686
127196000 0.317336176786 -0.429266245281
127205500 0.318230007414 -0.429108341982
127215000 0.317696011584 -0.429206617205
127224500 0.317437394388 -0.428419496103
127234000 0.317010135382 -0.428388645692
127243500 0.315827038808 -0.428799153141
127253000 0.317061175311 -0.428540166889
127262500 0.316404191456 -0.428490154423
127272000 0.31632698788 -0.428207886892
127281500 0.31539593016 -0.427987496118
127291000 0.314915326515 -0.428411469331
127300500 0.315530428391 -0.428251648854
127310000 0.31485619778 -0.427633079231
127319500 0.314728062157 -0.427713383137
127329000 0.313570545045 -0.427367201298
127338500 0.314092392383 -0.427564890843
127348000 0.314323243882 -0.427831263943
127357500 0.313889556296 -0.427116104576
127367000 0.313580495331 -0.427236815178
127376500 0.312111632536 -0.427345379244
127386000 0.313115058445 -0.427320676344
127395500 0.312527117192 -0.427413307743
127405000 0.312337908577 -0.426485608692
127414500 0.311866150419 -0.426453535909
127424000 0.310557144384 -0.426863713912
127433500 0.311973894778 -0.426695679078
127443000 0.311278924238 -0.426661915209
127452500 0.311212272786 -0.426215061378
127462000 0.310371784675 -0.426004706297
127471500 0.309697749433 -0.426449287187
127481000 0.310509787336 -0.426364056482
127490500 0.309732772735 -0.425671645598
127500000 0.309634175967 -0.425784346354
127509500 0.310333985333 -0.426056602492
127519000 0.309140398664 -0.425312442958
127528500 0.308324052253 -0.425275167742
127538000 0.3073283714 -0.425923763479
127547500 0.308528039654 -0.426047969621
127557000 0.308388160268 -0.425240507969
127566500 0.307382631297 -0.424610279762
127576000 0.306601564049 -0.424773204749
127585500 0.306347337417 -0.425195651317
127595000 0.30777669358 -0.425384258623
127604500 0.307259203407 -0.424676352208
127614000 0.306195629678 -0.424358757517
127623500 0.305055405689 -0.424525248755
127633000 0.305384787412 -0.424898608844
127642500 0.306326778492 -0.424901693364
127652000 0.305416326141 -0.42374064068
127661500 0.304503800149 -0.423444172261
127671000 0.303274366302 -0.423937669876
127680500 0.304287947164 -0.42437269838
127690000 0.305223452935 -0.424182832905
127699500 0.304098048687 -0.42329028585
127709000 0.303263810102 -0.423202611249
127718500 0.301994203044 -0.423778277667
127728000 0.303277267727 -0.424094188662
127737500 0.303474562007 -0.423343415239
127747000 0.302402907904 -0.422536014057
127756500 0.301632744686 -0.422524281171
127766000 0.300948012382 -0.423015139525
127775500 0.302476475023 -0.423409426323
127785000 0.302108118422 -0.422739961024
127794500 0.301059274003 -0.422210200983
127804000 0.299845741218 -0.422362905508
127813500 0.300011039019 -0.422808872793
127823000 0.301215962916 -0.423059424335
127832500 0.300346272227 -0.421832467935
127842000 0.299473521234 -0.421465460331
127851500 0.298041632569 -0.42181744137
127861000 0.299037978636 -0.422357327436
127870500 0.300048001159 -0.422345207638
127880000 0.299071110973 -0.421259994886
127889500 0.298090140781 -0.42103702539
127899000 0.296592339265 -0.421580314611
127908500 0.297873806972 -0.421993830611
127918000 0.298262890755 -0.421324098812
127927500 0.297329827342 -0.420347205862
127937000 0.296464838926 -0.420331255722
127946500 0.295611597817 -0.42083581125
127956000 0.297138438365 -0.42146702111
127965500 0.297060961775 -0.420813103002
127975000 0.29588535526 -0.420176634377
127984500 0.29473667028 -0.42015804586
127994000 0.294754429511 -0.420570709445
128003500 0.295921695988 -0.421125652864
128013000 0.295269918241 -0.419721934132
128022500 0.29432207631 -0.419232153786
128032000 0.292902117645 -0.41940883517
128041500 0.293722589264 -0.42003395022
128051000 0.29478792079 -0.420420359801
128060500 0.293906506579 -0.419120299607
128070000 0.293000520394 -0.418762450346
128079500 0.291319343728 -0.419144675026
128089000 0.292543375504 -0.419852274611
128098500 0.293213511328 -0.419328306161
128108000 0.292237259633 -0.418102046815
128117500 0.291419236514 -0.418002699527
128127000 0.290105445976 -0.418459464292
128136500 0.291804344844 -0.419259844416
128146000 0.291898726552 -0.418613778174
128155500 0.290845370768 -0.417884729745
128165000 0.289573416934 -0.417768609252
128174500 0.289281507896 -0.418231785882
128184000 0.290663469512 -0.418964563994
128193500 0.290156191224 -0.417581243674
128203000 0.289285490313 -0.416875966003
128212500 0.287715050447 -0.416963693709
128222000 0.288353077363 -0.417824142252
128231500 0.28951776609 -0.418395335504
128241000 0.288768376383 -0.416985249482
128250500 0.287797509154 -0.416574689601
128260000 0.285886632436 -0.416708514622
128269500 0.286988502915 -0.417614529071
128279000 0.287988899307 -0.417311816419
128288500 0.287225060837 -0.415905690269
128298000 0.286211925079 -0.415707298876
128307500 0.284716865194 -0.415973227469
128317000 0.28628063985 -0.417061482295
128326500 0.286744739193 -0.41651857355
128336000 0.285648840374 -0.415489628065
128345500 0.284509590282 -0.415255677414
128355000 0.283813123443 -0.415732198638
128364500 0.285189637871 -0.416755655789
128374000 0.285020782856 -0.415396079613
128383500 0.284104659666 -0.414540010389
128393000 0.282583419847 -0.414436238264
128402500 0.282824133502 -0.41533331146
128412000 0.284109237732 -0.416157990509
128421500 0.283515159926 -0.414741301649
128431000 0.282493394187 -0.414268896047
128440500 0.280486453286 -0.414100616009
128450000 0.281457096653 -0.415217289242
128459500 0.28140217549 -0.413489842036
128469000 0.280787076616 -0.414083072176
128478500 0.280992338841 -0.414833791733
128488000 0.281732301992 -0.414255057671
128497500 0.280866924745 -0.413815463109
128507000 0.27935955998 -0.413083046631
128516500 0.279733196748 -0.413872423483
128526000 0.279663442138 -0.414166906716
128535500 0.28016862821 -0.41335662574
128545000 0.279336263404 -0.412682551964
128554500 0.277513670964 -0.412242606467
128564000 0.278803716048 -0.413419352469
128573500 0.278843189466 -0.413590166258
128583000 0.278625885642 -0.412910094003
128592500 0.277796874505 -0.412049999289
128602000 0.27605000945 -0.411887607048
128611500 0.277088051619 -0.412950811535
128621000 0.277596698504 -0.41260109731
128630500 0.277153223266 -0.411992154919
128640000 0.276158271304 -0.410951021543
128649500 0.275189921097 -0.411409441697
128659000 0.275545111244 -0.41229396207
128668500 0.276306115681 -0.41194470326
128678000 0.275483284734 -0.411447500418
128687500 0.274051463707 -0.410448357388
128697000 0.274230883789 -0.411287834051
128706500 0.273981006115 -0.411756244228
128716000 0.274786737674 -0.410968731229
128725500 0.274043641765 -0.410173467345
128735000 0.272249592488 -0.409430002576
128744500 0.27328369166 -0.410876641186
128754000 0.273078624291 -0.411127327533
128763500 0.273165578332 -0.410464499069
128773000 0.272337930354 -0.409618599832
128782500 0.2704742634 -0.409181239074
128792000 0.271443218608 -0.41040867884
128801500 0.272002358445 -0.410228417
128811000 0.271630938404 -0.409641205429
128820500 0.270891560668 -0.408517656707
128830000 0.269615250167 -0.408598533656
128839500 0.269971536223 -0.409724486536
128849000 0.270783720956 -0.409564650038
128858500 0.27004984391 -0.408913802679
128868000 0.268909588215 -0.407709962911
128877500 0.268530521559 -0.408533221861
128887000 0.26820528339 -0.409071160153
128896500 0.269210558802 -0.408469846024
128906000 0.268585886926 -0.407718367378
128915500 0.266876739484 -0.406646118857
128925000 0.267553121932 -0.408188047627
128934500 0.267344230324 -0.408450447726
128944000 0.26758628384 -0.407927431608
128953500 0.266874788254 -0.406990467409
128963000 0.264927427803 -0.40613360288
128972500 0.265841053129 -0.40767499645
128982000 0.26622673738 -0.407651802194
128991500 0.265945215443 -0.407015950434
129001000 0.26540568869 -0.405749222756
129010500 0.263853940704 -0.4055337378
129020000 0.26431794494 -0.406943843409
129029500 0.264936104773 -0.406935274795
129039000 0.264417232078 -0.406267873124
129048500 0.263306965266 -0.40490230535
129058000 0.262731130995 -0.405640395647
129067500 0.262384789319 -0.406167349564
129077000 0.26356477596 -0.405849393172
129086500 0.263009586763 -0.405097003361
129096000 0.261486412786 -0.403753537733
129105500 0.261833312809 -0.405219282033
129115000 0.261579649554 -0.405649966285
129124500 0.262015316452 -0.405224288361
129134000 0.261300565673 -0.40421903371
129143500 0.259544191478 -0.403004286132
129153000 0.260168409987 -0.404764519582
129162500 0.260342344615 -0.404787403726
129172000 0.260224699849 -0.40418728025
129181500 0.259744936723 -0.402979942187
129191000 0.258125337363 -0.40232438699
129200500 0.258658819812 -0.403992713897
129210000 0.259151828941 -0.40418791882
129219500 0.258673382316 -0.403382980979
129229000 0.257891094316 -0.402001392014
129238500 0.256896739576 -0.402354549199
129248000 0.256671744332 -0.403057482811
129257500 0.257821415221 -0.402962075219
129267000 0.257194053736 -0.40224536596
129276500 0.255998568683 -0.400724976271
129286000 0.255991969931 -0.401987122885
129295500 0.25561398495 -0.402459105797
129305000 0.256132658647 -0.402205562345
129314500 0.255575204686 -0.401240336468
129324000 0.253863272271 -0.399714614266
129333500 0.254316028938 -0.401570014885
129343000 0.254298245555 -0.40171628949
129352500 0.254477639572 -0.401147724991
129362000 0.254081651215 -0.399982361446
129371500 0.252427075677 -0.398943222123
129381000 0.252798894229 -0.400698770408
129390500 0.253234063264 -0.400981315369
129400000 0.252799069968 -0.400324887217
129409500 0.252096927968 -0.399406182989
129419000 0.252134065579 -0.399742659012
129428500 0.251131131822 -0.398713098844
129438000 0.251001418562 -0.39872808636
129447500 0.251250571443 -0.399841513866
129457000 0.250374849061 -0.39825433905
129466500 0.250536938992 -0.398935359486
129476000 0.249756595387 -0.397943564952
129485500 0.249309201838 -0.398355395233
129495000 0.249686589226 -0.398597639521
129504500 0.249195779886 -0.397439719755
129514000 0.248864832862 -0.397825183835
129523500 0.248644662049 -0.397077562263
129533000 0.248201940483 -0.397939439747
129542500 0.248149742942 -0.397452295331
129552000 0.247780108055 -0.397135341596
129561500 0.246975620049 -0.396753393431
129571000 0.246840067085 -0.396354673057
129580500 0.246566306539 -0.397389829591
129590000 0.246347889345 -0.396038877984
129599500 0.246357501517 -0.396396961101
129609000 0.245375705112 -0.395311762253
129618500 0.245301539522 -0.395239136798
129628000 0.24533570077 -0.396449105901
129637500 0.244758493571 -0.394714677149
129647000 0.244814817464 -0.395437126287
129656500 0.244029085457 -0.394371658753
129666000 0.243571278015 -0.394647784219
129675500 0.243892395547 -0.39516501012
129685000 0.243476492409 -0.393819088186
129694500 0.243064557047 -0.394346641873
129704000 0.242886147006 -0.393494756716
129713500 0.242276219313 -0.394189053014
129723000 0.242359850735 -0.394069043125
129732500 0.242010420305 -0.393474505505
129742000 0.241383173814 -0.393291420351
129751500 0.241237138538 -0.392845434476
129761000 0.240568897074 -0.393800536187
129770500 0.240688945509 -0.392618431598
129780000 0.240555997909 -0.392719813949
129789500 0.239915171273 -0.391772509437
129799000 0.239692244822 -0.391601198309
129808500 0.239516912395 -0.392825649875
129818000 0.239021327921 -0.391108484803
129827500 0.239034734546 -0.39189127511
129837000 0.238283149434 -0.390661923655
129846500 0.23784106756 -0.390852269512
129856000 0.238042906997 -0.391600035963
129865500 0.237709578846 -0.390087576688
129875000 0.23728642911 -0.390732020987
129884500 0.237196303613 -0.389747624624
129894000 0.236463294562 -0.390375523219
129903500 0.236529693874 -0.39042602638
129913000 0.23615329502 -0.389595818688
129922500 0.235688229438 -0.389472670833
129932000 0.235568292961 -0.389126538977
129941500 0.23472365972 -0.389961246333
129951000 0.23493463038 -0.38889522309
129960500 0.234701139761 -0.388956732194
129970000 0.234065386898 -0.387971152121
129979500 0.234012110405 -0.387934014401
129989000 0.234146273803 -0.388187000223
129998500 0.235451615572 -0.386695765833
130008000 0.235018014654 -0.389345073429
130017500 0.234016879665 -0.388243234407
130027000 0.233545645126 -0.389368990685
130036500 0.233423948056 -0.387566516453
130046000 0.232990222059 -0.388208454313
130055500 0.232842469481 -0.387617759319
130065000 0.231837214405 -0.388376616193
130074500 0.232127724796 -0.386745371113
130084000 0.231774787614 -0.387392167149
130093500 0.231778995578 -0.386441974009
130103000 0.230778529609 -0.387494753202
130112500 0.230865161242 -0.386389244507
130122000 0.230661959703 -0.386848502007
130131500 0.230245029582 -0.385652181868
130141000 0.229424265593 -0.386271816762
130150500 0.229747221431 -0.385930582899
130160000 0.229305037218 -0.38580899778
130169500 0.229024182894 -0.384541033314
130179000 0.229362442197 -0.38470907045
130188500 0.228372774761 -0.385430906097
130198000 0.228028140403 -0.384938104576
130207500 0.227384542176 -0.383891735451
130217000 0.22713119386 -0.383513598092
130226500 0.227030189876 -0.384507828994
130236000 0.227112632802 -0.383329888408
130245500 0.226254439842 -0.3831904205
130255000 0.22610451305 -0.38264898525
130264500 0.225366241215 -0.383696188859
130274000 0.225569800043 -0.382183146536
130283500 0.224932023733 -0.382698284046
130293000 0.224925583165 -0.382026722501
130302500 0.224033669943 -0.382806739803
130312000 0.224417290249 -0.381293724486
130321500 0.223767998184 -0.38180610897
130331000 0.223870354987 -0.380969517527
130340500 0.222867106978 -0.381884626671
130350000 0.223069461386 -0.38081093417
130359500 0.222564607894 -0.380865764264
130369000 0.222514296332 -0.378856801879
130378500 0.22137750168 -0.381267770966
130388000 0.222374062219 -0.379827262967
130397500 0.221363186232 -0.380071962999
130407000 0.222184957886 -0.378418853552
130416500 0.220171396447 -0.380170506846
130426000 0.220573521629 -0.379247504376
130435500 0.219762462577 -0.378846340814
130445000 0.219854981952 -0.377783803814
130454500 0.218821791077 -0.379039196213
130464000 0.219225069118 -0.378539529008
130473500 0.218995025724 -0.377524292735
130483000 0.218535118035 -0.377218473928
130492500 0.217972785018 -0.377109190564
130502000 0.217285975964 -0.377814757782
130511500 0.217905003964 -0.375965545008
130521000 0.217101259089 -0.376306104995
130530500 0.216884559304 -0.375637090974
130540000 0.215791036833 -0.376787108691
130549500 0.216776661482 -0.374822556909
130559000 0.215919589962 -0.375574631484
130568500 0.215919148456 -0.373860189977
130578000 0.214488888491 -0.375864903146
130587500 0.215259140195 -0.374066370855
130597000 0.214438969202 -0.374324011981
130606500 0.214728401683 -0.372732484368
130616000 0.213159853236 -0.37490119516
130625500 0.214098226108 -0.373644757861
130635000 0.213263636432 -0.373615200975
130644500 0.213449862442 -0.371840516765
130654000 0.212026713559 -0.373785502137
130663500 0.212469803883 -0.373004412821
130673000 0.211909609692 -0.372359779822
130682500 0.212044835951 -0.371376550125
130692000 0.210794934323 -0.372322544709
130701500 0.210840536667 -0.372030793106
130711000 0.210953363782 -0.370867954372
130720500 0.210629758631 -0.370797659112
130730000 0.210041757134 -0.370814267414
130739500 0.209279008589 -0.371403185224
130749000 0.209943308235 -0.369542286249
130758500 0.209106204648 -0.369938308183
130768000 0.20871061793 -0.369074350577
130777500 0.207750821557 -0.37030632814
130787000 0.208962772963 -0.3683634397
130796500 0.207905730449 -0.369139596066
130806000 0.208214764764 -0.36739744019
130815500 0.206155605279 -0.369355260183
130825000 0.207641044094 -0.367473722701
130834500 0.206717561501 -0.368114661288
130844000 0.20736603847 -0.366381666003
130853500 0.205191487046 -0.368152928553
130863000 0.206296450584 -0.366840743206
130872500 0.205186201457 -0.366795438963
130882000 0.205695410261 -0.365151302248
130891500 0.204197052197 -0.366968359747
130901000 0.204661640835 -0.36617754967
130910500 0.204215446767 -0.365545360246
130920000 0.204162219173 -0.364600141969
130929500 0.202905257122 -0.365372443419
130939000 0.202950957574 -0.365153893141
130948500 0.203248829551 -0.364028829728
130958000 0.20282047365 -0.363956730942
130967500 0.20224330782 -0.364014758196
130977000 0.200463014632 -0.365068648038
130986500 0.202070085889 -0.362768426454
130996000 0.201349169205 -0.363121689427
131005500 0.201335391835 -0.362077323145
131015000 0.199961736921 -0.363241825038
131024500 0.201302267934 -0.361476429706
131034000 0.200197281495 -0.361934470368
131043500 0.200462836334 -0.360394997327
131053000 0.198401888172 -0.362117764242
131062500 0.199903070954 -0.36064799439
131072000 0.198324268479 -0.360858966766
131081500 0.199503957528 -0.3593148822
131091000 0.197341331564 -0.360952811004
131100500 0.198649344362 -0.360030266454
131110000 0.197535760268 -0.359747262321
131119500 0.198136039705 -0.358491159621
131129000 0.196256874696 -0.359906908171
131138500 0.19685595599 -0.359294585606
131148000 0.196527460883 -0.358598730637
131157500 0.196641660761 -0.357908010354
131167000 0.195384341513 -0.358350469113
131176500 0.195344793072 -0.358199646888
131186000 0.195652698146 -0.357068288815
131195500 0.195254835503 -0.356917023176
131205000 0.194547075795 -0.356939547815
131214500 0.193792070129 -0.357303616348
131224000 0.194940416184 -0.355670337086
131233500 0.193790038433 -0.355998792267
131243000 0.193863838968 -0.355055352438
131252500 0.192434118895 -0.355972472035
131262000 0.193924353644 -0.354408953291
131271500 0.192686659909 -0.354934166446
131281000 0.193118988263 -0.353341373159
131290500 0.190946840492 -0.354950406076
131300000 0.192464091127 -0.353584203385
131309500 0.191094853444 -0.354114814426
131319000 0.190379478828 -0.353726966186
131328500 0.190792916445 -0.353279673213
131338000 0.190866048988 -0.352797938089
131347500 0.189783779104 -0.352459492275
131357000 0.189607291883 -0.352266445713
131366500 0.189344635334 -0.352198229892
131376000 0.190037456806 -0.351082503738
131385500 0.188914947551 -0.351032615744
131395000 0.188705215577 -0.350777537964
131404500 0.188293064662 -0.351120753504
131414000 0.188960666454 -0.349989154397
131423500 0.188044990759 -0.349724743548
131433000 0.187620776321 -0.34962224878
131442500 0.186856345767 -0.350186361431
131452000 0.187677735982 -0.348678001424
131461500 0.186774222686 -0.348524441295
131471000 0.186176287102 -0.348708750965
131480500 0.185336291064 -0.348729385931
131490000 0.186182398445 -0.347594204028
131499500 0.185314971637 -0.347440369331
131509000 0.18480094821 -0.347476715426
131518500 0.184096904262 -0.347434458757
131528000 0.184942458191 -0.346527124006
131537500 0.184222079944 -0.346415740202
131547000 0.183271943162 -0.34643509678
131556500 0.183033832083 -0.346202719762
131566000 0.183360073179 -0.345678323685
131575500 0.183263249276 -0.345033528746
131585000 0.182282039214 -0.344889253988
131594500 0.181924451638 -0.344506494397
131604000 0.181763085804 -0.34449204927
131613500 0.17867800339 -0.344018484339
131623000 0.181449814561 -0.343342242036
131632500 0.181134591451 -0.343007396543
131642000 0.180658026826 -0.343257565135
131651500 0.181406059531 -0.342193587991
131661000 0.180546538845 -0.341715876772
131670500 0.180113193186 -0.341833682483
131680000 0.179324488604 -0.342131465773
131689500 0.180276568733 -0.340746103278
131699000 0.179135331473 -0.340669207912
131708500 0.177653952304 -0.340845364233
131718000 0.177773518906 -0.340804806221
131727500 0.178767850229 -0.339824185613
131737000 0.178067247646 -0.339358422198
131746500 0.177254874408 -0.339519083232
131756000 0.176446698732 -0.339266496719
131765500 0.177213236498 -0.338581674014
131775000 0.176796961424 -0.338225816073
131784500 0.175862961416 -0.338250823941
131794000 0.175441987602 -0.337834145173
131803500 0.175619892475 -0.337491420819
131813000 0.175819580408 -0.33677076713
131822500 0.174940499364 -0.33651822979
131832000 0.174527546848 -0.336193945924
131841500 0.174286805521 -0.336156990295
131851000 0.175097333342 -0.335401629751
131860500 0.173749264689 -0.335117509788
131870000 0.173656295245 -0.334862067959
131879500 0.17318845117 -0.334974109476
131889000 0.173829525617 -0.333995236162
131898500 0.173251969049 -0.333427927186
131908000 0.172582306927 -0.333641110323
131917500 0.171910510353 -0.333763620096
131927000 0.17283382519 -0.332505287859
131936500 0.171868041003 -0.332152944766
131946000 0.171251617259 -0.332172321088
131955500 0.170246602168 -0.332140403545
131965000 0.171273692609 -0.331346932472
131974500 0.170613501565 -0.330827854563
131984000 0.169860658877 -0.331071743248
131993500 0.16907856369 -0.330649468506
132003000 0.169856346783 -0.330258187664
132012500 0.169448186146 -0.329809141139
132022000 0.168357019761 -0.329451676187
132031500 0.168126688225 -0.329094364196
132041000 0.168277270759 -0.328847358119
132050500 0.168460171942 -0.328265367248
132060000 0.167369360626 -0.327913478735
132069500 0.167186841831 -0.327471285621
132079000 0.166920144499 -0.327400958577
132088500 0.167758275679 -0.326782018569
132098000 0.166460024366 -0.326218085592
132107500 0.166163924274 -0.325997236812
132117000 0.165516014989 -0.326138407669
132126500 0.166848837868 -0.325222854284
132136000 0.1657938242 -0.324766989569
132145500 0.165173900165 -0.324615560239
132155000 0.165705702478 -0.324490618011
132164500 0.165673473018 -0.323652061208
132174000 0.164727645603 -0.323380609519
132183500 0.164023114662 -0.323349613644
132193000 0.162952897277 -0.32314725294
132202500 0.163985503062 -0.322568078599
132212000 0.162999001521 -0.321899254641
132221500 0.16239991125 -0.322089097949
132231000 0.161705657497 -0.321564779766
132240500 0.162575870977 -0.321129101934
132250000 0.162065769975 -0.320682665717
132259500 0.161883477153 -0.32013554494
132269000 0.160980063531 -0.320313830474
132278500 0.161251262017 -0.319403930503
132288000 0.161121428536 -0.318847489433
132297500 0.160507349959 -0.319002210544
132307000 0.159823303264 -0.318591915413
132316500 0.160353566423 -0.317818403286
132326000 0.159749848955 -0.317613503962
132335500 0.159150894671 -0.317403474497
132345000 0.158836117174 -0.31687403754
132354500 0.159265246667 -0.316168778748
132364000 0.158602275707 -0.316338310216
132373500 0.158106086424 -0.31585988581
132383000 0.15797029822 -0.315070006164
132392500 0.158081118207 -0.314532189486
132402000 0.157461028912 -0.314010117426
132411500 0.15798566345 -0.312105488266
132421000 0.158424224206 -0.309861297555
132430500 0.157920556058 -0.310076176875
132440000 0.156958701571 -0.310902122239
132449500 0.157013027093 -0.311702344875
132459000 0.156314732574 -0.312082131225
132468500 0.155458416889 -0.311963732179
132478000 0.155323284011 -0.311616386642
132487500 0.155662829426 -0.310553687937
132497000 0.155140309932 -0.310437450647
132506500 0.154096639468 -0.310392149763
132516000 0.15443516771 -0.309737583488
132525500 0.154363638883 -0.309058184653
132535000 0.153732797699 -0.309195040467
132544500 0.153006766276 -0.308620126829
132554000 0.154203908253 -0.307862859781
132563500 0.153009421487 -0.307914344578
132573000 0.152497492888 -0.307689045056
132582500 0.152097570662 -0.306995027423
132592000 0.152742364291 -0.306322168251
132601500 0.151859062403 -0.306314696804
132611000 0.151363319749 -0.305868186733
132620500 0.151504126552 -0.30510125599
132630000 0.151527616045 -0.304684908481
132639500 0.150559242206 -0.304715083372
132649000 0.150623736702 -0.304072284383
132658500 0.150685041087 -0.303446244622
132668000 0.149887617609 -0.303420580465
132677500 0.149632947462 -0.302857667205
132687000 0.149886326193 -0.302405573836
132696500 0.149173808988 -0.302049475623
132706000 0.148898868284 -0.301781622163
132715500 0.148749226007 -0.301547637515
132725000 0.149304601966 -0.301087990453
132734500 0.148488400622 -0.30044744585
132744000 0.147614123 -0.300260053955
132753500 0.148053751358 -0.299495524017
132763000 0.147918334654 -0.298956019569
132772500 0.147155955659 -0.299027933867
132782000 0.146633854259 -0.298427064964
132791500 0.14741726587 -0.297885588632
132801000 0.14645664615 -0.297710280677
132810500 0.146029620917 -0.297344702061
132820000 0.145703892264 -0.296665984276
132829500 0.146338665889 -0.296197783396
132839000 0.145464317776 -0.296067723514
132848500 0.144888145311 -0.295637377065
132858000 0.145046643308 -0.294673107724
132867500 0.14492849646 -0.294547887037
132877000 0.144452506944 -0.294874274204
132886500 0.144207662424 -0.293722382723
132896000 0.144216380978 -0.292939336245
132905500 0.143349758055 -0.293013347966
132915000 0.143208788861 -0.292505138254
132924500 0.143546627947 -0.291953069816
132934000 0.143543461752 -0.291515044061
132943500 0.142294577072 -0.291330912525
132953000 0.142199477243 -0.29088351011
132962500 0.142829582104 -0.290295906405
132972000 0.142080593826 -0.290014344908
132981500 0.140650997556 -0.289658006708
132991000 0.141738336643 -0.289194526567
133000500 0.141490664016 -0.288555245122
133010000 0.140544294011 -0.288464586544
133019500 0.139936525058 -0.287797209731
133029000 0.140817051434 -0.287237218884
133038500 0.140239290987 -0.28695523967
133048000 0.139503686464 -0.28657510427
133057500 0.139207533151 -0.285821644619
133067000 0.139854811161 -0.285595916432
133076500 0.138954800793 -0.285261726885
133086000 0.138469254543 -0.284677209375
133095500 0.138665706014 -0.283917177051
133105000 0.138457258911 -0.283647349888
133114500 0.137861127713 -0.28332097043
133124000 0.13776174959 -0.282913737618
133133500 0.137947150803 -0.282057679224
133143000 0.137187100585 -0.282029172773
133152500 0.136671697675 -0.28139013342
133162000 0.137502640082 -0.281153534171
133171500 0.136907691112 -0.280399902177
133181000 0.135781768725 -0.280114470326
133190500 0.135978023062 -0.279698860328
133200000 0.136270137961 -0.279291595572
133209500 0.135992402421 -0.279120779811
133219000 0.134471526499 -0.277555784323
133228500 0.135652427416 -0.277887149402
133238000 0.134359685807 -0.277102447635
133247500 0.134968851939 -0.277247716349
133257000 0.13379341709 -0.275746463261
133266500 0.134342841022 -0.275862228531
133276000 0.133683094482 -0.27546105283
133285500 0.13438407665 -0.27551676785
133295000 0.133254836653 -0.274107423536
133304500 0.132836107742 -0.273922963125
133314000 0.132567331629 -0.273381114002
133323500 0.133206892114 -0.273428891884
133333000 0.132736700933 -0.272339164816
133342500 0.131398800673 -0.271995898934
133352000 0.131968192619 -0.271498418862
133361500 0.13193916218 -0.271423290385
133371000 0.131899570467 -0.27075543411
133380500 0.130541927992 -0.269865694809
133390000 0.131290356404 -0.269778760143
133399500 0.130881505712 -0.269268798294
133409000 0.131069360621 -0.268685429277
133418500 0.129673710426 -0.267689847645
133428000 0.130570996894 -0.267892044621
133437500 0.129723533758 -0.267364602767
133447000 0.130008437118 -0.267151733616
133456500 0.128787700853 -0.265479250063
133466000 0.129962874807 -0.266027816025
133475500 0.128785104385 -0.265213679464
133485000 0.129254429938 -0.26530305664
133494500 0.128479584988 -0.263878603057
133504000 0.128559269104 -0.263827251896
133513500 0.128136121015 -0.263327323239
133523000 0.128656187689 -0.26346130921
133532500 0.127908599035 -0.261819534252
133542000 0.127511295114 -0.26169431715
133551500 0.127286464156 -0.261085632215
133561000 0.127701209385 -0.261164926977
133570500 0.127440371767 -0.26008644203
133580000 0.126039108278 -0.259415596056
133589500 0.126612990431 -0.259173955461
133599000 0.126697507869 -0.259488335653
133608500 0.126839573846 -0.2582661228
133618000 0.125309795398 -0.257214882794
133627500 0.126035973655 -0.257323125365
133637000 0.125531651124 -0.256699956627
133646500 0.125969265426 -0.256113999164
133656000 0.124796877173 -0.254940581392
133665500 0.125526614616 -0.255375581042
133675000 0.124648289151 -0.254674961061
133684500 0.125007514862 -0.2546038026
133694000 0.123922954333 -0.252800271615
133703500 0.124826280102 -0.253326410462
133713000 0.124009984693 -0.252535500409
133722500 0.124452068348 -0.252656133502
133732000 0.123504976613 -0.250824234092
133741500 0.12389542523 -0.250859942294
133751000 0.12317310655 -0.249945605167
133760500 0.123598084605 -0.250718923502
133770000 0.123181417671 -0.249078852895
133779500 0.12369618897 -0.24886292505
133789000 0.122507742162 -0.248226695457
133798500 0.122900940511 -0.248408075564
133808000 0.12280792558 -0.247246095095
133817500 0.121644117103 -0.246501376581
133827000 0.122127485177 -0.246382723835
133836500 0.121982574319 -0.246141732291
133846000 0.122039889737 -0.245355363995
133855500 0.120894695938 -0.2441635053
133865000 0.121575342277 -0.244394642245
133874500 0.120908716531 -0.243859044914
133884000 0.121203333288 -0.243378917499
133893500 0.120139345022 -0.241978193377
133903000 0.120923100454 -0.242569979459
133912500 0.120146989973 -0.241862525533
133922000 0.120447353302 -0.241653880409
133931500 0.119601971106 -0.239791281733
133941000 0.120230429346 -0.240341651881
133950500 0.119394227152 -0.239440428454
133960000 0.119624221657 -0.23960277134
133969500 0.119336803416 -0.237794230182
133979000 0.119279798615 -0.238006491554
133988500 0.1192262247 -0.237359283193
133998000 0.119109822535 -0.23765695826
134007500 0.118962126287 -0.23596443421
134017000 0.118326042605 -0.235503409175
134026500 0.1183995894 -0.234999362888
134036000 0.118365045945 -0.23522872682
134045500 0.118380553851 -0.234120038242
134055000 0.117408092576 -0.233226918981
134064500 0.117820581679 -0.233146944637
134074000 0.117589856303 -0.232805540851
134083500 0.117808366249 -0.23214600648
134093000 0.11688411627 -0.230855656684
134102500 0.117378657918 -0.231083994174
134112000 0.116884165608 -0.230151020093
134121500 0.11709834128 -0.229945207466
134131000 0.116348807895 -0.228455911531
134140500 0.116996584674 -0.229033154784
134150000 0.1161648335 -0.228178352346
134159500 0.116258249934 -0.227531231359
134169000 0.116301743178 -0.228194219377
134178500 0.116573644282 -0.227442039703
134188000 0.11571886909 -0.223907310187
134197500 0.115649531662 -0.224961394346
134207000 0.115703162657 -0.225809081919
134216500 0.115938196537 -0.225586645659
134226000 0.115237138529 -0.221998854923
134235500 0.115138183049 -0.222117238293
134245000 0.115272345901 -0.223331008733
134254500 0.115159961576 -0.223576314465
134264000 0.115136607131 -0.220222426485
134273500 0.114454861422 -0.21948044943
134283000 0.114631623623 -0.221171743207
134292500 0.114463108079 -0.221093519794
134302000 0.114741966121 -0.218807436782
134311500 0.113925346689 -0.216911819165
134321000 0.114940132225 -0.219033212267
134330500 0.113726148162 -0.21880705949
134340000 0.11448999312 -0.217284515236
134349500 0.113596643655 -0.214604972219
134359000 0.113735085436 -0.216127937862
134368500 0.113294945817 -0.216600541996
134378000 0.113814458259 -0.215350325069
134387500 0.113217991228 -0.212116194604
134397000 0.113288527637 -0.213609575091
134406500 0.112831343413 -0.214078063016
134416000 0.113152579785 -0.213539401479
134425500 0.112918780047 -0.210029338855
134435000 0.112615931398 -0.211022954423
134444500 0.112333323932 -0.211764143418
134454000 0.112401885069 -0.211408183942
134463500 0.112438963344 -0.208077116788
134473000 0.112316157421 -0.208038680723
134482500 0.112043280546 -0.209336879876
134492000 0.111771564433 -0.209162000421
134501500 0.112219519407 -0.206372183448
134511000 0.111739965554 -0.205540185049
134520500 0.111631786555 -0.206953827692
134530000 0.111280783817 -0.206839302174
134539500 0.111905984572 -0.204734212247
134549000 0.111531041347 -0.202816259137
134558500 0.111346201156 -0.204443229468
134568000 0.110728382363 -0.204360408228
134577500 0.111508710029 -0.202980464597
134587000 0.111119040439 -0.200319580447
134596500 0.111024922354 -0.201943197555
134606000 0.110280193754 -0.20188210604
134615500 0.111068236429 -0.20101262659
134625000 0.110883829221 -0.197869498476
134634500 0.110594469362 -0.199148313701
134644000 0.110022392746 -0.19943037531
134653500 0.110342343038 -0.198873888723
134663000 0.110509928843 -0.195788608684
134672500 0.110306985795 -0.196547907145
134682000 0.109849086286 -0.197216217188
134691500 0.109738157142 -0.196684846387
134701000 0.110190729127 -0.193707188807
134710500 0.110226825017 -0.193598222015
134720000 0.109632154946 -0.194704060574
134729500 0.109153085335 -0.194334169343
134739000 0.110005477622 -0.191984262372
134748500 0.109836635423 -0.19098180477
134758000 0.109408476302 -0.192317899655
134767500 0.10889045549 -0.191905265984
134777000 0.109815903592 -0.190064794171
134786500 0.109691795063 -0.188195242637
134796000 0.109292818652 -0.189819040736
134805500 0.108559847011 -0.189386748362
134815000 0.10956143839 -0.18822877731
134824500 0.109474404149 -0.185744400229
134834000 0.109080342157 -0.187005001592
134843500 0.108278517919 -0.186874921436
134853000 0.109201320523 -0.186070951454
134862500 0.108613320879 -0.183070783079
134872000 0.111289181108 -0.182740868707
134881500 0.108126895878 -0.184456844208
134891000 0.108646492252 -0.183701185813
134900500 0.109271770967 -0.180942408607
134910000 0.108737750059 -0.181606704757
134919500 0.108047126967 -0.182079611535
134929000 0.108146789245 -0.181444871042
134938500 0.109000309486 -0.178840616158
134948000 0.108929236677 -0.178776304043
134957500 0.108056965263 -0.179564053606
134967000 0.107778837498 -0.179012544477
134976500 0.108737464221 -0.176931211011
134986000 0.108659666471 -0.176075637518
134995500 0.108067366839 -0.177107548369
135005000 0.107553146363 -0.176472549773
135014500 0.108661319475 -0.174922320655
135024000 0.108691750915 -0.173300293173
135033500 0.107900089696 -0.174467491944
135043000 0.107289647957 -0.174193751967
135052500 0.108401676724 -0.172887235045
135062000 0.108538025728 -0.170796824074
135071500 0.108027086258 -0.171830428834
135081000 0.107165846068 -0.171386430569
135090500 0.108103716161 -0.170622800677
135100000 0.108784294707 -0.168182719187
135109500 0.107921013612 -0.168923826741
135119000 0.108406771096 -0.168196229272
135128500 0.107980676285 -0.16735420465
135138000 0.107569088134 -0.16781677023
135147500 0.107717418694 -0.166395033708
135157000 0.108441471693 -0.165850316596
135166500 0.108180543578 -0.164800825883
135176000 0.10783372428 -0.165218209291
135185500 0.107808938581 -0.163937232991
135195000 0.108326854887 -0.163242929742
135204500 0.108447690573 -0.162246963373
135214000 0.10766591974 -0.162595697975
135223500 0.107641340307 -0.161622038178
135233000 0.108353330608 -0.160792082885
135242500 0.10833566071 -0.159859556179
135252000 0.107877127211 -0.159941588263
135261500 0.107660361727 -0.159372337392
135271000 0.108120607752 -0.158221197039
135280500 0.108446502731 -0.157373009871
135290000 0.107964316883 -0.157107007514
135299500 0.107679191396 -0.157083331794
135309000 0.108146261092 -0.155741010333
135318500 0.108417013054 -0.155085848041
135328000 0.108114370858 -0.154517642961
135337500 0.107938130298 -0.154721981438
135347000 0.108126980532 -0.153319435082
135356500 0.108734230522 -0.152717266723
135366000 0.10827384084 -0.151833863956
135375500 0.108073773535 -0.152232879316
135385000 0.108115929024 -0.15074085845
135394500 0.108737878867 -0.150313259559
135404000 0.107827832385 -0.149146153233
135413500 0.108239486238 -0.149529780599
135423000 0.108198058466 -0.148232756868
135432500 0.109002103167 -0.147659908937
135442000 0.109489762008 -0.146498222915
135451500 0.108293602913 -0.146813861678
135461000 0.108314680432 -0.145840844092
135470500 0.108789157324 -0.145123423203
135480000 0.109173829171 -0.144304130161
135489500 0.108632159207 -0.144181059091
135499000 0.108226337946 -0.143350219352
135508500 0.109152372723 -0.142504741467
135518000 0.109488341475 -0.141829575889
135527500 0.10898393182 -0.141448726935
135537000 0.10874956453 -0.141188019948
135546500 0.10909964027 -0.140103166109
135556000 0.10933444483 -0.139383233057
135565500 0.109095759351 -0.1388056436
135575000 0.109034612181 -0.138848224144
135584500 0.10951809078 -0.137526585247
135594000 0.109954157109 -0.137038464924
135603500 0.109547594408 -0.13616879248
135613000 0.109376005988 -0.136308122816
135622500 0.109548836872 -0.134999319655
135632000 0.110166875341 -0.134656860545
135641500 0.110112925225 -0.133763113452
135651000 0.10993693623 -0.133672435712
135660500 0.109831981398 -0.132395241159
135670000 0.110748571394 -0.131809023745
135679500 0.110804108143 -0.130996471851
135689000 0.110047049181 -0.131179016547
135698500 0.110066029834 -0.12997051571
135708000 0.110685823636 -0.129300680205
135717500 0.110863902906 -0.128688635887
135727000 0.110442897934 -0.128308854448
135736500 0.110444836611 -0.127684229093
135746000 0.111331135064 -0.126723051592
135755500 0.11151717979 -0.126179795753
135765000 0.111009473753 -0.125666569659
135774500 0.110879805522 -0.125361029514
135784000 0.111573404242 -0.124332269374
135793500 0.111666751016 -0.123750298107
135803000 0.11159622192 -0.123057305872
135812500 0.111616871818 -0.123031447637
135822000 0.112039689685 -0.121789086979
135831500 0.112554595401 -0.121430011885
135841000 0.112209992352 -0.120446554135
135850500 0.111971836663 -0.120507400996
135860000 0.112256433922 -0.119254426892
135869500 0.112779722645 -0.11900804272
135879000 0.112211082538 -0.117951717439
135888500 0.112466934263 -0.117961256693
135898000 0.112666257228 -0.116674656059
135907500 0.113473297311 -0.116319984554
135917000 0.113503465639 -0.115510886217
135926500 0.112887502316 -0.115228750472
135936000 0.113232975173 -0.114249299514
135945500 0.113839148612 -0.113719894396
135955000 0.113968701367 -0.113090228889
135964500 0.113640910823 -0.112545847074
135974000 0.113736619952 -0.111898446423
135983500 0.11455681802 -0.111069787568
135993000 0.114676033004 -0.110622041752
136002500 0.114453993592 -0.109966354152
136012000 0.11435592089 -0.10960008618
136021500 0.115049572003 -0.108652113838
136031000 0.11509984311 -0.108184932416
136040500 0.115003857425 -0.107399410037
136050000 0.115179413446 -0.107374910062
136059500 0.115670657822 -0.105917202185
136069000 0.115866480334 -0.105927621201
136078500 0.115473637116 -0.10486450761
136088000 0.115997569924 -0.104600761625
136097500 0.116226809002 -0.103739943649
136107000 0.116314359306 -0.1032738817
136116500 0.116222454354 -0.102619620189
136126000 0.116604668246 -0.102131627452
136135500 0.116997256106 -0.101520532683
136145000 0.11711700531 -0.100688444466
136154500 0.116871745777 -0.100117026052
136164000 0.11730390847 -0.0992510132276
136173500 0.117730599503 -0.0991657108012
136183000 0.117729470394 -0.0979026148075
136192500 0.117604307453 -0.0978893692062
136202000 0.118073641506 -0.0966972050935
136211500 0.118181181009 -0.0965774043814
136221000 0.118699061954 -0.0954325487115
136230500 0.118573412342 -0.0955028447794
136240000 0.118779113677 -0.0942832318813
136249500 0.119120458348 -0.0940801319859
136259000 0.119355519776 -0.0928846396373
136268500 0.119606427092 -0.0929487596599
136278000 0.119485685998 -0.0918381063797
136287500 0.119698731531 -0.0915085232675
136297000 0.120334272738 -0.0906585002494
136306500 0.120446161735 -0.0905288782549
136316000 0.120107574769 -0.0892741252541
136325500 0.120760304717 -0.0890774955
136335000 0.120968079682 -0.0882064374492
136344500 0.121127510815 -0.0877733838002
136354000 0.121185229742 -0.0870536495857
136363500 0.121631643236 -0.0865988920645
136373000 0.121966819926 -0.0860518036812
136382500 0.122090570072 -0.0852451880621
136392000 0.121913311131 -0.0846224542566
136401500 0.122562125568 -0.0840518369164
136411000 0.122781976624 -0.0837756318012
136420500 0.122892655474 -0.0826033901401
136430000 0.122897875528 -0.0825148682983
136439500 0.123180334917 -0.0814067893
136449000 0.123391580621 -0.0811272295742
136458500 0.123693057918 -0.0801446432414
136468000 0.123866261798 -0.0801705339706
136477500 0.124264813041 -0.0789825603233
136487000 0.126257145477 -0.0793680689648
136496500 0.124901823685 -0.0774932633249
136506000 0.113846518161 -0.0762680326144
136515500 0.125114202472 -0.0765609866008
136525000 0.125456801228 -0.0763338492527
136534500 0.125764090987 -0.0753060831828
136544000 0.126007910216 -0.0753284470764
136553500 0.125908591891 -0.0741566831296
136563000 0.126623134508 -0.0741137820591
136572500 0.126917913932 -0.0732340627667
136582000 0.126968638097 -0.0726343110852
136591500 0.126987587105 -0.0719262722487
136601000 0.127461704642 -0.071492654975
136610500 0.127906757282 -0.0710271945145
136620000 0.128028843924 -0.0702635556064
136629500 0.128035833415 -0.0695083033058
136639000 0.128701076211 -0.0690590388219
136648500 0.128838800289 -0.0687794994559
136658000 0.129040866247 -0.0675029322801
136667500 0.129164679143 -0.0674497189772
136677000 0.129734099169 -0.0664604555555
136686500 0.129826885441 -0.0661718928933
136696000 0.130300624159 -0.0651672154945
136705500 0.130421850049 -0.065119743389
136715000 0.130737377507 -0.0639496461668
136724500 0.13105100903 -0.0638537772999
136734000 0.131496552952 -0.0626944868279
136743500 0.131570417644 -0.0629311988492
136753000 0.131834907006 -0.0617249597807
136762500 0.132228384081 -0.0615064788484
136772000 0.132557202553 -0.0605263387917
136781500 0.13283260001 -0.0605696881645
136791000 0.132949033869 -0.0593626788067
136800500 0.133502992257 -0.0593749227745
136810000 0.133926801214 -0.058518233338
136819500 0.133988740521 -0.0578165500685
136829000 0.134021185476 -0.057176942749
136838500 0.134662671241 -0.0568656068221
136848000 0.134951790107 -0.0563768298636
136857500 0.135143924895 -0.0555156114263
136867000 0.135253175626 -0.0547308118221
136876500 0.135893423447 -0.054358068822
136886000 0.136046833319 -0.0542113819907
136895500 0.13644750645 -0.0529095592969
136905000 0.136537691459 -0.0528687510674
136914500 0.137074545043 -0.0518497480918
136924000 0.137249511355 -0.0516196759979
136933500 0.137776874384 -0.0506325427525
136943000 0.137931038693 -0.0507303962796
136952500 0.138660342179 -0.0497198668498
136962000 0.138549744539 -0.0494912110104
136971500 0.139178885995 -0.0482478923578
136981000 0.139303523174 -0.0485867026525
136990500 0.139525814553 -0.0473030170659
137000000 0.139982336035 -0.0471939759926
