! Calibrated averaged scanner-service zoom
# Hz S RI R 50
406100000 0.474145368543 -0.325857832402
406106950 0.474415393768 -0.325815407063
406113900 0.473826799502 -0.325844628736
406120850 0.473607556271 -0.326156673321
406127800 0.473466420588 -0.325788394796
406134750 0.473815809077 -0.325965896743
406141700 0.473602276911 -0.326159169372
406148650 0.473564610283 -0.326435444273
406155600 0.473586872739 -0.326551872576
406162550 0.473509533249 -0.326113784693
406169500 0.47368938819 -0.325976923114
406176450 0.473466741578 -0.32626868961
406183400 0.473969561849 -0.32624620804
406190350 0.473970957193 -0.325801810233
406197300 0.47399512657 -0.325924982153
406204250 0.474414965859 -0.326016391741
406211200 0.474308118762 -0.326430631286
406218150 0.474146851791 -0.325545848927
406225100 0.473259639108 -0.325017385051
406232050 0.473322363771 -0.325455185736
406239000 0.472127900421 -0.327001491411
406245950 0.473717340295 -0.324052134541
406252900 0.475116669796 -0.325198702703
406259850 0.473543231421 -0.324758601545
406266800 0.473555562155 -0.325596568113
406273750 0.473621636873 -0.325986284614
406280700 0.474001189442 -0.325895752335
406287650 0.473581073154 -0.325546133707
406294600 0.473759736173 -0.326340395303
406301550 0.473736138201 -0.326094094467
406308500 0.473997419918 -0.325503118961
406315450 0.473963121358 -0.325381076183
406322400 0.473764868984 -0.325705126807
406329350 0.473850010237 -0.325729505517
406336300 0.473633468177 -0.325101754087
406343250 0.473300385961 -0.325159254458
406350200 0.472964054734 -0.32574409477
406357150 0.472353321185 -0.325993994101
406364100 0.472841014271 -0.325660951625
406371050 0.472611810093 -0.325202992166
406378000 0.473165395388 -0.325309313875
406384950 0.473030814228 -0.326001702806
406391900 0.47302301901 -0.325206427824
406398850 0.472936997052 -0.32494274277
406405800 0.47305062351 -0.324953926568
406412750 0.473343483279 -0.325173743121
406419700 0.473514318182 -0.32499131737
406426650 0.473183453709 -0.325051811687
406433600 0.472683542626 -0.325273173064
406440550 0.472987670392 -0.32578654908
406447500 0.473251748679 -0.325664851983
406454450 0.472581587218 -0.325533357666
406461400 0.472639646312 -0.325046207908
406468350 0.473048952895 -0.325357190369
406475300 0.472522357816 -0.325076951467
406482250 0.472582342564 -0.324984112188
406489200 0.472829975666 -0.325327864113
406496150 0.47255376847 -0.324991907011
406503100 0.47284883514 -0.32498918653
406510050 0.472444080066 -0.325098969464
406517000 0.472448623991 -0.324921649599
406523950 0.472990524913 -0.325048809493
406530900 0.473063779374 -0.325570227933
406537850 0.472706162 -0.325412759993
406544800 0.472762989767 -0.325125277854
406551750 0.472925375784 -0.325251830609
406558700 0.473068691785 -0.325497104683
406565650 0.472534432223 -0.325202425159
406572600 0.472721683356 -0.325059650913
406579550 0.473250939218 -0.32491238506
406586500 0.4728850102 -0.325133006469
406593450 0.473053183814 -0.324680678378
406600400 0.47287876741 -0.325478425685
406607350 0.472995766026 -0.325336934362
406614300 0.472873983452 -0.32598960346
406621250 0.472994283663 -0.325389748249
406628200 0.472799746763 -0.32517903056
406635150 0.4727839914 -0.325117321328
406642100 0.472751382483 -0.324929781375
406649050 0.472874283357 -0.325096839624
406656000 0.473007909618 -0.324408974344
406662950 0.472721766676 -0.324785877679
406669900 0.472762492616 -0.324669191173
406676850 0.473353323848 -0.324533564156
406683800 0.473191364625 -0.324500556927
406690750 0.472921502443 -0.324657113872
406697700 0.472941473799 -0.325284608745
406704650 0.47291814456 -0.325546298434
406711600 0.473041085763 -0.325190131115
406718550 0.472649827909 -0.325102295029
406725500 0.472546640316 -0.325399373572
406732450 0.472979705017 -0.325762613155
406739400 0.472582682759 -0.325173473451
406746350 0.472556298755 -0.324883562624
406753300 0.472489641905 -0.324930815422
406760250 0.472570743975 -0.325387533171
406767200 0.472532419572 -0.325314087246
406774150 0.472343037035 -0.324760625445
406781100 0.472265864104 -0.324748158327
406788050 0.472447377733 -0.324857070011
406795000 0.472305147345 -0.324791850722
406801950 0.472551359917 -0.324816450541
406808900 0.472421437115 -0.325064966231
406815850 0.472474251786 -0.325145182539
406822800 0.472851750407 -0.325145775257
406829750 0.472877406635 -0.325183936507
406836700 0.472424439433 -0.324800914492
406843650 0.472186759945 -0.325074230683
406850600 0.472629217556 -0.325428328402
406857550 0.472114627491 -0.325480147216
406864500 0.47212190164 -0.324862995875
406871450 0.472344297251 -0.325189868109
406878400 0.472463121433 -0.32529606313
406885350 0.471765317349 -0.325134052482
406892300 0.472185297863 -0.324997505974
406899250 0.472123718397 -0.325024971883
406906200 0.47209091283 -0.324734100265
406913150 0.472012225304 -0.324904792643
406920100 0.471865127131 -0.324986895553
406927050 0.471997511162 -0.325497696117
406934000 0.472115968595 -0.325294358464
406940950 0.472011737799 -0.32504656827
406947900 0.471776767985 -0.325254705752
406954850 0.472025032858 -0.325189187679
406961800 0.472052065397 -0.324992932185
406968750 0.471736271387 -0.325065658423
406975700 0.472017697856 -0.325212660428
406982650 0.472019176458 -0.324816880733
406989600 0.472195619017 -0.324758562232
406996550 0.472142838132 -0.324900801378
407003500 0.472278878363 -0.325283040121
407010450 0.472017997045 -0.325463772697
407017400 0.47235671155 -0.325105849804
407024350 0.472139350688 -0.324982850847
407031300 0.4718825078 -0.32481785327
407038250 0.472164119539 -0.32477563442
407045200 0.472271546699 -0.324117984968
407052150 0.47194247603 -0.324307018688
407059100 0.471838570024 -0.324776195637
407066050 0.471417696173 -0.32488323211
407073000 0.471238398591 -0.324291568546
407079950 0.471606898374 -0.324725088977
407086900 0.471588108585 -0.324922985976
407093850 0.471533814031 -0.324241572874
407100800 0.472301316865 -0.324885455014
407107750 0.47218841082 -0.324295460908
407114700 0.471825916062 -0.324510508458
407121650 0.471794744176 -0.324399612644
407128600 0.47190764724 -0.323847680787
407135550 0.471933461842 -0.324092905418
407142500 0.472048694991 -0.324231206795
407149450 0.471520854646 -0.324074851186
407156400 0.471614372683 -0.324405345136
407163350 0.47186814573 -0.323894114879
407170300 0.471131101414 -0.323659309833
407177250 0.471129610105 -0.323780608912
407184200 0.471097442178 -0.323928688743
407191150 0.470833343567 -0.323454829648
407198100 0.470925868371 -0.324120771281
407205050 0.47065129259 -0.323940110918
407212000 0.471147067542 -0.324172252528
407218950 0.471203288412 -0.32413234887
407225900 0.471334372054 -0.323761689753
407232850 0.471509645215 -0.323900804031
407239800 0.471641173406 -0.323996342681
407246750 0.471615197664 -0.323429317847
407253700 0.472075825859 -0.323456944058
407260650 0.471712127383 -0.324073888806
407267600 0.471109893247 -0.324474865714
407274550 0.471457929017 -0.324095343587
407281500 0.471283246513 -0.324044469972
407288450 0.471079450485 -0.324429212422
407295400 0.471227448721 -0.324412978443
407302350 0.470920191683 -0.324459291814
407309300 0.470797836364 -0.323929044279
407316250 0.471809273091 -0.323945039295
407323200 0.468448213756 -0.325406751586
407330150 0.471108357239 -0.323954869061
407337100 0.471262826175 -0.323861565527
407344050 0.47129902855 -0.323166179771
407351000 0.471081612928 -0.323482085136
407357950 0.471283794689 -0.323413485296
407364900 0.471489370025 -0.323692145473
407371850 0.471406977455 -0.323470853067
407378800 0.471232791544 -0.323962498341
407385750 0.471112803636 -0.323935926146
407392700 0.470484553185 -0.322905995606
407399650 0.471194528876 -0.323346907401
407406600 0.470811426332 -0.323776337911
407413550 0.470947186967 -0.324148037257
407420500 0.470501640917 -0.323898255508
407427450 0.470642288556 -0.323451185158
407434400 0.470844295777 -0.323733081796
407441350 0.471038377893 -0.323616882909
407448300 0.47158123196 -0.323048227193
407455250 0.471522357008 -0.323515574929
407462200 0.471329635466 -0.324225592254
407469150 0.471196835335 -0.324016209041
407476100 0.471273811721 -0.324282674517
407483050 0.470997711745 -0.324102690248
407490000 0.471277914016 -0.324364722629
407496950 0.470935251649 -0.324136886833
407503900 0.471653518851 -0.324741671083
407510850 0.471768222412 -0.324284715338
407517800 0.471385878205 -0.324393338054
407524750 0.471522806393 -0.324424849253
407531700 0.471829824825 -0.324241384825
407538650 0.471797047246 -0.324172052795
407545600 0.471033577621 -0.324489915817
407552550 0.471307976393 -0.324179450333
407559500 0.470875763586 -0.324477353269
407566450 0.471035166696 -0.324187915934
407573400 0.471321300613 -0.324090480129
407580350 0.471004080444 -0.323456747284
407587300 0.471842111833 -0.323682352003
407594250 0.471224524014 -0.323431702824
407601200 0.471457301638 -0.323989127428
407608150 0.471208301706 -0.323913117684
407615100 0.470879418179 -0.323805473149
407622050 0.470935413647 -0.32382838412
407629000 0.470398053925 -0.324041949883
407635950 0.470229399609 -0.324082568637
407642900 0.470854960198 -0.323460176836
407649850 0.470870673291 -0.324014693476
407656800 0.470950499513 -0.3239587905
407663750 0.470664227794 -0.324139955046
407670700 0.470962956264 -0.324005238848
407677650 0.470893651309 -0.324472216761
407684600 0.470537708717 -0.323556753628
407691550 0.470911274702 -0.323348236083
407698500 0.47085100299 -0.323669678646
407705450 0.471046894215 -0.323399289592
407712400 0.470654615297 -0.32366868466
407719350 0.470742508471 -0.323443523695
407726300 0.470484139476 -0.323467279427
407733250 0.470741026042 -0.323959123027
407740200 0.470640365121 -0.323885437593
407747150 0.470790672607 -0.323280343758
407754100 0.470405579165 -0.323348017839
407761050 0.470560490408 -0.323335975183
407768000 0.470374713178 -0.323276049457
407774950 0.470207662928 -0.323091482099
407781900 0.470510669534 -0.322849343016
407788850 0.470611744719 -0.322870301271
407795800 0.470496029606 -0.323317782107
407802750 0.47033768015 -0.322954041412
407809700 0.470399346928 -0.323382646257
407816650 0.47059583406 -0.323954629412
407823600 0.470100550131 -0.324422126982
407830550 0.472000768216 -0.326371905643
407837500 0.470286372558 -0.32400964916
407844450 0.469831255192 -0.32335019547
407851400 0.470146285442 -0.323413141904
407858350 0.470266016933 -0.323090103374
407865300 0.47039432656 -0.323688519679
407872250 0.470421886399 -0.323103265413
407879200 0.47047276906 -0.323244670009
407886150 0.470334992248 -0.323478181765
407893100 0.470044940881 -0.323196637605
407900050 0.469512974849 -0.323278293186
407907000 0.469969298145 -0.323118830988
407913950 0.469790215008 -0.323306240069
407920900 0.470482511702 -0.323305739372
407927850 0.470032363885 -0.323831247281
407934800 0.470157359695 -0.323566052855
407941750 0.470256061937 -0.323577704215
407948700 0.469945388928 -0.323106985569
407955650 0.470001791879 -0.322866993434
407962600 0.470134169348 -0.322168635534
407969550 0.470411004544 -0.322821555812
407976500 0.470236823895 -0.322369520948
407983450 0.470012192152 -0.322644702562
407990400 0.470428630441 -0.323093682348
407997350 0.470157332683 -0.323456764987
408004300 0.470233925681 -0.323285961552
408011250 0.470341300815 -0.323046802468
408018200 0.46999649519 -0.322699005807
408025150 0.470183155982 -0.323082134178
408032100 0.470400741997 -0.322669109922
408039050 0.470519327859 -0.322219345466
408046000 0.470441726498 -0.322380832295
408052950 0.470294998693 -0.322445991681
408059900 0.470408476366 -0.322691144257
408066850 0.470141336718 -0.322916725703
408073800 0.469999155742 -0.322874878539
408080750 0.469937621868 -0.323457311911
408087700 0.470121510038 -0.3232420127
408094650 0.470027635917 -0.322792453289
408101600 0.470057399712 -0.322492925832
408108550 0.470077613152 -0.32272542046
408115500 0.470008322625 -0.322262759424
408122450 0.470125408493 -0.322734848157
408129400 0.469703497347 -0.322519292276
408136350 0.469702743647 -0.322150470373
408143300 0.469697296118 -0.322415778423
408150250 0.470050877844 -0.32262389272
408157200 0.469649012474 -0.322738591577
408164150 0.469617126309 -0.322290645269
408171100 0.469763795952 -0.322786824126
408178050 0.469833955818 -0.322647975564
408185000 0.469984524759 -0.322793446402
408191950 0.469736318561 -0.322920936909
408198900 0.469662035627 -0.323235218129
408205850 0.469415872191 -0.322995729707
408212800 0.469141858735 -0.323022362138
408219750 0.47003083273 -0.323201075475
408226700 0.46931649507 -0.323103935095
408233650 0.469420604641 -0.323140863953
408240600 0.469776782447 -0.323277055355
408247550 0.469614430734 -0.323529492052
408254500 0.469579493888 -0.323578894804
408261450 0.469723474923 -0.323521654876
408268400 0.469096372227 -0.323137084454
408275350 0.469413371113 -0.32274031892
408282300 0.469583400808 -0.322733878992
408289250 0.469508906867 -0.32264133827
408296200 0.469269558757 -0.322566586834
408303150 0.469234364566 -0.322553050937
408310100 0.46923889598 -0.322864290975
408317050 0.469172502653 -0.322608294876
408324000 0.468954907207 -0.322836376502
408330950 0.469045949489 -0.323192154475
408337900 0.468879951022 -0.322948137181
408344850 0.469413174267 -0.322955854753
408351800 0.469057785055 -0.323052926549
408358750 0.469113928448 -0.322421898288
408365700 0.469409497739 -0.322377879938
408372650 0.469267967513 -0.32211236039
408379600 0.468937632912 -0.322488207068
408386550 0.469332062757 -0.322095340012
408393500 0.46889125413 -0.322037489303
408400450 0.469213701931 -0.322177159695
408407400 0.469118743284 -0.322172782212
408414350 0.469223266554 -0.322457375764
408421300 0.469298890787 -0.322720223874
408428250 0.469449871047 -0.323123555587
408435200 0.468837364095 -0.322874275468
408442150 0.469122552334 -0.322785353297
408449100 0.46887652649 -0.323032607087
408456050 0.468937079492 -0.322898809527
408463000 0.469162367847 -0.322617686231
408469950 0.46923621642 -0.322782275377
408476900 0.469230076112 -0.322273628441
408483850 0.468761353008 -0.322540772447
408490800 0.468942327623 -0.322408610736
408497750 0.468951153558 -0.322825744592
408504700 0.469449763844 -0.322831765723
408511650 0.468982545888 -0.322789419441
408518600 0.469528273561 -0.323024377182
408525550 0.46911162725 -0.322577679171
408532500 0.469560321705 -0.322701577591
408539450 0.469211595856 -0.322793443011
408546400 0.46922297803 -0.322923832174
408553350 0.469101376528 -0.322839578181
408560300 0.469013708041 -0.323002057869
408567250 0.469011468274 -0.322714597533
408574200 0.468835989607 -0.322656749806
408581150 0.4687505359 -0.323137375887
408588100 0.469002352221 -0.32291792037
408595050 0.468987079211 -0.322757761183
408602000 0.468762454233 -0.322980752576
408608950 0.469140624913 -0.322562001683
408615900 0.468740183016 -0.322519280248
408622850 0.468935634035 -0.322165534799
408629800 0.468811824915 -0.321679193066
408636750 0.469004618498 -0.322072941297
408643700 0.469181609642 -0.321794365789
408650650 0.468838270636 -0.321919815845
408657600 0.468850805849 -0.322417964999
408664550 0.469037293775 -0.322061212736
408671500 0.469032840026 -0.321997753172
408678450 0.468915896686 -0.322282369369
408685400 0.468421037917 -0.322162802715
408692350 0.468018811535 -0.320804015888
408699300 0.468302137708 -0.321535983446
408706250 0.468808640963 -0.322265738565
408713200 0.468615135601 -0.322530990105
408720150 0.468218914742 -0.32244716754
408727100 0.468272457789 -0.322485438661
408734050 0.468492768953 -0.322390435499
408741000 0.467975675731 -0.322889317184
408747950 0.468269805399 -0.322670453516
408754900 0.468176018345 -0.322471418593
408761850 0.468091475095 -0.322171323599
408768800 0.468413804901 -0.322144924835
408775750 0.468597126466 -0.322122924588
408782700 0.468288790618 -0.322199936041
408789650 0.468192188828 -0.322581163484
408796600 0.468244939908 -0.322939699736
408803550 0.468210180062 -0.322648036515
408810500 0.468268936057 -0.322033461672
408817450 0.46827788411 -0.321390510608
408824400 0.468167841901 -0.320561722061
408831350 0.468249459247 -0.320647818621
408838300 0.468506571754 -0.321102679318
408845250 0.468076815127 -0.321721653399
408852200 0.468444785412 -0.321198685032
408859150 0.468448416902 -0.322198370159
408866100 0.468507963955 -0.321967370598
408873050 0.4687471882 -0.321728094424
408880000 0.468799111993 -0.321741199981
408886950 0.468505304712 -0.321638541825
408893900 0.46902480216 -0.321466698572
408900850 0.46795799091 -0.32187841655
408907800 0.467940639618 -0.322103502476
408914750 0.468195193686 -0.322079474919
408921700 0.468309737643 -0.320350127157
408928650 0.468443480203 -0.319312377161
408935600 0.468475237227 -0.317859860952
408942550 0.468812025067 -0.31607416561
408949500 0.469107553238 -0.317350734772
408956450 0.468516284553 -0.318687933519
408963400 0.468276977878 -0.319880283045
408970350 0.468297077043 -0.321464414946
408977300 0.468356669478 -0.321680143838
408984250 0.46811283007 -0.321967741157
408991200 0.46790488426 -0.321874219798
408998150 0.467889038733 -0.322470062117
409005100 0.468176867997 -0.321788022053
409012050 0.468181751406 -0.322180330776
409019000 0.467781524762 -0.322111226899
409025950 0.467248032401 -0.321896618125
409032900 0.467606746549 -0.321497410443
409039850 0.467646168492 -0.321791382306
409046800 0.467268417425 -0.321445283718
409053750 0.467587061056 -0.321804781411
409060700 0.467523059372 -0.322506664423
409067650 0.467605829087 -0.321809024297
409074600 0.467610173425 -0.32179294217
409081550 0.467229889847 -0.321902709581
409088500 0.467687640465 -0.321581415659
409095450 0.468115779956 -0.321089690643
409102400 0.467927676222 -0.321775823451
409109350 0.468224831618 -0.32200668891
409116300 0.468422732012 -0.321446665799
409123250 0.468697780908 -0.321645319034
409130200 0.468453297058 -0.322170224354
409137150 0.467728894823 -0.321627647487
409144100 0.467535320274 -0.321745448955
409151050 0.467687602789 -0.321885858099
409158000 0.467914344034 -0.32207996631
409164950 0.467832387216 -0.321599341838
409171900 0.467757581807 -0.3211063777
409178850 0.467687842423 -0.321633737848
409185800 0.467576805938 -0.321186943787
409192750 0.467550016039 -0.321534170525
409199700 0.467200811946 -0.321040958093
409206650 0.467140312025 -0.321031586215
409213600 0.467495656236 -0.321292688475
409220550 0.467270703658 -0.32112900679
409227500 0.467011151446 -0.321963647115
409234450 0.467937189403 -0.32208698422
409241400 0.467557828503 -0.321606279557
409248350 0.470773723559 -0.324354034706
409255300 0.466600012975 -0.321531817118
409262250 0.466728369149 -0.321467347518
409269200 0.467092080888 -0.321457643984
409276150 0.46668481331 -0.32148788393
409283100 0.467149349427 -0.321994834624
409290050 0.466976775778 -0.321689172548
409297000 0.467157661243 -0.321677346096
409303950 0.467034452094 -0.321645318552
409310900 0.467192274754 -0.32175201086
409317850 0.46712648025 -0.321502822161
409324800 0.467393223541 -0.320919504107
409331750 0.466770821735 -0.321570264322
409338700 0.467226647288 -0.321514716604
409345650 0.467124940515 -0.321505004403
409352600 0.466670791916 -0.322797508873
409359550 0.466466910363 -0.3243078101
409366500 0.466082921562 -0.325819619598
409373450 0.466443395834 -0.327969282595
409380400 0.465358746752 -0.326020332705
409387350 0.466135472477 -0.325122484952
409394300 0.46647043577 -0.323692376572
409401250 0.467071260536 -0.322377233753
409408200 0.46730006145 -0.321427893054
409415150 0.466769081236 -0.321551603542
409422100 0.466926264192 -0.321403690992
409429050 0.466299954583 -0.322049809959
409436000 0.466243903885 -0.321413318335
409442950 0.466236579951 -0.321845057741
409449900 0.466515324584 -0.321583828899
409456850 0.466184845849 -0.321662444524
409463800 0.467382034501 -0.32039370884
409470750 0.470618806597 -0.317982277722
409477700 0.473270346617 -0.315825184401
409484650 0.476830788427 -0.312606113433
409491600 0.478157235288 -0.311575607073
409498550 0.475580842724 -0.3134300312
409505500 0.472439487944 -0.316685878948
409512450 0.469180989314 -0.319005360016
409519400 0.466675324204 -0.321670440655
409526350 0.466602327646 -0.320810902241
409533300 0.467068023488 -0.321261444032
409540250 0.466692546458 -0.321467383041
409547200 0.467041964658 -0.321022984494
409554150 0.466791368731 -0.321457990471
409561100 0.466907166596 -0.321741800864
409568050 0.466724220255 -0.321642682798
409575000 0.466619215614 -0.321859742577
409581950 0.466658000352 -0.321782516852
409588900 0.46670963549 -0.32166567075
409595850 0.466990675295 -0.321597570514
409602800 0.466709741766 -0.321442672498
409609750 0.466892774329 -0.321667467713
409616700 0.466940103048 -0.321338150793
409623650 0.46647207754 -0.321539259599
409630600 0.466373693406 -0.321175219322
409637550 0.466327723733 -0.321476436241
409644500 0.466421819123 -0.321669573265
409651450 0.466178609629 -0.321190204701
409658400 0.466934702788 -0.321240659543
409665350 0.466817222523 -0.321258283963
409672300 0.466912181634 -0.321561269259
409679250 0.466754616629 -0.32163259836
409686200 0.466431113953 -0.32196800061
409693150 0.467118159316 -0.321561220398
409700100 0.466533288378 -0.321256201122
409707050 0.466492913701 -0.321320497489
409714000 0.466213404661 -0.321126667938
409720950 0.467157798168 -0.321206338879
409727900 0.466556978332 -0.321406477605
409734850 0.466213331208 -0.320944674408
409741800 0.466082830855 -0.321185126736
409748750 0.466060589671 -0.320871089886
409755700 0.465968804493 -0.320792255897
409762650 0.466207330042 -0.321271454971
409769600 0.466184373936 -0.321367063869
409776550 0.466440435161 -0.320827179567
409783500 0.466370116234 -0.32106904516
409790450 0.466451243232 -0.320885818906
409797400 0.466132874315 -0.320700531642
409804350 0.466522130672 -0.320948762675
409811300 0.465933398771 -0.320966485353
409818250 0.466190690715 -0.320803593187
409825200 0.466035404628 -0.320919960893
409832150 0.466075389226 -0.321055832445
409839100 0.46672603855 -0.321425969572
409846050 0.466365132611 -0.320853576056
409853000 0.46623560565 -0.32156761025
409859950 0.465858089046 -0.321379192859
409866900 0.465856314184 -0.321371715937
409873850 0.466055684458 -0.321155278778
409880800 0.465720016115 -0.321084466901
409887750 0.466162570536 -0.321127085181
409894700 0.466631946432 -0.321384043931
409901650 0.466473495192 -0.3213640215
409908600 0.466591355928 -0.321168510591
409915550 0.466125335642 -0.321470804726
409922500 0.465950226003 -0.320911072924
409929450 0.466179503036 -0.321423582503
409936400 0.465794138378 -0.32105480349
409943350 0.466007716334 -0.321470411665
409950300 0.46644966343 -0.321319805776
409957250 0.466023079279 -0.321211290859
409964200 0.465697223715 -0.320891137011
409971150 0.465590930409 -0.320734501403
409978100 0.465547198993 -0.320849255908
409985050 0.46574662602 -0.320352598984
409992000 0.465331277586 -0.320792905568
409998950 0.465413372601 -0.320591942053
410005900 0.466502571689 -0.319746344366
410012850 0.465907911083 -0.320720488264
410019800 0.466137203072 -0.321733331427
410026750 0.465591509185 -0.321459074252
410033700 0.466181159686 -0.32072628051
410040650 0.466638876448 -0.321217356121
410047600 0.466051101042 -0.320989159413
410054550 0.465289942517 -0.321044323347
410061500 0.465444350897 -0.321049017271
410068450 0.465107727579 -0.321048335102
410075400 0.465671162104 -0.321200590476
410082350 0.465698080747 -0.321159319752
410089300 0.46563064721 -0.320946435179
410096250 0.465873000324 -0.320879839192
410103200 0.465458849424 -0.321026430913
410110150 0.465862480485 -0.321144313274
410117100 0.465885996409 -0.321088177686
410124050 0.466530778313 -0.321039348703
410131000 0.465959561154 -0.321437892213
410137950 0.466152481365 -0.320952452005
410144900 0.465969018064 -0.321451589383
410151850 0.466090268828 -0.321421966057
410158800 0.465565776494 -0.321797901405
410165750 0.465742534878 -0.321254468551
410172700 0.465335756718 -0.320936443544
410179650 0.465268272381 -0.321075811028
410186600 0.465529244154 -0.321221514979
410193550 0.466140559174 -0.321238773947
410200500 0.466396253257 -0.321033508504
410207450 0.467150948151 -0.321368019031
410214400 0.466721590506 -0.321134268763
410221350 0.466155348732 -0.320630238801
410228300 0.465376604731 -0.320557669471
410235250 0.464853244643 -0.320790304279
410242200 0.465288459749 -0.320571154816
410249150 0.464823250332 -0.320573600595
410256100 0.465058362755 -0.31999929067
410263050 0.464975919637 -0.319498633342
410270000 0.465065546439 -0.320602645809
410276950 0.465618737341 -0.320591911397
410283900 0.46588794547 -0.320652720152
410290850 0.464990505808 -0.320743497364
410297800 0.465393495992 -0.320816985784
410304750 0.466044653034 -0.32061097625
410311700 0.465816924812 -0.320867474353
410318650 0.465643621756 -0.320462074186
410325600 0.465471894858 -0.320495231462
410332550 0.46584253982 -0.319945364219
410339500 0.465730980356 -0.320211262049
410346450 0.465936789843 -0.320389809892
410353400 0.465408795886 -0.320365049357
410360350 0.465392364841 -0.320309063351
410367300 0.464907814562 -0.319452231415
410374250 0.46437784872 -0.319665600987
410381200 0.463927551246 -0.319606838318
410388150 0.463918430892 -0.319911405153
410395100 0.464050121283 -0.320249135927
410402050 0.46443319613 -0.320515938774
410409000 0.464968362019 -0.321278377528
410415950 0.465173369905 -0.320816800782
410422900 0.465409404435 -0.320814069442
410429850 0.464858689857 -0.321041874256
410436800 0.464761863896 -0.320478232437
410443750 0.464827730189 -0.320704810325
410450700 0.464653288446 -0.320854850491
410457650 0.464190997244 -0.320196324488
410464600 0.464559759354 -0.321048073803
410471550 0.464176685317 -0.320747437934
410478500 0.464848036084 -0.320510335126
410485450 0.465115799415 -0.320402976319
410492400 0.46518081186 -0.320973282179
410499350 0.465200911888 -0.320675941613
410506300 0.465217418675 -0.320741217582
410513250 0.462090572815 -0.325473328172
410520200 0.465350068613 -0.319666506032
410527150 0.465384214452 -0.320259230551
410534100 0.465309907526 -0.320355732459
410541050 0.46575365949 -0.320689472725
410548000 0.464765850956 -0.320135289999
410554950 0.464759135621 -0.320087525812
410561900 0.465251941727 -0.320184524131
410568850 0.464976000074 -0.320433752967
410575800 0.464558124517 -0.320007296748
410582750 0.464858488015 -0.32008751612
410589700 0.465126861992 -0.32097725534
410596650 0.465232318935 -0.320452356882
410603600 0.465023362483 -0.320673001084
410610550 0.464844295974 -0.320623389355
410617500 0.464776694596 -0.320828841332
410624450 0.464986958548 -0.320758252198
410631400 0.465035906764 -0.320547882552
410638350 0.464577486482 -0.320642407819
410645300 0.464951732412 -0.320624354801
410652250 0.464941609527 -0.320256639364
410659200 0.464300527445 -0.320526154433
410666150 0.464479343603 -0.320314627165
410673100 0.464134783466 -0.320734206967
410680050 0.464408780545 -0.320487746914
410687000 0.464475243671 -0.319906514077
410693950 0.464599971198 -0.319734974617
410700900 0.465071320896 -0.320021064584
410707850 0.464868306977 -0.319951939381
410714800 0.464489383727 -0.319886617208
410721750 0.464715298353 -0.320272515142
410728700 0.464410908521 -0.320048372162
410735650 0.464476476594 -0.31989610774
410742600 0.464577220088 -0.320022826877
410749550 0.464762498261 -0.319917043778
410756500 0.464496534821 -0.320183005185
410763450 0.464699343446 -0.319978198436
410770400 0.464866368133 -0.320320844361
410777350 0.463983277657 -0.320073855282
410784300 0.463735470733 -0.320111196225
410791250 0.464003127076 -0.320540308416
410798200 0.463965995976 -0.319863484655
410805150 0.464153135257 -0.320442724077
410812100 0.464100712499 -0.320486024427
410819050 0.463873590798 -0.320703018975
410826000 0.463976360699 -0.320284598896
410832950 0.464009576497 -0.320436908974
410839900 0.463808842697 -0.320122265127
410846850 0.46389229714 -0.320411638112
410853800 0.464166661248 -0.320291201866
410860750 0.463856220209 -0.32022048365
410867700 0.46370411404 -0.319787573772
410874650 0.464009465118 -0.320341447389
410881600 0.463771510874 -0.320545853243
410888550 0.463513889397 -0.320341852369
410895500 0.46360631235 -0.320255845562
410902450 0.463100525011 -0.320536580478
410909400 0.463270735393 -0.320649006741
410916350 0.463447644013 -0.320715384127
410923300 0.462919208792 -0.320241050603
410930250 0.462811580648 -0.320412544283
410937200 0.46319421303 -0.320269679361
410944150 0.463127961498 -0.320192953781
410951100 0.463468728388 -0.320021808315
410958050 0.463476900166 -0.320474816901
410965000 0.46339085085 -0.320938319099
410971950 0.463098934303 -0.320570811514
410978900 0.463200951022 -0.320645778696
410985850 0.463439617992 -0.320515652957
410992800 0.463264793222 -0.3202700172
410999750 0.463520447079 -0.320749375333
411006700 0.463189061226 -0.320233388146
411013650 0.463850247757 -0.319965029033
411020600 0.463324948105 -0.320144479272
411027550 0.463401467667 -0.32036298204
411034500 0.462869159597 -0.320579314684
411041450 0.46315283042 -0.320677262032
411048400 0.462915039749 -0.320495916124
411055350 0.463594952988 -0.320216772413
411062300 0.463429207287 -0.319978270248
411069250 0.463858669575 -0.320099091429
411076200 0.46374588992 -0.319967898661
411083150 0.463597929139 -0.320029015775
411090100 0.463153984185 -0.319982248514
411097050 0.46261961624 -0.320010421606
411104000 0.462808857543 -0.32007817299
411110950 0.463440124155 -0.319700987803
411117900 0.463101656259 -0.320077321711
411124850 0.463827809149 -0.319780659383
411131800 0.463378698895 -0.319942800586
411138750 0.46281477169 -0.32010651215
411145700 0.46291048321 -0.320421222431
411152650 0.462931040243 -0.320017289765
411159600 0.462966765803 -0.320018783899
411166550 0.463147506312 -0.319792236484
411173500 0.462983986609 -0.319422489167
411180450 0.463333183453 -0.31871437489
411187400 0.463393351722 -0.318745721484
411194350 0.46295290313 -0.319045515502
411201300 0.462842935613 -0.319209199822
411208250 0.462852811778 -0.319260089724
411215200 0.46246284137 -0.319899995095
411222150 0.462445605195 -0.32006249245
411229100 0.46254028786 -0.319931324984
411236050 0.462716422167 -0.320198193194
411243000 0.462927804871 -0.320204088344
411249950 0.462504972032 -0.32082074719
411256900 0.46304678595 -0.320243222633
411263850 0.462657414419 -0.319702106154
411270800 0.462642934295 -0.319675129422
411277750 0.462068558168 -0.319855041025
411284700 0.462289441897 -0.320068298091
411291650 0.46254679825 -0.320993891656
411298600 0.462686942208 -0.320088332794
411305550 0.462555585863 -0.320098232643
411312500 0.462572144273 -0.319827922367
411319450 0.461897046222 -0.319939616315
411326400 0.462104676174 -0.319796419626
411333350 0.462236295263 -0.320162284293
411340300 0.462310791387 -0.320319712558
411347250 0.462028105382 -0.319962181038
411354200 0.462124500181 -0.319440221775
411361150 0.462187472218 -0.3201953371
411368100 0.462390766563 -0.319675814024
411375050 0.462491707734 -0.319983884484
411382000 0.462097728019 -0.320120447875
411388950 0.462328321746 -0.320081149452
411395900 0.462184335411 -0.319621866065
411402850 0.461669135433 -0.319899430362
411409800 0.462467253305 -0.320100098903
411416750 0.462353007269 -0.31997049852
411423700 0.461991172667 -0.320036839889
411430650 0.461937176327 -0.319991783758
411437600 0.462377220369 -0.320538155297
411444550 0.462105476005 -0.320153612082
411451500 0.46182230283 -0.320272101307
411458450 0.461972159008 -0.32042118965
411465400 0.461807574285 -0.320154887112
411472350 0.461623739897 -0.320346313911
411479300 0.46165085332 -0.320590194141
411486250 0.46200989562 -0.320372091184
411493200 0.46172270419 -0.320443712958
411500150 0.462005761265 -0.319937655304
411507100 0.461973463576 -0.320058263318
411514050 0.462074464933 -0.31982087773
411521000 0.461980983852 -0.319621850369
411527950 0.462260033177 -0.319341568349
411534900 0.461577651006 -0.319878465671
411541850 0.462182255984 -0.319309640329
411548800 0.46194420728 -0.31954678275
411555750 0.461839703549 -0.319317551668
411562700 0.461541803271 -0.31961071388
411569650 0.461377704213 -0.31897835264
411576600 0.461338803925 -0.319288423898
411583550 0.461771832024 -0.319225198787
411590500 0.462140457288 -0.319861612242
411597450 0.461971154271 -0.320339436264
411604400 0.462212666597 -0.32026711309
411611350 0.462818828082 -0.320837439879
411618300 0.462685208721 -0.321338414638
411625250 0.463736840926 -0.319647288867
411632200 0.463423282866 -0.316106900226
411639150 0.46800005751 -0.318180116908
411646100 0.468744788492 -0.305196337561
411653050 0.48499844428 -0.330148419746
411660000 0.520852538786 -0.360515924655
411666950 0.532611601533 -0.381721472631
411673900 0.598086894867 -0.407829992158
411680850 0.558780070201 -0.400851468765
411687800 0.517659374399 -0.372745855601
411694750 0.490982272909 -0.344896005389
411701700 0.467352069315 -0.324874300909
411708650 0.461562731771 -0.319180787014
411715600 0.460982183473 -0.319192316009
411722550 0.460993052972 -0.319515412553
411729500 0.461186148013 -0.31950897138
411736450 0.461131710216 -0.31977937137
411743400 0.461398431797 -0.320016833789
411750350 0.460739395863 -0.31970403914
411757300 0.461343029756 -0.319605071337
411764250 0.461610144505 -0.319595963507
411771200 0.461269001915 -0.319845443458
411778150 0.460798076571 -0.319608016023
411785100 0.461047457479 -0.319047728182
411792050 0.460944729784 -0.319309391711
411799000 0.461002561894 -0.3189426673
411805950 0.461138430202 -0.319660580635
411812900 0.461090835892 -0.31979172302
411819850 0.461613766386 -0.32006536917
411826800 0.461090107018 -0.319532417813
411833750 0.460994162827 -0.319810045492
411840700 0.461001501025 -0.319308096927
411847650 0.46097364742 -0.319470542526
411854600 0.460696210245 -0.319541127128
411861550 0.460782795192 -0.319535838084
411868500 0.460629144964 -0.319773455648
411875450 0.461276730578 -0.31963197412
411882400 0.46077131875 -0.319557491966
411889350 0.460825613697 -0.319752522505
411896300 0.460666350229 -0.319079185468
411903250 0.461253426374 -0.31922307998
411910200 0.460633126941 -0.318802062932
411917150 0.460592293978 -0.319266361255
411924100 0.460661080352 -0.319666280708
411931050 0.460663371569 -0.319718143077
411938000 0.460046677108 -0.319157636776
411944950 0.460325971477 -0.31967010296
411951900 0.460071114968 -0.319929046387
411958850 0.46082320133 -0.319428701497
411965800 0.460733868227 -0.319047250321
411972750 0.460275118691 -0.319527436917
411979700 0.460185826456 -0.319411069959
411986650 0.459942850352 -0.318997101041
411993600 0.460016986365 -0.319447621631
412000550 0.460064165688 -0.319075459815
412007500 0.459942531758 -0.319344173425
412014450 0.460314024078 -0.319710732628
412021400 0.46047067627 -0.319578518975
412028350 0.460562124391 -0.319530902305
412035300 0.459980341497 -0.319562894044
412042250 0.459982159504 -0.319448365651
412049200 0.459904065974 -0.319646725924
412056150 0.460206447364 -0.319334350398
412063100 0.461259445917 -0.317691714788
412070050 0.460028840322 -0.319893148311
412077000 0.460559512052 -0.320150748195
412083950 0.460420346015 -0.319736324951
412090900 0.460485011111 -0.319992871358
412097850 0.459886303499 -0.319367623362
412104800 0.459606538783 -0.320062169188
412111750 0.459562754661 -0.319763910545
412118700 0.45990246149 -0.319599074833
412125650 0.460360911449 -0.319555679368
412132600 0.460472650259 -0.319618073049
412139550 0.460302349602 -0.319659301253
412146500 0.460194241761 -0.31947123717
412153450 0.459933248881 -0.319335135583
412160400 0.459561541923 -0.31920864269
412167350 0.459521952372 -0.319094697063
412174300 0.459545258461 -0.319397298092
412181250 0.459463165337 -0.319500400699
412188200 0.459555682668 -0.319272844924
412195150 0.459803203153 -0.319627059824
412202100 0.459686309312 -0.319318198056
412209050 0.46019374067 -0.319588615486
412216000 0.460037343139 -0.319760040624
412222950 0.460145231808 -0.319606877481
412229900 0.460902152717 -0.319463151012
412236850 0.459790885968 -0.319301008422
412243800 0.46020487957 -0.319620696272
412250750 0.460003884686 -0.319609886097
412257700 0.459535041358 -0.319512974444
412264650 0.459644224978 -0.31939142265
412271600 0.459561823319 -0.31950068866
412278550 0.459622791246 -0.320092742176
412285500 0.45953241422 -0.32003096571
412292450 0.460403170658 -0.319338143499
412299400 0.459575295266 -0.319354250663
412306350 0.460076150599 -0.319188331714
412313300 0.459825311256 -0.319313434426
412320250 0.459522024793 -0.319340014276
412327200 0.45980643072 -0.319887775016
412334150 0.459601928775 -0.319741465765
412341100 0.460040390161 -0.319473560554
412348050 0.459580436503 -0.319392992208
412355000 0.45916526243 -0.319262645228
412361950 0.459106894395 -0.319211332155
412368900 0.459900795056 -0.319240621457
412375850 0.459248668273 -0.319376988574
412382800 0.458560970721 -0.319730129771
412389750 0.458796214751 -0.319226890077
412396700 0.458832494458 -0.319014041051
412403650 0.458876550342 -0.319415859403
412410600 0.458994603961 -0.318960248474
412417550 0.459233016111 -0.319449926637
412424500 0.459467397294 -0.318523330899
412431450 0.459341378596 -0.319187695642
412438400 0.459046231532 -0.318789286576
412445350 0.458811321469 -0.319221536342
412452300 0.458807656459 -0.318882252323
412459250 0.459249487813 -0.31912038804
412466200 0.458819295434 -0.319602101795
412473150 0.458697450519 -0.319202077582
412480100 0.458712964099 -0.31941321092
412487050 0.458773354392 -0.319519057417
412494000 0.458954245703 -0.319243458971
412500950 0.459333814948 -0.319418425923
412507900 0.459249637709 -0.319331408623
412514850 0.459530663995 -0.318894162137
412521800 0.459270848482 -0.318770564643
412528750 0.459352743673 -0.318929319353
412535700 0.459071813228 -0.318527825185
412542650 0.458975491561 -0.318560197637
412549600 0.458831413724 -0.31906411339
412556550 0.459031403306 -0.318567082003
412563500 0.458940322082 -0.318887512362
412570450 0.458666723988 -0.318748449559
412577400 0.458906762072 -0.318705602635
412584350 0.459171672217 -0.318387589031
412591300 0.458832745545 -0.318979496774
412598250 0.459192782652 -0.318236855663
412605200 0.458839829425 -0.3187500562
412612150 0.458961851373 -0.319003174161
412619100 0.459109459915 -0.318476541384
412626050 0.459004957021 -0.318678723972
412633000 0.458601011763 -0.318799001353
412639950 0.458692133245 -0.318410621653
412646900 0.458160210108 -0.319232893919
412653850 0.458513043394 -0.319177586286
412660800 0.458356073943 -0.319067184795
412667750 0.458060301421 -0.318981651154
412674700 0.45866857201 -0.318510491522
412681650 0.458987181972 -0.318548575244
412688600 0.458852789383 -0.318587707083
412695550 0.458549124075 -0.318567364504
412702500 0.458318645978 -0.318889912668
412709450 0.458349161668 -0.319127470502
412716400 0.45831120833 -0.319021712426
412723350 0.458165156087 -0.318787130535
412730300 0.458286736506 -0.318787901484
412737250 0.458566496424 -0.319294072468
412744200 0.458119793248 -0.319131933981
412751150 0.457779258291 -0.318898176125
412758100 0.458188189531 -0.319218143849
412765050 0.457645576213 -0.319155225391
412772000 0.457902382263 -0.318882686643
412778950 0.458225650924 -0.31899633673
412785900 0.45838695201 -0.31900346316
412792850 0.45838945676 -0.319160315618
412799800 0.458731886591 -0.319243486691
412806750 0.458462196267 -0.318494494831
412813700 0.458235651791 -0.318785909246
412820650 0.458287476807 -0.31901029663
412827600 0.458341066734 -0.318877230974
412834550 0.457754021945 -0.318793114314
412841500 0.457727161352 -0.318893817865
412848450 0.457933465864 -0.318831170443
412855400 0.458305714577 -0.318580452773
412862350 0.457249262653 -0.318433086073
412869300 0.45792216076 -0.31863202374
412876250 0.457501205736 -0.318521226139
412883200 0.457722132458 -0.318408420623
412890150 0.457720508466 -0.318687636959
412897100 0.457594980584 -0.317913396784
412904050 0.457380572295 -0.317750104392
412911000 0.458133247007 -0.31774531266
412917950 0.457461484676 -0.317771208196
412924900 0.457125188503 -0.31753917192
412931850 0.457810416887 -0.317980450243
412938800 0.457474210764 -0.318273020762
412945750 0.458536765247 -0.318358422598
412952700 0.457497856847 -0.318431049283
412959650 0.457487439214 -0.318799553592
412966600 0.457666302118 -0.317898866909
412973550 0.457682086885 -0.318529042077
412980500 0.457609261662 -0.318424927784
412987450 0.457419811807 -0.318204436033
412994400 0.457323116375 -0.318622825423
413001350 0.457384817522 -0.318610335611
413008300 0.457004445222 -0.318396092875
413015250 0.457031991485 -0.318518302987
413022200 0.45687781419 -0.318551611017
413029150 0.456748376543 -0.318520769783
413036100 0.456893197574 -0.3184579104
413043050 0.456531571548 -0.318556114513
413050000 0.457102107325 -0.318618754341
413056950 0.457312656716 -0.31914925876
413063900 0.456778537933 -0.318327792487
413070850 0.456867079865 -0.318492760438
413077800 0.457503569018 -0.318026544851
413084750 0.457600683432 -0.318124514312
413091700 0.456880955796 -0.318177745608
413098650 0.456659782404 -0.318756071292
413105600 0.456785585151 -0.317998573746
413112550 0.457256066081 -0.317969595632
413119500 0.456298847727 -0.318269658967
413126450 0.456880770151 -0.318213910084
413133400 0.456706909848 -0.319183958364
413140350 0.456563733338 -0.319029416264
413147300 0.45693682547 -0.318889347517
413154250 0.456858924071 -0.318984985074
413161200 0.457505329792 -0.318858731501
413168150 0.457535607472 -0.318545566618
413175100 0.457379153516 -0.318183138876
413182050 0.457345695114 -0.31811322006
413189000 0.457200133021 -0.318327335973
413195950 0.457121353602 -0.318194200111
413202900 0.456709241201 -0.318103599744
413209850 0.456356708251 -0.318361053679
413216800 0.456824200653 -0.318013982731
413223750 0.456208505693 -0.318262894552
413230700 0.456664515286 -0.318193902674
413237650 0.456305142762 -0.318263308839
413244600 0.456312189881 -0.318718602492
413251550 0.4566456933 -0.318683630116
413258500 0.456550985867 -0.318367221347
413265450 0.456902228934 -0.318392586094
413272400 0.456720255145 -0.317845985056
413279350 0.456625776588 -0.317747073602
413286300 0.456181221826 -0.317372985532
413293250 0.456813730732 -0.317353892434
413300200 0.456359476008 -0.317202967946
413307150 0.456379747906 -0.317735789517
413314100 0.456378160695 -0.317921781486
413321050 0.456316614275 -0.318176550053
413328000 0.456388305828 -0.318438652515
413334950 0.456120625763 -0.318578816018
413341900 0.456379849951 -0.318379341786
413348850 0.456104386545 -0.31893655095
413355800 0.45634170722 -0.318491766448
413362750 0.456490946781 -0.318114026377
413369700 0.456524998431 -0.318444217548
413376650 0.456242441001 -0.31815849147
413383600 0.456312196499 -0.317658357308
413390550 0.456302799018 -0.318188529854
413397500 0.455748897345 -0.317756191539
413404450 0.456079799862 -0.318067613065
413411400 0.455497863246 -0.317868548501
413418350 0.456150499893 -0.318427954489
413425300 0.455572322121 -0.317488958797
413432250 0.455078858582 -0.317501641459
413439200 0.45537434865 -0.317664500616
413446150 0.455433722611 -0.317943904904
413453100 0.455956538822 -0.318101502253
413460050 0.456216163407 -0.317383930901
413467000 0.45583422884 -0.317669701841
413473950 0.455709389531 -0.317710855527
413480900 0.455494494775 -0.317189333241
413487850 0.456202245398 -0.317260881661
413494800 0.455999896431 -0.317633495809
413501750 0.455948715497 -0.31778677109
413508700 0.456196070056 -0.317914480617
413515650 0.456345476018 -0.31817157934
413522600 0.456182520553 -0.317836705731
413529550 0.455878597623 -0.31802884759
413536500 0.455766224936 -0.318366577728
413543450 0.455254866075 -0.318019995262
413550400 0.455181362467 -0.318409664247
413557350 0.455395635392 -0.31831854137
413564300 0.455428644039 -0.318525887284
413571250 0.455547889409 -0.318603323808
413578200 0.45522554895 -0.318330044227
413585150 0.45563792588 -0.318181211943
413592100 0.455358104226 -0.317747165538
413599050 0.455068835652 -0.317363820947
413606000 0.455551599605 -0.318014905387
413612950 0.455704442449 -0.317463171146
413619900 0.455426204036 -0.317667134876
413626850 0.455371819064 -0.318021566895
413633800 0.455370905994 -0.317810035494
413640750 0.455486145984 -0.318119572963
413647700 0.455226727291 -0.317787499463
413654650 0.454845397413 -0.318083306845
413661600 0.454714655038 -0.317738639355
413668550 0.454392882573 -0.317769946474
413675500 0.454495398516 -0.317710361875
413682450 0.454152358692 -0.317931937374
413689400 0.454066038704 -0.317394459125
413696350 0.454302940357 -0.31728340515
413703300 0.454704943944 -0.31738325021
413710250 0.454814597824 -0.31759591973
413717200 0.454577631772 -0.312212647117
413724150 0.45472466957 -0.317650217821
413731100 0.454467382927 -0.317746580472
413738050 0.454743281161 -0.317915506964
413745000 0.454288190868 -0.317843495104
413751950 0.454226461053 -0.317632771315
413758900 0.454511199888 -0.318012394117
413765850 0.45416686027 -0.317491073021
413772800 0.454438891281 -0.31761268382
413779750 0.454273148274 -0.317592772134
413786700 0.453957544776 -0.317335963765
413793650 0.454494497502 -0.317375670165
413800600 0.453820961819 -0.317357252654
413807550 0.453899085886 -0.317720098861
413814500 0.454004784056 -0.317316920448
413821450 0.454271055207 -0.317465840268
413828400 0.454392164584 -0.317301844747
413835350 0.454760785041 -0.317264470069
413842300 0.45405691931 -0.317573538125
413849250 0.453953475597 -0.317533334176
413856200 0.453771380929 -0.316997689184
413863150 0.454179158541 -0.317416344251
413870100 0.453718669454 -0.317709995056
413877050 0.454237372034 -0.317852607164
413884000 0.453761359947 -0.317389507387
413890950 0.45385999014 -0.317580266966
413897900 0.453998400578 -0.317310956993
413904850 0.454517106473 -0.317150595318
413911800 0.454784815158 -0.317086254568
413918750 0.454654385431 -0.316543037599
413925700 0.454106215281 -0.316875600185
413932650 0.454103992658 -0.3174472078
413939600 0.45411133557 -0.317513861494
413946550 0.45390480146 -0.31757727985
413953500 0.453474292411 -0.31721293145
413960450 0.453441108752 -0.317449170932
413967400 0.453692123808 -0.317445763779
413974350 0.453510586766 -0.317263201489
413981300 0.453283533514 -0.317182278884
413988250 0.453514182238 -0.317169905359
413995200 0.453695610387 -0.317225306754
414002150 0.454067812848 -0.317534964125
414009100 0.453906051894 -0.317461430792
414016050 0.454066355138 -0.317143803653
414023000 0.45432869084 -0.31734834249
414029950 0.454455521445 -0.317215272936
414036900 0.454224614386 -0.317425772667
414043850 0.453948987559 -0.316531329646
414050800 0.454101929843 -0.31632316823
414057750 0.454577385661 -0.316626059376
414064700 0.453452697408 -0.316413580754
414071650 0.453937500028 -0.316576413285
414078600 0.453467422576 -0.316593336962
414085550 0.453666314884 -0.317282132435
414092500 0.453484908305 -0.317474079251
414099450 0.453522752526 -0.317335873071
414106400 0.453479836817 -0.317045665751
414113350 0.452964853313 -0.316724528395
414120300 0.452857036785 -0.316509206246
414127250 0.453088786313 -0.316890312704
414134200 0.452805666297 -0.316811498145
414141150 0.45326372547 -0.316941413624
414148100 0.453338136423 -0.316496551141
414155050 0.454919697473 -0.316538800797
414162000 0.453138497569 -0.316736848385
414168950 0.453370434281 -0.316762066725
414175900 0.45323439172 -0.316875885679
414182850 0.453231649765 -0.316881013942
414189800 0.452970618712 -0.316985597794
414196750 0.453374844348 -0.317175421538
414203700 0.452897602516 -0.317365781492
414210650 0.452671701873 -0.31720426924
414217600 0.453015640865 -0.317342591927
414224550 0.453576396933 -0.317043900609
414231500 0.453250819206 -0.317097259577
414238450 0.453186732396 -0.317205833015
414245400 0.453172154698 -0.3170523521
414252350 0.453430376199 -0.317455911773
414259300 0.453795296923 -0.317120510273
414266250 0.453500927372 -0.316753964696
414273200 0.452917674635 -0.316820798226
414280150 0.452589395793 -0.316853516214
414287100 0.45275704648 -0.317086097021
414294050 0.452466858737 -0.316851117146
414301000 0.452471349735 -0.317048421321
414307950 0.45301836658 -0.316807773168
414314900 0.452798775216 -0.317410398643
414321850 0.452879204291 -0.317441702773
414328800 0.452204113134 -0.317005459528
414335750 0.451478417188 -0.316429498304
414342700 0.451023131451 -0.316270942303
414349650 0.449655077052 -0.316020071391
414356600 0.450806993502 -0.316312452685
414363550 0.450930474486 -0.31605678729
414370500 0.453970369416 -0.314969710991
414377450 0.452865199397 -0.317002663836
414384400 0.452353771409 -0.316598236287
414391350 0.452744198578 -0.317059277643
414398300 0.452535718493 -0.316642373046
414405250 0.45261038342 -0.316546606591
414412200 0.452367811168 -0.316480948648
414419150 0.452558519885 -0.316604156604
414426100 0.45267598198 -0.316837570671
414433050 0.451916085154 -0.316582437761
414440000 0.45239711488 -0.316900356908
414446950 0.452454149202 -0.316870153969
414453900 0.452357197498 -0.316757867943
414460850 0.45270830218 -0.316819625682
414467800 0.452722069738 -0.316971812762
414474750 0.452512964081 -0.316393406922
414481700 0.452075153957 -0.316950036888
414488650 0.452167786883 -0.316796302237
414495600 0.452019541984 -0.316455231595
414502550 0.452449415666 -0.316444713763
414509500 0.451860995929 -0.316404186224
414516450 0.451744689942 -0.316940263936
414523400 0.452081189857 -0.316744466827
414530350 0.45245435657 -0.316542999677
414537300 0.452050578283 -0.316890267426
414544250 0.451690456842 -0.316747593663
414551200 0.451680774546 -0.316686597231
414558150 0.451977169112 -0.31675497653
414565100 0.451852078919 -0.316829578983
414572050 0.451647877936 -0.317099618441
414579000 0.451776948212 -0.317253452352
414585950 0.452358715787 -0.316664766947
414592900 0.452037215264 -0.316603254717
414599850 0.452675055376 -0.316050843034
414606800 0.452256439134 -0.315732986375
414613750 0.452130216225 -0.315797328812
414620700 0.451915218878 -0.316041344782
414627650 0.45160437449 -0.316173490207
414634600 0.451000830542 -0.316223085581
414641550 0.451364136031 -0.316256787106
414648500 0.451352918372 -0.316353658673
414655450 0.451271767763 -0.3160843616
414662400 0.451842998998 -0.316141226496
414669350 0.451243500633 -0.31623928169
414676300 0.451540588273 -0.316443702813
414683250 0.451552046761 -0.316612433739
414690200 0.451455401417 -0.31639070628
414697150 0.451598043018 -0.316764784678
414704100 0.451687499078 -0.31635686465
414711050 0.451372389077 -0.31660168455
414718000 0.451749606812 -0.316971176747
414724950 0.451292530292 -0.31659093138
414731900 0.450897607954 -0.315849759249
414738850 0.450290881133 -0.314630361917
414745800 0.449768613752 -0.314927247111
414752750 0.457395053652 -0.310911834003
414759700 0.450079281577 -0.31390046929
414766650 0.450789169185 -0.314967290136
414773600 0.450868198279 -0.315431585013
414780550 0.451370643599 -0.3158758933
414787500 0.450853350915 -0.315989111138
414794450 0.45081888491 -0.316115804035
414801400 0.450683322052 -0.316228500269
414808350 0.449652307096 -0.316125088851
414815300 0.450180392995 -0.315926964856
414822250 0.450229718855 -0.316120261116
414829200 0.450409293949 -0.316253510816
414836150 0.450651255996 -0.316306152894
414843100 0.450623370204 -0.316082908832
414850050 0.450919145156 -0.316104847289
414857000 0.450917218927 -0.315704360731
414863950 0.450673673283 -0.315920848002
414870900 0.450999624366 -0.315754331875
414877850 0.45063567913 -0.316072918839
414884800 0.450878267209 -0.31571942984
414891750 0.450437112695 -0.316299701437
414898700 0.450793068947 -0.315941898206
414905650 0.455706020653 -0.314450272052
414912600 0.450261643544 -0.315093323793
414919550 0.450334822277 -0.315742352914
414926500 0.450091394468 -0.315677926152
414933450 0.450812958568 -0.31591303672
414940400 0.450904901965 -0.315551348468
414947350 0.450411477635 -0.315590227534
414954300 0.450557672873 -0.315501545483
414961250 0.450324412213 -0.316265949536
414968200 0.450662794856 -0.316176496683
414975150 0.450056452125 -0.316249651264
414982100 0.450334392051 -0.316002759997
414989050 0.450421364749 -0.315872301292
414996000 0.450452310479 -0.31591003905
415002950 0.450535512625 -0.315857756527
415009900 0.450483056183 -0.31541866783
415016850 0.450746696414 -0.31552224162
415023800 0.450336813794 -0.315413674932
415030750 0.44989762171 -0.315382519127
415037700 0.449668503263 -0.31541554196
415044650 0.449782179676 -0.315479891002
415051600 0.450085321724 -0.315779674937
415058550 0.450215527914 -0.315964029736
415065500 0.450254261056 -0.315555036338
415072450 0.450345883555 -0.31587894673
415079400 0.450000820646 -0.315785236057
415086350 0.450151092596 -0.31569458051
415093300 0.450199358435 -0.315472708249
415100250 0.450507603269 -0.315535160065
415107200 0.450158724668 -0.3152131665
415114150 0.450195121962 -0.315058211769
415121100 0.449782818464 -0.315156728865
415128050 0.449821266486 -0.314989891846
415135000 0.450000371106 -0.315072555539
415141950 0.449826186926 -0.315314312798
415148900 0.449595802271 -0.315442980074
415155850 0.449562504793 -0.315455052534
415162800 0.449541633489 -0.315722413463
415169750 0.450207379237 -0.315477848863
415176700 0.449885356435 -0.315398384437
415183650 0.450462355971 -0.315463958217
415190600 0.449926708378 -0.315901189352
415197550 0.450289245835 -0.315749398487
415204500 0.449952235248 -0.31591920498
415211450 0.449726332275 -0.316176923879
415218400 0.449700975012 -0.315948129593
415225350 0.449498724336 -0.315688757868
415232300 0.449163619805 -0.315490928232
415239250 0.449579859702 -0.315939096509
415246200 0.449148206391 -0.315157480627
415253150 0.44929946646 -0.313738459944
415260100 0.449634005391 -0.312628619429
415267050 0.449421548014 -0.31127238059
415274000 0.449866528091 -0.312354564163
415280950 0.449729118584 -0.313479898869
415287900 0.449731168034 -0.314084831461
415294850 0.449546360567 -0.315114037184
415301800 0.449103495801 -0.315563435454
415308750 0.449342667724 -0.315803078711
415315700 0.449220783927 -0.315783002452
415322650 0.449268977679 -0.316121439041
415329600 0.449150871508 -0.31584779639
415336550 0.449072659363 -0.315642664906
415343500 0.449163355453 -0.315641314509
415350450 0.448899750745 -0.315317705117
415357400 0.448958263117 -0.315163666185
415364350 0.449031012726 -0.315380256036
415371300 0.448662003157 -0.315424773117
415378250 0.448556004513 -0.315660696656
415385200 0.44828356255 -0.315633348673
415392150 0.448390020379 -0.315312551714
415399100 0.448801176124 -0.315060026423
415406050 0.448656288459 -0.315297486788
415413000 0.448486358105 -0.314761792874
415419950 0.448476349585 -0.314755520978
415426900 0.448620850584 -0.315119418886
415433850 0.448708263404 -0.314543789836
415440800 0.448310239483 -0.314454381508
415447750 0.448738347136 -0.314752174847
415454700 0.448975239886 -0.314865848509
415461650 0.448911372068 -0.314862802659
415468600 0.448975733586 -0.315018287829
415475550 0.448669195162 -0.315129326729
415482500 0.448605641987 -0.314523523758
415489450 0.44837437621 -0.314277167887
415496400 0.448349931222 -0.314504977474
415503350 0.44820286132 -0.315023113286
415510300 0.448194437429 -0.314825249787
415517250 0.448676665534 -0.315196273881
415524200 0.448691716056 -0.315447989853
415531150 0.448452250819 -0.316077942187
415538100 0.448774780751 -0.315548843882
415545050 0.449048881114 -0.315203807281
415552000 0.449378617551 -0.314704625115
415558950 0.449538090736 -0.315073236578
415565900 0.448936601363 -0.314665732827
415572850 0.44889059504 -0.314651068105
415579800 0.448875242604 -0.314966163375
415586750 0.448181643425 -0.314448016138
415593700 0.450228364188 -0.315454697146
415600650 0.448169124582 -0.315058994619
415607600 0.448307516523 -0.315024809935
415614550 0.448014234921 -0.314732366496
415621500 0.448066386314 -0.315130495904
415628450 0.4483737379 -0.314699912749
415635400 0.448255839892 -0.314639931374
415642350 0.448026728935 -0.314422572473
415649300 0.447842609813 -0.315146791654
415656250 0.448268475236 -0.314937868971
415663200 0.447818504301 -0.315199480982
415670150 0.447623971822 -0.31520450381
415677100 0.447683281267 -0.314947136192
415684050 0.44802275447 -0.314740016944
415691000 0.448253884241 -0.314644988463
415697950 0.448370207532 -0.314305456436
415704900 0.448035342375 -0.314033899634
415711850 0.448362346704 -0.314180545822
415718800 0.448495034684 -0.314500765424
415725750 0.448324405392 -0.314898770478
415732700 0.448107563468 -0.314851305155
415739650 0.448096979734 -0.314802319146
415746600 0.448063644811 -0.315184821422
415753550 0.447864298639 -0.314893440485
415760500 0.448202423269 -0.314942907757
415767450 0.447927395761 -0.314874585068
415774400 0.448126911958 -0.314814748345
415781350 0.448058253133 -0.31436225657
415788300 0.447383558699 -0.314840491226
415795250 0.447709913214 -0.314689457441
415802200 0.447629136274 -0.314679659247
415809150 0.447901859341 -0.314764650634
415816100 0.447839851203 -0.314330109274
415823050 0.44737577534 -0.31433588348
415830000 0.447944591024 -0.314358713005
415836950 0.447489337272 -0.314913182475
415843900 0.447638809944 -0.314345689981
415850850 0.447531522226 -0.314252162159
415857800 0.447295248561 -0.314476676774
415864750 0.447637062075 -0.314513566476
415871700 0.447261539774 -0.314610548145
415878650 0.446967835147 -0.314650746291
415885600 0.446893759655 -0.314367488014
415892550 0.446965463016 -0.314310898792
415899500 0.4471986772 -0.314274020475
415906450 0.446964667821 -0.314030560478
415913400 0.447059092356 -0.314388964504
415920350 0.4469932255 -0.314372722228
415927300 0.447322375587 -0.314087694767
415934250 0.446547161772 -0.314520343255
415941200 0.447142761012 -0.314295200885
415948150 0.446924492215 -0.31451286651
415955100 0.446928460458 -0.314811613057
415962050 0.447088858326 -0.314822423867
415969000 0.448363508696 -0.315891167212
415975950 0.448960001327 -0.315694311716
415982900 0.449266405586 -0.317597560814
415989850 0.450378531017 -0.316999901757
415996800 0.448982277509 -0.317070665242
416003750 0.448433547734 -0.315886246068
416010700 0.447954539397 -0.314500410534
416017650 0.44720407801 -0.314016544843
416024600 0.446968902385 -0.31357219217
416031550 0.446885241507 -0.313727930257
416038500 0.447041232327 -0.313759825023
416045450 0.446856422461 -0.313809629009
416052400 0.446711278381 -0.31379772465
416059350 0.446646196294 -0.31363468707
416066300 0.446615273308 -0.31398523224
416073250 0.44672397409 -0.313993618013
416080200 0.446753637446 -0.313989806167
416087150 0.446747158058 -0.314429909776
416094100 0.446871183133 -0.314423283873
416101050 0.44683062458 -0.314836452487
416108000 0.446771650673 -0.314557189082
416114950 0.446662777942 -0.314307071831
416121900 0.447051074972 -0.314677296413
416128850 0.447001028377 -0.314506852339
416135800 0.446449195311 -0.314506832389
416142750 0.447135198387 -0.314541647264
416149700 0.446752003843 -0.314281393127
416156650 0.446646268696 -0.314276883668
416163600 0.446641240033 -0.314495297796
416170550 0.446062726884 -0.313937341671
416177500 0.446137315384 -0.313455760987
416184450 0.446347014288 -0.313543324619
416191400 0.446442058963 -0.313452597646
416198350 0.446627211626 -0.313397881047
416205300 0.44644378027 -0.31406730011
416212250 0.445964223368 -0.313941962993
416219200 0.446690259554 -0.314414675982
416226150 0.446218035447 -0.314049503099
416233100 0.445804220951 -0.314383046056
416240050 0.44631675119 -0.314176389049
416247000 0.445721338544 -0.314037887728
416253950 0.445870920734 -0.313778817433
416260900 0.445923405898 -0.313748613952
416267850 0.44574287204 -0.313397698715
416274800 0.445724651845 -0.31336363439
416281750 0.445948215015 -0.313793556985
416288700 0.446032286756 -0.313921656975
416295650 0.445497815934 -0.314065732885
416302600 0.445391090093 -0.314414448809
416309550 0.445550706814 -0.314281644143
416316500 0.446016494747 -0.314206278752
416323450 0.445489037446 -0.313888704156
416330400 0.445525772858 -0.313552697383
416337350 0.44566137054 -0.313339295601
416344300 0.445540898681 -0.31349746095
416351250 0.445490389422 -0.313691959572
416358200 0.445320285365 -0.313752191867
416365150 0.445866577443 -0.313791613829
416372100 0.445739926973 -0.31388366264
416379050 0.445470141648 -0.31404391108
416386000 0.446122521168 -0.313910774455
416392950 0.445816962843 -0.313912159425
416399900 0.445511780721 -0.313763328999
416406850 0.4458838656 -0.313748107208
416413800 0.445837402443 -0.313830639268
416420750 0.445608787583 -0.313866171169
416427700 0.445605642181 -0.313879715793
416434650 0.445367115774 -0.313601059497
416441600 0.445075874121 -0.313275294896
416448550 0.445759848101 -0.313148713267
416455500 0.44585096274 -0.313334353432
416462450 0.445442252271 -0.313314140744
416469400 0.446144465586 -0.313801261921
416476350 0.445516751639 -0.31346101079
416483300 0.445782517663 -0.31388786781
416490250 0.445592357898 -0.313859259414
416497200 0.445214691152 -0.313735269162
416504150 0.445420006739 -0.31379747661
416511100 0.445703021856 -0.31338374548
416518050 0.445288823799 -0.313230774406
416525000 0.445591381455 -0.312807984056
416531950 0.445213363675 -0.312293786811
416538900 0.445512444071 -0.312540906536
416545850 0.445519690916 -0.312950453294
416552800 0.444988912887 -0.312632022297
416559750 0.445040310609 -0.313144197844
416566700 0.445220574903 -0.313596426758
416573650 0.44547399199 -0.314416327976
416580600 0.445568544879 -0.313766370775
416587550 0.445950381703 -0.313954768512
416594500 0.445586316053 -0.314213325434
416601450 0.445893727492 -0.314087750409
416608400 0.445381523064 -0.313438303745
416615350 0.444908752272 -0.313554985122
416622300 0.444949766463 -0.313062960114
416629250 0.444961765955 -0.313080434143
416636200 0.444694794786 -0.312798349512
416643150 0.444508358883 -0.312773932548
416650100 0.444565289847 -0.312967110871
416657050 0.445134590482 -0.312795124372
416664000 0.444929402891 -0.313682765675
416670950 0.444966303696 -0.312940287817
416677900 0.444807075054 -0.312900083982
416684850 0.445352973829 -0.313045688174
416691800 0.444843441463 -0.313629589047
416698750 0.444950659524 -0.313421505109
416705700 0.445072472712 -0.314126487132
416712650 0.445119882288 -0.313419621494
416719600 0.44498464468 -0.313959222911
416726550 0.444872078509 -0.314197456269
416733500 0.444849478908 -0.313145058212
416740450 0.444315962872 -0.313212620926
416747400 0.445043808974 -0.313286367964
416754350 0.444462483625 -0.313775256354
416761300 0.444935115019 -0.313232142027
416768250 0.444933355603 -0.313379452599
416775200 0.445044998395 -0.313411810422
416782150 0.444394683445 -0.313204501274
416789100 0.444778282976 -0.3133334092
416796050 0.44436097696 -0.313206841176
416803000 0.444967805952 -0.313019171765
416809950 0.444845790846 -0.313418055011
416816900 0.444559078753 -0.313036537443
416823850 0.444735817299 -0.313287574684
416830800 0.445046985748 -0.31315920972
416837750 0.444249134622 -0.31209324994
416844700 0.443752692985 -0.312665620932
416851650 0.443515393482 -0.312372666884
416858600 0.443996247969 -0.312886061566
416865550 0.443781257544 -0.312658079587
416872500 0.443980777397 -0.312802981536
416879450 0.444165772722 -0.312541917319
416886400 0.443863423944 -0.313227875104
416893350 0.44351518975 -0.313339482841
416900300 0.442927641008 -0.313452061945
416907250 0.44269207995 -0.31346905749
416914200 0.442805464232 -0.313400956806
416921150 0.443621707957 -0.313439262652
416928100 0.443341639817 -0.313360103723
416935050 0.443914030202 -0.313082312759
416942000 0.443915307464 -0.313104274137
416948950 0.443765390075 -0.312872559107
416955900 0.443521049562 -0.312785685463
416962850 0.443318603924 -0.312494725478
416969800 0.443231206155 -0.312789177708
416976750 0.444010104658 -0.312667915608
416983700 0.44365521501 -0.312473362435
416990650 0.44375262596 -0.312854397126
416997600 0.444153588193 -0.312689765757
417004550 0.444203080201 -0.312999917239
417011500 0.444102970215 -0.312741688622
417018450 0.44358000643 -0.312854618807
417025400 0.443677742772 -0.312861499726
417032350 0.444209077437 -0.312735439331
417039300 0.443848887161 -0.312941945351
417046250 0.443322401015 -0.312641104623
417053200 0.444106043438 -0.312875576322
417060150 0.443722499176 -0.313092640838
417067100 0.444869068578 -0.313842386891
417074050 0.443934985293 -0.313305288398
417081000 0.443838148214 -0.313348475916
417087950 0.443593443862 -0.313242791012
417094900 0.443982445425 -0.313041421768
417101850 0.443675020041 -0.312824555683
417108800 0.443804286092 -0.312821386344
417115750 0.44343981453 -0.312707524205
417122700 0.443280595824 -0.312371777377
417129650 0.443259132673 -0.312451519132
417136600 0.442455090303 -0.311942809504
417143550 0.443279597587 -0.312194508364
417150500 0.4433197898 -0.312342912875
417157450 0.443189821211 -0.312409802687
417164400 0.442993596583 -0.312414697156
417171350 0.442394256283 -0.312292765656
417178300 0.442977914342 -0.312266076084
417185250 0.442711156372 -0.31253633835
417192200 0.442724999824 -0.312619712277
417199150 0.442446519544 -0.312197467978
417206100 0.443051594322 -0.312428015226
417213050 0.442445776289 -0.312811889925
417220000 0.442814065214 -0.312273870031
417226950 0.442129871784 -0.313388667625
417233900 0.442780478242 -0.313196173656
417240850 0.442917586835 -0.31264356124
417247800 0.442816762522 -0.311789839223
417254750 0.442785265437 -0.31265429211
417261700 0.442537717278 -0.31237297775
417268650 0.442784140557 -0.312596335412
417275600 0.442981479234 -0.312619410734
417282550 0.443251250045 -0.312450235615
417289500 0.442651312103 -0.312520530275
417296450 0.442798751047 -0.312046648952
417303400 0.443056738793 -0.313121696761
417310350 0.442724965871 -0.312200548316
417317300 0.442894550967 -0.31262564537
417324250 0.442569020104 -0.312645247972
417331200 0.443040539871 -0.312354632063
417338150 0.442756019489 -0.312587638203
417345100 0.442814326301 -0.313006216168
417352050 0.443214948393 -0.312966706402
417359000 0.44306594453 -0.312565584955
417365950 0.443064101122 -0.312136131963
417372900 0.443267043617 -0.312047931033
417379850 0.443318821421 -0.312610911395
417386800 0.442982175199 -0.312918708361
417393750 0.442942308877 -0.313072280782
417400700 0.44255314304 -0.313218944185
417407650 0.44273875569 -0.312499081661
417414600 0.442637334463 -0.312721688217
417421550 0.442829713612 -0.312899613508
417428500 0.442187346869 -0.312357762952
417435450 0.442349667919 -0.312355109782
417442400 0.44254541979 -0.312328232617
417449350 0.441718893461 -0.31220096161
417456300 0.44232146136 -0.312356881656
417463250 0.44226911472 -0.312193424672
417470200 0.442083185856 -0.31235861273
417477150 0.44215125563 -0.31203473208
417484100 0.442375856234 -0.312444891591
417491050 0.441850513366 -0.312097754318
417498000 0.4418247296 -0.31279268188
417504950 0.442704337409 -0.312399815349
417511900 0.44209413633 -0.312071897508
417518850 0.442414403534 -0.312407864098
417525800 0.44202785929 -0.312384612611
417532750 0.44205987686 -0.312436170743
417539700 0.441525050759 -0.312308296288
417546650 0.441584144708 -0.312511706375
417553600 0.441748416935 -0.312351004794
417560550 0.442067574776 -0.312692082475
417567500 0.441970325921 -0.312287505621
417574450 0.442025168463 -0.312276902067
417581400 0.442092299296 -0.312611300447
417588350 0.442345200406 -0.312409637705
417595300 0.442513656411 -0.311999582139
417602250 0.442768064953 -0.312192813543
417609200 0.442151197386 -0.312192207803
417616150 0.442286260982 -0.312457748328
417623100 0.4428006617 -0.312857527033
417630050 0.442264680731 -0.312481247335
417637000 0.441805672104 -0.312556326014
417643950 0.441874267024 -0.311558685965
417650900 0.441684911791 -0.311761267468
417657850 0.441325557321 -0.311607382607
417664800 0.441178029758 -0.311726949864
417671750 0.441359049566 -0.312240581421
417678700 0.441191518805 -0.312270614625
417685650 0.440978015311 -0.312106842111
417692600 0.441178461399 -0.312370800335
417699550 0.441777916349 -0.31239731576
417706500 0.441695955101 -0.31248172015
417713450 0.441827416433 -0.312022373936
417720400 0.441550980027 -0.312207714504
417727350 0.441650944951 -0.311970068872
417734300 0.441237900874 -0.31246804392
417741250 0.441443150125 -0.312230463062
417748200 0.441281488854 -0.312090516074
417755150 0.441061017251 -0.311753339332
417762100 0.44146919315 -0.311769097381
417769050 0.440928858839 -0.3116438447
417776000 0.441381560163 -0.311870006145
417782950 0.441352795306 -0.311833887613
417789900 0.441525212511 -0.311733103219
417796850 0.441741157413 -0.311820349897
417803800 0.4413947624 -0.311568935372
417810750 0.441545316877 -0.311956869443
417817700 0.441424605931 -0.311872226602
417824650 0.44109970018 -0.311718772762
417831600 0.440847271137 -0.311807542049
417838550 0.441141959589 -0.311834701723
417845500 0.439453922846 -0.31122813402
417852450 0.440866629481 -0.31234908312
417859400 0.440658185504 -0.312597519905
417866350 0.440778753321 -0.312315186874
417873300 0.440443073884 -0.312287906764
417880250 0.440069769302 -0.312291925362
417887200 0.440975823038 -0.312478664579
417894150 0.440557902898 -0.312008542554
417901100 0.441028209176 -0.311671378918
417908050 0.440803087403 -0.311676315231
417915000 0.440896228472 -0.311747550162
417921950 0.440913713213 -0.312120249433
417928900 0.440619647079 -0.312129560661
417935850 0.440447167443 -0.311483495891
417942800 0.440486339934 -0.311665115598
417949750 0.440455110396 -0.312007727345
417956700 0.440564360486 -0.312236320469
417963650 0.440794588569 -0.312114933441
417970600 0.440643754887 -0.312484813653
417977550 0.440851497255 -0.312176911413
417984500 0.440088158987 -0.312668521596
417991450 0.44002138407 -0.311806105441
417998400 0.440170465038 -0.311698499616
418005350 0.439936721282 -0.312154358715
418012300 0.439618656772 -0.31174448043
418019250 0.440101225658 -0.312154855551
418026200 0.440336703863 -0.312246777918
418033150 0.440124843866 -0.31206118935
418040100 0.440185612089 -0.311959494787
418047050 0.44013324384 -0.312065659509
418054000 0.440249254195 -0.311817316395
418060950 0.440189203702 -0.311747677258
418067900 0.44022002238 -0.311457732097
418074850 0.440482574369 -0.311766673898
418081800 0.440281981351 -0.311494597167
418088750 0.439784339708 -0.311558765314
418095700 0.439852573826 -0.31149640745
418102650 0.440115524689 -0.311410184542
418109600 0.439801559542 -0.311321314512
418116550 0.43988062313 -0.31151840404
418123500 0.439537196866 -0.311267352573
418130450 0.439655720638 -0.311627661717
418137400 0.439874931964 -0.311751402617
418144350 0.439969918214 -0.311882141336
418151300 0.439778633133 -0.311988270916
418158250 0.439974528084 -0.312175073772
418165200 0.439808836583 -0.311782486226
418172150 0.440175720298 -0.311954201864
418179100 0.439991971547 -0.312011480204
418186050 0.439443163624 -0.311547152789
418193000 0.43971781559 -0.31143817802
418199950 0.439442283315 -0.311521785272
418206900 0.439632202225 -0.311108041505
418213850 0.439273830429 -0.311163325907
418220800 0.438841716738 -0.311270066385
418227750 0.439687393651 -0.311300050725
418234700 0.439583544639 -0.31144708704
418241650 0.439541669391 -0.311392101463
418248600 0.43964092467 -0.311478049166
418255550 0.439722214021 -0.311590419138
418262500 0.439547468091 -0.312117820712
418269450 0.439390974932 -0.311671122892
418276400 0.439206445168 -0.312094227375
418283350 0.438914019349 -0.311980225352
418290300 0.438512022864 -0.312044750108
418297250 0.43935150403 -0.311656844325
418304200 0.439035490438 -0.311021366029
418311150 0.438911863959 -0.311427006969
418318100 0.438754661307 -0.311445486669
418325050 0.438879704965 -0.31087786807
418332000 0.43900253612 -0.311413427295
418338950 0.438996193049 -0.311043218623
418345900 0.439001252701 -0.311390767936
418352850 0.438996589537 -0.311620811831
418359800 0.439201150983 -0.312387556018
418366750 0.438741375967 -0.31210987923
418373700 0.438905967872 -0.311986435291
418380650 0.438786191393 -0.312171861097
418387600 0.438791529409 -0.311831725083
418394550 0.439024836176 -0.312197231644
418401500 0.438899993808 -0.311802669435
418408450 0.438878569183 -0.311747947242
418415400 0.438936629756 -0.311835461747
418422350 0.438784841133 -0.311217362758
418429300 0.439232672662 -0.311576675266
418436250 0.439235328028 -0.311879930371
418443200 0.439009852728 -0.311283463484
418450150 0.43899295551 -0.311626536592
418457100 0.438800493554 -0.312154526872
418464050 0.438734083001 -0.312057248643
418471000 0.438313731365 -0.312115457557
418477950 0.438197982007 -0.311902812598
418484900 0.437917395565 -0.312010762833
418491850 0.43774326977 -0.311944667078
418498800 0.437637062313 -0.311429672215
418505750 0.438153737175 -0.31135029301
418512700 0.43759901745 -0.311545670796
418519650 0.437868554879 -0.311371998021
418526600 0.437949715389 -0.311252465368
418533550 0.4379717926 -0.311007795665
418540500 0.437730274978 -0.310859876437
418547450 0.437963595668 -0.311270307801
418554400 0.437818616122 -0.311303064587
418561350 0.438005769287 -0.311442869131
418568300 0.437821377686 -0.311339939801
418575250 0.438431438167 -0.312257800544
418582200 0.437968208558 -0.312008689362
418589150 0.438279749445 -0.311885787807
418596100 0.438409902252 -0.311615594011
418603050 0.437993866067 -0.311498351652
418610000 0.437932265477 -0.311560069315
418616950 0.437765443454 -0.311319198058
418623900 0.438175875587 -0.311357655221
418630850 0.437586286581 -0.311049390482
418637800 0.438036005881 -0.31147452785
418644750 0.43777578904 -0.311389990457
418651700 0.437793037535 -0.311271034172
418658650 0.437665536302 -0.311310858327
418665600 0.437719653557 -0.311166138205
418672550 0.437840570681 -0.311226175361
418679500 0.437840809388 -0.311254483914
418686450 0.438170310379 -0.311535390294
418693400 0.437804986111 -0.311589482354
418700350 0.437790697064 -0.31167082124
418707300 0.437652092331 -0.311233624701
418714250 0.437441088445 -0.311383501155
418721200 0.437253790252 -0.311103699127
418728150 0.437303769951 -0.311084375586
418735100 0.436955299892 -0.31117581884
418742050 0.436946243799 -0.310889862489
418749000 0.43699404422 -0.310966775814
418755950 0.437210315231 -0.310588705841
418762900 0.437148110529 -0.310449024364
418769850 0.437344683166 -0.310853360442
418776800 0.437406605096 -0.311054552289
418783750 0.437364283407 -0.311700612771
418790700 0.436647632015 -0.311464774466
418797650 0.436939071883 -0.311647207265
418804600 0.436442129644 -0.312264515121
418811550 0.436919509248 -0.311950591014
418818500 0.436325127974 -0.311600472219
418825450 0.437037811825 -0.311526539
418832400 0.436796943608 -0.311851022055
418839350 0.437022060666 -0.311592729832
418846300 0.436647346539 -0.311956183126
418853250 0.436928135312 -0.31135384536
418860200 0.436990660109 -0.311865222699
418867150 0.436847947484 -0.311882230692
418874100 0.436895994105 -0.311298617322
418881050 0.437033103783 -0.311178670489
418888000 0.436665732052 -0.310549271447
418894950 0.436463528969 -0.310530936865
418901900 0.43669578584 -0.31121776702
418908850 0.4365264193 -0.311153718331
418915800 0.436038295797 -0.310662333347
418922750 0.436402805201 -0.310899437537
418929700 0.436180065524 -0.311129968128
418936650 0.436474858784 -0.311528803314
418943600 0.436377909748 -0.311535417862
418950550 0.435976459308 -0.311438648331
418957500 0.436243173414 -0.31153332269
418964450 0.436647305172 -0.311664336769
418971400 0.436485789658 -0.312009099509
418978350 0.436227571311 -0.311606610188
418985300 0.436434495865 -0.311918297744
418992250 0.436678118969 -0.311405511708
418999200 0.43664991314 -0.311580219322
419006150 0.436293602857 -0.311015978795
419013100 0.435960639817 -0.311410133011
419020050 0.436510596144 -0.31118526567
419027000 0.436272608387 -0.311268358386
419033950 0.436143248045 -0.311188016755
419040900 0.436010500804 -0.311501071212
419047850 0.435725806864 -0.311873495027
419054800 0.435789538648 -0.311991625547
419061750 0.435560756562 -0.311882971565
419068700 0.435649784769 -0.311446653099
419075650 0.435732536325 -0.311678330866
419082600 0.435875888453 -0.31136404719
419089550 0.435353969964 -0.311765707469
419096500 0.435537588121 -0.311271783965
419103450 0.43566706789 -0.311370432052
419110400 0.435610736069 -0.311440655128
419117350 0.435668012909 -0.311061567984
419124300 0.435876562711 -0.311063567602
419131250 0.435331961755 -0.31066406495
419138200 0.435425545334 -0.310597402701
419145150 0.435308679616 -0.310521101724
419152100 0.435480371579 -0.310733541438
419159050 0.434667797403 -0.311390254386
419166000 0.435260499702 -0.310856294695
419172950 0.434959698798 -0.310988501021
419179900 0.434919710896 -0.310992990989
419186850 0.435125795328 -0.311120804081
419193800 0.435063854751 -0.310860160049
419200750 0.434991302446 -0.311226717883
419207700 0.434843120412 -0.31085039406
419214650 0.435147565923 -0.310692284072
419221600 0.43488276676 -0.310409060611
419228550 0.434635238632 -0.310493252887
419235500 0.434396679912 -0.310490778884
419242450 0.434781608257 -0.310496831395
419249400 0.434764986714 -0.31147423621
419256350 0.434773704747 -0.30980913003
419263300 0.434049338163 -0.310705843746
419270250 0.43486621751 -0.311294208158
419277200 0.434873624262 -0.311228251478
419284150 0.434566241021 -0.310953375424
419291100 0.434763767706 -0.310621615342
419298050 0.434430183134 -0.311662915697
419305000 0.434364341393 -0.311334575196
419311950 0.434932145509 -0.311142902658
419318900 0.434606905192 -0.31113561619
419325850 0.434456083996 -0.311259107668
419332800 0.434711038853 -0.310995795891
419339750 0.434525522134 -0.310874319049
419346700 0.434696085203 -0.311250844976
419353650 0.434072710507 -0.310919353751
419360600 0.434028613141 -0.310803567156
419367550 0.4340696371 -0.310949597202
419374500 0.434144699186 -0.311110119653
419381450 0.433739293534 -0.311777032062
419388400 0.433736677042 -0.310901342302
419395350 0.433123361404 -0.310284190694
419402300 0.43424663073 -0.310602332461
419409250 0.434127467587 -0.311096905129
419416200 0.433504477444 -0.310914902193
419423150 0.434065150244 -0.311242407883
419430100 0.433639873556 -0.310932018374
419437050 0.433911826224 -0.310986567405
419444000 0.433975682014 -0.310894207037
419450950 0.43415988657 -0.311017118902
419457900 0.433465955122 -0.310835548848
419464850 0.433559072316 -0.310932316951
419471800 0.43296773706 -0.310643825
419478750 0.433151667566 -0.311364331042
419485700 0.432667620008 -0.311566143153
419492650 0.433357829503 -0.311158344649
419499600 0.433254357715 -0.311480339868
419506550 0.433131742072 -0.31091665113
419513500 0.433281926871 -0.310502764284
419520450 0.432790555846 -0.310910101517
419527400 0.432645834719 -0.310944464955
419534350 0.432533031983 -0.310267864214
419541300 0.433101931933 -0.311089226219
419548250 0.4330722094 -0.310910221031
419555200 0.43263246344 -0.311422459947
419562150 0.433436918358 -0.310834142036
419569100 0.433885648508 -0.310467041879
419576050 0.434413638589 -0.310077735241
419583000 0.434494811053 -0.310301810964
419589950 0.434249367463 -0.310429776931
419596900 0.433623306956 -0.310157388619
419603850 0.433109991735 -0.310127748999
419610800 0.43325505482 -0.311004551601
419617750 0.432969605549 -0.310807585916
419624700 0.432450559236 -0.311008539038
419631650 0.43282358635 -0.311108811821
419638600 0.432470133796 -0.311409130065
419645550 0.432397166997 -0.310700487998
419652500 0.432139398383 -0.310083024146
419659450 0.432425679785 -0.310728069945
419666400 0.431937883206 -0.311180597363
419673350 0.432409900071 -0.310643810891
419680300 0.432557594841 -0.310489068635
419687250 0.432242694203 -0.310603182259
419694200 0.431983982721 -0.310535551209
419701150 0.432572085866 -0.310578217893
419708100 0.432582086283 -0.31065058264
419715050 0.432231970657 -0.310581692523
419722000 0.432178263504 -0.310678163484
419728950 0.432348603692 -0.310972380386
419735900 0.432501017217 -0.310698796168
419742850 0.432366018439 -0.309934077087
419749800 0.432167868352 -0.31061930341
419756750 0.432288923992 -0.311084869652
419763700 0.432463033849 -0.3109200734
419770650 0.432148730046 -0.310678569796
419777600 0.432060450905 -0.311820948663
419784550 0.431831918922 -0.311251681467
419791500 0.431157927314 -0.311351993518
419798450 0.432770695425 -0.310579287527
419805400 0.431906927506 -0.31046951115
419812350 0.43158845821 -0.310540513477
419819300 0.431598413806 -0.310731014725
419826250 0.431166623312 -0.310864120173
419833200 0.431205964537 -0.310151678641
419840150 0.430632019173 -0.311033024035
419847100 0.431104000846 -0.310982510144
419854050 0.431190985654 -0.310742942905
419861000 0.431429777897 -0.310535911438
419867950 0.43184863119 -0.310589715424
419874900 0.431716735105 -0.310873844258
419881850 0.431261027919 -0.31048716451
419888800 0.431259615441 -0.310096959234
419895750 0.431344954161 -0.310509907285
419902700 0.431331474254 -0.309639298145
419909650 0.4302098256 -0.310600508944
419916600 0.432142404353 -0.310155769497
419923550 0.429130212002 -0.31007051505
419930500 0.430769336967 -0.311323126315
419937450 0.43083723384 -0.309727543246
419944400 0.430066638152 -0.310462782927
419951350 0.430551388175 -0.310407039739
419958300 0.430983622955 -0.310695224864
419965250 0.430328306285 -0.311073697086
419972200 0.430803250756 -0.311192924565
419979150 0.43101634164 -0.311454653114
419986100 0.430909443616 -0.311865811867
419993050 0.430778517427 -0.311677724252
420000000 0.430296626095 -0.311264278238
