! Calibrated averaged scanner-service zoom
# Hz S RI R 50
470000000 0.51579688852 -0.0635644962251
470010500 0.515889860271 -0.0637015249437
470021000 0.516480102553 -0.0633435657474
470031500 0.516041654303 -0.0635453554342
470042000 0.51632559062 -0.0638756260398
470052500 0.517202255232 -0.0638540509682
470063000 0.516669705267 -0.063390510277
470073500 0.516960984227 -0.0634705039145
470084000 0.516117440901 -0.0630360676057
470094500 0.516497978742 -0.0643242240314
470105000 0.516616677668 -0.0638373326037
470115500 0.515684847154 -0.0635766397796
470126000 0.516427845915 -0.063956243216
470136500 0.51601861714 -0.0638498823452
470147000 0.516518603924 -0.0636402840966
470157500 0.517047245095 -0.0629491546946
470168000 0.516936818415 -0.0638799360627
470178500 0.516795150382 -0.0641539671056
470189000 0.516720442209 -0.0640775974242
470199500 0.515877487493 -0.0634172157069
470210000 0.517428613146 -0.063370109708
470220500 0.517585044564 -0.0640395013153
470231000 0.516828557324 -0.0619515183227
470241500 0.516101839111 -0.0618995580392
470252000 0.5152459621 -0.0620613125024
470262500 0.517153067596 -0.0644011848381
470273000 0.519465895446 -0.0642038183808
470283500 0.517895583362 -0.0617826035229
470294000 0.516824784525 -0.063324878129
470304500 0.517192833744 -0.0648047460838
470315000 0.514882092288 -0.0639316131454
470325500 0.51733597686 -0.0636443880417
470336000 0.518595775454 -0.0639080674819
470346500 0.519849077172 -0.0637395055203
470357000 0.518900118131 -0.0631808860693
470367500 0.52077831565 -0.0636772366567
470378000 0.51871761733 -0.0648115397631
470388500 0.517401753301 -0.066010122472
470399000 0.518115665085 -0.0633299352237
470409500 0.518160628844 -0.0644003934851
470420000 0.518337797075 -0.0630223693865
470430500 0.519238941567 -0.0653230682601
470441000 0.518380265006 -0.0636528180496
470451500 0.518564753887 -0.0632297408715
470462000 0.515799843107 -0.064647953189
470472500 0.518370380774 -0.0639811117203
470483000 0.517195455848 -0.0636494947892
470493500 0.52133309926 -0.0635629281159
470504000 0.520492775618 -0.0607409948643
470514500 0.51933262282 -0.065278697287
470525000 0.518794901414 -0.0633813264719
470535500 0.518434043629 -0.0636391315574
470546000 0.51938260584 -0.0645416238051
470556500 0.52103081792 -0.0638731807159
470567000 0.519382869231 -0.0643025587893
470577500 0.519642108486 -0.0628947175089
470588000 0.520072117892 -0.0643543328481
470598500 0.519942563473 -0.0645758686407
470609000 0.519265623581 -0.0641711864658
470619500 0.518756094534 -0.0637768429848
470630000 0.518060290385 -0.0639030686906
470640500 0.518922215523 -0.0640718362333
470651000 0.520055514197 -0.0641376562095
470661500 0.51895161137 -0.0639343553797
470672000 0.520105439572 -0.0644464455974
470682500 0.519157146999 -0.0642448621807
470693000 0.519555006865 -0.0634562709001
470703500 0.519365072063 -0.0633267012888
470714000 0.520947885205 -0.0635584510813
470724500 0.519928909737 -0.063713204384
470735000 0.520520311843 -0.0634509773015
470745500 0.519227611533 -0.0643189610684
470756000 0.520493721255 -0.0630638283273
470766500 0.521306114504 -0.0629456009523
470777000 0.521400534885 -0.0645844335279
470787500 0.520443440736 -0.0642553462681
470798000 0.520361824761 -0.0643194071562
470808500 0.520528550349 -0.0643620221792
470819000 0.521732333951 -0.0639506794453
470829500 0.520225649742 -0.0639535320018
470840000 0.52091063596 -0.0643254829781
470850500 0.520403956605 -0.0634478288948
470861000 0.521159687683 -0.0638016292567
470871500 0.521819170007 -0.0641325161415
470882000 0.521674197492 -0.0636935821073
470892500 0.521272899849 -0.0636686473414
470903000 0.521150892729 -0.0646578226584
470913500 0.521867115848 -0.0638351128729
470924000 0.521855320534 -0.0643014907959
470934500 0.521632694485 -0.0641100010308
470945000 0.521610347924 -0.0637725992772
470955500 0.522009615805 -0.0634996198881
470966000 0.522067315057 -0.0635302773797
470976500 0.522357103782 -0.0640664559729
470987000 0.52180629187 -0.0641043083287
470997500 0.522263295589 -0.064050187278
471008000 0.522119874378 -0.0642634119411
471018500 0.522262985862 -0.0642175759346
471029000 0.522420352454 -0.0642118831655
471039500 0.522618464728 -0.0640632973052
471050000 0.521799882089 -0.0645476312675
471060500 0.522739328392 -0.0643677158958
471071000 0.522757245105 -0.0644630241554
471081500 0.522449915458 -0.0640005517769
471092000 0.522772543615 -0.0642833990679
471102500 0.522628894397 -0.0644419841636
471113000 0.522699769479 -0.0641229085358
471123500 0.522579358578 -0.0641351307467
471134000 0.523392130911 -0.064451795027
471144500 0.523432080171 -0.0640490795807
471155000 0.522895399649 -0.0651165744587
471165500 0.52303673126 -0.0647193838778
471176000 0.523239070139 -0.0648560190146
471186500 0.523060043534 -0.0646261923469
471197000 0.523610898802 -0.0653650821083
471207500 0.523349504119 -0.0654342799316
471218000 0.523278454453 -0.0646683369366
471228500 0.523107888704 -0.0642980093766
471239000 0.515075863411 -0.0631351980568
471249500 0.523252465833 -0.0646335791968
471260000 0.523777122237 -0.0638883297378
471270500 0.523989336923 -0.0640355030172
471281000 0.523599426201 -0.0642844676577
471291500 0.523643862979 -0.0644889685775
471302000 0.522731525471 -0.0650407012984
471312500 0.524492986315 -0.0650250228427
471323000 0.523576934652 -0.0648027124131
471333500 0.523408218492 -0.0651773378379
471344000 0.523822524259 -0.0648364683564
471354500 0.523372766351 -0.0643003447761
471365000 0.524406066601 -0.0645939996484
471375500 0.524921316179 -0.0640102918387
471386000 0.52453448801 -0.0642761444329
471396500 0.524574358365 -0.0642123830103
471407000 0.523975353001 -0.0646384043345
471417500 0.524027720187 -0.0650937553712
471428000 0.523888063677 -0.0650604245145
471438500 0.52415242249 -0.0662558535176
471449000 0.524078800633 -0.064559078888
471459500 0.524106310732 -0.0656217579821
471470000 0.524454024369 -0.0646836125533
471480500 0.523916255016 -0.0653776166497
471491000 0.524765226269 -0.0645863950741
471501500 0.524838354661 -0.0660432532762
471512000 0.524590134025 -0.0649036233234
471522500 0.523714034049 -0.0645151643363
471533000 0.524291225986 -0.0655377779459
471543500 0.524926352041 -0.0652008011245
471554000 0.524698484261 -0.0655662566148
471564500 0.524700132561 -0.0650151344679
471575000 0.524865010096 -0.0653806501454
471585500 0.524615697377 -0.0650993190199
471596000 0.52503235827 -0.0649003989268
471606500 0.52518140538 -0.0651984698689
471617000 0.526530436957 -0.0652411037896
471627500 0.525912988928 -0.0649156678999
471638000 0.525419914549 -0.0647496490055
471648500 0.525362307767 -0.0641283451755
471659000 0.525500556668 -0.0644853419908
471669500 0.525861154213 -0.0650835241574
471680000 0.525864142714 -0.0645671127366
471690500 0.52555779761 -0.0645238516366
471701000 0.525711219312 -0.0648218055106
471711500 0.525783213393 -0.0650505341277
471722000 0.525967226808 -0.0653376119936
471732500 0.526518529423 -0.0645719891158
471743000 0.526258007732 -0.0641955329396
471753500 0.526644950531 -0.06475733742
471764000 0.526981235456 -0.0641784842714
471774500 0.526163766413 -0.0644674605278
471785000 0.526367492269 -0.0646774909086
471795500 0.526491630096 -0.0647684191947
471806000 0.525858041325 -0.0652206267713
471816500 0.525928151163 -0.0652081473053
471827000 0.525915681219 -0.0651343134995
471837500 0.527119804587 -0.0629033081571
471848000 0.526237553055 -0.0648071491117
471858500 0.52673295676 -0.0650160851645
471869000 0.526899851152 -0.0647136199829
471879500 0.526315787572 -0.064799840728
471890000 0.526659332745 -0.0655225707768
471900500 0.526887751451 -0.0652209473237
471911000 0.526436806464 -0.0653956039104
471921500 0.527210941525 -0.0649003823175
471932000 0.528187496796 -0.0652062990896
471942500 0.527211860534 -0.066130614481
471953000 0.527909244653 -0.0656681331812
471963500 0.527226681369 -0.0659835492717
471974000 0.527307477536 -0.0656315892644
471984500 0.526630656749 -0.0657379786451
471995000 0.526650548733 -0.0656239024633
472005500 0.527705537545 -0.0657698368663
472016000 0.527132997775 -0.0660627392266
472026500 0.527401288342 -0.0657001425295
472037000 0.527891017001 -0.0650020855115
472047500 0.527751530248 -0.0646079407018
472058000 0.527948723511 -0.0652848579225
472068500 0.528341440444 -0.0653653763022
472079000 0.528523564422 -0.0657905046293
472089500 0.527560908512 -0.0645024299147
472100000 0.529489783685 -0.065087577508
472110500 0.52828245684 -0.0653539528526
472121000 0.527829777216 -0.0663360873936
472131500 0.528135103949 -0.0656284239656
472142000 0.527976734197 -0.0657969549957
472152500 0.528652249671 -0.0652052564784
472163000 0.527544123351 -0.0653889319903
472173500 0.527585850662 -0.0656836174581
472184000 0.528176617888 -0.0662750341516
472194500 0.527469810941 -0.0654516397693
472205000 0.528089658054 -0.0662452158688
472215500 0.527885436232 -0.0651846668968
472226000 0.528017362832 -0.0655789156951
472236500 0.528838139891 -0.0660587095314
472247000 0.528827729066 -0.0650536958649
472257500 0.528250944745 -0.0651849967593
472268000 0.528730671612 -0.065899160659
472278500 0.528725748112 -0.0654646314635
472289000 0.529183146145 -0.0655555120925
472299500 0.528635542784 -0.066044660614
472310000 0.529347394404 -0.065344410437
472320500 0.529265820365 -0.0655726861813
472331000 0.528618748899 -0.0662414447247
472341500 0.528497129504 -0.0651968877068
472352000 0.529137323922 -0.0662809753545
472362500 0.529699166482 -0.0655534517635
472373000 0.529744318782 -0.065902257835
472383500 0.528686842983 -0.0658088539554
472394000 0.529222680942 -0.0665522150647
472404500 0.528677076698 -0.066916597632
472415000 0.529430929171 -0.0649418705469
472425500 0.529567296334 -0.0648874649293
472436000 0.529052896274 -0.0657370274656
472446500 0.529674058356 -0.0656642297222
472457000 0.529693376497 -0.0652133247562
472467500 0.530173213399 -0.0656500786
472478000 0.528547870788 -0.0662615603494
472488500 0.529843958361 -0.0659647883887
472499000 0.529679682401 -0.0662112857122
472509500 0.530821313827 -0.0662013957536
472520000 0.530248495378 -0.0661882481324
472530500 0.530688843116 -0.065869150127
472541000 0.529003214479 -0.0656422909719
472551500 0.530148079646 -0.0653442972274
472562000 0.530246328114 -0.0652537403366
472572500 0.530825655786 -0.0652805656777
472583000 0.530060013298 -0.0653597840793
472593500 0.52819368422 -0.066603056934
472604000 0.530039594866 -0.0661722069543
472614500 0.529650894006 -0.0659724973495
472625000 0.530588188631 -0.0664361119428
472635500 0.530754802525 -0.0660799069279
472646000 0.530869910424 -0.066156673098
472656500 0.531044138238 -0.0661183749892
472667000 0.530789292512 -0.0664676418186
472677500 0.531556441069 -0.0659273305084
472688000 0.531652938407 -0.0657566441949
472698500 0.530728598878 -0.0668319877495
472709000 0.531320380603 -0.0661913098275
472719500 0.530773658526 -0.0667133477325
472730000 0.531107681153 -0.0665277239992
472740500 0.531477753952 -0.0661427987848
472751000 0.530983167325 -0.0665103502911
472761500 0.531727643957 -0.0661307756289
472772000 0.530840688878 -0.0664292964558
472782500 0.53106907529 -0.066058833783
472793000 0.531301590878 -0.0657661618373
472803500 0.531516872038 -0.0662491771958
472814000 0.532127850438 -0.0669125837856
472824500 0.531451063941 -0.0664421314195
472835000 0.531999174479 -0.0659467433643
472845500 0.531142636551 -0.0666251295713
472856000 0.531389264378 -0.066702691427
472866500 0.531698285823 -0.0668092033783
472877000 0.531968963311 -0.0663717093307
472887500 0.532324145216 -0.0665273646847
472898000 0.532600520083 -0.0665396515258
472908500 0.531807790083 -0.0662084798172
472919000 0.531506622897 -0.0662235795732
472929500 0.531840719886 -0.0670463600833
472940000 0.531818876895 -0.0666641530015
472950500 0.531647952916 -0.0669089606528
472961000 0.531993328245 -0.0668561435581
472971500 0.532240508929 -0.0668974468936
472982000 0.532112727678 -0.0666532678205
472992500 0.531882804088 -0.0675694612854
473003000 0.531567616305 -0.0665701349616
473013500 0.532146268347 -0.0667863135734
473024000 0.531932138165 -0.0672529719975
473034500 0.53235335697 -0.066216498274
473045000 0.534286285755 -0.0675176898458
473055500 0.53302259608 -0.0667471915235
473066000 0.533047596114 -0.0665277717773
473076500 0.531510193688 -0.0664579600572
473087000 0.531945271886 -0.0663710012684
473097500 0.532960741988 -0.0665575354821
473108000 0.533002355381 -0.0672482850926
473118500 0.53349446703 -0.0668995164147
473129000 0.532864219992 -0.0666994100064
473139500 0.533329932699 -0.0667709983695
473150000 0.533473821946 -0.0670988130992
473160500 0.532540210156 -0.0672778538181
473171000 0.532193187617 -0.0669762843561
473181500 0.532808026846 -0.066697318981
473192000 0.532599298182 -0.066637593692
473202500 0.533666296003 -0.0667356647255
473213000 0.533313352337 -0.066686291205
473223500 0.532916424458 -0.0671681622239
473234000 0.533171282782 -0.0667436570584
473244500 0.533900197599 -0.0668258885857
473255000 0.533093610828 -0.0664006652939
473265500 0.533291788115 -0.0663743651343
473276000 0.53352200862 -0.0664462494189
473286500 0.533499830556 -0.0671828374448
473297000 0.533993344496 -0.0669622266866
473307500 0.533893786001 -0.0664448308738
473318000 0.533938702729 -0.066828073335
473328500 0.533757743588 -0.0672488825891
473339000 0.534111730964 -0.0671931466527
473349500 0.534086969902 -0.066581964087
473360000 0.533746533256 -0.0667656349686
473370500 0.533407462498 -0.0663175159383
473381000 0.534061425831 -0.066359829456
473391500 0.533914481382 -0.0667825187299
473402000 0.534317528784 -0.0672667152526
473412500 0.534616070503 -0.0667194720196
473423000 0.534892702963 -0.0670112524098
473433500 0.534720641616 -0.0671761279174
473444000 0.535781020729 -0.066436443741
473454500 0.535150638359 -0.0667186136381
473465000 0.535227276725 -0.0671439110832
473475500 0.534627684206 -0.0665651950806
473486000 0.534914209684 -0.0672408296892
473496500 0.53438589632 -0.0671489138755
473507000 0.535123073035 -0.0675316464468
473517500 0.534829654263 -0.0680180197165
473528000 0.535668918069 -0.0682441094797
473538500 0.535419684786 -0.0669428945267
473549000 0.53484190834 -0.067313966321
473559500 0.535885926456 -0.0667078455339
473570000 0.535743304887 -0.0672016196743
473580500 0.53511584684 -0.0674821600085
473591000 0.534595818494 -0.0669686352837
473601500 0.535512377933 -0.0675518846277
473612000 0.535540799664 -0.0669753874904
473622500 0.535722608802 -0.0678311116286
473633000 0.535496074909 -0.0686903546177
473643500 0.535376552596 -0.0672979548098
473654000 0.534635796956 -0.0676042456183
473664500 0.535403656546 -0.067791408445
473675000 0.535636261846 -0.0678310878852
473685500 0.535052731568 -0.0673608283544
473696000 0.535334866666 -0.0675123284262
473706500 0.534997451207 -0.068093602387
473717000 0.535776288143 -0.0684604842792
473727500 0.536479118713 -0.0682248666004
473738000 0.536070844108 -0.0675731593602
473748500 0.53530632868 -0.0684377141444
473759000 0.536175258676 -0.0676678628504
473769500 0.536188922534 -0.0677846462566
473780000 0.536048545036 -0.0674945328965
473790500 0.536244890524 -0.0674339192932
473801000 0.536100520624 -0.0675463617514
473811500 0.53574475633 -0.0673724965154
473822000 0.536915882588 -0.0681380685806
473832500 0.536911424454 -0.0683794588246
473843000 0.535979242489 -0.0676898095622
473853500 0.535948068501 -0.0681384909873
473864000 0.536586345235 -0.0670674793004
473874500 0.535918951391 -0.0673017472688
473885000 0.535701264915 -0.0677414511765
473895500 0.536463840064 -0.0679470313811
473906000 0.536343771834 -0.0677850544685
473916500 0.53634138061 -0.068563663309
473927000 0.537857285779 -0.0675185025739
473937500 0.537531609902 -0.0672571938878
473948000 0.538449793779 -0.0672177547295
473958500 0.537697070465 -0.0676093972451
473969000 0.53682378924 -0.0677451417276
473979500 0.536969592336 -0.0675308830381
473990000 0.536428122594 -0.0679799122078
474000500 0.536715249197 -0.0678946499173
474011000 0.536783339461 -0.0676257373237
474021500 0.537476628833 -0.0679635694592
474032000 0.537365551869 -0.068135428736
474042500 0.537084451206 -0.0686170824101
474053000 0.536815647356 -0.0678346359207
474063500 0.53668799864 -0.0673243814766
474074000 0.53700353035 -0.0676547672729
474084500 0.537738311747 -0.0685252396178
474095000 0.537380784576 -0.0673853031532
474105500 0.537395093345 -0.0692343807392
474116000 0.538489914563 -0.068953644856
474126500 0.538038702446 -0.0681319934765
474137000 0.538118629537 -0.0668959155524
474147500 0.53742652647 -0.0679789172526
474158000 0.537275142639 -0.0681480800855
474168500 0.538262819081 -0.0682684390643
474179000 0.538427327274 -0.0690828801976
474189500 0.538131575503 -0.0680145574704
474200000 0.540029871475 -0.0701742237856
474210500 0.538112986165 -0.0679431123389
474221000 0.538129368669 -0.0683033431955
474231500 0.538364573018 -0.0679355650613
474242000 0.537982662636 -0.0678607580391
474252500 0.537072252137 -0.0671315732408
474263000 0.537455409926 -0.0686378839138
474273500 0.536099499985 -0.0691300987781
474284000 0.537179744826 -0.0681523860494
474294500 0.538300562459 -0.0681762738276
474305000 0.539236240277 -0.0701270850394
474315500 0.534282834839 -0.0675006541623
474326000 0.539654796836 -0.0686246313724
474336500 0.539256315687 -0.0683850954917
474347000 0.540581556588 -0.0676013374904
474357500 0.537536957441 -0.0686684009715
474368000 0.536256460775 -0.0668963923025
474378500 0.541362268209 -0.0697108985275
474389000 0.536918211631 -0.0709733874691
474399500 0.539688495987 -0.067901513853
474410000 0.538784800893 -0.0692398535547
474420500 0.539034312904 -0.0693314942129
474431000 0.537392032481 -0.0680208628994
474441500 0.537625831876 -0.0693245602026
474452000 0.538437184782 -0.0702672500423
474462500 0.53542363074 -0.0701565144106
474473000 0.539183801819 -0.0698853276389
474483500 0.539772516597 -0.0666848349885
474494000 0.542126954505 -0.0647908908179
474504500 0.538221446036 -0.0685451733504
474515000 0.53695524441 -0.0690195004004
474525500 0.537434415415 -0.0682299190184
474536000 0.538655585451 -0.0706125120969
474546500 0.539017678828 -0.0676111551816
474557000 0.537520064574 -0.0710011999566
474567500 0.540001637126 -0.0694915345231
474578000 0.541274802135 -0.0699779665118
474588500 0.539987639894 -0.0684305174518
474599000 0.539561913353 -0.0674066979806
474609500 0.53981873814 -0.0696260852228
474620000 0.538657532851 -0.0693195897462
474630500 0.538874569492 -0.0672344171203
474641000 0.53969616614 -0.0695490515029
474651500 0.541266911213 -0.0666129613664
474662000 0.539516297897 -0.0694125015435
474672500 0.540327339713 -0.0692938055159
474683000 0.540739554367 -0.0683713521056
474693500 0.539575046123 -0.067293679072
474704000 0.539545587308 -0.067736938076
474714500 0.540737269475 -0.0684471412116
474725000 0.540360609022 -0.0691007705918
474735500 0.540451195814 -0.0688440309356
474746000 0.540140107497 -0.0689993307854
474756500 0.540254930909 -0.0691231299545
474767000 0.540336143286 -0.0688777520529
474777500 0.540558844087 -0.0691813365557
474788000 0.540719850809 -0.0687318723338
474798500 0.541382189621 -0.0695437546493
474809000 0.540745315672 -0.0690793966244
474819500 0.541146560395 -0.0688379176902
474830000 0.540124567718 -0.0688281112897
474840500 0.540213608667 -0.0689028705957
474851000 0.54113876764 -0.0701884825669
474861500 0.541127296375 -0.0692993109474
474872000 0.541205963825 -0.0685276073131
474882500 0.541322640935 -0.0687813708686
474893000 0.541213435914 -0.0688932722118
474903500 0.540329128975 -0.0691568061574
474914000 0.541175499191 -0.0686320965093
474924500 0.541083681392 -0.0692045892014
474935000 0.54105330432 -0.0688927163418
474945500 0.541197092643 -0.0691570635795
474956000 0.541373966612 -0.0693914136398
474966500 0.541339913101 -0.0691570728578
474977000 0.54131493528 -0.0693268598185
474987500 0.541426327234 -0.0704609775181
474998000 0.541210334698 -0.0695538754549
475008500 0.54213745043 -0.0692079740112
475019000 0.541415053651 -0.0688785265909
475029500 0.541094293989 -0.0679176756363
475040000 0.541732408971 -0.0688583269856
475050500 0.541424695182 -0.0686349439241
475061000 0.541712204232 -0.0692032734868
475071500 0.541599232958 -0.0687785851419
475082000 0.541758198425 -0.0694459706761
475092500 0.541093286468 -0.0690582361214
475103000 0.541526935254 -0.0689287830247
475113500 0.541930871305 -0.0695161847636
475124000 0.542240567417 -0.069295057096
475134500 0.541217589048 -0.0694984831829
475145000 0.542025985619 -0.0694390571852
475155500 0.541339839349 -0.0692317257729
475166000 0.541657699279 -0.0696604615667
475176500 0.541767514146 -0.0690227327977
475187000 0.541627648322 -0.0695692652453
475197500 0.541553521121 -0.0689366503046
475208000 0.541145742531 -0.0689087660939
475218500 0.542156190845 -0.069215092553
475229000 0.541685270736 -0.0691954983239
475239500 0.541818611969 -0.0701497047128
475250000 0.542621440768 -0.0696831801422
475260500 0.542772783671 -0.069774647649
475271000 0.542947094676 -0.069696830401
475281500 0.542430665486 -0.0702464137446
475292000 0.542092694248 -0.0692810037212
475302500 0.54223521216 -0.0689509380406
475313000 0.542185403178 -0.0690348766143
475323500 0.542619355887 -0.0698530365938
475334000 0.542734555725 -0.0697346040061
475344500 0.542814652785 -0.0693280402311
475355000 0.542557149079 -0.0687431137106
475365500 0.543467786801 -0.0696757370123
475376000 0.543135281954 -0.0696474093475
475386500 0.543821466327 -0.0708899747054
475397000 0.544296002065 -0.0690000323056
475407500 0.543421822919 -0.0697733263738
475418000 0.54337248651 -0.0700712197162
475428500 0.543104331378 -0.0696194760031
475439000 0.54313417797 -0.0696491856223
475449500 0.543058695859 -0.069664126115
475460000 0.543104229993 -0.0696752451957
475470500 0.544050995225 -0.0699579092626
475481000 0.543153019398 -0.0702091553168
475491500 0.543275372295 -0.069789889408
475502000 0.543671405676 -0.0699821562304
475512500 0.543699250626 -0.0695760558269
475523000 0.543493905009 -0.0692240147601
475533500 0.542917551137 -0.0702184009497
475544000 0.543702302659 -0.0697826356584
475554500 0.543747690323 -0.0709398122539
475565000 0.543742535316 -0.0697747278594
475575500 0.543490238314 -0.0695159384419
475586000 0.543378476052 -0.0699043585048
475596500 0.544168547331 -0.0695037741111
475607000 0.544258915355 -0.070038397692
475617500 0.543805927773 -0.0695540278749
475628000 0.544009430462 -0.0702450737526
475638500 0.544024035846 -0.0705158519189
475649000 0.544181502644 -0.0703867763394
475659500 0.544490923598 -0.0696630385938
475670000 0.543838005152 -0.070166298256
475680500 0.544329583084 -0.0700999280211
475691000 0.543967326165 -0.0698392361152
475701500 0.544122405913 -0.0701710856547
475712000 0.544556502445 -0.0704093399949
475722500 0.544485994314 -0.0707270510757
475733000 0.545121076539 -0.071250256144
475743500 0.543937095478 -0.0700039256567
475754000 0.544108999134 -0.0711237326777
475764500 0.543750180601 -0.0704176389289
475775000 0.543514124145 -0.0701249769546
475785500 0.544776635947 -0.0695405907975
475796000 0.54417329821 -0.0697991196119
475806500 0.544982727164 -0.0703716515411
475817000 0.544468836847 -0.0700507204884
475827500 0.544420022543 -0.0706425059049
475838000 0.545006230234 -0.0702938940307
475848500 0.545337124171 -0.0704965327572
475859000 0.544819563848 -0.0706114878836
475869500 0.544518524232 -0.0697524239685
475880000 0.544991489623 -0.069889817982
475890500 0.544854842984 -0.0710287481993
475901000 0.545542906746 -0.0703816217974
475911500 0.545312337673 -0.0703397984305
475922000 0.545682779984 -0.070728595598
475932500 0.545462840413 -0.0702549984268
475943000 0.544728347571 -0.0703341637596
475953500 0.545181920245 -0.0702682491637
475964000 0.545312726051 -0.0705243033385
475974500 0.545106049822 -0.0709486163784
475985000 0.544816212233 -0.0704888041289
475995500 0.544907539242 -0.0705287215426
476006000 0.545633313056 -0.0703803307959
476016500 0.546016647095 -0.0701575245779
476027000 0.545980135475 -0.0707571372676
476037500 0.545280591857 -0.0700800791224
476048000 0.545828242595 -0.0706349185497
476058500 0.546121760996 -0.0704063985632
476069000 0.546293536602 -0.0706806019613
476079500 0.546193784065 -0.0700555790438
476090000 0.54607829847 -0.0698047221292
476100500 0.545199639547 -0.0699444145085
476111000 0.546378840846 -0.0696819502859
476121500 0.546877121709 -0.069585763317
476132000 0.546283639729 -0.0697758531419
476142500 0.546459201797 -0.0698995874995
476153000 0.546505850715 -0.069770499341
476163500 0.546622317928 -0.0703502674332
476174000 0.546164435721 -0.070047879161
476184500 0.547356024654 -0.070082183475
476195000 0.54617126565 -0.0703105259464
476205500 0.547058308176 -0.0703789656538
476216000 0.547169715681 -0.0708885189101
476226500 0.547506704889 -0.0692222682674
476237000 0.54746977494 -0.07127694936
476247500 0.548218858436 -0.0707439819499
476258000 0.546922934694 -0.0704387400529
476268500 0.546904215053 -0.0708759585806
476279000 0.546549583026 -0.071004180783
476289500 0.546487722522 -0.0711019522069
476300000 0.547032142641 -0.0717383961788
476310500 0.546189902542 -0.0707291761533
476321000 0.547189874898 -0.0712605428002
476331500 0.546806029277 -0.0713312413777
476342000 0.546155412304 -0.0710775380902
476352500 0.547144211743 -0.0715905635246
476363000 0.54752076126 -0.0712454534728
476373500 0.547509348687 -0.0712557686678
476384000 0.546560888937 -0.0709097477642
476394500 0.54703447855 -0.0711551728185
476405000 0.547229367813 -0.0705063069578
476415500 0.547997618146 -0.0705128036507
476426000 0.547582879121 -0.0711327474541
476436500 0.547418301625 -0.0709203087119
476447000 0.547194697685 -0.070450060512
476457500 0.547743467078 -0.0700853544351
476468000 0.548161823048 -0.0704827548546
476478500 0.548094018551 -0.0702943262048
476489000 0.546880253036 -0.0703986239714
476499500 0.547789596521 -0.0700948192629
476510000 0.547607257228 -0.0710368044741
476520500 0.547664283765 -0.069996420718
476531000 0.54729765252 -0.0706372946001
476541500 0.547420146786 -0.0709943080473
476552000 0.547792620451 -0.0711881433661
476562500 0.548098251172 -0.0707338343025
476573000 0.54828391821 -0.0710582801071
476583500 0.547554338973 -0.0710373192888
476594000 0.548395478407 -0.0705960811913
476604500 0.54822190106 -0.0712459887758
476615000 0.547887204688 -0.0705313548576
476625500 0.546830641284 -0.0710629978533
476636000 0.521059515361 -0.0873894427516
476646500 0.541132925738 -0.0701980457726
476657000 0.547208109609 -0.0686669195829
476667500 0.54430605526 -0.0759453371846
476678000 0.549053972544 -0.0696773925572
476688500 0.548861219599 -0.0698441830408
476699000 0.549276367926 -0.0712096731754
476709500 0.549414159251 -0.0703204027013
476720000 0.5483823062 -0.0713838394797
476730500 0.54896184348 -0.0715083790017
476741000 0.548613916515 -0.0702314857687
476751500 0.549360346413 -0.0715666707252
476762000 0.549156597538 -0.0718962891741
476772500 0.549305978589 -0.0716863560008
476783000 0.550073720624 -0.0717072200583
476793500 0.549507847997 -0.0721645515914
476804000 0.549057770138 -0.0706635278829
476814500 0.549438450614 -0.0716276997469
476825000 0.549148057401 -0.0708646777746
476835500 0.548344140928 -0.0714917159377
476846000 0.5492597103 -0.0706644091135
476856500 0.549316741363 -0.0711000193077
476867000 0.549988954823 -0.0702187258726
476877500 0.550029600126 -0.0708881223662
476888000 0.548802573891 -0.0712479017458
476898500 0.549884021166 -0.0707924140725
476909000 0.549575511479 -0.0704946432621
476919500 0.549378125858 -0.071306404729
476930000 0.550527403315 -0.0715598353273
476940500 0.54985844113 -0.0718318881869
476951000 0.549796340324 -0.0723560422395
476961500 0.550394875092 -0.0715580716974
476972000 0.549800392351 -0.0716050183127
476982500 0.550656019867 -0.0715365016489
476993000 0.55038658603 -0.0710299654043
477003500 0.549757885613 -0.0717446711333
477014000 0.549868554234 -0.0717783638259
477024500 0.550151630065 -0.0712859414698
477035000 0.549420795877 -0.0718380088246
477045500 0.550685587008 -0.071338324809
477056000 0.549979360149 -0.0719399925005
477066500 0.549821998008 -0.0717278013973
477077000 0.550338315981 -0.0707410741466
477087500 0.550601438462 -0.0712990619383
477098000 0.550544216747 -0.0719234340651
477108500 0.550754924376 -0.0720940336038
477119000 0.550536624446 -0.0717128354066
477129500 0.550844545654 -0.0726840339318
477140000 0.550924470927 -0.0709023122144
477150500 0.550472905988 -0.0718106032475
477161000 0.550373079025 -0.0724327423518
477171500 0.550194320986 -0.0721028287947
477182000 0.551740526533 -0.0727024572014
477192500 0.550597890938 -0.0725577189067
477203000 0.550817990336 -0.0725060473431
477213500 0.550303946747 -0.0717674584674
477224000 0.550650196369 -0.0716281548569
477234500 0.550764760203 -0.0710881462811
477245000 0.550324684376 -0.0707645235397
477255500 0.549956990782 -0.0717570017395
477266000 0.550405259161 -0.0719046918323
477276500 0.55116985089 -0.0721970965645
477287000 0.551211149444 -0.0716708578867
477297500 0.550627755601 -0.0722668067224
477308000 0.551016396731 -0.0723511063602
477318500 0.550576380098 -0.0718368765866
477329000 0.551373824875 -0.0714625068506
477339500 0.551163676817 -0.0719721945959
477350000 0.551137200758 -0.0716036505365
477360500 0.551538704717 -0.0721100853123
477371000 0.551810131685 -0.0716112448273
477381500 0.55198691082 -0.0720737331561
477392000 0.551572078206 -0.0725513332724
477402500 0.552197223201 -0.0696846507643
477413000 0.552256732719 -0.0710437370094
477423500 0.551893797674 -0.0716988351712
477434000 0.551662417296 -0.0709705068374
477444500 0.552083526339 -0.0709582508263
477455000 0.554219063661 -0.0713480512278
477465500 0.5522303236 -0.0727974441349
477476000 0.553759199742 -0.0719422751153
477486500 0.551771523458 -0.0716300459015
477497000 0.552322030148 -0.069449765897
477507500 0.550125624787 -0.0713916388828
477518000 0.550502850947 -0.0720264926778
477528500 0.551154449526 -0.0710528408008
477539000 0.551775372257 -0.0705481390854
477549500 0.55446543878 -0.0698515877573
477560000 0.550793659373 -0.0729308648029
477570500 0.550356049705 -0.0717408640775
477581000 0.550178830111 -0.0723239916669
477591500 0.552726696572 -0.071421136375
477602000 0.552631460956 -0.073355030095
477612500 0.5532841017 -0.0728522331442
477623000 0.553987214818 -0.0738409260716
477633500 0.55493180184 -0.0726289518581
477644000 0.551705331083 -0.073190562623
477654500 0.554718649048 -0.0743493206929
477665000 0.552377747613 -0.0733614099029
477675500 0.552505975653 -0.0706985385471
477686000 0.551778408619 -0.067187982845
477696500 0.556248394303 -0.0720277439717
477707000 0.552875689968 -0.0715977468932
477717500 0.551870425514 -0.0727411165151
477728000 0.553490826783 -0.0731068032461
477738500 0.550578504255 -0.070836422307
477749000 0.551795813379 -0.073685928043
477759500 0.552536818684 -0.0711911301339
477770000 0.55109647865 -0.071168276117
477780500 0.55176426073 -0.0723977277954
477791000 0.552716717196 -0.0728252804096
477801500 0.555376843826 -0.070693729936
477812000 0.551811276123 -0.0740475437657
477822500 0.55246426057 -0.0726379321642
477833000 0.554199459056 -0.0734115389367
477843500 0.552642716225 -0.0710362265499
477854000 0.553173207509 -0.0719360378018
477864500 0.552349437467 -0.074101390246
477875000 0.553530550265 -0.0711765009476
477885500 0.556429075451 -0.0715945585514
477896000 0.55289347599 -0.0721389747394
477906500 0.553352456061 -0.0723524595361
477917000 0.553144517159 -0.0712915003807
477927500 0.555182006984 -0.0733549087275
477938000 0.554907654788 -0.0741192455153
477948500 0.554244723519 -0.0704095974459
477959000 0.55487965738 -0.0708190539074
477969500 0.554257968982 -0.0716400166203
477980000 0.549857900323 -0.0709244246053
477990500 0.550046024511 -0.0726844062921
478001000 0.553627690448 -0.0732272173067
478011500 0.550008930107 -0.0722657717348
478022000 0.553064910741 -0.0724207439653
478032500 0.556783577659 -0.0721592048458
478043000 0.561668170233 -0.0750217912721
478053500 0.554248761241 -0.0698246034568
478064000 0.553113892987 -0.0704835378183
478074500 0.557385046256 -0.0786420216481
478085000 0.555410710498 -0.070597386605
478095500 0.569726226185 -0.0770871664602
478106000 0.548172836086 -0.074448192001
478116500 0.554867434764 -0.0720364126915
478127000 0.55987601861 -0.0701006083949
478137500 0.558664833845 -0.0755049275931
478148000 0.560016037982 -0.0723445412101
478158500 0.546117317223 -0.078286059632
478169000 0.549291228865 -0.0737666713401
478179500 0.546697269548 -0.0772177744904
478190000 0.551825672565 -0.0711539651489
478200500 0.545299629599 -0.0878175420597
478211000 0.55871409793 -0.0660578531504
478221500 0.551780436147 -0.0646607743049
478232000 0.526654796951 -0.0533431435235
478242500 0.551075454786 -0.091219025254
478253000 0.559230170793 -0.0754401010355
478263500 0.566441894093 -0.0633133956047
478274000 0.55073230139 -0.0664714451866
478284500 0.556401120893 -0.0746936556819
478295000 0.545926750989 -0.0736920377845
478305500 0.564947149609 -0.0485590170007
478316000 0.556461822545 -0.0720686281006
478326500 0.544720597325 -0.0669745684394
478337000 0.567341716252 -0.0766321127492
478347500 0.552559486988 -0.0947929496524
478358000 0.544785074726 -0.0578157004026
478368500 0.549801091945 -0.0870297444102
478379000 0.547561580126 -0.0740283326847
478389500 0.540930521463 -0.0642293217109
478400000 0.560593318302 -0.0881445561506
478410500 0.524730872993 -0.0608152566208
478421000 0.550030757701 -0.0695835765487
478431500 0.554473591567 -0.0787382615915
478442000 0.559717901685 -0.047157480635
478452500 0.542589765311 -0.0985685307435
478463000 0.5568804176 -0.0905622196332
478473500 0.560783669408 -0.0669502365822
478484000 0.578087004142 -0.0818478246663
478494500 0.564534531225 -0.0851479499077
478505000 0.56578728176 -0.0704752675214
478515500 0.574630629979 -0.0547947670578
478526000 0.574958978426 -0.0684182951415
478536500 0.545661663487 -0.0661166467664
478547000 0.555912311929 -0.095977216647
478557500 0.547733405228 -0.065864683451
478568000 0.551396292777 -0.0876973445152
478578500 0.562901572932 -0.0676227435844
478589000 0.55089106104 -0.0709323507288
478599500 0.546843191131 -0.0953812598925
478610000 0.544925356882 -0.070851613173
478620500 0.540075013903 -0.0636430934944
478631000 0.561695474226 -0.0959283667671
478641500 0.527972575346 -0.0622793623112
478652000 0.544778278461 -0.0844519786955
478662500 0.547514042331 -0.0911936503463
478673000 0.563766488463 -0.0910439276012
478683500 0.557832648914 -0.0735147682455
478694000 0.557363098047 -0.0814558413244
478704500 0.547594868121 -0.0536520316304
478715000 0.546278351908 -0.0796832496429
478725500 0.533336412212 -0.0831179124651
478736000 0.559551549439 -0.0751355493975
478746500 0.573422583038 -0.0700130770627
478757000 0.553112645922 -0.0666964781322
478767500 0.553450911215 -0.0713895590505
478778000 0.558628555543 -0.0758413454823
478788500 0.539562432315 -0.0758793071668
478799000 0.566890411137 -0.0802529594663
478809500 0.560069664495 -0.0635696534178
478820000 0.565151948057 -0.0822338687028
478830500 0.551156878759 -0.060112493993
478841000 0.559780212092 -0.0906248507175
478851500 0.55662638952 -0.0704773128327
478862000 0.562676460811 -0.0747844446222
478872500 0.558707613856 -0.07483746294
478883000 0.556107967734 -0.0744566216932
478893500 0.557613435453 -0.0739126821631
478904000 0.555881626509 -0.0781150946357
478914500 0.561137001643 -0.0718715900481
478925000 0.556233883665 -0.0723213486466
478935500 0.556057426456 -0.0760245374365
478946000 0.552753934536 -0.0800103365517
478956500 0.558610000007 -0.0784394939215
478967000 0.55824199856 -0.0737588560301
478977500 0.557210097595 -0.0728458589178
478988000 0.558208441656 -0.0737137688466
478998500 0.558823132871 -0.0742113545173
479009000 0.560471047262 -0.0736751143594
479019500 0.562057610829 -0.074375814329
479030000 0.557508903575 -0.0730742103997
479040500 0.558176742437 -0.0726401269285
479051000 0.558621896954 -0.0744789499129
479061500 0.557919107731 -0.0722349793579
479072000 0.558596328899 -0.0739533476223
479082500 0.559934639674 -0.0739558372681
479093000 0.558732961129 -0.0734923613529
479103500 0.55835566343 -0.0730698710236
479114000 0.557950474758 -0.074809862571
479124500 0.559905485507 -0.0755675956116
479135000 0.557983676577 -0.0742348116648
479145500 0.559099752123 -0.0726681637315
479156000 0.558845226317 -0.0733727655093
479166500 0.560144251263 -0.073917511177
479177000 0.561011690113 -0.0734269593533
479187500 0.559279003284 -0.074879763305
479198000 0.559312309278 -0.0730182423945
479208500 0.559952051758 -0.075600180551
479219000 0.556969874296 -0.0725244207738
479229500 0.559554442706 -0.073177179158
479240000 0.559057311401 -0.0743156318952
479250500 0.560065027237 -0.0738268564901
479261000 0.561974903585 -0.0752605591359
479271500 0.558923095698 -0.0772683360834
479282000 0.55997755726 -0.0728644766549
479292500 0.5600778151 -0.0763448681491
479303000 0.55968809506 -0.0752918128181
479313500 0.561378045253 -0.0729705220962
479324000 0.56010793844 -0.073739609888
479334500 0.559417606661 -0.0733772933347
479345000 0.557903454327 -0.0761080059569
479355500 0.558621421007 -0.0752264970792
479366000 0.561029279618 -0.0743743674856
479376500 0.561377167558 -0.0739437824654
479387000 0.561580386006 -0.0761604910438
479397500 0.558244432291 -0.0732591506611
479408000 0.560621562951 -0.0744485571613
479418500 0.558703777668 -0.0749273179101
479429000 0.559243373543 -0.075559914715
479439500 0.562156484761 -0.073697570279
479450000 0.55895962045 -0.0774512114576
479460500 0.559697148403 -0.075588410888
479471000 0.5596753335 -0.0739406967032
479481500 0.559478567685 -0.0751707372979
479492000 0.560463410121 -0.0745384925351
479502500 0.55933404952 -0.0741463365104
479513000 0.561242311101 -0.0744438953049
479523500 0.561093165435 -0.0746556816642
479534000 0.560757640623 -0.0750276280175
479544500 0.561532665058 -0.0753746533128
479555000 0.561430695783 -0.075140435769
479565500 0.560406257016 -0.0743182083667
479576000 0.5608971908 -0.0734609736874
479586500 0.560150361159 -0.0747162433081
479597000 0.561837047676 -0.0737030453792
479607500 0.560102974284 -0.0746570382168
479618000 0.561114667318 -0.0742147035533
479628500 0.56136368093 -0.0739515859682
479639000 0.561635623199 -0.0747751036204
479649500 0.561785040124 -0.0747755132854
479660000 0.561301127092 -0.0746717067366
479670500 0.562451185261 -0.0747787041182
479681000 0.561704882828 -0.0751572731584
479691500 0.560956462171 -0.0745113416378
479702000 0.561586546485 -0.0747433419405
479712500 0.561299989638 -0.0748077258319
479723000 0.561131928758 -0.0749019151133
479733500 0.561705670966 -0.0751618021542
479744000 0.561882095463 -0.0748780180134
479754500 0.562063317424 -0.0745132025131
479765000 0.561894794043 -0.0749223119584
479775500 0.562266525663 -0.0747978629612
479786000 0.561766816294 -0.0746157534042
479796500 0.562504040422 -0.075180097594
479807000 0.562429044983 -0.0741915642231
479817500 0.561417948943 -0.0750891831026
479828000 0.562135498186 -0.0757551907437
479838500 0.563893321286 -0.0742671833947
479849000 0.563450324557 -0.0757394868161
479859500 0.562388072065 -0.0766414640215
479870000 0.563046238982 -0.0745836166129
479880500 0.561858780195 -0.0748796068992
479891000 0.563670063784 -0.0751968196032
479901500 0.562079811636 -0.0751652990156
479912000 0.561813088606 -0.0752173180574
479922500 0.561559782489 -0.0754204589442
479933000 0.562279774069 -0.0748317326321
479943500 0.563058109095 -0.0755564851996
479954000 0.564589547261 -0.0737454728183
479964500 0.563381557796 -0.0749642970215
479975000 0.563305083075 -0.0747312130361
479985500 0.562027366818 -0.0743361379731
479996000 0.562905781555 -0.074830722299
480006500 0.562555265689 -0.0752466561278
480017000 0.56426865128 -0.0750595897931
480027500 0.562670176161 -0.0746042693384
480038000 0.563588129986 -0.075782591851
480048500 0.563690816683 -0.0746294036902
480059000 0.562955964576 -0.0753386377656
480069500 0.562404489937 -0.075490600724
480080000 0.562599407861 -0.0745132940461
480090500 0.562915149485 -0.0744261241233
480101000 0.564437216376 -0.0754146635074
480111500 0.563397343259 -0.0745819215291
480122000 0.563194897911 -0.0756835165186
480132500 0.563198752632 -0.0762295458073
480143000 0.564598410251 -0.0760281815453
480153500 0.565140835608 -0.0757794600123
480164000 0.563610337111 -0.0761935045956
480174500 0.563425471877 -0.0757864248057
480185000 0.563447327383 -0.0763246014234
480195500 0.563043595052 -0.0748456580112
480206000 0.56420064833 -0.0756584513786
480216500 0.563958253778 -0.0753586984163
480227000 0.563867674856 -0.075599619556
480237500 0.563348633772 -0.0749009409621
480248000 0.56321836453 -0.0769281521695
480258500 0.563243639881 -0.0761562379737
480269000 0.560815305264 -0.0794696352454
480279500 0.563962453254 -0.0757168831338
480290000 0.563214382024 -0.0755719164131
480300500 0.565514090312 -0.0761102528221
480311000 0.56482695196 -0.0755056018325
480321500 0.563957664729 -0.0771112240674
480332000 0.564469467126 -0.0759766300646
480342500 0.56425791636 -0.0754418296337
480353000 0.564688231517 -0.0735800689377
480363500 0.56575270094 -0.0760427595683
480374000 0.56481950508 -0.075522856377
480384500 0.564246642966 -0.0771047082308
480395000 0.564819122722 -0.0758840444436
480405500 0.5642366523 -0.0759426791843
480416000 0.565679044693 -0.0771037817936
480426500 0.564220514222 -0.0763574650323
480437000 0.565859711102 -0.076581058937
480447500 0.566396314254 -0.0757885375756
480458000 0.565199191067 -0.0752526507726
480468500 0.564114628646 -0.0762717708455
480479000 0.565029557036 -0.0752890198702
480489500 0.564857528561 -0.0763992346936
480500000 0.566220435739 -0.0746594102914
480510500 0.565596952299 -0.07651221883
480521000 0.565205181314 -0.0746425339344
480531500 0.565652006422 -0.0757243402938
480542000 0.565211983977 -0.0764770766405
480552500 0.565382195218 -0.0761870857475
480563000 0.565864540588 -0.0770176478382
480573500 0.565718529985 -0.0776235481121
480584000 0.565269193694 -0.0753278860125
480594500 0.565561212877 -0.0756503221593
480605000 0.564565280591 -0.0762777969617
480615500 0.564802107969 -0.0756119203029
480626000 0.565683968855 -0.0768626095904
480636500 0.565848771845 -0.0757211260715
480647000 0.565623827107 -0.0752858576635
480657500 0.567275420747 -0.0743308831284
480668000 0.566496298737 -0.0758601443807
480678500 0.565518834722 -0.076704405899
480689000 0.566950129268 -0.0768512498032
480699500 0.5669408161 -0.0769867229779
480710000 0.565455882777 -0.0758138545567
480720500 0.565392427002 -0.0767958171003
480731000 0.56663701483 -0.0771264158399
480741500 0.565889932848 -0.0763027702632
480752000 0.565990702514 -0.0769907121619
480762500 0.565343417524 -0.0759771693748
480773000 0.566205069311 -0.077306534124
480783500 0.566300770821 -0.0766224404941
480794000 0.5660347376 -0.0763741631635
480804500 0.56590003209 -0.0764030211262
480815000 0.565987168389 -0.0773423028956
480825500 0.565897320512 -0.0772189494897
480836000 0.567375801955 -0.0770213560211
480846500 0.566652926473 -0.0757454455473
480857000 0.56699452662 -0.0766337959883
480867500 0.566902804176 -0.0761126577058
480878000 0.566100255399 -0.0775440402551
480888500 0.567104818291 -0.0769953817219
480899000 0.566703551835 -0.0765392376298
480909500 0.56647866905 -0.0755772701358
480920000 0.567320125795 -0.0773933770314
480930500 0.566713725447 -0.0779612798433
480941000 0.566012548097 -0.0771477342137
480951500 0.566519050074 -0.0775584887315
480962000 0.56675670604 -0.0766707982433
480972500 0.565125811355 -0.075687990737
480983000 0.56591358819 -0.0785236213057
480993500 0.566987984757 -0.0769880521383
481004000 0.566865865319 -0.0796251585944
481014500 0.566860401809 -0.0755210852834
481025000 0.568287459949 -0.0769236394948
481035500 0.56655978688 -0.0768469920636
481046000 0.565425888064 -0.0776433713711
481056500 0.566210074445 -0.0770129999124
481067000 0.566985792808 -0.0765189017177
481077500 0.569143467177 -0.0774099948583
481088000 0.565256897808 -0.0762282737994
481098500 0.567382664678 -0.0771363351418
481109000 0.568016013118 -0.0772961015985
481119500 0.566441921773 -0.0776448972104
481130000 0.567731978722 -0.0775428287558
481140500 0.566152073813 -0.0771727285507
481151000 0.565061615742 -0.0774852523131
481161500 0.567856901735 -0.0760135470462
481172000 0.566615297626 -0.0758438837836
481182500 0.568575356422 -0.0772717159044
481193000 0.568910898432 -0.0772239470598
481203500 0.567754108197 -0.0762275113512
481214000 0.567294655295 -0.07856802021
481224500 0.56828375902 -0.0771846159538
481235000 0.567985774644 -0.0771615082747
481245500 0.568479755466 -0.0771693366563
481256000 0.568241941647 -0.0776084775749
481266500 0.567726072142 -0.0777260541902
481277000 0.567831939381 -0.0763766505969
481287500 0.568323921992 -0.0769307168555
481298000 0.568784240067 -0.0810484597972
481308500 0.56805778917 -0.0773353442769
481319000 0.568358286314 -0.0773676299065
481329500 0.568656878187 -0.0768976904767
481340000 0.569117977348 -0.0778585341421
481350500 0.568369230184 -0.0768698412514
481361000 0.567924128959 -0.0777429907836
481371500 0.568035444669 -0.0792757566506
481382000 0.568009416014 -0.0775856282312
481392500 0.568658819621 -0.0774331923013
481403000 0.568845281799 -0.0774381362448
481413500 0.568453836277 -0.077517306836
481424000 0.570119087385 -0.077973034447
481434500 0.569558822988 -0.0775139109609
481445000 0.568559278827 -0.0780187958859
481455500 0.569015235003 -0.0776168550553
481466000 0.569508018123 -0.0781844203693
481476500 0.570525140765 -0.0777143826356
481487000 0.571484984725 -0.0767143582892
481497500 0.569798039052 -0.0789768767069
481508000 0.571567153989 -0.0769455001532
481518500 0.568907035085 -0.0789367706502
481529000 0.570133387645 -0.0761179639274
481539500 0.57047546501 -0.078514522093
481550000 0.568550658538 -0.0783406275754
481560500 0.569055102228 -0.0772852259508
481571000 0.570240414594 -0.078764059892
481581500 0.570992245606 -0.0775009448036
481592000 0.569701876744 -0.0816972789294
481602500 0.570570537665 -0.0778240155386
481613000 0.570185690095 -0.0770833115032
481623500 0.571250926894 -0.0774162306481
481634000 0.569909518411 -0.0765686392842
481644500 0.570363599639 -0.0789009248259
481655000 0.570879613407 -0.0768731992936
481665500 0.569606782532 -0.0776251923628
481676000 0.568352246385 -0.0774300733751
481686500 0.571843446112 -0.0764923282375
481697000 0.567336010496 -0.0798338380888
481707500 0.569629853125 -0.0801152099779
481718000 0.570679564799 -0.0791386057789
481728500 0.572617877795 -0.0777627131551
481739000 0.569552416754 -0.0797245196602
481749500 0.570300960318 -0.0791696686855
481760000 0.571207678499 -0.0787232430557
481770500 0.569869464676 -0.079210690543
481781000 0.571079563425 -0.0784490819135
481791500 0.568018933265 -0.0754566754427
481802000 0.570420590633 -0.0782501441358
481812500 0.570104865 -0.0778535387639
481823000 0.570710051339 -0.078264224078
481833500 0.571158296295 -0.0801510800072
481844000 0.57199766652 -0.0765154417457
481854500 0.570536989588 -0.0773867493698
481865000 0.571404858032 -0.0790625104258
481875500 0.572127419651 -0.0788058119305
481886000 0.5699444355 -0.0790173889141
481896500 0.572782879951 -0.0781904032095
481907000 0.57017875754 -0.0792622595274
481917500 0.570211772741 -0.0778427649818
481928000 0.570432704633 -0.0754086904438
481938500 0.569465224613 -0.0771082237262
481949000 0.57027418684 -0.0791127462437
481959500 0.570400885738 -0.0791844220115
481970000 0.573095025544 -0.0834791453224
481980500 0.571560017645 -0.0790242874845
481991000 0.572494195726 -0.0793985269412
482001500 0.57367531248 -0.0794677636864
482012000 0.570353854588 -0.0772454548059
482022500 0.57009091787 -0.0791324447367
482033000 0.570979341837 -0.081448740904
482043500 0.57107126255 -0.0798919379136
482054000 0.57317237652 -0.0768405547959
482064500 0.5720971253 -0.0777251862647
482075000 0.572847844031 -0.0780744562776
482085500 0.568477079288 -0.0907385431834
482096000 0.567504389467 -0.0843271572855
482106500 0.566392962551 -0.0873371547047
482117000 0.567625442453 -0.0732896049326
482127500 0.571182435927 -0.0780313587141
482138000 0.57501327024 -0.0758762327213
482148500 0.550585753436 -0.0809726966887
482159000 0.569377933433 -0.0861529580679
482169500 0.572033196743 -0.0790206150128
482180000 0.579019544647 -0.0760745066598
482190500 0.575392560933 -0.0782926633171
482201000 0.579880724691 -0.0886485719916
482211500 0.569560919976 -0.0758057892456
482222000 0.569842037008 -0.0744351601332
482232500 0.5750013228 -0.0833788971261
482243000 0.57719973893 -0.079951485696
482253500 0.57574992921 -0.0749955563577
482264000 0.575853693207 -0.0699525579053
482274500 0.582668722424 -0.0796195551687
482285000 0.564673046847 -0.069043030889
482295500 0.583363377055 -0.0814014624397
482306000 0.579609534981 -0.0916269957252
482316500 0.572791278905 -0.0762954787804
482327000 0.581196818383 -0.089829389123
482337500 0.571402438363 -0.0752543710407
482348000 0.569095765965 -0.0777685126342
482358500 0.577657304007 -0.0877460035966
482369000 0.593110394302 -0.0873281742693
482379500 0.584483448651 -0.0831242959998
482390000 0.571283696216 -0.0840925963164
482400500 0.585891534326 -0.0662865342886
482411000 0.574489145131 -0.0866182233585
482421500 0.579857436737 -0.0727800438962
482432000 0.573737089123 -0.0913324176444
482442500 0.571336825039 -0.0908631467122
482453000 0.57464593713 -0.0751411018304
482463500 0.5888692564 -0.0816010365687
482474000 0.563127262691 -0.0745119475568
482484500 0.583395512234 -0.0784196683137
482495000 0.579967875934 -0.0775143953869
482505500 0.58469701596 -0.0912639438121
482516000 0.581983945371 -0.0797095594985
482526500 0.575891380957 -0.0740145239711
482537000 0.556926445689 -0.0760525179617
482547500 0.611007295948 -0.0863941860048
482558000 0.583646522785 -0.075001645593
482568500 0.55906759608 -0.0848418960402
482579000 0.584618991223 -0.093441128473
482589500 0.58206564046 -0.0854701129731
482600000 0.574086276957 -0.0880076010199
482610500 0.571755564879 -0.0727784191579
482621000 0.550985299406 -0.085535909314
482631500 0.564072392498 -0.0850577347137
482642000 0.581148266584 -0.094505991762
482652500 0.576047538134 -0.0806117768701
482663000 0.573176753342 -0.0824347562781
482673500 0.5764737148 -0.0749119798738
482684000 0.580509350009 -0.0790468221374
482694500 0.585519583919 -0.0802523188593
482705000 0.557797183177 -0.0719450509873
482715500 0.57466238328 -0.0773210879391
482726000 0.567281319757 -0.0766293018276
482736500 0.572152480037 -0.0670278648542
482747000 0.581846376091 -0.0843207134914
482757500 0.579687347084 -0.0704028560833
482768000 0.581422047906 -0.0846294767877
482778500 0.576322220844 -0.0804411030119
482789000 0.572586642921 -0.0772320291707
482799500 0.582526599777 -0.0826174800982
482810000 0.572083528842 -0.0873511891287
482820500 0.584023029369 -0.0736474177964
482831000 0.57132822701 -0.0820736339221
482841500 0.576201133853 -0.0892298855133
482852000 0.577245907618 -0.0789306369958
482862500 0.567171325859 -0.0791048041554
482873000 0.574821983973 -0.0796103478237
482883500 0.572373867303 -0.0820082605125
482894000 0.57500754332 -0.0783886936999
482904500 0.574680064948 -0.0812981498706
482915000 0.574929829178 -0.0812458333779
482925500 0.576716262312 -0.0803254252779
482936000 0.577452687217 -0.0828021244563
482946500 0.572339916294 -0.0809559456124
482957000 0.573580905183 -0.0786365446074
482967500 0.574620117251 -0.0805443216844
482978000 0.574821080601 -0.0797710349426
482988500 0.57465973154 -0.080814182346
482999000 0.572860276917 -0.0814486957538
483009500 0.576362938479 -0.0818005557411
483020000 0.574390742337 -0.0828580444728
483030500 0.577125448489 -0.0812247246752
483041000 0.575658170871 -0.0819732482651
483051500 0.576412480309 -0.0826873285423
483062000 0.574402018034 -0.0785286711983
483072500 0.574032959062 -0.0788463597736
483083000 0.576224089703 -0.0815661252283
483093500 0.576154439194 -0.0805787522415
483104000 0.576932259642 -0.0814053954467
483114500 0.575225574264 -0.0832535040772
483125000 0.577898393317 -0.0799594800985
483135500 0.574653889749 -0.0810576689842
483146000 0.578182712764 -0.0816232179227
483156500 0.574245430078 -0.079679975814
483167000 0.574277992108 -0.0835668942101
483177500 0.575350980363 -0.0807110006556
483188000 0.574953864234 -0.0813159391513
483198500 0.576385822508 -0.0788345885553
483209000 0.5752497218 -0.0832637679032
483219500 0.576737858369 -0.081531100459
483230000 0.578749551585 -0.0782750679229
483240500 0.578296204439 -0.0819341848827
483251000 0.575755197628 -0.0789535779467
483261500 0.575303014984 -0.0810050981556
483272000 0.577630764148 -0.0861946142306
483282500 0.576561540565 -0.0838402545096
483293000 0.575354413357 -0.0796795916311
483303500 0.577337864274 -0.0802243866413
483314000 0.570831406671 -0.0750204132039
483324500 0.578714802959 -0.0787808012172
483335000 0.575564597155 -0.0825306882344
483345500 0.581179135116 -0.0829785817548
483356000 0.573745553091 -0.0838665230716
483366500 0.57920725628 -0.0783602477548
483377000 0.572150311351 -0.0797585077978
483387500 0.57934487204 -0.0821761380335
483398000 0.575086200759 -0.0829500449386
483408500 0.580133839021 -0.0794271500941
483419000 0.5792754816 -0.0799927830358
483429500 0.579940583692 -0.0836453473277
483440000 0.579730768491 -0.0822531116931
483450500 0.576406033617 -0.0837073211852
483461000 0.577608875057 -0.0815737100565
483471500 0.57821353725 -0.0800273703079
483482000 0.578065481687 -0.0816460118572
483492500 0.577761350837 -0.0832463342649
483503000 0.575057713582 -0.0811508313008
483513500 0.580267329397 -0.0781870505446
483524000 0.577975803314 -0.0823251677792
483534500 0.575119700082 -0.0821430831739
483545000 0.578534708636 -0.082280548203
483555500 0.578800828954 -0.0816965269237
483566000 0.578232293399 -0.0818164050362
483576500 0.578475193097 -0.0829186731893
483587000 0.577287496494 -0.083205490932
483597500 0.577590349347 -0.0832381267402
483608000 0.577875482142 -0.0822823621973
483618500 0.578038021298 -0.0827317757726
483629000 0.577921547546 -0.0823525581004
483639500 0.579812361835 -0.0822121522384
483650000 0.578806144649 -0.0823775946568
483660500 0.578892587964 -0.0827384818725
483671000 0.579299336469 -0.0827054700927
483681500 0.580225306561 -0.0821643084131
483692000 0.577972760025 -0.0818411838213
483702500 0.579014498706 -0.0811830303132
483713000 0.578458401135 -0.0830089173858
483723500 0.578777150814 -0.0830959155776
483734000 0.578801811683 -0.0831433591124
483744500 0.579067859303 -0.0835488059136
483755000 0.579200153533 -0.082688912259
483765500 0.580369241427 -0.0823666168684
483776000 0.579439138008 -0.0827237994326
483786500 0.578521270341 -0.0831888144219
483797000 0.578683727293 -0.0831274262402
483807500 0.580250449761 -0.082422124263
483818000 0.579108088862 -0.0824331493473
483828500 0.579789233452 -0.0827445385849
483839000 0.57939732713 -0.0835060407941
483849500 0.578857374187 -0.0825907864601
483860000 0.579397007014 -0.0830894927201
483870500 0.57954722765 -0.0825987545648
483881000 0.578407689602 -0.0818949081474
483891500 0.579326044945 -0.0831025442146
483902000 0.579415527996 -0.0833107217011
483912500 0.5787095892 -0.0830741763108
483923000 0.579384618738 -0.0831027561805
483933500 0.57883125163 -0.0826359483916
483944000 0.579323777659 -0.08325605311
483954500 0.579253361083 -0.0837230744222
483965000 0.57915867897 -0.0831586990372
483975500 0.580467316208 -0.0840739802098
483986000 0.580251205286 -0.08411732927
483996500 0.579568017127 -0.0841975625887
484007000 0.579861794334 -0.0840636410968
484017500 0.580036672314 -0.0826615093585
484028000 0.579436361335 -0.0830844211728
484038500 0.579633411706 -0.0837441004916
484049000 0.579957844475 -0.0833739620754
484059500 0.57918567341 -0.0842441325535
484070000 0.579791044011 -0.0838157576929
484080500 0.5799475903 -0.0835481075293
484091000 0.579778911705 -0.0827649925025
484101500 0.580563553338 -0.0836560811602
484112000 0.580194269308 -0.0837981717278
484122500 0.579291708603 -0.0835849944803
484133000 0.580120168352 -0.0834588580896
484143500 0.579996519243 -0.0830761362436
484154000 0.580361308073 -0.0838524212787
484164500 0.580038729714 -0.0831242337989
484175000 0.579601909436 -0.0836312535885
484185500 0.580492480058 -0.0836818500632
484196000 0.580580650242 -0.0840282686614
484206500 0.580154367327 -0.0838627161532
484217000 0.581209059289 -0.0827731403968
484227500 0.580252880117 -0.0838049530594
484238000 0.580164633862 -0.0842590468469
484248500 0.579793245641 -0.0835682446258
484259000 0.579944600722 -0.0835149395511
484269500 0.580743535514 -0.0835729299118
484280000 0.580191012763 -0.0840776569349
484290500 0.581282454034 -0.0831408242476
484301000 0.581347561399 -0.083941794524
484311500 0.58146142958 -0.0828905189546
484322000 0.580106734343 -0.0846191495776
484332500 0.581402185792 -0.0830242975155
484343000 0.580590576947 -0.0849922263078
484353500 0.582019579785 -0.0845215261219
484364000 0.581629470264 -0.0836344106395
484374500 0.581740786238 -0.08279153284
484385000 0.582077266358 -0.0840891153924
484395500 0.580856358821 -0.0843590524909
484406000 0.581129422224 -0.0840192342731
484416500 0.581542202552 -0.0843783466594
484427000 0.580721291599 -0.0839851053191
484437500 0.581470039131 -0.0843354446195
484448000 0.580735525908 -0.0841540944849
484458500 0.581187652105 -0.0842575697476
484469000 0.581812154231 -0.0846571431472
484479500 0.581633679227 -0.0846842068572
484490000 0.582079906887 -0.0847071083481
484500500 0.582095534159 -0.0840263114983
484511000 0.581894607107 -0.0841618842308
484521500 0.582140333947 -0.0845821073934
484532000 0.582691011596 -0.0844801330306
484542500 0.582182531624 -0.0845069899862
484553000 0.58198283165 -0.0849590835689
484563500 0.582475831459 -0.0854310536702
484574000 0.5818460158 -0.0848893474395
484584500 0.581783072272 -0.0850835780725
484595000 0.581402972612 -0.0847583350004
484605500 0.58189866356 -0.0847201486556
484616000 0.582154232606 -0.0864910629232
484626500 0.582631194484 -0.0859916545881
484637000 0.582708167727 -0.0849789402747
484647500 0.582024936758 -0.0851624184139
484658000 0.582409744445 -0.0841250701304
484668500 0.582583504586 -0.0853258639897
484679000 0.583073879781 -0.0852195453502
484689500 0.582756180357 -0.0853961314578
484700000 0.582699475273 -0.0849908741429
484710500 0.5826237637 -0.0859942072034
484721000 0.582860882648 -0.0852545708668
484731500 0.582571134901 -0.0844789701327
484742000 0.582906218522 -0.0852350714322
484752500 0.582314959526 -0.0850218670795
484763000 0.582499572465 -0.0858005588963
484773500 0.582872499286 -0.0855754161311
484784000 0.582377413831 -0.0858969841985
484794500 0.582962530174 -0.0858483856726
484805000 0.583150747933 -0.0851358738208
484815500 0.583532539937 -0.0850336237546
484826000 0.58280481431 -0.0849838912006
484836500 0.583757492898 -0.084980748498
484847000 0.583523704823 -0.0842504195505
484857500 0.583759166125 -0.0854023397809
484868000 0.583106323663 -0.0852842328125
484878500 0.583166432291 -0.085083730996
484889000 0.58261718694 -0.0857490238228
484899500 0.582318261913 -0.0865133581775
484910000 0.582791173812 -0.0862672885519
484920500 0.583120435764 -0.0858324306283
484931000 0.582765376599 -0.0855507993102
484941500 0.58352241562 -0.0851991038325
484952000 0.58343014477 -0.0852240502725
484962500 0.582927544715 -0.085625662875
484973000 0.582011155459 -0.085400419036
484983500 0.582442142086 -0.0846574709323
484994000 0.583098380028 -0.0854187634781
485004500 0.582376935522 -0.0855049626401
485015000 0.583374035431 -0.0856648675302
485025500 0.583523343947 -0.085820611708
485036000 0.584022854258 -0.0860120487589
485046500 0.583574561699 -0.0853649692472
485057000 0.583667083199 -0.0859343242839
485067500 0.583765541361 -0.0854523293934
485078000 0.584038060896 -0.0856004447102
485088500 0.583253906725 -0.0863559655705
485099000 0.583151349801 -0.0865569173582
485109500 0.583191101623 -0.0872399024537
485120000 0.583793735895 -0.088366311273
485130500 0.582986287898 -0.0867017178131
485141000 0.583783893481 -0.0866366821223
485151500 0.582965848218 -0.0861636007342
485162000 0.584408203802 -0.0862733293485
485172500 0.583567090382 -0.0863134412723
485183000 0.583323129668 -0.0862093474108
485193500 0.583881769102 -0.0856904866768
485204000 0.583975319702 -0.0856597933344
485214500 0.584129800764 -0.0864427699317
485225000 0.583422337722 -0.0858406870072
485235500 0.584291795964 -0.0866795929605
485246000 0.583842668487 -0.0866106334765
485256500 0.58421271762 -0.0872603907015
485267000 0.584046648406 -0.0870108066342
485277500 0.584510998598 -0.0868897604948
485288000 0.585057995574 -0.0873308733237
485298500 0.585434317307 -0.0868786724778
485309000 0.585515347716 -0.0873722756704
485319500 0.584405604939 -0.0878843142828
485330000 0.584219655966 -0.0866973906242
485340500 0.585731895732 -0.0874489929276
485351000 0.583151941739 -0.087303312716
485361500 0.584417995279 -0.0872122556997
485372000 0.584105292644 -0.0870077643968
485382500 0.584704392796 -0.0868256174135
485393000 0.5838309223 -0.0870282831113
485403500 0.585077291368 -0.0872606071581
485414000 0.586400999342 -0.0882231443941
485424500 0.583800772405 -0.0874154125055
485435000 0.585745757332 -0.0874169407193
485445500 0.585413363443 -0.0865884149766
485456000 0.586246733846 -0.087059082095
485466500 0.586034809681 -0.0862094778316
485477000 0.582680802018 -0.0851039255547
485487500 0.587829936119 -0.090655650522
485498000 0.583952056289 -0.0912660735702
485508500 0.583494738965 -0.0925239787135
485519000 0.584856504698 -0.087891055859
485529500 0.5862806386 -0.0868823646532
485540000 0.586469307729 -0.0863470084034
485550500 0.588684882681 -0.0860441040456
485561000 0.581841035249 -0.0878147296687
485571500 0.585468747005 -0.0840262189557
485582000 0.589090279447 -0.0860246742159
485592500 0.589203141079 -0.0783103867968
485603000 0.586657697005 -0.0921717644251
485613500 0.588998539419 -0.0934353225349
485624000 0.586423488755 -0.091531313309
485634500 0.584451461077 -0.090061601723
485645000 0.591319163069 -0.0897947355174
485655500 0.589587788683 -0.0848121488888
485666000 0.587999261218 -0.0883300830786
485676500 0.585627654183 -0.0836539616376
485687000 0.585958952212 -0.0882450924198
485697500 0.583911584848 -0.0914919292416
485708000 0.587490561824 -0.0928993197452
485718500 0.590054062873 -0.0878312575456
485729000 0.585358324963 -0.0906802413308
485739500 0.590326877714 -0.0823724095656
485750000 0.587605548736 -0.0877685846986
485760500 0.589447814319 -0.0888945762478
485771000 0.587451269528 -0.0818869288903
485781500 0.586623981806 -0.0905602164657
485792000 0.585444859968 -0.0863696773707
485802500 0.585680402957 -0.0890315541548
485813000 0.585475212787 -0.0925946315229
485823500 0.583592593916 -0.0836785566579
485834000 0.585660142084 -0.0894272657336
485844500 0.58638887717 -0.0858589804102
485855000 0.584752915922 -0.0856420930772
485865500 0.589547484337 -0.0866382395561
485876000 0.586676982762 -0.084525218116
485886500 0.588607954287 -0.0866835130561
485897000 0.589650745759 -0.0866654261183
485907500 0.585714680115 -0.0886720545504
485918000 0.587262920233 -0.0867222830517
485928500 0.587858777987 -0.0894012967467
485939000 0.585172974575 -0.0870477834001
485949500 0.587711304087 -0.0888770837194
485960000 0.58708609558 -0.0890994003518
485970500 0.588365872113 -0.0884734672299
485981000 0.587237194985 -0.0883294149733
485991500 0.584734476183 -0.087931726968
486002000 0.587096049352 -0.0880122388211
486012500 0.587881567854 -0.0866696566374
486023000 0.587037976322 -0.0884880915299
486033500 0.587568910835 -0.0886977981785
486044000 0.587343162651 -0.0883964423927
486054500 0.589418881834 -0.0907620072551
486065000 0.614640704868 -0.0902096553593
486075500 0.587605210565 -0.088649037805
486086000 0.586265290383 -0.089572144997
486096500 0.588078768722 -0.0896245021957
486107000 0.599084741569 -0.0973501679202
486117500 0.586090737119 -0.0882620909884
486128000 0.58774288581 -0.0905917412979
486138500 0.57768677047 -0.0990369911204
486149000 0.584187260769 -0.0895916798889
486159500 0.587173418483 -0.0892957945742
486170000 0.586720678474 -0.0903612984157
486180500 0.617041416237 -0.112454170037
486191000 0.589986055358 -0.0996790520941
486201500 0.58805811501 -0.0865931080712
486212000 0.610564301738 -0.105083229233
486222500 0.587626794368 -0.0863854983459
486233000 0.589247009873 -0.0891961307072
486243500 0.577615949679 -0.105716557637
486254000 0.583536024268 -0.0865715621629
486264500 0.586094180371 -0.0699071501172
486275000 0.572005612021 -0.0936791781843
486285500 0.565589497459 -0.0841592238096
486296000 0.567161086637 -0.0892681107162
486306500 0.569445748758 -0.0787988862423
486317000 0.5650938674 -0.0884570192617
486327500 0.604148644478 -0.0870554110143
486338000 0.587101014804 -0.0923022685618
486348500 0.531585361143 -0.10838180324
486359000 0.586326307331 -0.0802751251791
486369500 0.578165188765 -0.099424368424
486380000 0.572870732079 -0.104825374068
486390500 0.566844836629 -0.0757693330159
486401000 0.607506817834 -0.0915206112276
486411500 0.575493634201 -0.0737020120923
486422000 0.597716422749 -0.0613039007151
486432500 0.575100829898 -0.0993725766482
486443000 0.574858113649 -0.06327437414
486453500 0.584152144675 -0.106916997438
486464000 0.569295932509 -0.168892878733
486474500 0.586432983643 -0.104647513013
486485000 0.598267121738 -0.105875405677
486495500 0.575437655662 -0.0964338792287
486506000 0.593057850802 -0.0743343514559
486516500 0.565989790947 -0.0866307365095
486527000 0.573696134879 -0.0768105612926
486537500 0.624983354636 -0.0450795054029
486548000 0.580018932532 -0.0994832474329
486558500 0.639986366135 -0.0790798758939
486569000 0.585426126072 -0.0928785641766
486579500 0.587145346719 -0.0914115816771
486590000 0.608608215075 -0.107659695278
486600500 0.550173944757 -0.0754349596688
486611000 0.602549510462 -0.0874487495359
486621500 0.558575566423 -0.127670867429
486632000 0.55871921009 -0.0554302324229
486642500 0.597440067984 -0.0877107632997
486653000 0.586474226806 -0.0791689429812
486663500 0.613613291738 -0.0957056556642
486674000 0.580080042581 -0.0931062103637
486684500 0.590591747345 -0.11287340236
486695000 0.593616418966 -0.0977858857399
486705500 0.591081967807 -0.0906676850592
486716000 0.586692417958 -0.0916419207905
486726500 0.596183010914 -0.106883384665
486737000 0.588559662757 -0.0812369328217
486747500 0.593518652569 -0.0905433509598
486758000 0.585199282662 -0.088063939684
486768500 0.586845968689 -0.0894820590162
486779000 0.589829677087 -0.0929325340903
486789500 0.588134647265 -0.0919557599105
486800000 0.606307416625 -0.0963950806166
486810500 0.59246161181 -0.0996398251737
486821000 0.589247487224 -0.0898149031792
486831500 0.588801408794 -0.091298104164
486842000 0.589007247546 -0.0887236920594
486852500 0.58979647779 -0.0918245618548
486863000 0.59092298203 -0.0908230460385
486873500 0.588507976496 -0.0919915906437
486884000 0.590677794348 -0.091416168964
486894500 0.58918015727 -0.0914091941575
486905000 0.591188534646 -0.0916906917959
486915500 0.588629016954 -0.0911960151157
486926000 0.589240020442 -0.092132397828
486936500 0.589168103294 -0.0918364335517
486947000 0.590018656988 -0.0913271111936
486957500 0.590060139674 -0.0914254953847
486968000 0.590210202154 -0.0909608697575
486978500 0.589005803415 -0.0919001883274
486989000 0.589298157568 -0.0906025797947
486999500 0.591192617915 -0.0911979959009
487010000 0.590393413085 -0.0910177785539
487020500 0.589869267074 -0.093809426239
487031000 0.589654865117 -0.0913149524774
487041500 0.589141627598 -0.0921305752521
487052000 0.58905619536 -0.0916076768686
487062500 0.590768130548 -0.0931769824894
487073000 0.59000608058 -0.0906361508304
487083500 0.587537113524 -0.0942236757686
487094000 0.588787596134 -0.0915537132221
487104500 0.590856635795 -0.0939561087085
487115000 0.591552714215 -0.09280707857
487125500 0.593185349008 -0.0906835930483
487136000 0.590456921511 -0.0891092110945
487146500 0.590883330415 -0.0883087079401
487157000 0.587500678389 -0.0936167226165
487167500 0.588529195452 -0.0971414433113
487178000 0.589836370676 -0.0938287828374
487188500 0.589151684864 -0.0929419736176
487199000 0.590033150341 -0.08938266857
487209500 0.591683549465 -0.0893962554888
487220000 0.588110749175 -0.0931423779436
487230500 0.590708411797 -0.0872264366679
487241000 0.591154641819 -0.0904565077956
487251500 0.590047673616 -0.0843749813219
487262000 0.589414870862 -0.0873388285838
487272500 0.594310306162 -0.0943525276215
487283000 0.589129684299 -0.0923865321326
487293500 0.593101268338 -0.0941883487532
487304000 0.59300932915 -0.0885890157505
487314500 0.590748099695 -0.0908850096518
487325000 0.591975706293 -0.093254544023
487335500 0.589885233458 -0.0911816298954
487346000 0.590716809178 -0.0897736148216
487356500 0.592348109287 -0.0898530993309
487367000 0.591630987218 -0.0953819180166
487377500 0.590848045303 -0.095403876058
487388000 0.591564987232 -0.0917494796067
487398500 0.593695930413 -0.0905363783537
487409000 0.589357949577 -0.09194864793
487419500 0.592812996048 -0.0941856734888
487430000 0.592971250039 -0.0892927856897
487440500 0.590460259641 -0.0903900038774
487451000 0.593299612452 -0.0902395631288
487461500 0.590223709311 -0.0956934434412
487472000 0.587993495879 -0.0993073914724
487482500 0.586728845491 -0.0974311507771
487493000 0.590586518983 -0.0805260273177
487503500 0.590073829413 -0.097429901397
487514000 0.588528775517 -0.0928904882311
487524500 0.585214453613 -0.0919168124735
487535000 0.586780789837 -0.0926058744282
487545500 0.591035974827 -0.0925656157635
487556000 0.590070868147 -0.0925623644695
487566500 0.591813896928 -0.0928024225679
487577000 0.591100257509 -0.0924366009506
487587500 0.592016950042 -0.0938015608874
487598000 0.592732186296 -0.0922428217669
487608500 0.592107555671 -0.092877270239
487619000 0.591696249637 -0.0934831543082
487629500 0.592009167083 -0.0937555150438
487640000 0.592552951142 -0.0924546373014
487650500 0.591989100998 -0.0925021088671
487661000 0.591617155106 -0.0929018884284
487671500 0.591985303843 -0.0923213309658
487682000 0.591397829746 -0.0936097893436
487692500 0.591924558331 -0.0942473872285
487703000 0.59261018787 -0.0929392069382
487713500 0.591221699072 -0.0930177084053
487724000 0.591745192075 -0.0933132840359
487734500 0.592687303692 -0.0923266965381
487745000 0.591498484515 -0.0933461873018
487755500 0.592231090128 -0.0935959516366
487766000 0.592848483184 -0.0937143020908
487776500 0.592595817572 -0.0931808591298
487787000 0.592439577199 -0.0934629114852
487797500 0.59247138435 -0.0945666607094
487808000 0.593368473074 -0.0934909278699
487818500 0.592404167318 -0.0935921097224
487829000 0.591976458164 -0.0934039950942
487839500 0.592257701592 -0.0944935927676
487850000 0.592168509686 -0.0940147668294
487860500 0.592377789277 -0.0937192583214
487871000 0.593798389978 -0.0941230844916
487881500 0.592249039219 -0.0940984637712
487892000 0.592903725326 -0.0933589538459
487902500 0.593309562275 -0.093892541383
487913000 0.593097259803 -0.0937537349811
487923500 0.591477230319 -0.093950451051
487934000 0.59310370992 -0.0938233226165
487944500 0.591922567808 -0.094483199312
487955000 0.592757320568 -0.093894641338
487965500 0.593778994501 -0.0944921664207
487976000 0.592720489193 -0.0935231406239
487986500 0.592034485547 -0.0935872620129
487997000 0.59250393211 -0.0936975755406
488007500 0.593221722402 -0.0926269596036
488018000 0.59280702977 -0.0938007608364
488028500 0.593118873461 -0.0945133419234
488039000 0.59338542913 -0.0939756415914
488049500 0.592513620729 -0.0949164386404
488060000 0.592779799528 -0.0946828340576
488070500 0.592469072653 -0.0942980576769
488081000 0.593018935346 -0.0936857999301
488091500 0.593788438324 -0.0941495585179
488102000 0.593557911448 -0.094246518335
488112500 0.59313564536 -0.0944044319379
488123000 0.593679858756 -0.0945360425522
488133500 0.593809097055 -0.0948807680655
488144000 0.593448569267 -0.0939114916628
488154500 0.59367664326 -0.0941835567129
488165000 0.592806769119 -0.0937309971231
488175500 0.593530984164 -0.09563956179
488186000 0.593174351615 -0.0945923168035
488196500 0.593609485735 -0.0942893868805
488207000 0.592635114345 -0.0942792779121
488217500 0.593335093762 -0.095121709321
488228000 0.593225134331 -0.0947693836422
488238500 0.594302829897 -0.0950792458056
488249000 0.593788618019 -0.0940664572331
488259500 0.593998649085 -0.0957538387936
488270000 0.593977369631 -0.0953831615402
488280500 0.595598587396 -0.0947280920129
488291000 0.59271174792 -0.09481329738
488301500 0.593766857186 -0.0949408192953
488312000 0.594560365775 -0.094858439732
488322500 0.593958433783 -0.0950874356617
488333000 0.594372929224 -0.0946670650207
488343500 0.594072653021 -0.0939475416833
488354000 0.594587221604 -0.0953449083461
488364500 0.594921279518 -0.0948893683951
488375000 0.593486309939 -0.0948798693999
488385500 0.593831354797 -0.0955263239855
488396000 0.594424510169 -0.0959551556815
488406500 0.594535940647 -0.0949445695713
488417000 0.593044487766 -0.0950405235863
488427500 0.594178631912 -0.0953487935964
488438000 0.593770862945 -0.0951983083351
488448500 0.594207499589 -0.0952786118762
488459000 0.593487250081 -0.0952508251881
488469500 0.593675484838 -0.0951077256809
488480000 0.594204262711 -0.0954001881954
488490500 0.593782062181 -0.0948769645379
488501000 0.593048834637 -0.0943898921604
488511500 0.59344428254 -0.0958303433378
488522000 0.594317777116 -0.0946918949615
488532500 0.594678274487 -0.0953959691477
488543000 0.595204353325 -0.0947492881685
488553500 0.594310273572 -0.0965317201481
488564000 0.595133899908 -0.0961532270356
488574500 0.594640762007 -0.0958244939551
488585000 0.594971687314 -0.0953135002068
488595500 0.594809790313 -0.0957910433307
488606000 0.595832191725 -0.0957591274187
488616500 0.595607247658 -0.095919845112
488627000 0.594825192253 -0.0963335306174
488637500 0.594834760343 -0.0960799544966
488648000 0.595033200155 -0.0955980980695
488658500 0.596089206858 -0.0956642528771
488669000 0.595757574541 -0.0966541286581
488679500 0.594784519061 -0.0955076620585
488690000 0.59547984389 -0.0957947402636
488700500 0.594794536083 -0.095217800575
488711000 0.595073071209 -0.0950843683436
488721500 0.594567641414 -0.0959227556105
488732000 0.594871347864 -0.0965633946894
488742500 0.595360277997 -0.0964337537463
488753000 0.594605783547 -0.0958029081259
488763500 0.595028483046 -0.0960572209808
488774000 0.59457407927 -0.0969447202288
488784500 0.595579458625 -0.096594941251
488795000 0.59568088918 -0.0959926880749
488805500 0.594741469299 -0.0969150694891
488816000 0.59485521409 -0.0968305292889
488826500 0.595201776603 -0.0967734157167
488837000 0.595952966737 -0.0964036768333
488847500 0.594936093039 -0.0958568915571
488858000 0.594555409718 -0.096682361474
488868500 0.594272402781 -0.0967377098459
488879000 0.595780802672 -0.0975371535234
488889500 0.595752497084 -0.0961412134655
488900000 0.595787007027 -0.0965544001045
488910500 0.594995492516 -0.0958276293168
488921000 0.594975288948 -0.0964427610665
488931500 0.595324092951 -0.0968251853921
488942000 0.59497791434 -0.0964719989754
488952500 0.593859669708 -0.0966100420442
488963000 0.59540472638 -0.0963173122198
488973500 0.596145427914 -0.0966944771494
488984000 0.595148560644 -0.0969037203447
488994500 0.59603208178 -0.0969018932445
489005000 0.595564743886 -0.0976491766301
489015500 0.596094364818 -0.0969651361916
489026000 0.595741461562 -0.0959895388405
489036500 0.594937873242 -0.0974754399257
489047000 0.596386962872 -0.0968117136528
489057500 0.595109120864 -0.0966980550485
489068000 0.597394561832 -0.0968959314354
489078500 0.596171319545 -0.0968068979443
489089000 0.595275567143 -0.0967790032623
489099500 0.596019950959 -0.0973345141045
489110000 0.596383243369 -0.0975862759594
489120500 0.596937273559 -0.0970375828946
489131000 0.596351682489 -0.0983347759028
489141500 0.596055305712 -0.0981896958886
489152000 0.595690057889 -0.0972634433479
489162500 0.596523847957 -0.0973326297678
489173000 0.596355438536 -0.0972328153451
489183500 0.595813976942 -0.0970416715826
489194000 0.597153628137 -0.0970549419229
489204500 0.59670976508 -0.0973422027239
489215000 0.59634695809 -0.0976970706977
489225500 0.59603135309 -0.0971958469506
489236000 0.596851879977 -0.0980383818799
489246500 0.596513948691 -0.0974871916762
489257000 0.596547145356 -0.0973550459791
489267500 0.595947107135 -0.0978272542249
489278000 0.596501187019 -0.0967140962138
489288500 0.595900098434 -0.0972212875899
489299000 0.596373518983 -0.0973411983728
489309500 0.596399952437 -0.0970097519858
489320000 0.595985678191 -0.0968557005833
489330500 0.59641527232 -0.0966448532857
489341000 0.596684724685 -0.0970427637225
489351500 0.597043310982 -0.0976437380766
489362000 0.596168194576 -0.0974045972404
489372500 0.596035448584 -0.0980375607166
489383000 0.596542742958 -0.0976396459953
489393500 0.596813980192 -0.098361296335
489404000 0.596938408992 -0.0981071909262
489414500 0.596576038493 -0.0973612423993
489425000 0.596562714499 -0.0978148902567
489435500 0.596963555333 -0.0985537887798
489446000 0.596260188366 -0.0974828218551
489456500 0.595677186861 -0.0995393057927
489467000 0.59707167835 -0.0964333995475
489477500 0.598305895445 -0.0964577065228
489488000 0.597404247343 -0.0964735161998
489498500 0.595950767774 -0.0999174604327
489509000 0.597420266347 -0.0991500446755
489519500 0.598724073618 -0.0987526178761
489530000 0.597083621989 -0.0970957757827
489540500 0.596732493906 -0.0964370551783
489551000 0.596983260997 -0.0966888598035
489561500 0.598753247695 -0.0969031267041
489572000 0.595684470041 -0.0987010052086
489582500 0.596152270327 -0.0943409726268
489593000 0.595370210965 -0.098775355043
489603500 0.598187680968 -0.0983359758338
489614000 0.595525053881 -0.100672097594
489624500 0.596879555291 -0.0994229278462
489635000 0.600660327901 -0.102275451993
489645500 0.598184784018 -0.0978316989249
489656000 0.599032216746 -0.1014422008
489666500 0.599333130702 -0.100483876304
489677000 0.598787666863 -0.0982925205142
489687500 0.596717627972 -0.0990696728582
489698000 0.598184122398 -0.0962643087597
489708500 0.59572626994 -0.0954084963799
489719000 0.598131024627 -0.0985883904893
489729500 0.596696141148 -0.0982406757092
489740000 0.593300965517 -0.0950683734153
489750500 0.60240011135 -0.0982637646748
489761000 0.59845381843 -0.0990611508275
489771500 0.597820875459 -0.100123931353
489782000 0.598867659358 -0.100322549509
489792500 0.597666795832 -0.09767860955
489803000 0.596862444647 -0.0975299656634
489813500 0.599235570752 -0.0983058292288
489824000 0.598401975796 -0.10284404404
489834500 0.596756243887 -0.0985193447322
489845000 0.597122640263 -0.0989292537537
489855500 0.596857199225 -0.0992642488579
489866000 0.597570649705 -0.0976631270464
489876500 0.60034246486 -0.0999752709207
489887000 0.59655889426 -0.101594585358
489897500 0.596237601614 -0.100590312689
489908000 0.598599066442 -0.0999489339175
489918500 0.595586816324 -0.0978671394756
489929000 0.596856907228 -0.100909508439
489939500 0.597638037833 -0.0997674640797
489950000 0.59968360839 -0.10042368944
489960500 0.599448397617 -0.10031361432
489971000 0.597382616556 -0.100136801179
489981500 0.598207404562 -0.0994755513745
489992000 0.598230781625 -0.0999797114048
490002500 0.598794322789 -0.100066348989
490013000 0.598360233028 -0.0991718600821
490023500 0.597862395739 -0.0999099234727
490034000 0.597749675713 -0.099888195483
490044500 0.599035969125 -0.0994966055955
490055000 0.59845432196 -0.0993206394912
490065500 0.59792066657 -0.0979057509483
490076000 0.59819427587 -0.0994722614116
490086500 0.598646399249 -0.0991708582274
490097000 0.598613558196 -0.0993828292087
490107500 0.597916320851 -0.0995801385471
490118000 0.598699157357 -0.100125804325
490128500 0.598632173678 -0.0975298341074
490139000 0.59834213675 -0.0988111412332
490149500 0.600373510096 -0.0997423586867
490160000 0.600134744379 -0.0991917169802
490170500 0.596008776254 -0.100568185022
490181000 0.600024470563 -0.0971019174482
490191500 0.599364983207 -0.098470168073
490202000 0.599978452707 -0.0998195728869
490212500 0.598138506739 -0.102574902894
490223000 0.598093284614 -0.098670546746
490233500 0.598341103436 -0.0993949631529
490244000 0.600332977316 -0.101230899797
490254500 0.597263167838 -0.100635565346
490265000 0.600657357307 -0.10078359501
490275500 0.602721281222 -0.100124092239
490286000 0.59814623277 -0.10159576209
490296500 0.602592522881 -0.0827725867958
490307000 0.599750441463 -0.0878156443847
490317500 0.605363872414 -0.0977869107651
490328000 0.597243067476 -0.102377339551
490338500 0.590795582379 -0.0811825326153
490349000 0.600284154146 -0.102765251511
490359500 0.598048330707 -0.101021131709
490370000 0.600330754929 -0.104810162003
490380500 0.600393927354 -0.0881326488194
490391000 0.596491672144 -0.101449814644
490401500 0.593954745677 -0.101431647162
490412000 0.598649812978 -0.0939150119442
490422500 0.597347633474 -0.100792458272
490433000 0.591690269255 -0.0914664197975
490443500 0.603706881531 -0.101826365377
490454000 0.584803018418 -0.114321539969
490464500 0.60390777568 -0.0881183443404
490475000 0.597059218922 -0.0889241600543
490485500 0.594274217765 -0.0958064738706
490496000 0.604445651894 -0.0983233590767
490506500 0.599677443216 -0.100547508029
490517000 0.595182639405 -0.0903392791385
490527500 0.611568418845 -0.103550580272
490538000 0.610074633059 -0.0950576160342
490548500 0.606672858463 -0.0951823888117
490559000 0.598848533789 -0.100735720742
490569500 0.585295639125 -0.0936480505727
490580000 0.604917625052 -0.105285657752
490590500 0.602895451251 -0.101047172586
490601000 0.599043907743 -0.0903760363129
490611500 0.59373980518 -0.0882421629033
490622000 0.589104516949 -0.0987559330863
490632500 0.594740377721 -0.104223063281
490643000 0.599562213031 -0.101817357361
490653500 0.604597135944 -0.0979954213366
490664000 0.601196001247 -0.100197548348
490674500 0.5989972891 -0.0996877703372
490685000 0.599820478019 -0.101654366872
490695500 0.601607141668 -0.101773723453
490706000 0.59972252688 -0.102055875015
490716500 0.60335673583 -0.100015113453
490727000 0.604189223902 -0.100013795327
490737500 0.60808620367 -0.0971120287549
490748000 0.605021234378 -0.098379391907
490758500 0.602641583046 -0.101606903891
490769000 0.601379259136 -0.10100236833
490779500 0.60079708891 -0.100457594227
490790000 0.602209890984 -0.103386938181
490800500 0.601313526387 -0.101338086909
490811000 0.600531004737 -0.100888350602
490821500 0.600658511959 -0.10197253247
490832000 0.600259695871 -0.101271546471
490842500 0.601188472422 -0.100876866274
490853000 0.600491442288 -0.103366282633
490863500 0.600037880151 -0.102293243583
490874000 0.602366933702 -0.101129823977
490884500 0.600520593711 -0.101453773184
490895000 0.600812988003 -0.100911913231
490905500 0.601745337655 -0.102202270358
490916000 0.601184585117 -0.102224476447
490926500 0.601735865027 -0.101330726581
490937000 0.602615854488 -0.100990373772
490947500 0.600750295917 -0.101344584424
490958000 0.601203695516 -0.102189219765
490968500 0.601558416811 -0.100771549994
490979000 0.60240538455 -0.10185776263
490989500 0.601112874762 -0.101041528073
491000000 0.60130563168 -0.101050576586
491010500 0.600898082314 -0.103425393703
491021000 0.601863357498 -0.101684084868
491031500 0.6013350232 -0.0997523967986
491042000 0.601686078922 -0.102763956475
491052500 0.602649943753 -0.101484896376
491063000 0.602808851416 -0.100575013812
491073500 0.602630550967 -0.101993918953
491084000 0.601791092742 -0.101594561152
491094500 0.601353263318 -0.101501971882
491105000 0.601987700171 -0.101952778966
491115500 0.602568841952 -0.101433126016
491126000 0.601765040666 -0.102388661486
491136500 0.599931615889 -0.102826123592
491147000 0.603886757525 -0.10208483128
491157500 0.602363280809 -0.101711618215
491168000 0.602885279783 -0.100423984335
491178500 0.599845792022 -0.103506943756
491189000 0.602108423074 -0.102606523021
491199500 0.599843008479 -0.100725409125
491210000 0.601078207233 -0.102863072856
491220500 0.603099693101 -0.101944664345
491231000 0.603663896104 -0.102099183833
491241500 0.602369631126 -0.102022819229
491252000 0.604698918999 -0.101879202475
491262500 0.60207594099 -0.101528385862
491273000 0.601557207233 -0.103464198522
491283500 0.601773560547 -0.101442495418
491294000 0.602361477305 -0.103693919786
491304500 0.601549789471 -0.101443374809
491315000 0.601492001459 -0.104317111815
491325500 0.601772566206 -0.10067919292
491336000 0.602972936222 -0.10453384486
491346500 0.602553174371 -0.103954225237
491357000 0.602005257286 -0.103671957555
491367500 0.601260655313 -0.103531216928
491378000 0.601802215263 -0.102217638504
491388500 0.602891519313 -0.105054253839
491399000 0.604143600945 -0.104300048108
491409500 0.602973828766 -0.103250403665
491420000 0.602811968217 -0.102681585901
491430500 0.603048419492 -0.103302939709
491441000 0.603924271179 -0.104418884301
491451500 0.602398971848 -0.103205871811
491462000 0.603306673196 -0.102682653042
491472500 0.601867935181 -0.10346234113
491483000 0.602424129343 -0.103642359105
491493500 0.602292788117 -0.10322290557
491504000 0.601705679514 -0.104387729993
491514500 0.601472805257 -0.101077172189
491525000 0.603507433116 -0.104694787954
491535500 0.602391275126 -0.103470247383
491546000 0.603321384627 -0.103773398358
491556500 0.602393035393 -0.103019864474
491567000 0.602633506157 -0.103325127627
491577500 0.604042593882 -0.104602689461
491588000 0.602008634019 -0.10365369064
491598500 0.60298093824 -0.103440889777
491609000 0.602931580018 -0.103364394877
491619500 0.603476170362 -0.103603403283
491630000 0.602662147407 -0.102285593979
491640500 0.603293583717 -0.104219832239
491651000 0.60322984499 -0.103533380157
491661500 0.604528034804 -0.103006870504
491672000 0.604466041106 -0.104197526571
491682500 0.602612975075 -0.102818579579
491693000 0.602359590542 -0.10299106775
491703500 0.603630973097 -0.104237052969
491714000 0.602713419028 -0.101901568275
491724500 0.603110004889 -0.104216653458
491735000 0.602510124382 -0.103661738135
491745500 0.604771907787 -0.103646110323
491756000 0.602732594455 -0.104161072903
491766500 0.603505893873 -0.103918156049
491777000 0.603147160854 -0.103867499692
491787500 0.603199399705 -0.104077336017
491798000 0.603101330944 -0.103978676759
491808500 0.602824743633 -0.104225404942
491819000 0.603690069109 -0.104222512377
491829500 0.603705163782 -0.10401598796
491840000 0.604219993324 -0.104815654625
491850500 0.603540296787 -0.103427894807
491861000 0.603993445787 -0.103769492811
491871500 0.603849433001 -0.103565708848
491882000 0.603079172264 -0.103736780352
491892500 0.603219072964 -0.103616028937
491903000 0.603171284146 -0.10445311911
491913500 0.60336233662 -0.104962333774
491924000 0.604718646492 -0.105123769768
491934500 0.604530347319 -0.103918877476
491945000 0.60454002658 -0.104159314194
491955500 0.604596466586 -0.104518203764
491966000 0.604140554699 -0.104861419565
491976500 0.604232386408 -0.104252943975
491987000 0.60428628754 -0.103077753691
491997500 0.60411913021 -0.104711307697
492008000 0.603705057486 -0.104878359911
492018500 0.60409856822 -0.104414835534
492029000 0.603533866168 -0.104623413325
492039500 0.603835617042 -0.104689656625
492050000 0.602979465861 -0.105541602828
492060500 0.604936244274 -0.105872900885
492071000 0.604406596479 -0.104572006327
492081500 0.604604854281 -0.105967060245
492092000 0.603929504047 -0.104624918438
492102500 0.604117466116 -0.105791242307
492113000 0.604593192388 -0.104686939287
492123500 0.6052454949 -0.103786062141
492134000 0.606967298434 -0.103659712835
492144500 0.604831438201 -0.105396252876
492155000 0.605335184562 -0.105483181583
492165500 0.605003401515 -0.106341582159
492176000 0.604020980046 -0.106717427851
492186500 0.605109360466 -0.105131019433
492197000 0.605480608498 -0.106842978095
492207500 0.604582624966 -0.105479688299
492218000 0.603978755329 -0.105136144156
492228500 0.604050069774 -0.105023022941
492239000 0.604220322447 -0.106026637833
492249500 0.604573385259 -0.105904453652
492260000 0.604916267503 -0.106382042016
492270500 0.604614177918 -0.104999674947
492281000 0.604812402336 -0.106468534943
492291500 0.6046497326 -0.105237205756
492302000 0.603896328268 -0.106019846305
492312500 0.604284793028 -0.105738988382
492323000 0.604679550554 -0.106557970582
492333500 0.605005093861 -0.105563545909
492344000 0.60535292553 -0.107376732651
492354500 0.604605191637 -0.105625701917
492365000 0.604410584831 -0.105717237956
492375500 0.60496161071 -0.107173862147
492386000 0.604543434406 -0.106068864644
492396500 0.605373447864 -0.105708130408
492407000 0.606213061854 -0.106486957681
492417500 0.605535997164 -0.106794740475
492428000 0.606057219826 -0.105579506713
492438500 0.605110684587 -0.105626019229
492449000 0.605640561066 -0.105726652403
492459500 0.605971371359 -0.105612473465
492470000 0.605791052637 -0.106833905612
492480500 0.60562996267 -0.106023757614
492491000 0.605651619015 -0.106147311056
492501500 0.605540703547 -0.106741029557
492512000 0.604853651106 -0.106163192746
492522500 0.605650047363 -0.106422457928
492533000 0.604926821028 -0.107068773338
492543500 0.606131585266 -0.106557419928
492554000 0.606442450336 -0.105527939153
492564500 0.604665927027 -0.106570419111
492575000 0.60559820605 -0.106661654633
492585500 0.606903893954 -0.106722832448
492596000 0.605975058895 -0.106287344727
492606500 0.608040461336 -0.107079311015
492617000 0.605113671643 -0.107527604866
492627500 0.606418293301 -0.105833510915
492638000 0.606500042567 -0.106495882947
492648500 0.606063703147 -0.105919080078
492659000 0.606212302303 -0.1072849421
492669500 0.606469229345 -0.106564294941
492680000 0.606575860088 -0.106873046893
492690500 0.605121454863 -0.107548672197
492701000 0.604682620068 -0.107685760792
492711500 0.604190170357 -0.108197920743
492722000 0.605353603297 -0.107946525219
492732500 0.605630195986 -0.107241205321
492743000 0.606825460518 -0.106714650833
492753500 0.605930064666 -0.106521614758
492764000 0.606736194357 -0.106427448454
492774500 0.607653071566 -0.106607019019
492785000 0.606764115196 -0.107300499538
492795500 0.606900210541 -0.107446064359
492806000 0.607769865603 -0.109955445231
492816500 0.607156335471 -0.107488557621
492827000 0.607114190963 -0.106893281938
492837500 0.606795035647 -0.107553512347
492848000 0.605471616499 -0.106731634518
492858500 0.605731721658 -0.106735205817
492869000 0.605357063286 -0.10674680131
492879500 0.606240358599 -0.107709501714
492890000 0.606250772321 -0.106939781385
492900500 0.606954760932 -0.107032347668
492911000 0.607071036082 -0.106515314381
492921500 0.606052157336 -0.108708701233
492932000 0.606337875942 -0.109545672917
492942500 0.6057065288 -0.107430204954
492953000 0.607244944994 -0.107745818272
492963500 0.607212040645 -0.109047835119
492974000 0.60665098352 -0.108662802033
492984500 0.606069512771 -0.107147728337
492995000 0.605764175828 -0.108538257944
493005500 0.606170387114 -0.108487814018
493016000 0.605319964827 -0.10831869491
493026500 0.605686286534 -0.10893598267
493037000 0.607652096363 -0.108117039067
493047500 0.606227413207 -0.108766533605
493058000 0.606698771277 -0.108728417688
493068500 0.607592215072 -0.110553109406
493079000 0.606377375075 -0.107769479628
493089500 0.606598013305 -0.108386077821
493100000 0.606944637859 -0.108103606872
493110500 0.607807615199 -0.10977011734
493121000 0.607401308511 -0.108843227461
493131500 0.60651437559 -0.107716030088
493142000 0.606676806591 -0.107777804675
493152500 0.607666895392 -0.109549795247
493163000 0.606857529781 -0.108731682853
493173500 0.606373582526 -0.109703438021
493184000 0.607005293438 -0.109940261191
493194500 0.606320001797 -0.108736672892
493205000 0.606997207699 -0.109151012713
493215500 0.60564397622 -0.108497182338
493226000 0.606794141773 -0.109216509666
493236500 0.606567345579 -0.108539156304
493247000 0.605963058087 -0.109838936281
493257500 0.606211438945 -0.108661176626
493268000 0.606385154398 -0.108558270636
493278500 0.607261882918 -0.109220975758
493289000 0.606694736238 -0.108977417178
493299500 0.608278276711 -0.108395221108
493310000 0.607573950782 -0.108809142374
493320500 0.60702744327 -0.108918964565
493331000 0.608269297347 -0.108811308632
493341500 0.608060949234 -0.108815780136
493352000 0.606777151096 -0.108167916334
493362500 0.60717597079 -0.109296088604
493373000 0.60734527794 -0.108504259356
493383500 0.607351266614 -0.110219454969
493394000 0.607614961482 -0.109471410627
493404500 0.607008675168 -0.109805909037
493415000 0.606384461115 -0.109365359716
493425500 0.608254096094 -0.109463505202
493436000 0.608181386805 -0.109892045695
493446500 0.606573749503 -0.109069172256
493457000 0.608532008761 -0.109735034382
493467500 0.608885068719 -0.110592612557
493478000 0.612180465294 -0.110276672443
493488500 0.609236989732 -0.109930900701
493499000 0.607684866036 -0.107234859976
493509500 0.606809845529 -0.109516909443
493520000 0.608141414615 -0.108541792572
493530500 0.606757865732 -0.108126399846
493541000 0.609708828748 -0.110140367763
493551500 0.610141850939 -0.111061736996
493562000 0.608933507809 -0.110928341509
493572500 0.608931377467 -0.108953574341
493583000 0.608049695191 -0.110425813974
493593500 0.604224333089 -0.11223756777
493604000 0.607271160826 -0.106731050641
493614500 0.607999613958 -0.110259302697
493625000 0.606720362705 -0.109342033029
493635500 0.604231590483 -0.10837006158
493646000 0.6060582335 -0.11292318749
493656500 0.608851886051 -0.111790020062
493667000 0.606300998996 -0.10983128073
493677500 0.606700287543 -0.110939749885
493688000 0.61129725554 -0.108709080069
493698500 0.60937320148 -0.112944909356
493709000 0.60977130992 -0.106260801182
493719500 0.606392903261 -0.106897531138
493730000 0.607601397521 -0.108603976553
493740500 0.609485749736 -0.111081004582
493751000 0.604267274789 -0.108510405965
493761500 0.608618720274 -0.10990645084
493772000 0.607476577276 -0.112917138642
493782500 0.607655742485 -0.109206525546
493793000 0.610486601651 -0.114229350973
493803500 0.606691452587 -0.110954323459
493814000 0.607985197507 -0.111482180818
493824500 0.609173234879 -0.109396911136
493835000 0.608900018613 -0.1114491624
493845500 0.605718908494 -0.111401171801
493856000 0.60915602988 -0.1107505667
493866500 0.607904163148 -0.11081368248
493877000 0.607183822159 -0.109622230138
493887500 0.607825889469 -0.110682143418
493898000 0.608169006526 -0.107772206432
493908500 0.606644815496 -0.111771954115
493919000 0.608256534292 -0.111743514874
493929500 0.607941588979 -0.11101206544
493940000 0.608649209919 -0.111880008385
493950500 0.606978811788 -0.111434312141
493961000 0.606609171466 -0.112428974678
493971500 0.607836015263 -0.111073911707
493982000 0.608131045 -0.109131963444
493992500 0.606531040806 -0.107654302703
494003000 0.607833179415 -0.110190075066
494013500 0.606722800641 -0.110028246239
494024000 0.606693139719 -0.112931520018
494034500 0.612651198975 -0.110378645563
494045000 0.60885851606 -0.110075413123
494055500 0.611281118907 -0.11160449403
494066000 0.60867131429 -0.113292645827
494076500 0.611870719464 -0.109831365899
494087000 0.607673003424 -0.111972171495
494097500 0.608800979908 -0.112490046116
494108000 0.608986993943 -0.108186472363
494118500 0.607066926713 -0.110395080765
494129000 0.614257869944 -0.107797786134
494139500 0.61084682768 -0.11005537816
494150000 0.607199512732 -0.112359991628
494160500 0.614016708991 -0.113318387121
494171000 0.605574580959 -0.10523609943
494181500 0.611377488387 -0.116823771385
494192000 0.611401770078 -0.115013229524
494202500 0.622560321459 -0.116951881672
494213000 0.607963350426 -0.109590820019
494223500 0.607782804538 -0.109867126964
494234000 0.604527763492 -0.111659903037
494244500 0.599439663661 -0.0957242329694
494255000 0.613884512244 -0.113380784795
494265500 0.619930163221 -0.121225939552
494276000 0.625092779431 -0.106100393679
494286500 0.614400520546 -0.119415121692
494297000 0.611496159693 -0.118329221148
494307500 0.623844971515 -0.130519186717
494318000 0.618007985939 -0.113159071869
494328500 0.617042057401 -0.109050325202
494339000 0.603854224253 -0.123793512371
494349500 0.601894482576 -0.102272829961
494360000 0.595236518708 -0.106562912427
494370500 0.611710971882 -0.124095936711
494381000 0.611735101295 -0.115028966924
494391500 0.610425610161 -0.107100781386
494402000 0.603576406526 -0.121176600327
494412500 0.615297010143 -0.127328601455
494423000 0.620455794232 -0.107711532136
494433500 0.615035478559 -0.116756554409
494444000 0.611439946064 -0.115059167353
494454500 0.601599061226 -0.140577141535
494465000 0.614247111993 -0.138605693328
494475500 0.590924145036 -0.104559861782
494486000 0.602167348802 -0.112872692894
494496500 0.637678494779 -0.126246396379
494507000 0.598314915637 -0.124263193597
494517500 0.606798600977 -0.103625447388
494528000 0.598468501398 -0.0775448893999
494538500 0.583999850141 -0.0852455635147
494549000 0.600567633515 -0.123006745826
494559500 0.591536003905 -0.123181560369
494570000 0.603280505511 -0.0973936336458
494580500 0.59225377886 -0.108172553294
494591000 0.599211013733 -0.120400648212
494601500 0.611830729271 -0.121308229314
494612000 0.619471170921 -0.128009175573
494622500 0.631560607377 -0.126094839154
494633000 0.615410387102 -0.121005074244
494643500 0.604914318415 -0.104577531945
494654000 0.610582623962 -0.107376760498
494664500 0.625701346601 -0.111648308101
494675000 0.595359691727 -0.112938286089
494685500 0.60713267655 -0.119496008855
494696000 0.608173777276 -0.124181658013
494706500 0.586424684799 -0.105599688722
494717000 0.604338442119 -0.10772173752
494727500 0.608762240412 -0.112733036494
494738000 0.608327925052 -0.111629584091
494748500 0.603367697721 -0.101329092095
494759000 0.60588270832 -0.113751429924
494769500 0.601617535509 -0.117295415212
494780000 0.630709460196 -0.117866477674
494790500 0.611604167483 -0.11155307557
494801000 0.617641593038 -0.11055383484
494811500 0.610927262165 -0.113216129971
494822000 0.608832755293 -0.114077575306
494832500 0.613115895863 -0.116361567831
494843000 0.615966925073 -0.104744999318
494853500 0.60626701018 -0.112519568623
494864000 0.604562731017 -0.100096653946
494874500 0.609283592467 -0.112520081847
494885000 0.610326957743 -0.112004316506
494895500 0.610412203665 -0.112310952135
494906000 0.606915222502 -0.113511108882
494916500 0.610762302429 -0.113925554778
494927000 0.612073199748 -0.112106970537
494937500 0.610335839428 -0.111611603411
494948000 0.610865417739 -0.113018117036
494958500 0.61131965852 -0.113824411605
494969000 0.609994657983 -0.114923901521
494979500 0.609435089358 -0.113396559104
494990000 0.611176449833 -0.114333563838
495000500 0.609868284295 -0.113974232834
495011000 0.608666701713 -0.115039045696
495021500 0.610385738596 -0.112383726314
495032000 0.609805191949 -0.114058899131
495042500 0.611770921897 -0.11151864592
495053000 0.611428110062 -0.115709317365
495063500 0.610425142093 -0.114862716402
495074000 0.610561500085 -0.111886898337
495084500 0.609276317467 -0.116644514963
495095000 0.610837218972 -0.113183055211
495105500 0.608988951991 -0.111412751802
495116000 0.61157436811 -0.114117964003
495126500 0.609499017556 -0.114785609128
495137000 0.610414214106 -0.114967858395
495147500 0.611320732121 -0.113472462385
495158000 0.612025773567 -0.115219655672
495168500 0.611808183754 -0.113436725367
495179000 0.613343796099 -0.115584158447
495189500 0.608975453464 -0.115360370238
495200000 0.610130452683 -0.116160470089
495210500 0.610152135866 -0.114971495677
495221000 0.610570155838 -0.11584675008
495231500 0.612554596824 -0.113925511888
495242000 0.607732997417 -0.113958465191
495252500 0.61062704617 -0.114083893032
495263000 0.614366403315 -0.114277566957
495273500 0.610466773752 -0.115327961806
495284000 0.612698418946 -0.115343464045
495294500 0.613937528634 -0.114472227615
495305000 0.611166229444 -0.117649792332
495315500 0.608650636217 -0.117235625391
495326000 0.614221222682 -0.115424286303
495336500 0.611770588367 -0.113001431507
495347000 0.611169781226 -0.113874165342
495357500 0.609664162664 -0.114737616723
495368000 0.608656429492 -0.117519389504
495378500 0.612142739677 -0.118553851895
495389000 0.612066512029 -0.11794637788
495399500 0.610148388893 -0.113607029853
495410000 0.613094801302 -0.113891064081
495420500 0.611857169353 -0.113816982704
495431000 0.609231561335 -0.114804165481
495441500 0.607955568478 -0.115959792896
495452000 0.607308297922 -0.113645241368
495462500 0.611489941452 -0.114007366393
495473000 0.61188344722 -0.114319082722
495483500 0.608670033205 -0.117124985181
495494000 0.609483609681 -0.116412158394
495504500 0.608965760367 -0.114412821362
495515000 0.61115773023 -0.116369197446
495525500 0.610898704947 -0.113630626037
495536000 0.610488316927 -0.115445025636
495546500 0.610565347122 -0.115388439173
495557000 0.610484229777 -0.116282201783
495567500 0.61058377601 -0.114803009474
495578000 0.609856395361 -0.115825246296
495588500 0.610548559057 -0.11558188572
495599000 0.610588030532 -0.115509397463
495609500 0.610674682196 -0.115163769703
495620000 0.610815774538 -0.115253489693
495630500 0.611504234033 -0.116425283985
495641000 0.610507409349 -0.116320547511
495651500 0.611488321478 -0.115406503128
495662000 0.610625327047 -0.116390291091
495672500 0.610918098085 -0.115057544924
495683000 0.610892766908 -0.116144437332
495693500 0.610230974219 -0.115755953448
495704000 0.611054392052 -0.116741818367
495714500 0.610667781634 -0.116245800843
495725000 0.61131750092 -0.115228766426
495735500 0.610438944119 -0.116287687155
495746000 0.611532512366 -0.117084596531
495756500 0.610347005235 -0.115667893137
495767000 0.61127923741 -0.115365041357
495777500 0.610519514386 -0.11561801267
495788000 0.610750185756 -0.115943241538
495798500 0.611204045046 -0.115909929576
495809000 0.612221343959 -0.116461445072
495819500 0.611108750232 -0.115735616377
495830000 0.611388696249 -0.115334715794
495840500 0.611619777169 -0.116584165383
495851000 0.611457899368 -0.116688116272
495861500 0.612360186592 -0.116038784974
495872000 0.611746917921 -0.117416028976
495882500 0.611078609299 -0.118557221287
495893000 0.610558504566 -0.117913469361
495903500 0.611582301141 -0.117137001104
495914000 0.610314324801 -0.116658582968
495924500 0.611372419217 -0.116472224026
495935000 0.611373635893 -0.116917449235
495945500 0.612074105278 -0.116429643818
495956000 0.611348986953 -0.1174568201
495966500 0.612713565155 -0.11560096853
495977000 0.611470573671 -0.11568096077
495987500 0.611998206304 -0.117598726958
495998000 0.611630544899 -0.116044341138
496008500 0.611528374 -0.116324884772
496019000 0.611834907231 -0.117590591989
496029500 0.612009972766 -0.117612972273
496040000 0.612647263198 -0.115927295617
496050500 0.610537194436 -0.117247685534
496061000 0.611382150626 -0.117823927261
496071500 0.610385151513 -0.117415293756
496082000 0.611534023013 -0.11763906955
496092500 0.611911937703 -0.117304310058
496103000 0.610654421222 -0.117172988798
496113500 0.611238405022 -0.116464070507
496124000 0.610430725772 -0.117407755937
496134500 0.610799540482 -0.117976275554
496145000 0.609808030315 -0.117140011977
496155500 0.611716164463 -0.117637947818
496166000 0.61220056352 -0.116717525029
496176500 0.610796877987 -0.119044134143
496187000 0.612958117662 -0.117251457914
496197500 0.611779019046 -0.11738402478
496208000 0.611925443928 -0.117990702063
496218500 0.611421820557 -0.118602686906
496229000 0.610858646764 -0.117561127759
496239500 0.611768448513 -0.116510100619
496250000 0.611214187327 -0.118094914799
496260500 0.611751211847 -0.117810969655
496271000 0.611799227338 -0.117539099562
496281500 0.612246801475 -0.117299701679
496292000 0.612472074754 -0.117652713016
496302500 0.611042360676 -0.117749462198
496313000 0.611733036541 -0.117884506885
496323500 0.613525743022 -0.119321659225
496334000 0.611168779835 -0.116903867018
496344500 0.613171688611 -0.118107203761
496355000 0.611290183169 -0.117081961426
496365500 0.612098350457 -0.117537034749
496376000 0.609980808072 -0.117326376237
496386500 0.611258749921 -0.118890734554
496397000 0.611717212198 -0.118976135587
496407500 0.612881215638 -0.119449299798
496418000 0.613304807484 -0.117694202642
496428500 0.612032689376 -0.118873395319
496439000 0.611800170243 -0.118267417299
496449500 0.611653261083 -0.118614135078
496460000 0.611629609668 -0.118240686415
496470500 0.611496603922 -0.117807374607
496481000 0.611915367225 -0.117900282019
496491500 0.612051442437 -0.118491049473
496502000 0.613371902976 -0.116948123066
496512500 0.612389838121 -0.117936662527
496523000 0.612430845333 -0.118155480592
496533500 0.612034376461 -0.117894985031
496544000 0.612211199185 -0.117983220556
496554500 0.611692655491 -0.118830531667
496565000 0.611207065565 -0.118620789659
496575500 0.611841589949 -0.119281319913
496586000 0.612120134239 -0.119073971753
496596500 0.612914106745 -0.117787996643
496607000 0.613660954183 -0.117707959463
496617500 0.613069901544 -0.116936015728
496628000 0.611132294014 -0.118237313285
496638500 0.610984081845 -0.118491106038
496649000 0.612091438836 -0.117795376922
496659500 0.612162717108 -0.118272139211
496670000 0.611494030502 -0.117497422405
496680500 0.612442459366 -0.119455611839
496691000 0.612640836895 -0.119090692729
496701500 0.613270618676 -0.119254290581
496712000 0.612446795701 -0.117813621082
496722500 0.613085293904 -0.118618106235
496733000 0.612099631999 -0.118428052873
496743500 0.612327022901 -0.117703535927
496754000 0.61277372462 -0.119273413999
496764500 0.61278252917 -0.119417520319
496775000 0.611191090186 -0.118981345595
496785500 0.612685402634 -0.119235309048
496796000 0.612752811797 -0.118811440945
496806500 0.611274688397 -0.119188669699
496817000 0.611495059544 -0.119206154212
496827500 0.612571252399 -0.119979771182
496838000 0.612340579004 -0.118289870487
496848500 0.612926530303 -0.119287099792
496859000 0.611967156187 -0.118600896563
496869500 0.612064301496 -0.118951442091
496880000 0.612094934929 -0.119903016275
496890500 0.612995765953 -0.120297513696
496901000 0.611907509923 -0.119043601819
496911500 0.612341779556 -0.119840715943
496922000 0.612194096847 -0.119290903964
496932500 0.611942195144 -0.119666086734
496943000 0.613146888614 -0.119117348881
496953500 0.61321205521 -0.119087413298
496964000 0.611624612742 -0.118757753733
496974500 0.613493203369 -0.11931690023
496985000 0.613060162077 -0.119651076317
496995500 0.612736595849 -0.119793622773
497006000 0.612654222684 -0.118015714203
497016500 0.613678441579 -0.120358014231
497027000 0.613040377778 -0.120016110066
497037500 0.61270489648 -0.119865622971
497048000 0.608066705464 -0.113741392436
497058500 0.613826456255 -0.119168925777
497069000 0.611957926998 -0.11947973755
497079500 0.612432568016 -0.119987152686
497090000 0.612252917652 -0.120455499186
497100500 0.612661529879 -0.119648815283
497111000 0.613450442004 -0.119286832325
497121500 0.61242741956 -0.120040872533
497132000 0.61260739435 -0.119326821344
497142500 0.611674908825 -0.119683206835
497153000 0.611916152426 -0.120139209065
497163500 0.613042708201 -0.118737977002
497174000 0.612645676293 -0.11939487093
497184500 0.613888574733 -0.120139604085
497195000 0.613019295678 -0.11994927265
497205500 0.613055032631 -0.119536800569
497216000 0.612288330625 -0.118552186591
497226500 0.6119172753 -0.11884521538
497237000 0.607388114867 -0.115178410413
497247500 0.612983804177 -0.118991959272
497258000 0.61253464866 -0.119635870634
497268500 0.612323867419 -0.118711763598
497279000 0.612492041719 -0.120175777136
497289500 0.613677489569 -0.120147724263
497300000 0.613025266392 -0.119700318833
497310500 0.613266766497 -0.11990060034
497321000 0.612771146166 -0.119735678942
497331500 0.613090692281 -0.120850455088
497342000 0.612819073007 -0.120532934533
497352500 0.613744554879 -0.120237166469
497363000 0.61215803001 -0.120219755358
497373500 0.613334931463 -0.118612897997
497384000 0.612874185661 -0.120735900981
497394500 0.613341979435 -0.120392255429
497405000 0.614340055488 -0.120845926552
497415500 0.613395461103 -0.120646787042
497426000 0.613544997361 -0.119492387508
497436500 0.612996936347 -0.119913689012
497447000 0.614406108605 -0.120848832833
497457500 0.613136687107 -0.120857016549
497468000 0.614635950209 -0.119903989586
497478500 0.614253595556 -0.120217870413
497489000 0.613856896797 -0.120488675922
497499500 0.613281549834 -0.119541756483
497510000 0.612901430041 -0.12074662409
497520500 0.612468412283 -0.120916185417
497531000 0.61270124867 -0.119065642209
497541500 0.613239704491 -0.121211388098
497552000 0.613990417882 -0.120575458973
497562500 0.612918216193 -0.121406447486
497573000 0.613966459315 -0.120567174694
497583500 0.614289998569 -0.119755658712
497594000 0.614499732066 -0.120493106918
497604500 0.612908365054 -0.120170148231
497615000 0.613746527178 -0.120307816545
497625500 0.613624506723 -0.121013015238
497636000 0.612828996559 -0.121451023324
497646500 0.61372631563 -0.120351404292
497657000 0.613450070585 -0.120212007453
497667500 0.613466449508 -0.119887433987
497678000 0.613871506365 -0.119529421027
497688500 0.614545617434 -0.120786571096
497699000 0.613180554597 -0.120676094087
497709500 0.614093212371 -0.121740069745
497720000 0.613801447947 -0.120070818436
497730500 0.613323412586 -0.12009052993
497741000 0.613552426523 -0.12187319127
497751500 0.612584991837 -0.120995483585
497762000 0.613223137243 -0.120917196788
497772500 0.614074122355 -0.120163448899
497783000 0.612984981539 -0.121017973205
497793500 0.613292685528 -0.121555107872
497804000 0.613560905853 -0.121291888238
497814500 0.613636815275 -0.121647101241
497825000 0.614359845951 -0.121897980793
497835500 0.614573848745 -0.122105728123
497846000 0.613312508851 -0.121223706896
497856500 0.613731236657 -0.121082666707
497867000 0.613993498458 -0.121194714847
497877500 0.613890648819 -0.121445168244
497888000 0.614569904813 -0.122121802182
497898500 0.615153560472 -0.120892940973
497909000 0.614261582496 -0.120960236535
497919500 0.614938903059 -0.120826919695
497930000 0.613969918769 -0.119744771692
497940500 0.614636271609 -0.120858346684
497951000 0.613838309103 -0.120179212986
497961500 0.613355224556 -0.1213400474
497972000 0.614308227004 -0.121467103577
497982500 0.615269990031 -0.120746596415
497993000 0.614141154721 -0.120854858763
498003500 0.61424922989 -0.121424358932
498014000 0.614935478529 -0.121390793632
498024500 0.613940063809 -0.122115450793
498035000 0.614203722547 -0.122020689702
498045500 0.614176112962 -0.121594921985
498056000 0.614598201822 -0.121760334123
498066500 0.615155697106 -0.121838424192
498077000 0.613576505916 -0.120342352078
498087500 0.613751620608 -0.122348160044
498098000 0.614158950079 -0.121812963287
498108500 0.614822013147 -0.121393592109
498119000 0.615031299306 -0.120808369767
498129500 0.613446782577 -0.122163487964
498140000 0.615442770417 -0.122021494402
498150500 0.615068021036 -0.12134852963
498161000 0.615260730898 -0.121352842337
498171500 0.614648329116 -0.122403172253
498182000 0.613171010819 -0.12170779008
498192500 0.614929250732 -0.121784547272
498203000 0.614777813797 -0.12233707426
498213500 0.61490639241 -0.121768430675
498224000 0.615261636466 -0.122836059375
498234500 0.614913824414 -0.121642412141
498245000 0.614803896906 -0.121778725431
498255500 0.615735712943 -0.121706371196
498266000 0.616015010611 -0.121208342793
498276500 0.614376737051 -0.120110433026
498287000 0.61475086117 -0.118288862357
498297500 0.613221662034 -0.121233682252
498308000 0.616604452778 -0.12022419662
498318500 0.617311055323 -0.114027583943
498329000 0.618447179878 -0.133003361598
498339500 0.618981210995 -0.128104457823
498350000 0.615535619619 -0.123272545199
498360500 0.61464233616 -0.120982354977
498371000 0.614845821364 -0.12153264835
498381500 0.614464351237 -0.122200928206
498392000 0.614562391771 -0.121316117812
498402500 0.614356201977 -0.122210352288
498413000 0.614657117326 -0.122129915577
498423500 0.614309912793 -0.121682062759
498434000 0.615090939957 -0.120766233694
498444500 0.61598601921 -0.124077136237
498455000 0.614827751555 -0.121681361666
498465500 0.61488233321 -0.121209731594
498476000 0.614801312249 -0.121703921246
498486500 0.61628423352 -0.121468187199
498497000 0.612654040205 -0.125886008667
498507500 0.614993631394 -0.123540617541
498518000 0.61471820051 -0.120979268362
498528500 0.614864723309 -0.123879482355
498539000 0.616235570921 -0.119822543516
498549500 0.614192729385 -0.124672472976
498560000 0.61213878369 -0.117808150563
498570500 0.613517811247 -0.121977500166
498581000 0.61172746637 -0.119450110992
498591500 0.614214294523 -0.128029423718
498602000 0.608159349907 -0.123812745977
498612500 0.619974390847 -0.125028846613
498623000 0.611889625376 -0.122055431783
498633500 0.618756889379 -0.122491757763
498644000 0.618672743874 -0.120401197785
498654500 0.61870743228 -0.122981058331
498665000 0.617102968422 -0.12334761443
498675500 0.614852402646 -0.120110932653
498686000 0.619102744405 -0.125708676877
498696500 0.618500240598 -0.119164944597
498707000 0.619276687604 -0.123525933082
498717500 0.616507670071 -0.120060811772
498728000 0.619985798481 -0.118794131164
498738500 0.612031192191 -0.118513124598
498749000 0.613780204857 -0.122996606372
498759500 0.618723559424 -0.125056773633
498770000 0.616549672519 -0.119804006612
498780500 0.614048737236 -0.121310314856
498791000 0.611834587352 -0.121990233103
498801500 0.614717540373 -0.124521301606
498812000 0.614379290979 -0.122920386538
498822500 0.616899886235 -0.126385800697
498833000 0.615553325022 -0.119668737335
498843500 0.616977994337 -0.120248637704
498854000 0.617451226051 -0.12008690645
498864500 0.613127102818 -0.122579933569
498875000 0.614161592116 -0.120988164711
498885500 0.610444356014 -0.122172856077
498896000 0.616356774455 -0.124213240458
498906500 0.616483747948 -0.122829379496
498917000 0.616740293692 -0.123130947247
498927500 0.616364175749 -0.124241190813
498938000 0.615555741098 -0.122721643062
498948500 0.616975558324 -0.124470175219
498959000 0.615907466539 -0.123593778959
498969500 0.615244392785 -0.124905304933
498980000 0.616776163119 -0.123636529169
498990500 0.61618794504 -0.123814780859
499001000 0.615981939172 -0.122821504583
499011500 0.616500482003 -0.124086451905
499022000 0.616283439827 -0.122201086436
499032500 0.615792708301 -0.1243814989
499043000 0.619457140697 -0.127134710312
499053500 0.616903342835 -0.122021412426
499064000 0.616565297174 -0.122296356919
499074500 0.616912642494 -0.12013755533
499085000 0.614734503014 -0.123780001205
499095500 0.615317883025 -0.121746092506
499106000 0.61532534832 -0.125689605804
499116500 0.617396722075 -0.124333348752
499127000 0.61772298149 -0.123429130198
499137500 0.614310352237 -0.127657192633
499148000 0.610891989975 -0.122622977533
499158500 0.610814348127 -0.118574906089
499169000 0.603786827927 -0.126322268793
499179500 0.619415083493 -0.122783915377
499190000 0.617241660904 -0.123962730729
499200500 0.613734513575 -0.119686655524
499211000 0.613279683287 -0.125169127357
499221500 0.622566160851 -0.125684374298
499232000 0.613006497023 -0.122437467206
499242500 0.618739515579 -0.118520096988
499253000 0.62354713418 -0.106246786525
499263500 0.596699983841 -0.135293291235
499274000 0.634579557412 -0.130095480916
499284500 0.617153859488 -0.124825107646
499295000 0.598049786105 -0.118289940746
499305500 0.618880129411 -0.125992037994
499316000 0.635865866673 -0.12134268106
499326500 0.61493833711 -0.131220888755
499337000 0.607734487584 -0.119289051978
499347500 0.611803753062 -0.131399769266
499358000 0.622988727163 -0.135297023704
499368500 0.630298973037 -0.128355261444
499379000 0.633424650559 -0.115687045285
499389500 0.622504232943 -0.120126897724
499400000 0.609675588558 -0.139223400611
499410500 0.614248955552 -0.134203412832
499421000 0.62395150032 -0.123916745392
499431500 0.644421579724 -0.130957668783
499442000 0.631782269219 -0.124028333886
499452500 0.624718386705 -0.134314759871
499463000 0.631541131108 -0.113148178284
499473500 0.617791131941 -0.125307761981
499484000 0.609265163741 -0.140059993753
499494500 0.640045044828 -0.124253961901
499505000 0.623082590226 -0.125898922271
499515500 0.609046068603 -0.117188959413
499526000 0.615855838462 -0.12261377844
499536500 0.590834964647 -0.104426913377
499547000 0.620933723012 -0.0929381660142
499557500 0.60114061718 -0.124050687716
499568000 0.619678817892 -0.12830374694
499578500 0.607254681822 -0.127688114971
499589000 0.604658390581 -0.120196247847
499599500 0.6162635164 -0.0970364374547
499610000 0.630513131061 -0.11771566392
499620500 0.614478578957 -0.124720160136
499631000 0.636490677922 -0.123498247989
499641500 0.609681291892 -0.133255441529
499652000 0.616548222179 -0.125494655512
499662500 0.6074088505 -0.131782245369
499673000 0.603475672908 -0.136451544861
499683500 0.605777838939 -0.121636503691
499694000 0.624091097801 -0.135580215118
499704500 0.617822670233 -0.118242156935
499715000 0.619894187292 -0.128256770911
499725500 0.618273734872 -0.120522233378
499736000 0.619819715808 -0.11963121789
499746500 0.620142733672 -0.124340885583
499757000 0.615461778014 -0.129081472198
499767500 0.610818434899 -0.127899159845
499778000 0.613504935982 -0.125576438986
499788500 0.616631455569 -0.129878518047
499799000 0.617257467344 -0.128576809371
499809500 0.615167679112 -0.128972871099
499820000 0.621251012986 -0.124782433865
499830500 0.618030418592 -0.123814541011
499841000 0.617989305667 -0.124491862795
499851500 0.613674849754 -0.129956268926
499862000 0.617768781596 -0.122226194492
499872500 0.618755070778 -0.124294974598
499883000 0.617867861159 -0.124520208967
499893500 0.618893876234 -0.124653943848
499904000 0.61776763668 -0.124600355841
499914500 0.617991048599 -0.124506551326
499925000 0.618613894089 -0.124037442803
499935500 0.617399681929 -0.12435415959
499946000 0.617827786063 -0.124053132361
499956500 0.61989673505 -0.12511969433
499967000 0.619406785927 -0.127479024149
499977500 0.617659231168 -0.124157248424
499988000 0.618076340265 -0.125148933261
499998500 0.617375172395 -0.125105828018
500009000 0.618798209989 -0.12475755779
500019500 0.617732390182 -0.124361259985
500030000 0.617684663144 -0.124445003086
500040500 0.618104363543 -0.125073543033
500051000 0.617372464046 -0.126282163029
500061500 0.618157314789 -0.124411397908
500072000 0.616579359639 -0.123898865763
500082500 0.618735828054 -0.123801027277
500093000 0.618763571015 -0.127853050807
500103500 0.618904293903 -0.126415627084
500114000 0.617431133044 -0.125545756812
500124500 0.617491452683 -0.126157440534
500135000 0.618093170449 -0.126434599944
500145500 0.617581955087 -0.124689532308
500156000 0.6178354713 -0.125159922357
500166500 0.618489808814 -0.123860427085
500177000 0.618072932353 -0.126622826597
500187500 0.618906764488 -0.125724721575
500198000 0.615988417804 -0.125337177025
500208500 0.617029117496 -0.12426866444
500219000 0.617287774079 -0.124426676805
500229500 0.616603314953 -0.124661581348
500240000 0.617700807205 -0.124297509393
500250500 0.617741428185 -0.124092742136
500261000 0.616603999162 -0.127795691073
500271500 0.617831916128 -0.126307802592
500282000 0.620942913376 -0.12622398173
500292500 0.616833362674 -0.123563541875
500303000 0.620201525481 -0.123996037451
500313500 0.622703264331 -0.125609601781
500324000 0.619018586551 -0.125610651232
500334500 0.61926977809 -0.126047759232
500345000 0.618077110743 -0.122974999116
500355500 0.619340975502 -0.126382545803
500366000 0.617889408724 -0.126589601192
500376500 0.619486093865 -0.125474145458
500387000 0.619696804807 -0.126962777259
500397500 0.618281500797 -0.125372050878
500408000 0.617138245593 -0.1273992392
500418500 0.619718967398 -0.125546630057
500429000 0.618981878408 -0.125398458274
500439500 0.619083487792 -0.125928476007
500450000 0.619343142508 -0.12659383528
500460500 0.6202351209 -0.125693590794
500471000 0.619754489982 -0.125833420916
500481500 0.619114620447 -0.126244208695
500492000 0.620442649572 -0.125254127849
500502500 0.619454217591 -0.125667724898
500513000 0.618856430508 -0.125929394882
500523500 0.618555577773 -0.127889950638
500534000 0.619456518179 -0.126122901218
500544500 0.619889834033 -0.125505140148
500555000 0.618657472626 -0.126723919735
500565500 0.619055008986 -0.125298383418
500576000 0.619246884177 -0.126127204278
500586500 0.618072858877 -0.125983175053
500597000 0.619834649953 -0.125799123126
500607500 0.618850345797 -0.125853479343
500618000 0.619207790118 -0.125609506689
500628500 0.618207404019 -0.126662695177
500639000 0.618909572467 -0.125507768758
500649500 0.619053005898 -0.125598277605
500660000 0.620445378801 -0.125978539093
500670500 0.619174172209 -0.125815109604
500681000 0.619162129056 -0.12644543713
500691500 0.619104859713 -0.125427579885
500702000 0.620275753885 -0.126227044724
500712500 0.620036468804 -0.126516531627
500723000 0.619641893327 -0.127252116889
500733500 0.618762680599 -0.126290236861
500744000 0.620679979736 -0.127050632148
500754500 0.619982597606 -0.127367516501
500765000 0.62032774643 -0.126246398976
500775500 0.620168757244 -0.126841111866
500786000 0.62068117177 -0.126627973405
500796500 0.619872484024 -0.126237493288
500807000 0.619800780981 -0.126529572558
500817500 0.620473832925 -0.12642302367
500828000 0.620254117352 -0.126429519217
500838500 0.619893229553 -0.126304541304
500849000 0.620094030001 -0.126931961951
500859500 0.619699844923 -0.12654537207
500870000 0.620343112781 -0.126784431545
500880500 0.620209811328 -0.126745354884
500891000 0.620805599296 -0.127346852492
500901500 0.620435515127 -0.12741829805
500912000 0.620019349677 -0.127282334254
500922500 0.62012940312 -0.126986653188
500933000 0.620431808582 -0.12699432328
500943500 0.619862052241 -0.12511401215
500954000 0.620986122206 -0.126716184002
500964500 0.621715165502 -0.126287873417
500975000 0.62031822013 -0.126833206675
500985500 0.620517127853 -0.128093379518
500996000 0.62193624358 -0.126846599905
501006500 0.61919341758 -0.126264460907
501017000 0.620249780025 -0.125815777994
501027500 0.619625850476 -0.125762178258
501038000 0.619595236195 -0.12602096799
501048500 0.619777059421 -0.126387473935
501059000 0.620823583674 -0.127057097812
501069500 0.620775688187 -0.127211714582
501080000 0.621503407593 -0.127406546422
501090500 0.621544740764 -0.127669147856
501101000 0.621842259089 -0.126766898356
501111500 0.621352096408 -0.127196953794
501122000 0.621861294591 -0.127704978071
501132500 0.620209671252 -0.12693573168
501143000 0.621414832752 -0.126780275996
501153500 0.620941997789 -0.127566705723
501164000 0.620337608738 -0.12655659199
501174500 0.620412966234 -0.126559134918
501185000 0.62064329255 -0.12694483233
501195500 0.621151122272 -0.126298155047
501206000 0.621789160039 -0.127387507108
501216500 0.620759607685 -0.127080617809
501227000 0.621143643148 -0.127154024659
501237500 0.622009820559 -0.12771037387
501248000 0.621424164652 -0.127898003656
501258500 0.62041187547 -0.12756338339
501269000 0.621192218418 -0.127476084076
501279500 0.620195613258 -0.127549213697
501290000 0.621001253701 -0.127404715917
501300500 0.620977956177 -0.12757679383
501311000 0.621755329187 -0.128247437607
501321500 0.620551932268 -0.127746644592
501332000 0.62185432457 -0.127238495183
501342500 0.621056533515 -0.126810967829
501353000 0.621918807582 -0.128730548105
501363500 0.620607350677 -0.127740134005
501374000 0.620090926584 -0.12811198771
501384500 0.620088061248 -0.128043147298
501395000 0.621205569972 -0.127530656569
501405500 0.62198132169 -0.128174349124
501416000 0.626062523409 -0.128258137779
501426500 0.621702191863 -0.127091102338
501437000 0.621338074837 -0.12802614475
501447500 0.621645554165 -0.129185530538
501458000 0.621080791407 -0.129321373687
501468500 0.622017807455 -0.127577536032
501479000 0.621583460471 -0.128324093609
501489500 0.622424457434 -0.127415816415
501500000 0.6226320996 -0.12749021797
501510500 0.621095617472 -0.128009905618
501521000 0.622571073871 -0.12797800902
501531500 0.622983647239 -0.127256460531
501542000 0.622743096986 -0.128551515457
501552500 0.621583874196 -0.129280199487
501563000 0.62111194535 -0.12879344489
501573500 0.621745952158 -0.127896143916
501584000 0.62168663186 -0.128188171831
501594500 0.621200793125 -0.128895338185
501605000 0.621319913737 -0.128412956738
501615500 0.621374526142 -0.129213538884
501626000 0.621791269476 -0.128366886438
501636500 0.621961754725 -0.128748590649
501647000 0.622072658239 -0.128295427263
501657500 0.620676163888 -0.128405243784
501668000 0.622597498266 -0.129849045888
501678500 0.62214772568 -0.129265168276
501689000 0.623285787578 -0.130204478766
501699500 0.622641319092 -0.129268156737
501710000 0.622729929181 -0.128618330362
501720500 0.623466286601 -0.127987444099
501731000 0.622242559003 -0.127595607652
501741500 0.621868222807 -0.128435445999
501752000 0.621441857136 -0.128702424265
501762500 0.622594012179 -0.128091759654
501773000 0.621946708775 -0.128686712065
501783500 0.622829121891 -0.128780378907
501794000 0.621922961457 -0.129004655992
501804500 0.622580024953 -0.128323468913
501815000 0.621664488465 -0.127765767144
501825500 0.622935933332 -0.128662447898
501836000 0.621842151551 -0.128420967485
501846500 0.622930364166 -0.128699015701
501857000 0.622066289649 -0.128557201344
501867500 0.622226028359 -0.12995390857
501878000 0.622375013561 -0.129503124144
501888500 0.622426414802 -0.129079899646
501899000 0.622640049331 -0.129407465596
501909500 0.623881515752 -0.128587602507
501920000 0.622718217247 -0.127744840198
501930500 0.622884129687 -0.129295481342
501941000 0.62199949191 -0.128931120832
501951500 0.622345747482 -0.13015141221
501962000 0.622353921129 -0.129599535487
501972500 0.623513594685 -0.128312182206
501983000 0.623705290793 -0.128874478136
501993500 0.62359137135 -0.128157023142
502004000 0.624685693874 -0.12794756051
502014500 0.623541090368 -0.128859450684
502025000 0.622488232163 -0.129697510257
502035500 0.623765883007 -0.128609187461
502046000 0.623074783536 -0.129734707474
502056500 0.622997804489 -0.12953259254
502067000 0.622595544868 -0.129235833251
502077500 0.622801518699 -0.129553988561
502088000 0.622765435214 -0.128747195303
502098500 0.622787720769 -0.129482568836
502109000 0.623390779151 -0.129786805397
502119500 0.622059839905 -0.128433087824
502130000 0.621968938424 -0.129560321847
502140500 0.622841019518 -0.1297151036
502151000 0.623313114481 -0.129331538134
502161500 0.622107022478 -0.12886150993
502172000 0.624038641876 -0.129653485909
502182500 0.623572919361 -0.129965011395
502193000 0.624890547851 -0.129553645048
502203500 0.623288992203 -0.129415172456
502214000 0.623461683049 -0.130435053414
502224500 0.623202512087 -0.129724358854
502235000 0.622600524917 -0.129544010924
502245500 0.623136627971 -0.130660451202
502256000 0.622736980706 -0.128446263754
502266500 0.62351129917 -0.128355500446
502277000 0.622903470417 -0.129663108323
502287500 0.62403182481 -0.129727242658
502298000 0.621780059477 -0.130254610763
502308500 0.623680217064 -0.129227981895
502319000 0.623982268291 -0.130229545066
502329500 0.624359481852 -0.129376716796
502340000 0.623941616809 -0.129795228782
502350500 0.624984683486 -0.13018757887
502361000 0.623301569876 -0.130762526267
502371500 0.623736439995 -0.130384436116
502382000 0.624568131527 -0.13015828691
502392500 0.624012608723 -0.130120246199
502403000 0.623615235727 -0.130357671396
502413500 0.623103782274 -0.13081985541
502424000 0.623938277545 -0.130693613936
502434500 0.623394093162 -0.129865171661
502445000 0.624379902679 -0.13053860004
502455500 0.624278180775 -0.130632838402
502466000 0.623732498424 -0.13045642742
502476500 0.623405010016 -0.130694006668
502487000 0.623817512793 -0.130383424782
502497500 0.624543148423 -0.129915357702
502508000 0.623891295726 -0.13113581158
502518500 0.624171295395 -0.130238184455
502529000 0.624417170423 -0.130044489548
502539500 0.623855493868 -0.131151917258
502550000 0.623888217615 -0.130139939067
502560500 0.624941888401 -0.129240624883
502571000 0.625241906565 -0.130141917351
502581500 0.624514233004 -0.130190824594
502592000 0.625605468555 -0.129748712025
502602500 0.625099416764 -0.130781318306
502613000 0.624135914523 -0.130116204511
502623500 0.624777542058 -0.130408828277
502634000 0.624282981371 -0.130226478016
502644500 0.622945204379 -0.130324371102
502655000 0.622228832116 -0.132296349217
502665500 0.624667512021 -0.131123342131
502676000 0.624048676708 -0.131227356879
502686500 0.624371157546 -0.130427484317
502697000 0.624507713343 -0.131007070176
502707500 0.624995287298 -0.13176380046
502718000 0.624397976241 -0.130803870767
502728500 0.624902655596 -0.131046918599
502739000 0.624179843299 -0.130900709161
502749500 0.624352501417 -0.130940238266
502760000 0.624864386565 -0.130266128337
502770500 0.625738239187 -0.130470703985
502781000 0.625041172326 -0.131424824024
502791500 0.625132846582 -0.130958499183
502802000 0.624591938288 -0.130494067915
502812500 0.624971245553 -0.131279047032
502823000 0.624577095429 -0.131421353333
502833500 0.623798484709 -0.131822099107
502844000 0.62564700997 -0.131381668691
502854500 0.625144394817 -0.131240216874
502865000 0.625800768974 -0.131589504267
502875500 0.62518923687 -0.132330161746
502886000 0.625610430451 -0.131197375428
502896500 0.624938936492 -0.131069304596
502907000 0.625910111522 -0.131401050937
502917500 0.624881051053 -0.132054945932
502928000 0.626048157478 -0.131693264286
502938500 0.626341574463 -0.131160720217
502949000 0.624940933916 -0.131800303148
502959500 0.625518325916 -0.131012487574
502970000 0.625421876106 -0.131949985826
502980500 0.626297522502 -0.132270558584
502991000 0.625762147965 -0.132381663262
503001500 0.625250398443 -0.132182296159
503012000 0.625981098714 -0.132310520554
503022500 0.625746380865 -0.13142188431
503033000 0.625339151745 -0.132505081147
503043500 0.625802649128 -0.130465758996
503054000 0.626239149921 -0.132345805733
503064500 0.625949417131 -0.131884167597
503075000 0.626352540501 -0.131171899155
503085500 0.62557575709 -0.133068710721
503096000 0.625709141954 -0.131232922095
503106500 0.627566044657 -0.131865530009
503117000 0.623349345877 -0.132288219634
503127500 0.627341922163 -0.129723132179
503138000 0.624776170663 -0.131898135494
503148500 0.62323980109 -0.132945655837
503159000 0.625883543455 -0.131599785773
503169500 0.625920147023 -0.130052838122
503180000 0.625676361071 -0.128204486735
503190500 0.62512407452 -0.12824835172
503201000 0.625821454452 -0.132661466457
503211500 0.624338022424 -0.132756222851
503222000 0.623903621062 -0.130538850701
503232500 0.622729337528 -0.129388028017
503243000 0.629227543394 -0.131257088359
503253500 0.622806798557 -0.131788086562
503264000 0.624367560122 -0.130509150622
503274500 0.632708329531 -0.130090810785
503285000 0.624287640152 -0.134993951864
503295500 0.623437076276 -0.132818993363
503306000 0.623082525476 -0.131323111147
503316500 0.625752319357 -0.133914346703
503327000 0.627673769621 -0.134287125453
503337500 0.628047468373 -0.130569265732
503348000 0.627841715657 -0.133840779391
503358500 0.625920684533 -0.138678040724
503369000 0.621538737427 -0.13774594994
503379500 0.624283771547 -0.133278021787
503390000 0.624997119212 -0.129110923047
503400500 0.624721720847 -0.134354716516
503411000 0.623171981385 -0.134604362993
503421500 0.62431643062 -0.131743611367
503432000 0.627933117382 -0.132393913943
503442500 0.631916100886 -0.132137642038
503453000 0.630862143967 -0.130992091734
503463500 0.622721148708 -0.131614170095
503474000 0.626952831326 -0.124495158477
503484500 0.63163547899 -0.129856510557
503495000 0.63323014547 -0.13055921346
503505500 0.630971726731 -0.138495341445
503516000 0.625821169099 -0.133916812393
503526500 0.626964367358 -0.126426192009
503537000 0.635080148818 -0.136011657421
503547500 0.624698187276 -0.131438834896
503558000 0.630798333315 -0.136472015707
503568500 0.629170086837 -0.133465548817
503579000 0.629290395112 -0.127951411278
503589500 0.630165325578 -0.134550435199
503600000 0.624613278101 -0.12697022975
503610500 0.61606100956 -0.139957095176
503621000 0.628369510599 -0.135323823899
503631500 0.626688750628 -0.133571478518
503642000 0.624261542653 -0.127928870093
503652500 0.627646980351 -0.135189811207
503663000 0.62293142846 -0.132246065818
503673500 0.62773754756 -0.133756906321
503684000 0.628664601179 -0.130103914096
503694500 0.624366467647 -0.128607804116
503705000 0.627055390965 -0.137847013372
503715500 0.628873132994 -0.12334046569
503726000 0.627100575082 -0.135186381938
503736500 0.628175739759 -0.124141634079
503747000 0.632824691779 -0.13768170041
503757500 0.628826905626 -0.134396607798
503768000 0.627802992936 -0.135413846111
503778500 0.628814444649 -0.136436115803
503789000 0.623564932004 -0.134777731093
503799500 0.627770031736 -0.134481254787
503810000 0.626775608097 -0.135945549014
503820500 0.628107600249 -0.134614238857
503831000 0.628238601057 -0.133752746033
503841500 0.627280917519 -0.134559392456
503852000 0.628425399232 -0.132872689302
503862500 0.628750300477 -0.134822792894
503873000 0.627313894087 -0.135023700879
503883500 0.628348207368 -0.133286476949
503894000 0.630160687725 -0.134656272896
503904500 0.628377248467 -0.135276105006
503915000 0.628274341419 -0.13596610134
503925500 0.628046880796 -0.133553186181
503936000 0.628049884203 -0.135296878618
503946500 0.62923450047 -0.133425396497
503957000 0.628174679135 -0.135431370597
503967500 0.627920387592 -0.135247435184
503978000 0.628768169354 -0.134080292134
503988500 0.628508708977 -0.133972537981
503999000 0.627166127189 -0.134194375055
504009500 0.629209855618 -0.134154621958
504020000 0.629028220004 -0.134696725017
504030500 0.628904051503 -0.134120957309
504041000 0.628130705268 -0.133350189991
504051500 0.62768489189 -0.135115586424
504062000 0.628919809742 -0.134661820578
504072500 0.627725277152 -0.135053963807
504083000 0.628248568499 -0.1349591557
504093500 0.627946733925 -0.134563959949
504104000 0.628249124584 -0.134634778608
504114500 0.628470368837 -0.135606796066
504125000 0.627671466873 -0.135835043389
504135500 0.628558671497 -0.136508198862
504146000 0.628903933019 -0.13470046487
504156500 0.62816505009 -0.134504946027
504167000 0.628739715184 -0.13392216467
504177500 0.629248909376 -0.135385372637
504188000 0.628237928225 -0.136935761173
504198500 0.628705222387 -0.134478356625
504209000 0.628476861784 -0.134676912649
504219500 0.628464027663 -0.134775471623
504230000 0.629129968213 -0.134830176715
504240500 0.628912173474 -0.134405968222
504251000 0.62793585162 -0.134708125392
504261500 0.628908668608 -0.13496228511
504272000 0.628635582578 -0.13483392583
504282500 0.629165552783 -0.135798837761
504293000 0.629175782652 -0.134848146336
504303500 0.629454372428 -0.13599533658
504314000 0.628487562252 -0.135438736484
504324500 0.629483481949 -0.13519400261
504335000 0.628588741025 -0.135134094748
504345500 0.628034390176 -0.136008874083
504356000 0.628414255292 -0.13526556175
504366500 0.628860711526 -0.136190602614
504377000 0.628665567176 -0.136052023724
504387500 0.629277469583 -0.134448481446
504398000 0.627681626373 -0.134798827467
504408500 0.627299328439 -0.13721761041
504419000 0.628653783479 -0.135058506149
504429500 0.628604502782 -0.135941605938
504440000 0.629207639312 -0.137400166366
504450500 0.629068317013 -0.136034091073
504461000 0.628418215227 -0.135619929867
504471500 0.629000940895 -0.134821125388
504482000 0.629624393679 -0.13534886784
504492500 0.628649495022 -0.137462166928
504503000 0.627304757112 -0.138360507346
504513500 0.627023396199 -0.135787401619
504524000 0.628136770443 -0.137189187391
504534500 0.629184965558 -0.137374139189
504545000 0.630745675234 -0.135996390874
504555500 0.629972858944 -0.136239133218
504566000 0.630317964895 -0.136891241406
504576500 0.629658525469 -0.136114636866
504587000 0.629851960866 -0.136746868856
504597500 0.629747081115 -0.135758036318
504608000 0.629867560599 -0.13655725474
504618500 0.629316393884 -0.13581027445
504629000 0.629016502111 -0.13564701147
504639500 0.630202279839 -0.136007039237
504650000 0.629592845542 -0.13549248464
504660500 0.629769074497 -0.136773006641
504671000 0.628882865326 -0.135759565124
504681500 0.630196993726 -0.136050225823
504692000 0.63111431302 -0.135831899695
504702500 0.629166224623 -0.136211083141
504713000 0.629466046956 -0.135813608491
504723500 0.629689253448 -0.136724374607
504734000 0.62924623047 -0.136040624957
504744500 0.629560234173 -0.136308754254
504755000 0.630854448749 -0.136580747917
504765500 0.630351425634 -0.136271961183
504776000 0.628591799428 -0.13709336965
504786500 0.628947571981 -0.136978004073
504797000 0.630129605172 -0.135893420772
504807500 0.629348058344 -0.137589311518
504818000 0.630429571547 -0.135641470428
504828500 0.631489494502 -0.136432401967
504839000 0.631000085912 -0.137461715772
504849500 0.630671325214 -0.136982684044
504860000 0.630747001393 -0.136574019536
504870500 0.629955181857 -0.137834501648
504881000 0.630111297556 -0.137781591292
504891500 0.631619284457 -0.137858559167
504902000 0.630449269326 -0.136281332142
504912500 0.630116147154 -0.138249175626
504923000 0.630001354657 -0.137332616391
504933500 0.629982356634 -0.13727480376
504944000 0.630902740977 -0.137336573988
504954500 0.630237367205 -0.138514982303
504965000 0.630325871773 -0.137851511405
504975500 0.631145134309 -0.137602961774
504986000 0.629468444393 -0.138584762738
504996500 0.629941861707 -0.137865117079
505007000 0.629827014366 -0.138285265133
505017500 0.629217896726 -0.136692526163
505028000 0.630021603516 -0.137850866439
505038500 0.629946415217 -0.137129798343
505049000 0.63074307807 -0.138098663944
505059500 0.630283154695 -0.136701115826
505070000 0.631230037128 -0.136318629337
505080500 0.631506672011 -0.136593388898
505091000 0.631003221696 -0.137615443227
505101500 0.631201508061 -0.136573959656
505112000 0.630912840102 -0.137462695117
505122500 0.630749282439 -0.138055773301
505133000 0.630633021253 -0.139189499562
505143500 0.630035870184 -0.138578978547
505154000 0.630255040377 -0.13853851499
505164500 0.628828819141 -0.142051026942
505175000 0.631429534032 -0.138562912564
505185500 0.631020433725 -0.137904155471
505196000 0.631569885403 -0.138139432216
505206500 0.630957898648 -0.138021866984
505217000 0.630507751461 -0.138861848293
505227500 0.631716950387 -0.138360904881
505238000 0.631646318698 -0.138847619082
505248500 0.631397178328 -0.138200988655
505259000 0.630759988119 -0.137979187479
505269500 0.631110955375 -0.138950432744
505280000 0.630381303158 -0.138526594024
505290500 0.630326187869 -0.138150729763
505301000 0.630976375941 -0.138128046388
505311500 0.63163308351 -0.13787589985
505322000 0.631684176842 -0.138891801207
505332500 0.630834132616 -0.137997498488
505343000 0.632561454626 -0.138584413131
505353500 0.63174957322 -0.138195797442
505364000 0.631553648584 -0.138925346825
505374500 0.63117933691 -0.139328427184
505385000 0.632431842404 -0.139801645084
505395500 0.632341877252 -0.13913815124
505406000 0.632173144736 -0.138900458179
505416500 0.631030453581 -0.138957880739
505427000 0.632101099827 -0.138033152846
505437500 0.632394686821 -0.137945489771
505448000 0.632976757634 -0.138649089235
505458500 0.632710963955 -0.13938625453
505469000 0.631660077282 -0.139377908903
505479500 0.631603398358 -0.138959567005
505490000 0.630524222662 -0.138517027547
505500500 0.631195444438 -0.13846866741
505511000 0.631046458713 -0.138336594591
505521500 0.631899020016 -0.140492457358
505532000 0.629986390316 -0.139488845371
505542500 0.628776032535 -0.139159572764
505553000 0.630589782899 -0.139429809486
505563500 0.630895973824 -0.139955010852
505574000 0.631904199616 -0.139972753211
505584500 0.631577708892 -0.140348651949
505595000 0.631413052431 -0.140295511536
505605500 0.630935140255 -0.139530994205
505616000 0.630856155271 -0.138767179071
505626500 0.631173856494 -0.139628259734
505637000 0.632521443576 -0.139509079612
505647500 0.631514375736 -0.139175149978
505658000 0.632019764519 -0.14074344518
505668500 0.631484749534 -0.140410633391
505679000 0.63191582132 -0.140438896419
505689500 0.632077946657 -0.140121593908
505700000 0.632786911784 -0.139942015626
505710500 0.632957691318 -0.139477878685
505721000 0.631985904274 -0.139518762046
505731500 0.632420003409 -0.141009095699
505742000 0.63230714205 -0.140976543925
505752500 0.633286480037 -0.140104108632
505763000 0.63201145893 -0.140044805831
505773500 0.631713360703 -0.139923080717
505784000 0.631064643772 -0.141397166958
505794500 0.631835473155 -0.140206342198
505805000 0.632638231028 -0.14093418016
505815500 0.631898153706 -0.140358545624
505826000 0.632463917994 -0.140263978549
505836500 0.632201178334 -0.139928121613
505847000 0.63286751303 -0.139724670106
505857500 0.633890247169 -0.140130531445
505868000 0.633321503126 -0.13990057661
505878500 0.633354948683 -0.140264214272
505889000 0.633250534163 -0.140918028927
505899500 0.632725302616 -0.141104009278
505910000 0.631944778038 -0.139598679597
505920500 0.631981726036 -0.140615010971
505931000 0.63253578831 -0.140835197869
505941500 0.632623087526 -0.13996808616
505952000 0.632034378666 -0.139766304567
505962500 0.633720306066 -0.139548336995
505973000 0.63236251226 -0.140216896802
505983500 0.632879205611 -0.13997324731
505994000 0.632557933243 -0.139362057093
506004500 0.633868412085 -0.142032764458
506015000 0.632974217992 -0.141962874291
506025500 0.633510726098 -0.141382095609
506036000 0.632987382546 -0.141627844533
506046500 0.632659189267 -0.141194167788
506057000 0.63214639581 -0.141543239834
506067500 0.633005150631 -0.142199171939
506078000 0.633029442082 -0.140949653367
506088500 0.632849390115 -0.14048262839
506099000 0.63206895199 -0.141088733779
506109500 0.634172935909 -0.140394661568
506120000 0.632533971007 -0.141558123732
506130500 0.632490150827 -0.140493671539
506141000 0.633659950834 -0.140732898951
506151500 0.634176106025 -0.142538767052
506162000 0.634256519742 -0.141926491366
506172500 0.632404599538 -0.141544590843
506183000 0.633435431231 -0.142129724522
506193500 0.632916781251 -0.141866854009
506204000 0.633911727557 -0.140877631191
506214500 0.633745071723 -0.139977725309
506225000 0.633440611235 -0.141795552125
506235500 0.63365784732 -0.141275688043
506246000 0.633551158173 -0.141408277217
506256500 0.634519843359 -0.140486713525
506267000 0.633773433386 -0.141849484597
506277500 0.63262308612 -0.14153324876
506288000 0.633150229922 -0.141762966467
506298500 0.633872750379 -0.142178020424
506309000 0.633822841473 -0.141573873529
506319500 0.633402551817 -0.142484962495
506330000 0.633783150507 -0.142792399272
506340500 0.63365754695 -0.142019310275
506351000 0.633602037895 -0.14341303089
506361500 0.632956222589 -0.142940902541
506372000 0.633919846936 -0.143112682296
506382500 0.633543292447 -0.143233831691
506393000 0.632894335919 -0.142904570219
506403500 0.634907963107 -0.142807090739
506414000 0.63248511641 -0.14227781791
506424500 0.633923235627 -0.141816709288
506435000 0.634640069487 -0.143278849178
506445500 0.630602884712 -0.143500149955
506456000 0.63224823946 -0.142754137458
506466500 0.635199408479 -0.141999132184
506477000 0.634354538975 -0.14269782869
506487500 0.632931352036 -0.143188682391
506498000 0.634099474047 -0.142417111958
506508500 0.635321921813 -0.141690637403
506519000 0.632398520732 -0.141613607908
506529500 0.634432211846 -0.142549848896
506540000 0.633777324994 -0.14338555237
506550500 0.63397853521 -0.144067693644
506561000 0.635174249307 -0.143644885732
506571500 0.634222047297 -0.143116999346
506582000 0.634458581166 -0.143523387687
506592500 0.634290621725 -0.142682642548
506603000 0.635524682468 -0.143273354837
506613500 0.633892394069 -0.14355280603
506624000 0.633933273765 -0.143976584773
506634500 0.634605231803 -0.143240437907
506645000 0.633754086482 -0.14399128738
506655500 0.633169148348 -0.142903556152
506666000 0.634170366505 -0.14322313662
506676500 0.633970301408 -0.143705624045
506687000 0.633023338366 -0.144317912845
506697500 0.634313203574 -0.143055514373
506708000 0.634420320835 -0.143404775853
506718500 0.634881070065 -0.142712918544
506729000 0.633142201146 -0.143316878901
506739500 0.63470367808 -0.14336111783
506750000 0.635340712577 -0.142519940511
506760500 0.634303195774 -0.142599495281
506771000 0.632908070447 -0.144103484205
506781500 0.634393034785 -0.142572837619
506792000 0.634549332183 -0.143602068112
506802500 0.634561047411 -0.143588528762
506813000 0.634288902608 -0.143534232623
506823500 0.635119526067 -0.143825984985
506834000 0.634361572356 -0.143784755619
506844500 0.63545952926 -0.143174276731
506855000 0.635266345988 -0.142612907127
506865500 0.635740841851 -0.144077540592
506876000 0.635456386097 -0.143609614831
506886500 0.635256340435 -0.144031353421
506897000 0.634563034199 -0.144379376733
506907500 0.634775089358 -0.14448291652
506918000 0.636078033973 -0.143445558495
506928500 0.635499471246 -0.144595631878
506939000 0.634731418953 -0.144100135765
506949500 0.635174772634 -0.144175755217
506960000 0.634725257186 -0.144661458087
506970500 0.635811037005 -0.143682016428
506981000 0.635931210026 -0.142316477727
506991500 0.634461427836 -0.143078826984
507002000 0.634449184257 -0.142332856566
507012500 0.635193364469 -0.14382052052
507023000 0.635708863854 -0.145412792517
507033500 0.634971451845 -0.144787541479
507044000 0.634713012689 -0.14632417837
507054500 0.633687928879 -0.145517422663
507065000 0.635864372167 -0.145541096799
507075500 0.63541868337 -0.144568557398
507086000 0.637190555208 -0.144650363045
507096500 0.636453362855 -0.144589776387
507107000 0.635857224974 -0.145076282651
507117500 0.63295694193 -0.144408726307
507128000 0.634108301666 -0.147715740919
507138500 0.636106713415 -0.145963587805
507149000 0.637203090412 -0.144719032557
507159500 0.633269601442 -0.145763836029
507170000 0.63660628893 -0.145926827706
507180500 0.632467854367 -0.146879205487
507191000 0.634244657067 -0.146082073866
507201500 0.635741760834 -0.143655907714
507212000 0.634018745409 -0.146198922169
507222500 0.635496402356 -0.145717947921
507233000 0.635185402781 -0.143614089874
507243500 0.631370949671 -0.145091039687
507254000 0.633770244343 -0.147876667694
507264500 0.634999841541 -0.14688284575
507275000 0.634615721021 -0.144525196535
507285500 0.631923231038 -0.144786711685
507296000 0.632725327394 -0.147307755135
507306500 0.635595524901 -0.146934947056
507317000 0.635991232014 -0.147159186248
507327500 0.630327734732 -0.146109237743
507338000 0.632572777537 -0.144558446153
507348500 0.636973449061 -0.145288783831
507359000 0.637122741778 -0.148329969439
507369500 0.637887741469 -0.146513713264
507380000 0.635334439298 -0.144726527825
507390500 0.633909458282 -0.141024915375
507401000 0.638149195229 -0.146252406202
507411500 0.635440274163 -0.144502013899
507422000 0.637154296904 -0.14488252249
507432500 0.63481046205 -0.14609791613
507443000 0.634141327657 -0.144762450918
507453500 0.635581385079 -0.146018326719
507464000 0.63852736376 -0.143309455402
507474500 0.631648155912 -0.146713597115
507485000 0.633923407563 -0.144389864588
507495500 0.633664290776 -0.151521348772
507506000 0.635821230012 -0.146918241277
507516500 0.638244650897 -0.146722312362
507527000 0.633601799419 -0.148338293248
507537500 0.637856331818 -0.145597204739
507548000 0.634236905418 -0.143707698279
507558500 0.634263003586 -0.146386062137
507569000 0.636073631289 -0.146201089939
507579500 0.633274886556 -0.145743508878
507590000 0.63976408057 -0.150836366989
507600500 0.63641129204 -0.147775959546
507611000 0.632430236224 -0.146697442889
507621500 0.634504207866 -0.14535623481
507632000 0.637817684381 -0.146881880262
507642500 0.634979126722 -0.144701345304
507653000 0.63713279897 -0.148059050424
507663500 0.635395768659 -0.147775449554
507674000 0.637011093851 -0.146835173717
507684500 0.638790899394 -0.149442214282
507695000 0.634443500601 -0.146090530049
507705500 0.63735680988 -0.147768576664
507716000 0.638147560959 -0.146085821215
507726500 0.635283317 -0.1474421469
507737000 0.639780375671 -0.148646554311
507747500 0.637685143953 -0.146671381366
507758000 0.638198925035 -0.150401100781
507768500 0.639757438556 -0.146204736923
507779000 0.639089838061 -0.145339948817
507789500 0.635694106527 -0.146612012886
507800000 0.636142406412 -0.147231531987
507810500 0.636589105105 -0.148627879777
507821000 0.63579671822 -0.149479026768
507831500 0.636065871911 -0.147671146843
507842000 0.636064140217 -0.148634412767
507852500 0.636129414928 -0.148066531866
507863000 0.637780927616 -0.149073783692
507873500 0.638421084563 -0.150101454883
507884000 0.636786916178 -0.147950969833
507894500 0.636236171985 -0.148344330499
507905000 0.636836476875 -0.147888727737
507915500 0.638464229912 -0.146636843667
507926000 0.635629615449 -0.14928774103
507936500 0.635368204787 -0.147429240383
507947000 0.636166625182 -0.148881827025
507957500 0.636257586444 -0.147669199901
507968000 0.637288541208 -0.147298137022
507978500 0.63745725548 -0.14810118159
507989000 0.637408815249 -0.147797980618
507999500 0.638782142295 -0.148448542897
508010000 0.636166541467 -0.148396689889
508020500 0.636633633799 -0.146868178819
508031000 0.636458457873 -0.148763034283
508041500 0.636675841208 -0.148118101313
508052000 0.635901822302 -0.148056033506
508062500 0.636996890711 -0.148147325941
508073000 0.63772039557 -0.147703800254
508083500 0.637615415689 -0.148071780897
508094000 0.637922237637 -0.147640575189
508104500 0.638041755516 -0.148665489203
508115000 0.63682469125 -0.148452340557
508125500 0.638007448783 -0.147963673542
508136000 0.636876752015 -0.148156976074
508146500 0.6361476162 -0.148950392522
508157000 0.637587892847 -0.148654205536
508167500 0.636673927714 -0.148334179173
508178000 0.636944967716 -0.149334874922
508188500 0.637189164371 -0.149419680358
508199000 0.637858392346 -0.14900843303
508209500 0.636955508422 -0.149120451662
508220000 0.638390801232 -0.14961257253
508230500 0.637966194747 -0.149056740577
508241000 0.637434261858 -0.149245229314
508251500 0.63663414191 -0.14904019303
508262000 0.639223385873 -0.149589785635
508272500 0.638013651829 -0.150067392383
508283000 0.637231757667 -0.14804522729
508293500 0.636765263698 -0.149677662919
508304000 0.636670104631 -0.148703583976
508314500 0.638020689675 -0.148706413202
508325000 0.63931292822 -0.148684662704
508335500 0.636568544644 -0.150316088122
508346000 0.639023134142 -0.14989883044
508356500 0.637452105115 -0.14910089705
508367000 0.638166940716 -0.15099617871
508377500 0.638506746548 -0.148492510191
508388000 0.638486238789 -0.149832346504
508398500 0.637851905248 -0.148865511712
508409000 0.637808926593 -0.149629248954
508419500 0.638175493636 -0.148952474984
508430000 0.638235649809 -0.1496315293
508440500 0.638022483075 -0.150037515831
508451000 0.638940722808 -0.150319319846
508461500 0.63823166663 -0.150233222007
508472000 0.637198844642 -0.149443441299
508482500 0.638046609812 -0.149427780864
508493000 0.639405182676 -0.149455487011
508503500 0.638099891888 -0.149717618021
508514000 0.639646947187 -0.15030308595
508524500 0.639053372152 -0.150430238255
508535000 0.638165309154 -0.149180858929
508545500 0.638065733917 -0.149397887348
508556000 0.638300176641 -0.150896103673
508566500 0.638311214018 -0.151297462874
508577000 0.638785524245 -0.150653958278
508587500 0.638337244834 -0.15047053145
508598000 0.639588470131 -0.150269878939
508608500 0.639041846243 -0.149644573898
508619000 0.639684671041 -0.150852899571
508629500 0.639094967755 -0.149922553996
508640000 0.638898043135 -0.150587916256
508650500 0.638765740786 -0.151294396577
508661000 0.639148059556 -0.151331747587
508671500 0.638995218972 -0.150932082899
508682000 0.638935057203 -0.150522830974
508692500 0.638838914632 -0.151459086109
508703000 0.638384049714 -0.150911977056
508713500 0.637894065418 -0.150399600673
508724000 0.637918822502 -0.150872929254
508734500 0.638384111632 -0.150839103246
508745000 0.638339955216 -0.151306459219
508755500 0.639779747279 -0.151021769062
508766000 0.639410711687 -0.150962590535
508776500 0.639379315937 -0.152054983173
508787000 0.639575628579 -0.151327284805
508797500 0.638814105182 -0.151056413282
508808000 0.639192130165 -0.151326128018
508818500 0.639264739766 -0.150548659753
508829000 0.63822256445 -0.150651097078
508839500 0.639702113195 -0.150307296735
508850000 0.638976244824 -0.151035234971
508860500 0.638710414253 -0.150873556916
508871000 0.638957959875 -0.150756005473
508881500 0.638910123104 -0.152168488069
508892000 0.639518794493 -0.151662676105
508902500 0.639574111049 -0.151666558746
508913000 0.638562854011 -0.152139540932
508923500 0.639277784345 -0.151025033793
508934000 0.638676073218 -0.150944138756
508944500 0.63939444984 -0.151717799707
508955000 0.637832467659 -0.151304677838
508965500 0.638634623555 -0.152465183624
508976000 0.639231291659 -0.150862004067
508986500 0.639584842962 -0.152090658946
508997000 0.638028430804 -0.151277925986
509007500 0.638036667359 -0.150718269222
509018000 0.639165400618 -0.151987800753
509028500 0.63981837078 -0.151725035998
509039000 0.639420779871 -0.151033983557
509049500 0.638076961898 -0.152821494582
509060000 0.639124959588 -0.152135018298
509070500 0.639636968696 -0.151033690744
509081000 0.63788284225 -0.151452181115
509091500 0.640179275998 -0.151434826211
509102000 0.639119634274 -0.151835138652
509112500 0.639898570287 -0.153113682403
509123000 0.638206200148 -0.153404839495
509133500 0.63838655159 -0.151872590683
509144000 0.638179286353 -0.153938104719
509154500 0.638215598913 -0.155350450768
509165000 0.633104999696 -0.149189599658
509175500 0.638587446842 -0.155503013574
509186000 0.639717739282 -0.15344947605
509196500 0.638489497631 -0.153714580975
509207000 0.640060204144 -0.152975866388
509217500 0.64002407213 -0.153726919302
509228000 0.639567088646 -0.1527232024
509238500 0.639358762815 -0.153795750005
509249000 0.639258240003 -0.151605017611
509259500 0.640074124921 -0.15262064851
509270000 0.64044284835 -0.152318071534
509280500 0.640772826213 -0.153926155729
509291000 0.640217646755 -0.154730678003
509301500 0.639927928973 -0.154014547925
509312000 0.639676237055 -0.153310010964
509322500 0.639621597265 -0.153162577826
509333000 0.640064022317 -0.152889226408
509343500 0.640999853417 -0.153566833186
509354000 0.639340237317 -0.154481585781
509364500 0.639535457172 -0.154395232368
509375000 0.639061335984 -0.154828247901
509385500 0.640502608822 -0.153852506439
509396000 0.639931191957 -0.153970885869
509406500 0.639898378248 -0.154140409649
509417000 0.63965425371 -0.15317343178
509427500 0.640243927609 -0.154287054907
509438000 0.640852193941 -0.153875567545
509448500 0.63965679124 -0.155140815928
509459000 0.639684397314 -0.15536372603
509469500 0.639415620227 -0.153827111366
509480000 0.640022953244 -0.154214163475
509490500 0.639427582329 -0.154066231144
509501000 0.640112819659 -0.153945134541
509511500 0.640247567303 -0.154857460825
509522000 0.639702344679 -0.155145933826
509532500 0.640270043465 -0.154053713479
509543000 0.639651785761 -0.154497260383
509553500 0.640491425773 -0.154169441366
509564000 0.64003886521 -0.15512519861
509574500 0.640480214833 -0.155609552821
509585000 0.639435024008 -0.153966332029
509595500 0.640708769325 -0.153985314323
509606000 0.639648864581 -0.153852224988
509616500 0.640145986093 -0.15405991766
509627000 0.640767336545 -0.154659667072
509637500 0.640861166905 -0.154786924997
509648000 0.641097154117 -0.154729053459
509658500 0.640682724185 -0.15624842681
509669000 0.640387543508 -0.155319950968
509679500 0.641130660204 -0.153767573265
509690000 0.639160449275 -0.155129455642
509700500 0.641012910307 -0.154581326808
509711000 0.640306900219 -0.154895907539
509721500 0.64100335851 -0.155241599824
509732000 0.640908568934 -0.155291344705
509742500 0.640480165009 -0.154792834089
509753000 0.640877427464 -0.154741633401
509763500 0.63995533884 -0.153832531599
509774000 0.639910154598 -0.153934552895
509784500 0.639735579684 -0.154798910667
509795000 0.64046741557 -0.155517321058
509805500 0.640236722097 -0.155890706658
509816000 0.640371824287 -0.155903452277
509826500 0.640067986088 -0.154581033238
509837000 0.641266005782 -0.155409857098
509847500 0.641530005507 -0.155529812649
509858000 0.641824265524 -0.156488469644
509868500 0.641688752557 -0.15552313995
509879000 0.640491794003 -0.155385572566
509889500 0.640718838533 -0.157035162941
509900000 0.640448143691 -0.154857609914
509910500 0.641371173827 -0.1565904896
509921000 0.639927500659 -0.155834036377
509931500 0.640426610936 -0.156233601631
509942000 0.641122070068 -0.154856086647
509952500 0.640813810962 -0.155868922418
509963000 0.640030013691 -0.155970384432
509973500 0.64116731072 -0.155958460875
509984000 0.640478742145 -0.155465012057
509994500 0.640062823815 -0.157560476429
510005000 0.641151994963 -0.157567198874
510015500 0.640674983672 -0.156853082234
510026000 0.641291365952 -0.157243298164
510036500 0.640622726491 -0.156149160989
510047000 0.641277449725 -0.156736569493
510057500 0.640679001318 -0.156163478874
510068000 0.64079099568 -0.155999631613
510078500 0.641147864561 -0.156622516833
510089000 0.64159442056 -0.15646035837
510099500 0.641354785201 -0.15619094066
510110000 0.640478616115 -0.15575596148
510120500 0.640846185977 -0.157840783435
510131000 0.639790856923 -0.156981458215
510141500 0.641453189227 -0.156073764036
510152000 0.640579722547 -0.1577380715
510162500 0.640745175247 -0.156779980734
510173000 0.64177587598 -0.157719802707
510183500 0.640964567567 -0.157234232548
510194000 0.641001612636 -0.157899145553
510204500 0.641939404915 -0.15724051733
510215000 0.640923970898 -0.157694704718
510225500 0.640696305895 -0.15738073119
510236000 0.640649852461 -0.157916790471
510246500 0.641306070049 -0.15812320268
510257000 0.641785627783 -0.15856938582
510267500 0.642111318843 -0.157708541166
510278000 0.642903131958 -0.15752685176
510288500 0.64152078333 -0.157438310784
510299000 0.643093652229 -0.157258030537
510309500 0.641386586312 -0.156444676647
510320000 0.640498244898 -0.157300665988
510330500 0.641491834386 -0.156762889614
510341000 0.640732161663 -0.157448605637
510351500 0.641661227701 -0.156876448386
510362000 0.640635258992 -0.158114596217
510372500 0.641684330131 -0.157866578502
510383000 0.640942723196 -0.158438665696
510393500 0.64059965471 -0.158762988703
510404000 0.640587914911 -0.158791856439
510414500 0.64136230801 -0.15817842856
510425000 0.641311782206 -0.158658031173
510435500 0.641353089504 -0.157600985894
510446000 0.641376267067 -0.158448610144
510456500 0.64169134916 -0.15842633746
510467000 0.640818284907 -0.158089263731
510477500 0.641428467869 -0.158428481718
510488000 0.641554008955 -0.157026657765
510498500 0.641191276532 -0.158839762103
510509000 0.640870832366 -0.15784699739
510519500 0.641726116947 -0.15810050687
510530000 0.641816834331 -0.158908506467
510540500 0.642126001642 -0.157909794001
510551000 0.642245753454 -0.15928058882
510561500 0.641763850822 -0.158811730459
510572000 0.64197921869 -0.158967794961
510582500 0.642588396085 -0.158925447406
510593000 0.641417113613 -0.158960968194
510603500 0.641309445684 -0.160165690862
510614000 0.640993686968 -0.159960267475
510624500 0.642205241844 -0.159026736666
510635000 0.641583336648 -0.15986400449
510645500 0.642161774199 -0.160022273464
510656000 0.640874115979 -0.159374222013
510666500 0.642322941026 -0.159991178651
510677000 0.642227679037 -0.160169167128
510687500 0.642531945342 -0.159873359765
510698000 0.642156758985 -0.15882316203
510708500 0.642448830818 -0.159394949129
510719000 0.641875817074 -0.159142597296
510729500 0.6419964284 -0.159468477376
510740000 0.642745182941 -0.159165675004
510750500 0.641585078772 -0.158999555462
510761000 0.642531684415 -0.159212061407
510771500 0.641766358416 -0.160107386375
510782000 0.641747960853 -0.159261044098
510792500 0.641867632521 -0.159157157611
510803000 0.640862067519 -0.160007997277
510813500 0.64221509794 -0.159092912823
510824000 0.642269588519 -0.15938408729
510834500 0.642640455455 -0.159429841121
510845000 0.642596612363 -0.160053557885
510855500 0.641970569414 -0.160884872938
510866000 0.642917671723 -0.159864522967
510876500 0.642293799364 -0.160443116681
510887000 0.642868687104 -0.160944026437
510897500 0.642409220968 -0.15856199671
510908000 0.641717605147 -0.159229989667
510918500 0.641667812517 -0.159787108484
510929000 0.642190369374 -0.159191876175
510939500 0.64184288538 -0.160031977536
510950000 0.641609856956 -0.160169086691
510960500 0.641711999143 -0.161520630431
510971000 0.642576456549 -0.160028611223
510981500 0.642057670439 -0.161708059776
510992000 0.641604325436 -0.160379999145
511002500 0.641900058208 -0.159628392554
511013000 0.642653616659 -0.160409388835
511023500 0.641449307068 -0.160769973556
511034000 0.642445707159 -0.159306307167
511044500 0.642269533801 -0.160946693697
511055000 0.642789989052 -0.160699460037
511065500 0.642829740808 -0.160603801013
511076000 0.643558654056 -0.160644893243
511086500 0.642409652199 -0.160997228264
511097000 0.642268426313 -0.161447502797
511107500 0.642736323943 -0.162955700506
511118000 0.64182116746 -0.162631671768
511128500 0.642389234234 -0.162692013863
511139000 0.642172167005 -0.161193566505
511149500 0.642403440047 -0.161498142264
511160000 0.643588999432 -0.162142894045
511170500 0.643390361418 -0.161740088367
511181000 0.643107627055 -0.161906988518
511191500 0.642120962886 -0.162298785701
511202000 0.640772099133 -0.162512494673
511212500 0.640978893909 -0.164056421968
511223000 0.641304509498 -0.162963074575
511233500 0.642207441881 -0.162020225521
511244000 0.64358715293 -0.161944819828
511254500 0.642554469757 -0.162367967127
511265000 0.643140104227 -0.161619680058
511275500 0.642501035318 -0.160975777631
511286000 0.641960691416 -0.160881402368
511296500 0.642160456926 -0.162136021069
511307000 0.64266969187 -0.162776355977
511317500 0.642599032769 -0.162256982067
511328000 0.642190111241 -0.161879939598
511338500 0.642461536595 -0.16162327378
511349000 0.642808629134 -0.162033816943
511359500 0.642884195605 -0.162940362258
511370000 0.642329760186 -0.161920549336
511380500 0.642477044379 -0.162966158175
511391000 0.642737245934 -0.162812980698
511401500 0.642480290119 -0.162311178879
511412000 0.642708387906 -0.16154699255
511422500 0.642582209485 -0.162960434939
511433000 0.642190522577 -0.161862935914
511443500 0.641916224451 -0.163060736087
511454000 0.640757706054 -0.163482533318
511464500 0.642149239532 -0.161747910571
511475000 0.640789508729 -0.162141796122
511485500 0.642729588118 -0.161203363327
511496000 0.641072072832 -0.161508339149
511506500 0.642475536236 -0.161186409205
511517000 0.64237721237 -0.163185044339
511527500 0.64197075204 -0.163320832304
511538000 0.641824138268 -0.164321835433
511548500 0.643900523838 -0.163412356488
511559000 0.639506426139 -0.166363080825
511569500 0.644376586665 -0.162239467709
511580000 0.643223930382 -0.162905378014
511590500 0.64211835476 -0.162273900239
511601000 0.642741132234 -0.163461278213
511611500 0.64014809901 -0.166111547693
511622000 0.645091579713 -0.162713294569
511632500 0.645437253186 -0.163584389689
511643000 0.643951851459 -0.164868660896
511653500 0.644470809693 -0.165113894285
511664000 0.643209198368 -0.163011567941
511674500 0.641747665881 -0.16244439119
511685000 0.644000711266 -0.16504954798
511695500 0.644625601772 -0.161763765287
511706000 0.641928877881 -0.164221658695
511716500 0.642059017299 -0.164127125156
511727000 0.642224549917 -0.164824676776
511737500 0.644497771533 -0.164438040643
511748000 0.640176888964 -0.164565166532
511758500 0.642319057769 -0.161919886392
511769000 0.641546505621 -0.163733573493
511779500 0.643194132392 -0.163733968998
511790000 0.64178455597 -0.165107424115
511800500 0.641264941924 -0.162667516178
511811000 0.643268676976 -0.164955871385
511821500 0.64271770094 -0.164729545438
511832000 0.644525595154 -0.164889777331
511842500 0.643822533499 -0.163535867406
511853000 0.642485370397 -0.163525237574
511863500 0.644129036991 -0.164882930088
511874000 0.641550682335 -0.162913405359
511884500 0.642005250475 -0.166057031659
511895000 0.644144426625 -0.164119738129
511905500 0.643229884689 -0.164510769784
511916000 0.643435530636 -0.16358999877
511926500 0.64162238522 -0.164096147439
511937000 0.642587533642 -0.165346221592
511947500 0.642854497026 -0.164870722345
511958000 0.644132945224 -0.165334017248
511968500 0.643090170022 -0.164682562788
511979000 0.642702336808 -0.164118794343
511989500 0.642755960997 -0.166523494902
512000000 0.644434560091 -0.165822511346
