! Calibrated averaged scanner-service zoom
# Hz S RI R 50
225000000 0.843683915892 0.121036181172
225017500 0.844043517932 0.120706216802
225035000 0.84429035233 0.120800848927
225052500 0.844260552528 0.12093715982
225070000 0.844175197551 0.1207024344
225087500 0.844452980913 0.120351315111
225105000 0.844679091653 0.120403935692
225122500 0.844721885128 0.120597461751
225140000 0.844774776307 0.120402711728
225157500 0.844848278108 0.120280390024
225175000 0.84495827881 0.120203002131
225192500 0.845254786956 0.12013755343
225210000 0.845343563669 0.119904809438
225227500 0.845502674571 0.119800955125
225245000 0.84541292154 0.119788473013
225262500 0.845656119134 0.120015183066
225280000 0.845683696836 0.119823963623
225297500 0.845783368964 0.119745707043
225315000 0.845987019807 0.119645157688
225332500 0.846099022986 0.11959784878
225350000 0.846076417096 0.119652595119
225367500 0.846200411811 0.119492346276
225385000 0.846137928522 0.11963311051
225402500 0.846525120702 0.119741204751
225420000 0.846723038658 0.119628722034
225437500 0.846805922733 0.119235051787
225455000 0.846731771683 0.119304534874
225472500 0.846955111924 0.119336932657
225490000 0.846929315453 0.119387734701
225507500 0.847065611573 0.119397904018
225525000 0.847359803223 0.119264797907
225542500 0.847552660656 0.119060398123
225560000 0.847921751417 0.119159007424
225577500 0.847608293506 0.119030911064
225595000 0.847638157515 0.119022826748
225612500 0.847951239968 0.118858308412
225630000 0.847143250162 0.118220988139
225647500 0.848033097288 0.118847656676
225665000 0.848222584768 0.118713005347
225682500 0.848330356865 0.118544622043
225700000 0.848696144786 0.118649760629
225717500 0.848653041424 0.118578904601
225735000 0.84889255816 0.118405994391
225752500 0.848980952475 0.118215461159
225770000 0.849119106269 0.118327920383
225787500 0.849212489715 0.118270289774
225805000 0.849418417801 0.11821421372
225822500 0.849339508722 0.118026598883
225840000 0.849947716523 0.118132013954
225857500 0.851151054576 0.118733883225
225875000 0.850881709045 0.118392125378
225892500 0.850059930067 0.117803648334
225910000 0.850392809196 0.117799168507
225927500 0.850413612887 0.117605464868
225945000 0.850003649719 0.117478215777
225962500 0.850380725956 0.117444166655
225980000 0.850607751174 0.117285074129
225997500 0.850933344828 0.11732208006
226015000 0.85052667293 0.1171939608
226032500 0.850778348997 0.117143315751
226050000 0.850790882881 0.116944021243
226067500 0.851183525262 0.116908669404
226085000 0.850963889527 0.116823098887
226102500 0.851193621842 0.116832183909
226120000 0.851309774221 0.116951705816
226137500 0.851527113088 0.116842464921
226155000 0.851568368844 0.116691633098
226172500 0.851509393254 0.116791926033
226190000 0.851603762481 0.116671162383
226207500 0.851725017247 0.116544111078
226225000 0.851890504423 0.116575000531
226242500 0.851927857657 0.116371666511
226260000 0.851935739318 0.116269031541
226277500 0.852342257132 0.116287439984
226295000 0.852681797458 0.116431755843
226312500 0.852552937443 0.116236048775
226330000 0.852564463665 0.116240507056
226347500 0.853109155151 0.116249627216
226365000 0.853145828603 0.116229591757
226382500 0.853000830002 0.11597294444
226400000 0.853083162614 0.115985250773
226417500 0.853623531752 0.115898060641
226435000 0.853903139864 0.115643255344
226452500 0.853435099589 0.115588923234
226470000 0.853684841174 0.115573554001
226487500 0.853749961841 0.115368342994
226505000 0.854257760161 0.115438910906
226522500 0.854412685427 0.115432748098
226540000 0.854433531726 0.115254162426
226557500 0.854355628681 0.115155268289
226575000 0.8544758188 0.114868773659
226592500 0.854727474994 0.114738198884
226610000 0.854747190521 0.114762911937
226627500 0.854870031181 0.114699286187
226645000 0.85509130966 0.114699801183
226662500 0.855047748394 0.114636845408
226680000 0.855047409127 0.114345489953
226697500 0.855036345116 0.114238129505
226715000 0.855249984397 0.114165080571
226732500 0.855471061554 0.114128294528
226750000 0.855405583315 0.114202947439
226767500 0.855397678316 0.114022984778
226785000 0.855436942918 0.113697780558
226802500 0.855581690544 0.113960923971
226820000 0.855665966306 0.113567321266
226837500 0.855736696014 0.113456387682
226855000 0.855781341572 0.113425543017
226872500 0.855834816454 0.113457604033
226890000 0.85610810343 0.113474831844
226907500 0.855966902519 0.113359080235
226925000 0.856226604171 0.113292629231
226942500 0.856441475159 0.113245451008
226960000 0.856512422012 0.113332805819
226977500 0.856601420905 0.113123557862
226995000 0.8563867237 0.112907759107
227012500 0.856810860972 0.112890224189
227030000 0.856874488487 0.112880077078
227047500 0.857386387222 0.112737197834
227065000 0.857236645482 0.112751448668
227082500 0.85748878346 0.112607253759
227100000 0.857356310176 0.112520367514
227117500 0.857711613628 0.112329330907
227135000 0.857504828348 0.112178489352
227152500 0.857656570617 0.111966408539
227170000 0.857742201275 0.112029534116
227187500 0.857892992454 0.111941804793
227205000 0.858174196217 0.111907568094
227222500 0.85838643715 0.111847607993
227240000 0.858368772199 0.111775015403
227257500 0.858591470315 0.111562993295
227275000 0.858414231655 0.111219223514
227292500 0.858404190114 0.111163869228
227310000 0.858472545209 0.1109891416
227327500 0.858765002732 0.110891776762
227345000 0.858720311357 0.110888485184
227362500 0.858583536042 0.110767631365
227380000 0.858985533307 0.110617622471
227397500 0.859074229619 0.110506644298
227415000 0.859202281204 0.110372952492
227432500 0.859082047418 0.110507538978
227450000 0.859275967038 0.110459008006
227467500 0.859470156704 0.110165381986
227485000 0.856505931344 0.106407685084
227502500 0.859210479677 0.110125735963
227520000 0.859536774842 0.10999076885
227537500 0.859494362261 0.109941922724
227555000 0.859649924156 0.10977553611
227572500 0.85953267433 0.109771845083
227590000 0.859641097802 0.109751368531
227607500 0.859890400357 0.10966620153
227625000 0.860028882197 0.109431150029
227642500 0.860035588954 0.109315730424
227660000 0.860185619607 0.109277525659
227677500 0.860216186348 0.109351613819
227695000 0.860309002077 0.109142657071
227712500 0.860438659113 0.108988211973
227730000 0.860535861728 0.108878499355
227747500 0.860679072912 0.108895035306
227765000 0.860866615786 0.108924372371
227782500 0.86074660871 0.108773860277
227800000 0.860864921249 0.108667625394
227817500 0.86082712548 0.108530258801
227835000 0.861265350214 0.108187784497
227852500 0.861279675488 0.108119344181
227870000 0.861513372794 0.108015004322
227887500 0.861234890269 0.108120561226
227905000 0.861255800642 0.108056160876
227922500 0.86151425531 0.107862688877
227940000 0.861668396173 0.107853123368
227957500 0.861709811091 0.107732702244
227975000 0.861864748679 0.107612969147
227992500 0.862024669614 0.107311010261
228010000 0.861970810061 0.107208997902
228027500 0.862026405979 0.107063179896
228045000 0.862138945386 0.107100528485
228062500 0.862037191081 0.106827209965
228080000 0.862330382493 0.106505589271
228097500 0.862294154405 0.106733984929
228115000 0.862416103775 0.106569680599
228132500 0.862466938965 0.106303267921
228150000 0.862411711131 0.106378847692
228167500 0.862360512529 0.106263690919
228185000 0.862634694136 0.106163925776
228202500 0.862701475134 0.105970512399
228220000 0.862718482623 0.105972375124
228237500 0.862591666957 0.105974248158
228255000 0.862642646703 0.105847825307
228272500 0.862601739971 0.105693765301
228290000 0.862691693538 0.105579856061
228307500 0.862698391325 0.105626381467
228325000 0.862731324226 0.105294891052
228342500 0.862760586912 0.105278227529
228360000 0.863144597724 0.105225632163
228377500 0.86293568542 0.105287743938
228395000 0.862771172031 0.105169029775
228412500 0.862955777938 0.105107721783
228430000 0.863171326504 0.104821743001
228447500 0.863270042891 0.104883189695
228465000 0.863189213856 0.104636995619
228482500 0.863233274131 0.104520249861
228500000 0.863523682272 0.104468399913
228517500 0.863525123588 0.104547439796
228535000 0.86336792261 0.104551298325
228552500 0.863256621082 0.104368183469
228570000 0.863641811765 0.104283848772
228587500 0.863947235241 0.104339392213
228605000 0.863946995039 0.104312360438
228622500 0.863959882113 0.104116933774
228640000 0.86395559416 0.103842340453
228657500 0.86395446043 0.103846306281
228675000 0.864274201522 0.103781206054
228692500 0.864064530534 0.103777760368
228710000 0.864315261151 0.103606639669
228727500 0.864072480649 0.103655480181
228745000 0.86415774531 0.103583569997
228762500 0.864374804695 0.103445241
228780000 0.864380723993 0.103379187584
228797500 0.864307576797 0.103071343823
228815000 0.864515830727 0.102909060152
228832500 0.864641274223 0.10278679647
228850000 0.864709692813 0.102857006961
228867500 0.864732207937 0.102758687457
228885000 0.864858602805 0.10254810183
228902500 0.864967790114 0.102385834541
228920000 0.864847006865 0.102229465398
228937500 0.864910391687 0.102112205601
228955000 0.864895953588 0.102071552127
228972500 0.865140728855 0.102201963441
228990000 0.86512453003 0.102026243725
229007500 0.864902122324 0.102005997297
229025000 0.864767198275 0.101697779857
229042500 0.865069057372 0.101760869444
229060000 0.865245309498 0.101512063558
229077500 0.865175496834 0.10140866221
229095000 0.864564041176 0.101649145467
229112500 0.86396190833 0.101371045618
229130000 0.864814566447 0.101596611064
229147500 0.865347585836 0.101376056557
229165000 0.865137417438 0.10132991569
229182500 0.865190648983 0.101243711903
229200000 0.86533066382 0.101117657559
229217500 0.865220648957 0.101106090392
229235000 0.865386361431 0.101103882554
229252500 0.865778502551 0.100854361002
229270000 0.865823070186 0.100740476244
229287500 0.865318976536 0.100772553956
229305000 0.865485787189 0.100747407262
229322500 0.865598232127 0.100710141159
229340000 0.86588720526 0.100814484408
229357500 0.865897981749 0.100550522737
229375000 0.865870365283 0.100299465818
229392500 0.866112630055 0.100458168041
229410000 0.866122684128 0.100371242812
229427500 0.866045823128 0.100297824853
229445000 0.866146585816 0.100128982384
229462500 0.866118944419 0.100078148993
229480000 0.86631633537 0.100150051287
229497500 0.866350731378 0.100074558597
229515000 0.866640227801 0.100020957273
229532500 0.866558830326 0.0998515940598
229550000 0.866563794866 0.0994718670624
229567500 0.866597979481 0.0993098494797
229585000 0.866691411653 0.0993497502042
229602500 0.866703513851 0.0993960495964
229620000 0.866826505106 0.0991017283898
229637500 0.866925524208 0.0991542521101
229655000 0.866734355153 0.0983708860759
229672500 0.866978393869 0.0991170958143
229690000 0.866917317577 0.0989709953498
229707500 0.866922797462 0.0990456645121
229725000 0.867120453458 0.0987812940066
229742500 0.867215495225 0.098567633691
229760000 0.867165046986 0.0984744136429
229777500 0.867078691858 0.0985688780385
229795000 0.866935702814 0.0984815829647
229812500 0.867205869923 0.0982747369465
229830000 0.867266002226 0.0983876559826
229847500 0.867319603708 0.0984883211504
229865000 0.867338779681 0.0983282290212
229882500 0.867321413988 0.0981670600064
229900000 0.867384335001 0.098140783798
229917500 0.867429923224 0.0982486908388
229935000 0.867401487842 0.0981461613009
229952500 0.867547045699 0.097988288321
229970000 0.867807673734 0.0980127865254
229987500 0.867644112208 0.0978317812799
230005000 0.867767445214 0.0977778937216
230022500 0.867876222604 0.0977605894279
230040000 0.867850529391 0.0978073295544
230057500 0.867945664638 0.0977765726619
230075000 0.867896269007 0.0977524424883
230092500 0.867958870548 0.0976114685156
230110000 0.867833556743 0.0973654396699
230127500 0.868116175648 0.097308421081
230145000 0.868449207126 0.0974174066708
230162500 0.868520400708 0.0973622901069
230180000 0.868268375364 0.0972156667987
230197500 0.868587150701 0.0970257463587
230215000 0.868630815055 0.0969741820421
230232500 0.868707522468 0.0968682577305
230250000 0.868665065467 0.0966849077842
230267500 0.868835367011 0.0966785301536
230285000 0.868994702803 0.0967389265369
230302500 0.869039385733 0.0967143809065
230320000 0.868924345219 0.0964431808297
230337500 0.868923769051 0.0963204800179
230355000 0.868951804945 0.0964801221651
230372500 0.869171341159 0.0963973347833
230390000 0.869222629082 0.0963139818593
230407500 0.869250478429 0.09604471523
230425000 0.869275247923 0.0959730300993
230442500 0.869282630339 0.0961058591069
230460000 0.869221270542 0.095943843123
230477500 0.869142464012 0.0957139759852
230495000 0.869127231738 0.0957406849315
230512500 0.86928568822 0.0956865950351
230530000 0.869416475635 0.0955329973745
230547500 0.869284214494 0.0953112964141
230565000 0.869526577203 0.0951824103063
230582500 0.869508382992 0.0953137367222
230600000 0.869435669476 0.0951358646585
230617500 0.86955659591 0.0952743994576
230635000 0.869725178409 0.0951760217296
230652500 0.869830952136 0.0950337163229
230670000 0.869846583477 0.0951250338771
230687500 0.869717985079 0.0951523595107
230705000 0.869743409966 0.0950213461671
230722500 0.869659295262 0.0947549434178
230740000 0.869894850228 0.0949445743364
230757500 0.870210138461 0.0949526445346
230775000 0.870258085039 0.094627779191
230792500 0.87033248372 0.0946635414336
230810000 0.870197474357 0.0947229156656
230827500 0.870060165341 0.0945399718537
230845000 0.870248280547 0.0943114356089
230862500 0.870572279911 0.0943844705179
230880000 0.870522881869 0.0945158595639
230897500 0.870555795422 0.0944234421128
230915000 0.870608512854 0.0941664350985
230932500 0.870863728581 0.0941064769473
230950000 0.870973277809 0.0938566686202
230967500 0.871114719577 0.0939652986156
230985000 0.870978235429 0.094020986236
231002500 0.871022076455 0.0938544277274
231020000 0.871005631433 0.0937438457397
231037500 0.870902476876 0.0937805721332
231055000 0.871248822856 0.0935936236203
231072500 0.87138902443 0.0934999740866
231090000 0.871391127969 0.0932490529935
231107500 0.871431910322 0.0932402178771
231125000 0.871312854638 0.0933699397288
231142500 0.871352881483 0.0930064602862
231160000 0.871491017142 0.0926745140763
231177500 0.871346201524 0.092627681338
231195000 0.871705628594 0.0926473485278
231212500 0.87156342467 0.0926233730173
231230000 0.871583044793 0.0925528198594
231247500 0.871674327525 0.0925193972049
231265000 0.871677089956 0.0923633401691
231282500 0.871823732003 0.0923688656949
231300000 0.871760531995 0.0922643762704
231317500 0.871612551495 0.0923786702457
231335000 0.871743725966 0.0922934215168
231352500 0.871740287756 0.0921674229263
231370000 0.871881814362 0.0919077473315
231387500 0.87219196535 0.0919930866574
231405000 0.872120124753 0.0919837681726
231422500 0.872076912831 0.0918444560645
231440000 0.871983512344 0.0916207366733
231457500 0.872021331579 0.0916264596766
231475000 0.87232389258 0.091707945629
231492500 0.872367980989 0.091524535337
231510000 0.872003695296 0.0915308425453
231527500 0.872400357659 0.0914561866925
231545000 0.872286274074 0.0914314861595
231562500 0.872526367056 0.0913108177464
231580000 0.872549032082 0.0914823803596
231597500 0.872843351119 0.0913260460732
231615000 0.872983246962 0.0911637845717
231632500 0.872863615873 0.0911118024438
231650000 0.872908778487 0.0911485873896
231667500 0.873178067403 0.090983435579
231685000 0.873306607674 0.0909915315614
231702500 0.873269147341 0.0907755021753
231720000 0.873160728201 0.0906459812681
231737500 0.873285564938 0.0906637864428
231755000 0.873336289597 0.0907019553787
231772500 0.873636362356 0.0905302186763
231790000 0.873597306632 0.090412905195
231807500 0.873739242415 0.0902370320931
231825000 0.873646735694 0.0901826159012
231842500 0.873548012503 0.0901979921236
231860000 0.873442710801 0.0898589221538
231877500 0.873605884933 0.089503167955
231895000 0.873568614801 0.0895582743708
231912500 0.873698849054 0.0895534781993
231930000 0.873772308885 0.0895518963062
231947500 0.873928915307 0.0893811666827
231965000 0.873958517162 0.089259429551
231982500 0.874070619273 0.0890932293486
232000000 0.874031702188 0.0890848703157
232017500 0.874159424134 0.089003448835
232035000 0.8740894838 0.0891711123274
232052500 0.874166107137 0.089067580143
232070000 0.874295534694 0.0889426623156
232087500 0.874270636222 0.0888870062332
232105000 0.874093735054 0.0886549687508
232122500 0.874128323539 0.0887198144879
232140000 0.874182748844 0.0886042838701
232157500 0.874432826506 0.0886106728687
232175000 0.87448199109 0.0885485389271
232192500 0.874490360769 0.0883702205099
232210000 0.874342723624 0.0881903007618
232227500 0.874378138129 0.0881661684386
232245000 0.874370144841 0.088040293556
232262500 0.874480302437 0.0879981497198
232280000 0.874485325925 0.0880623455261
232297500 0.874536306374 0.0880931003621
232315000 0.874631986451 0.0880202156293
232332500 0.874702966769 0.0879211639042
232350000 0.87476849991 0.0877426204259
232367500 0.874816420324 0.0876588468965
232385000 0.87478691274 0.0875869447373
232402500 0.874710492323 0.0875878421254
232420000 0.874860629235 0.0874139414735
232437500 0.875106870022 0.0872411795058
232455000 0.875184244338 0.0872397181376
232472500 0.875319712824 0.0872905631489
232490000 0.875375685043 0.0871783586147
232507500 0.875329600032 0.0871500152147
232525000 0.875641111938 0.0869251185252
232542500 0.875358304863 0.0867116716969
232560000 0.875433103516 0.0867488599256
232577500 0.875641242883 0.0865324233714
232595000 0.875811127278 0.0863147258783
232612500 0.875508418342 0.0865580610441
232630000 0.875371348358 0.0865503459889
232647500 0.875491066505 0.0863726335012
232665000 0.875793765822 0.0863315272752
232682500 0.876103389127 0.0862886862729
232700000 0.875898038886 0.0861661464595
232717500 0.876013916295 0.0858928341505
232735000 0.875952858605 0.085814680517
232752500 0.876053880108 0.0856866421918
232770000 0.875986056193 0.0855933302267
232787500 0.876043822174 0.0855946950645
232805000 0.876257752135 0.0854677237908
232822500 0.876291508766 0.0851561936744
232840000 0.876137025299 0.0853554541445
232857500 0.876196720956 0.0853443105178
232875000 0.876228184093 0.0851697184189
232892500 0.876289544093 0.0850458801592
232910000 0.875906031971 0.0848804858804
232927500 0.876152425788 0.0848064792198
232945000 0.876350858311 0.084682708149
232962500 0.876453797943 0.0847524130877
232980000 0.876559004503 0.0844726023791
232997500 0.876476820249 0.0842814077475
233015000 0.876490091095 0.0844184614168
233032500 0.876535382736 0.0844652754887
233050000 0.876381597435 0.0845283793921
233067500 0.876664839817 0.084321938267
233085000 0.876497135362 0.0841203713032
233102500 0.876588304785 0.0841090397183
233120000 0.876713087701 0.0841442464884
233137500 0.876820624636 0.0840961916188
233155000 0.876759963556 0.0837322939552
233172500 0.876906820893 0.0836603105836
233190000 0.877009195406 0.0839435229043
233207500 0.876849142165 0.0838319852228
233225000 0.876982916345 0.0835976929807
233242500 0.877026757824 0.0835010062748
233260000 0.877203030981 0.0833577825747
233277500 0.876765987944 0.0834905113701
233295000 0.876936849547 0.083508399762
233312500 0.877140493867 0.0833804792832
233330000 0.877378563929 0.0831346957851
233347500 0.87730281653 0.0832691876312
233365000 0.877323342613 0.083210108189
233382500 0.877481419708 0.0831179870427
233400000 0.877804780021 0.0828050008902
233417500 0.877519964389 0.0828281457248
233435000 0.877580722732 0.0828237120243
233452500 0.877801371486 0.0826756544919
233470000 0.877639979644 0.0825504488962
233487500 0.877611242999 0.0823202059766
233505000 0.877803503509 0.0823272058052
233522500 0.877789188405 0.082133789199
233540000 0.877762863466 0.082065402272
233557500 0.877873210505 0.0820197276758
233575000 0.877665366272 0.0819261558647
233592500 0.877704989624 0.0817931249218
233610000 0.878006367375 0.0819041645768
233627500 0.878220444796 0.0818278025972
233645000 0.878037705181 0.0816178922452
233662500 0.878115844996 0.0814966733894
233680000 0.878204123663 0.0813777512938
233697500 0.878267149366 0.0812372454248
233715000 0.87788952661 0.081181429675
233732500 0.877772174224 0.0813306343259
233750000 0.878033199105 0.0810513352612
233767500 0.878001268328 0.0806009625019
233785000 0.878231422111 0.0806884315908
233802500 0.87840380465 0.080699791673
233820000 0.878297898813 0.0804026132501
233837500 0.878401119817 0.0805980018809
233855000 0.878601186447 0.0807564337363
233872500 0.878393378713 0.0804879304623
233890000 0.878673921911 0.0804080401328
233907500 0.878770128867 0.0803103729843
233925000 0.878816443354 0.0804421808204
233942500 0.878906062843 0.0803239320896
233960000 0.878920793647 0.080106521812
233977500 0.877885177069 0.0801906335801
233995000 0.875263012028 0.0805657372339
234012500 0.876350075996 0.0802097776567
234030000 0.879101728794 0.0796534495599
234047500 0.879133859356 0.0797336363119
234065000 0.878999831264 0.0797981830072
234082500 0.879021693539 0.0796157871093
234100000 0.879290495137 0.0797256430838
234117500 0.879309769276 0.0796435319398
234135000 0.879226839283 0.0795596402975
234152500 0.879327369336 0.0793844936083
234170000 0.879307975872 0.0791509825611
234187500 0.879467694726 0.0790609142263
234205000 0.879420790299 0.0790238667349
234222500 0.879320317058 0.0790550143621
234240000 0.879506269364 0.0789098872549
234257500 0.879319069457 0.0788816034189
234275000 0.879326277003 0.0787978408911
234292500 0.87927357285 0.0786566241183
234310000 0.879671365302 0.0785084989452
234327500 0.879782411792 0.0784328434166
234345000 0.879591260933 0.0784122807451
234362500 0.879892302058 0.0782643289539
234380000 0.879963096314 0.0782063323467
234397500 0.880083344373 0.0778374075207
234415000 0.879905337844 0.0779298562564
234432500 0.879751020447 0.0779511053952
234450000 0.87988659755 0.0778424764749
234467500 0.880015939552 0.0777907598156
234485000 0.879900029284 0.0779102074556
234502500 0.880196722016 0.0777852412798
234520000 0.880047334534 0.0775567169692
234537500 0.880036690013 0.0774595681204
234555000 0.879985122298 0.077464039405
234572500 0.880006282015 0.0774213843598
234590000 0.88012990619 0.0774909384568
234607500 0.880256370964 0.0772700817148
234625000 0.880080843238 0.0771464308376
234642500 0.880182172748 0.07709213947
234660000 0.880076589015 0.0770477798158
234677500 0.880278505313 0.077109926724
234695000 0.880531430637 0.0772738743314
234712500 0.880224613254 0.0770376799159
234730000 0.880299074864 0.0769980517936
234747500 0.880259561841 0.0767919111103
234765000 0.88040322982 0.076629064508
234782500 0.880484681498 0.0768507001671
234800000 0.880494011404 0.0769851390798
234817500 0.88057468247 0.076718493358
234835000 0.88061142095 0.0765489713844
234852500 0.880654671382 0.0765131670685
234870000 0.880757042976 0.0764861453832
234887500 0.880744954582 0.0764361174192
234905000 0.880801784425 0.0763341037099
234922500 0.88107365529 0.0762505276149
234940000 0.881035293718 0.0761279815122
234957500 0.881079625534 0.0760750811348
234975000 0.881110398172 0.0759002920889
234992500 0.881015883459 0.0757999899489
235010000 0.880971978663 0.0758754492458
235027500 0.881263945167 0.0756138947681
235045000 0.881257039365 0.0756188563566
235062500 0.881328991129 0.075486775928
235080000 0.881136575603 0.0752740196166
235097500 0.881228778473 0.0750785329915
235115000 0.881103428834 0.0751676095584
235132500 0.881134762081 0.0751462988633
235150000 0.881136189878 0.0751318293623
235167500 0.881359465927 0.0749568793387
235185000 0.88146048504 0.0750534590297
235202500 0.881626253013 0.0750072017722
235220000 0.881523633001 0.0749188176718
235237500 0.881394754638 0.0747596792357
235255000 0.881216961459 0.0745879200011
235272500 0.881420757416 0.0744619609569
235290000 0.881433802992 0.0743757491899
235307500 0.88135530453 0.0744061636535
235325000 0.881599285452 0.0743831036327
235342500 0.881587469581 0.074293191977
235360000 0.881714349264 0.0742844810283
235377500 0.881905281091 0.0743643387748
235395000 0.881957124397 0.0741760543552
235412500 0.8819454153 0.0742165091212
235430000 0.881852649506 0.0742606893322
235447500 0.88197817813 0.0742718704948
235465000 0.881880742907 0.0740575172261
235482500 0.881956952328 0.0739909439759
235500000 0.881994829059 0.0738129745517
235517500 0.882134133451 0.0738585294846
235535000 0.882018455853 0.0737435162309
235552500 0.881875947754 0.0738142471327
235570000 0.882134411274 0.0737272811914
235587500 0.882251954885 0.0735743366555
235605000 0.882303010212 0.0731776336661
235622500 0.882397048258 0.073226913233
235640000 0.882320606693 0.0733274002929
235657500 0.882311611802 0.0733401412781
235675000 0.88235362039 0.0733761546291
235692500 0.882404671836 0.0734027315029
235710000 0.882592475322 0.0732148037243
235727500 0.882444511825 0.0730506426395
235745000 0.882485429049 0.0730554677201
235762500 0.882714887467 0.0730395782102
235780000 0.8828537362 0.072729481623
235797500 0.882704971507 0.0726844007455
235815000 0.882683058815 0.0726585752571
235832500 0.882938635271 0.0725265016686
235850000 0.882788814164 0.0725351193183
235867500 0.882595814432 0.0721790666207
235885000 0.883088539289 0.0721836750717
235902500 0.883312806321 0.0723033700128
235920000 0.883118994457 0.0722692126483
235937500 0.883043818508 0.0720788844053
235955000 0.882936520388 0.0721870214787
235972500 0.883119216328 0.0718550517878
235990000 0.883229188227 0.071729225882
236007500 0.883219720881 0.0718809305513
236025000 0.883185792204 0.0715767165489
236042500 0.883347044197 0.0713943867389
236060000 0.883330902146 0.0715801892613
236077500 0.882820912665 0.0715221274488
236095000 0.883531768517 0.0714973702452
236112500 0.883468523786 0.0714850395942
236130000 0.883165497051 0.0714726211212
236147500 0.883289525897 0.0714577001439
236165000 0.883243598982 0.0712997107795
236182500 0.883315398103 0.0713347491115
236200000 0.883486260033 0.0713138817181
236217500 0.883394386337 0.0712932334764
236235000 0.883451627803 0.0710891832373
236252500 0.883563275518 0.070899517408
236270000 0.883410256674 0.0708849795358
236287500 0.883767757905 0.0710073389867
236305000 0.884066664119 0.0708504783494
236322500 0.884246309885 0.0707740505866
236340000 0.884312817528 0.0706983998604
236357500 0.883803449884 0.0707235100958
236375000 0.884087608724 0.070634024527
236392500 0.88426028667 0.0703107635518
236410000 0.88410950635 0.0704017960885
236427500 0.884176649237 0.0702368349836
236445000 0.884419447015 0.0701382565422
236462500 0.884361042176 0.0699412730288
236480000 0.884228109608 0.0700249059979
236497500 0.884255432273 0.0698702285651
236515000 0.884329103326 0.0698608913141
236532500 0.884303062801 0.0697178522823
236550000 0.884448077057 0.0694853457953
236567500 0.884639016469 0.0694510254535
236585000 0.884596395603 0.0692864327349
236602500 0.884666575291 0.069209216328
236620000 0.884890747111 0.0691948730721
236637500 0.88484676479 0.0691869543038
236655000 0.884935308841 0.0691101305482
236672500 0.884731385131 0.0689220613294
236690000 0.88475230749 0.0688707314079
236707500 0.884800066549 0.0688430642825
236725000 0.884489035082 0.0690321062534
236742500 0.884838552118 0.0685646902254
236760000 0.884955116723 0.0684948825594
236777500 0.884908018352 0.0682993262045
236795000 0.88495822613 0.0682740623945
236812500 0.884927181515 0.0684505932725
236830000 0.884904518436 0.0683163122936
236847500 0.885077235367 0.068248998272
236865000 0.884988210932 0.0683578297724
236882500 0.884949371131 0.068183774777
236900000 0.884906673816 0.0680429404401
236917500 0.885053145333 0.0680558070784
236935000 0.88491779298 0.0679884902429
236952500 0.885275662269 0.0680673402168
236970000 0.885114283947 0.0678728148672
236987500 0.885166383882 0.068012431318
237005000 0.885335518538 0.0679329523259
237022500 0.885547701996 0.0679348450456
237040000 0.885511491248 0.0676882698132
237057500 0.88553021771 0.0675274239321
237075000 0.885436341245 0.0675694057828
237092500 0.88568798146 0.0675514201668
237110000 0.885443217173 0.0672803679109
237127500 0.88547505934 0.0670972622048
237145000 0.885621059033 0.0671919253809
237162500 0.885812062254 0.0673121093114
237180000 0.885882980733 0.0670460331259
237197500 0.885915447279 0.0668721684506
237215000 0.885961354541 0.0668263929644
237232500 0.886065435712 0.0666779897236
237250000 0.886120114622 0.0666506537469
237267500 0.886097460333 0.0665226240213
237285000 0.885983792239 0.0663588154842
237302500 0.88613391242 0.0663484075105
237320000 0.886158609379 0.066260146034
237337500 0.886431182618 0.0659910588511
237355000 0.886256971203 0.0659746387451
237372500 0.886388516491 0.0659197160274
237390000 0.886406321853 0.0658349525989
237407500 0.886294084066 0.0659090279159
237425000 0.886414726856 0.0659008918233
237442500 0.88656566661 0.0658067230719
237460000 0.88638860747 0.0655232398867
237477500 0.886313232435 0.0652952087064
237495000 0.886296673293 0.0652325696467
237512500 0.886252890497 0.0651825215792
237530000 0.886438931104 0.0650690527247
237547500 0.886540942867 0.064994789668
237565000 0.886534551633 0.0650392249068
237582500 0.886165359955 0.065029294188
237600000 0.886162565332 0.0648656188113
237617500 0.886744360617 0.0648971971527
237635000 0.886748620267 0.0648857738799
237652500 0.886542328015 0.0647900873159
237670000 0.886953610654 0.0648827819881
237687500 0.887226844277 0.0649350989051
237705000 0.886837726464 0.0644938842444
237722500 0.886914365585 0.0645517797246
237740000 0.886656283043 0.064691938303
237757500 0.886752494112 0.0645617005715
237775000 0.887009679262 0.064341208611
237792500 0.886981682666 0.0641221635736
237810000 0.887092788673 0.0642038485546
237827500 0.887304247797 0.0641892963659
237845000 0.887228599317 0.0640942967586
237862500 0.887266795282 0.064059809654
237880000 0.887265741193 0.0640825217134
237897500 0.887239730896 0.0638661349776
237915000 0.887282502718 0.0636691677091
237932500 0.887498717046 0.0636581121847
237950000 0.887546651287 0.063551293513
237967500 0.887549857374 0.0634642229295
237985000 0.887478443839 0.0633905169136
238002500 0.887704599868 0.063292808225
238020000 0.887863984025 0.063099815145
238037500 0.887735007561 0.0631211887097
238055000 0.887984912466 0.0628870356726
238072500 0.887496324943 0.0628577540393
238090000 0.887764000481 0.062728501932
238107500 0.887667317314 0.0626708989537
238125000 0.887854792142 0.0626001606964
238142500 0.887968436423 0.0623558254077
238160000 0.887860589448 0.0623830792318
238177500 0.887748658563 0.0619810931896
238195000 0.887707773428 0.062149779226
238212500 0.887760951378 0.0619664004876
238230000 0.888023417423 0.0618555421967
238247500 0.887739853695 0.0617999165505
238265000 0.88785888692 0.0617818658965
238282500 0.888108031477 0.0617614899094
238300000 0.887907255743 0.0616772501741
238317500 0.887867364254 0.061538896584
238335000 0.887739550424 0.0617176322837
238352500 0.88809168913 0.0615806438029
238370000 0.888181673418 0.0612283835595
238387500 0.888003935819 0.0615218296613
238405000 0.888155552482 0.0613167865744
238422500 0.888111474745 0.061299801956
238440000 0.888019925783 0.0610473305174
238457500 0.888353901112 0.0610227665801
238475000 0.888432304127 0.0609459998994
238492500 0.888710316676 0.0611216887289
238510000 0.888904637462 0.0604186399487
238527500 0.888392708508 0.0608050363942
238545000 0.888474078408 0.0606676720974
238562500 0.888523574097 0.0607621185419
238580000 0.888513762889 0.0606759657779
238597500 0.888694960942 0.0605716879094
238615000 0.888653745252 0.0603275406101
238632500 0.88878665298 0.0603614072373
238650000 0.888931210387 0.0602048151065
238667500 0.888940170947 0.0602102234172
238685000 0.888974517778 0.0599976189501
238702500 0.88888827302 0.0603401296746
238720000 0.88896628002 0.0603811760687
238737500 0.888935852031 0.0598521742663
238755000 0.888879565094 0.0597030704598
238772500 0.888872269627 0.0595348561304
238790000 0.888800692498 0.0593055164462
238807500 0.889006796669 0.0591144028796
238825000 0.888982393348 0.0592314966724
238842500 0.889193148865 0.0591963491083
238860000 0.889259200227 0.0591914190867
238877500 0.889020804576 0.0589174364383
238895000 0.88906102204 0.0587906797732
238912500 0.889240754357 0.0588349000858
238930000 0.889286772937 0.0587187948158
238947500 0.889369763553 0.0585235732442
238965000 0.889233904722 0.0585155969624
238982500 0.889143055702 0.0584275985796
239000000 0.889110134466 0.0583915666737
239017500 0.889235121093 0.0582482122669
239035000 0.889261843119 0.0580761479222
239052500 0.889266544429 0.057974735361
239070000 0.889275822938 0.0578659655465
239087500 0.889194413038 0.0578220792017
239105000 0.88932170982 0.0579394960956
239122500 0.889236877506 0.0577927167503
239140000 0.88944388021 0.0576175995254
239157500 0.889341605982 0.0576030906198
239175000 0.889259982995 0.0576867328901
239192500 0.889344605813 0.0573247584501
239210000 0.889443075047 0.057341114324
239227500 0.889695614727 0.0573858802766
239245000 0.889477023665 0.0572233363163
239262500 0.889748898836 0.0570850671569
239280000 0.889610794181 0.0570830340525
239297500 0.889585026586 0.0569472741151
239315000 0.889574670717 0.0567660252127
239332500 0.889487270524 0.0566946456286
239350000 0.889553647096 0.0568397254341
239367500 0.889786228729 0.0567954232368
239385000 0.889445227559 0.056558980887
239402500 0.888889914116 0.0563747279268
239420000 0.889290613481 0.0563296008828
239437500 0.889926096819 0.0564869941332
239455000 0.889969176486 0.0561629468029
239472500 0.890331294755 0.0560053840354
239490000 0.89017499669 0.0559937609077
239507500 0.889911558224 0.0557737379013
239525000 0.890219738467 0.0557482828166
239542500 0.890283696409 0.0557503987377
239560000 0.890218590218 0.0556612871536
239577500 0.890210648236 0.0555226629808
239595000 0.890464018035 0.0555191244823
239612500 0.890661141619 0.0552419688776
239630000 0.890314937319 0.0552514855404
239647500 0.890209150972 0.0549748006784
239665000 0.890357737995 0.0549613028055
239682500 0.890400554952 0.05485896073
239700000 0.890522000843 0.0547610237367
239717500 0.89048255052 0.0546043775101
239735000 0.890477300694 0.0544126170465
239752500 0.890428036095 0.0542293823396
239770000 0.890437116104 0.0542030723026
239787500 0.89031381475 0.0542032796822
239805000 0.890448426895 0.0542029981526
239822500 0.890282355957 0.0542059908494
239840000 0.890209226724 0.0541965729214
239857500 0.890498879147 0.0538907192658
239875000 0.890585494418 0.0537283858427
239892500 0.890845473266 0.053728964606
239910000 0.890773563323 0.0537695209674
239927500 0.890692028406 0.0536894073295
239945000 0.890672814068 0.0534316580668
239962500 0.890444202244 0.0536100981935
239980000 0.890543055238 0.05364729301
239997500 0.890625492794 0.0534820763658
240015000 0.89078832703 0.0534029974638
240032500 0.890655018991 0.0531880918864
240050000 0.890679966896 0.0530336330165
240067500 0.890571978893 0.052783172187
240085000 0.890646907928 0.0529104356921
240102500 0.890827291638 0.0528445192719
240120000 0.890934569996 0.0529714821523
240137500 0.891078760881 0.0528055291013
240155000 0.890914934825 0.0525869695522
240172500 0.890969021629 0.0523770666459
240190000 0.890962301949 0.0524088849212
240207500 0.891001965084 0.0523517709428
240225000 0.890969416954 0.05202951235
240242500 0.890937513719 0.051992777963
240260000 0.890960523055 0.0518310386324
240277500 0.89105297138 0.0517729161454
240295000 0.891083930127 0.0517493686169
240312500 0.891369057881 0.0515608095753
240330000 0.89114535908 0.0514219477021
240347500 0.891051989581 0.051383204545
240365000 0.89108752228 0.05125066779
240382500 0.891488873968 0.0512490871404
240400000 0.89116574492 0.0511027385192
240417500 0.89114669864 0.0510145695912
240435000 0.890913928622 0.0507932824691
240452500 0.891166952202 0.0507651191534
240470000 0.891191231649 0.0506473151538
240487500 0.891577200708 0.0505367248512
240505000 0.891094536692 0.0506676101844
240522500 0.890996210996 0.0504098572028
240540000 0.890888940832 0.050215727587
240557500 0.89077628682 0.0499505557336
240575000 0.89087940567 0.0500930779305
240592500 0.891109311648 0.0500691209419
240610000 0.891085753465 0.0498374635078
240627500 0.891075354746 0.0499575960929
240645000 0.891356809758 0.0499962952041
240662500 0.89085599135 0.0497667808531
240680000 0.891187052468 0.0497677190242
240697500 0.891185910203 0.0496939763112
240715000 0.891320688668 0.0495191743124
240732500 0.89112214026 0.0494852268452
240750000 0.891247660567 0.0493578986946
240767500 0.891376544852 0.0490508800114
240785000 0.891267066062 0.0490997047452
240802500 0.891354453213 0.0490949733769
240820000 0.891100765408 0.0489365853219
240837500 0.891263299755 0.0488665664284
240855000 0.891475990876 0.0488152652895
240872500 0.891120283664 0.048832513714
240890000 0.89104806953 0.0487893383265
240907500 0.891184387813 0.0486494599848
240925000 0.891456933043 0.0486063627081
240942500 0.891433012326 0.0485863621321
240960000 0.891572526386 0.0482543065091
240977500 0.891673202875 0.0480671847485
240995000 0.891447482512 0.0479006769743
241012500 0.891455423767 0.04797945391
241030000 0.89133887411 0.0478980697168
241047500 0.891446211325 0.0476293551624
241065000 0.891393404715 0.0473034669693
241082500 0.891397131832 0.0474114060765
241100000 0.891816778296 0.0475038440002
241117500 0.891677293873 0.0472489672334
241135000 0.891872135327 0.0470851821414
241152500 0.891610141792 0.0472174011809
241170000 0.891823497793 0.0470334603591
241187500 0.891540975386 0.0466805663842
241205000 0.891451956962 0.0466319553638
241222500 0.891667724093 0.0467294073882
241240000 0.891668618073 0.0465889192313
241257500 0.891531194662 0.0463595171399
241275000 0.891414311006 0.0463287933989
241292500 0.891322864327 0.0462143779052
241310000 0.891402138824 0.0463156069055
241327500 0.891265382193 0.0461975521813
241345000 0.891355500907 0.0459385252736
241362500 0.891490920376 0.0460277974125
241380000 0.89170640237 0.046083225812
241397500 0.891750335341 0.0458871856428
241415000 0.891451767629 0.0459618089136
241432500 0.891373585226 0.0458297712605
241450000 0.891418837998 0.0458433925804
241467500 0.891441912224 0.0457855213317
241485000 0.89138542993 0.0455676648267
241502500 0.891520201405 0.0453007383297
241520000 0.891402459652 0.0453572735917
241537500 0.89145327843 0.0452789570848
241555000 0.891272779953 0.0449977463882
241572500 0.891457843102 0.0447883161607
241590000 0.891389134281 0.0449351430166
241607500 0.891400402124 0.0450929885309
241625000 0.891606020288 0.0449048721024
241642500 0.89158609893 0.0446900240703
241660000 0.891764544625 0.0446977625601
241677500 0.891732373151 0.044406421334
241695000 0.891586168285 0.0444975039895
241712500 0.891643577582 0.0443851039619
241730000 0.891880579928 0.0443319371476
241747500 0.891723081955 0.0442675931268
241765000 0.89164404762 0.0439531823669
241782500 0.891896850666 0.0437896529415
241800000 0.891812881781 0.0438715904329
241817500 0.891808300854 0.0438648778263
241835000 0.891745425093 0.043758444712
241852500 0.891671219194 0.0434755100059
241870000 0.891760347837 0.0434335813865
241887500 0.891519116246 0.0434997105336
241905000 0.89152587924 0.0433457807682
241922500 0.891619812123 0.0433714062328
241940000 0.891397810788 0.0431930846508
241957500 0.891512204357 0.0431453636397
241975000 0.891684613153 0.0428975397901
241992500 0.891406784231 0.0426303946647
242010000 0.891634388712 0.042621858386
242027500 0.891727973719 0.0427221583186
242045000 0.891658925077 0.042600530984
242062500 0.891697879328 0.0426471215694
242080000 0.891757111022 0.0424790147728
242097500 0.891656518562 0.0426723753713
242115000 0.89144818193 0.0425195047869
242132500 0.891430863218 0.0423338551809
242150000 0.891400170116 0.0422556508702
242167500 0.891296880061 0.0422920827399
242185000 0.8915702512 0.0420942243223
242202500 0.891327200536 0.0421148142975
242220000 0.891415759524 0.0418394559321
242237500 0.891450878835 0.041972365272
242255000 0.891600211477 0.0417999648646
242272500 0.891489870161 0.0418499634691
242290000 0.891477851882 0.0417792821429
242307500 0.891553382554 0.0416300346644
242325000 0.891583400138 0.0417285211125
242342500 0.891515804287 0.0416593188218
242360000 0.891354090427 0.0414258607365
242377500 0.891542691395 0.04109091839
242395000 0.891364012979 0.041389716235
242412500 0.891354854387 0.0411548205725
242430000 0.891443779365 0.0411083900924
242447500 0.891567547092 0.0407533761789
242465000 0.891541851053 0.0408784461653
242482500 0.891616834705 0.0409236866122
242500000 0.89145792938 0.0407319703879
242517500 0.891815868136 0.0409935602708
242535000 0.89176720676 0.0409593871401
242552500 0.891774922165 0.0407605836247
242570000 0.891874935825 0.040596623782
242587500 0.892074976117 0.0405762279392
242605000 0.891849085856 0.0405735713632
242622500 0.891944993437 0.0404581186259
242640000 0.8918847288 0.0402512957057
242657500 0.891868622443 0.0401697468547
242675000 0.892067979134 0.0402928163996
242692500 0.891902678222 0.0401864264582
242710000 0.891653447355 0.039905924744
242727500 0.891840001455 0.0399821649804
242745000 0.891828186862 0.0399461151017
242762500 0.891606073183 0.0397100547398
242780000 0.891730523033 0.0397269423658
242797500 0.891797401884 0.0398232821694
242815000 0.891638845955 0.0397483860682
242832500 0.891566373103 0.0396355915157
242850000 0.891674961833 0.0395236360274
242867500 0.891784611766 0.039144563892
242885000 0.891776065851 0.0389546391559
242902500 0.891690494179 0.0391588329572
242920000 0.891730889118 0.0390193910528
242937500 0.891642877243 0.0389336542364
242955000 0.891978306289 0.038994783054
242972500 0.891820470046 0.0388173867637
242990000 0.891662325407 0.0387032937756
243007500 0.891850750687 0.038721622416
243025000 0.891952498684 0.0387997707374
243042500 0.891727270675 0.0386799030722
243060000 0.891505292695 0.0384179262743
243077500 0.891689486252 0.0383982448239
243095000 0.891883165079 0.0386621520903
243112500 0.891847437878 0.0384728101016
243130000 0.891754089695 0.0383431770203
243147500 0.891686638579 0.0381617526258
243165000 0.891672606106 0.0381315236602
243182500 0.891730732925 0.0382239558078
243200000 0.891861113983 0.038141853924
243217500 0.891824524611 0.0379014382001
243235000 0.891829404288 0.0379077312566
243252500 0.891969939973 0.0377893692224
243270000 0.891928054332 0.0377506804108
243287500 0.891937105608 0.037787020786
243305000 0.891881306607 0.0377751205689
243322500 0.891944308682 0.0375679529541
243340000 0.891892235892 0.0372742986322
243357500 0.891718895516 0.0370785784861
243375000 0.891948868926 0.0368273643916
243392500 0.891917274049 0.0369015126811
243410000 0.892008419516 0.036826099386
243427500 0.892239445591 0.0367142170474
243445000 0.891845981782 0.0365462104692
243462500 0.891571052332 0.0366632649325
243480000 0.891764141651 0.0364489153746
243497500 0.891721935648 0.0364311176048
243515000 0.891617202746 0.0362583941847
243532500 0.891795361167 0.0362955758648
243550000 0.891715585776 0.0363593893136
243567500 0.891670052396 0.0362357571167
243585000 0.891636332132 0.0359758708794
243602500 0.891505140096 0.0359912211212
243620000 0.891331094815 0.0359816332284
243637500 0.891350437909 0.0359241604019
243655000 0.891373757358 0.0359602158391
243672500 0.891388135988 0.035863442113
243690000 0.891592080507 0.0354088688996
243707500 0.891780231108 0.0356078867017
243725000 0.891493435442 0.0354500035284
243742500 0.891261446184 0.0355467164914
243760000 0.891482102468 0.0355753144807
243777500 0.891460859443 0.0355755691109
243795000 0.891399516301 0.0355462187357
243812500 0.891669072588 0.0352429809801
243830000 0.891661788762 0.0352215683807
243847500 0.891406425551 0.0353269295644
243865000 0.89116280306 0.0354597351146
243882500 0.891373507194 0.03494213278
243900000 0.891588161375 0.0348499881534
243917500 0.891623881779 0.0347863271356
243935000 0.891680675736 0.0347244763738
243952500 0.891764060456 0.0346120201787
243970000 0.891846491309 0.0347020336664
243987500 0.891767236946 0.0347772922186
244005000 0.891595693742 0.0345654448562
244022500 0.891424944063 0.0343535318
244040000 0.891438331838 0.0342515407439
244057500 0.89155933744 0.0342027471536
244075000 0.891401296675 0.0341104789069
244092500 0.891477419124 0.034130994376
244110000 0.891559268801 0.0339513369407
244127500 0.891539091999 0.0337791903003
244145000 0.891806997994 0.0335783530425
244162500 0.891794796194 0.0335626553201
244180000 0.891833904629 0.0335735358627
244197500 0.891607160913 0.0335871886251
244215000 0.891690323131 0.0335740561822
244232500 0.891527766696 0.0335084278755
244250000 0.891481971596 0.0331447354704
244267500 0.891669309533 0.0331739795243
244285000 0.891861240842 0.0330188143934
244302500 0.891979394102 0.0328629655929
244320000 0.891890652448 0.0328766806836
244337500 0.891751682094 0.0328886119016
244355000 0.891728634775 0.0327171251007
244372500 0.891859232902 0.0326802014877
244390000 0.891451376021 0.0325340708727
244407500 0.891640244012 0.0326199382222
244425000 0.891788999199 0.0324287622607
244442500 0.891981111826 0.0324530813349
244460000 0.891888011616 0.0321526828007
244477500 0.891760698967 0.0323921316644
244495000 0.891702305845 0.032244236685
244512500 0.891659594116 0.0323344028492
244530000 0.892129312726 0.032139061394
244547500 0.893762879113 0.0322897805132
244565000 0.892941463992 0.0320020150857
244582500 0.891713699059 0.0320030248663
244600000 0.891883078841 0.0318597668083
244617500 0.891754757398 0.0319146962831
244635000 0.891812290856 0.0317215439247
244652500 0.891879375138 0.0317727999102
244670000 0.89201949349 0.0316485497911
244687500 0.891609029865 0.0315173732008
244705000 0.891780122919 0.0312951018845
244722500 0.891989337517 0.0314339164881
244740000 0.891713865551 0.0313717876864
244757500 0.891642209905 0.0311288992907
244775000 0.891752065373 0.0309093636686
244792500 0.892078926114 0.0309182617652
244810000 0.892235565682 0.0312494623436
244827500 0.892039636989 0.0307242924994
244845000 0.892134026753 0.0307627489334
244862500 0.891790583455 0.0303219938206
244880000 0.891963342345 0.0303977423212
244897500 0.891893879478 0.0302909261029
244915000 0.891863674964 0.0302973431098
244932500 0.891564776778 0.0302332340239
244950000 0.891587493409 0.030244606459
244967500 0.891659845567 0.0300319431273
244985000 0.891464456004 0.0299544202328
245002500 0.891739647252 0.0299228273061
245020000 0.891915297792 0.0298374009631
245037500 0.891587273907 0.0295998916419
245055000 0.891754355289 0.0297624000609
245072500 0.891761365437 0.0296254745505
245090000 0.891843838974 0.0296791636368
245107500 0.891643208667 0.0296798810842
245125000 0.891419106271 0.0294193095799
245142500 0.891400840665 0.0293825120152
245160000 0.891396635162 0.0293170781898
245177500 0.891402704758 0.029588385673
245195000 0.891309798325 0.0291021840487
245212500 0.891357157707 0.0292604512519
245230000 0.891386871282 0.0293297690625
245247500 0.8914170755 0.0292613854848
245265000 0.891311840112 0.0290040005663
245282500 0.891480752364 0.0289123773648
245300000 0.89163887179 0.0288499881006
245317500 0.891484242808 0.0290007973809
245335000 0.891154385096 0.0289067510308
245352500 0.891457041486 0.0287663837699
245370000 0.891404772266 0.0286183288658
245387500 0.89157432588 0.0285887413594
245405000 0.891393375758 0.0285120015086
245422500 0.891352844818 0.0284356583959
245440000 0.891501199387 0.028306588626
245457500 0.891694023016 0.0283607302741
245475000 0.891582581452 0.0283653018135
245492500 0.891337906822 0.0281893290281
245510000 0.891538954982 0.0279696310328
245527500 0.891537894235 0.0278791641233
245545000 0.891418710381 0.0278001597355
245562500 0.891225226801 0.0276642359726
245580000 0.891366471515 0.0274899096911
245597500 0.891364037494 0.0274720788683
245615000 0.891484280188 0.0273257413097
245632500 0.891462773185 0.0273089159604
245650000 0.891617391978 0.0271295851093
245667500 0.891560950848 0.0271528368683
245685000 0.891324947838 0.0271675438541
245702500 0.891107043015 0.0268308808789
245720000 0.891306381957 0.0268059204353
245737500 0.891354795405 0.0265006239187
245755000 0.891229139632 0.0266526820624
245772500 0.891329192788 0.0267993428086
245790000 0.891288449302 0.0268745690018
245807500 0.89114972859 0.0266425492637
245825000 0.891236509097 0.0267442632313
245842500 0.891158281256 0.0263277816573
245860000 0.891062334815 0.0265141996656
245877500 0.890835974988 0.0264211751744
245895000 0.890864466698 0.0264385703826
245912500 0.890849949449 0.0264380304369
245930000 0.890537137349 0.026442219595
245947500 0.890896145441 0.0260923327596
245965000 0.890986422908 0.0260158994045
245982500 0.890967664349 0.0261471631082
246000000 0.890793488872 0.0261105178086
246017500 0.890607633094 0.0258355143901
246035000 0.890849913415 0.0257806372605
246052500 0.890843966637 0.0256701006865
246070000 0.891063545168 0.0255996577965
246087500 0.890985186461 0.0255622232609
246105000 0.89082076509 0.0254131320189
246122500 0.891180953865 0.0255136845994
246140000 0.891195858849 0.025481704983
246157500 0.890859607431 0.0254097013762
246175000 0.891009794486 0.025380776574
246192500 0.891063416849 0.0253889930792
246210000 0.89109840994 0.025335524792
246227500 0.890793472082 0.0250816482782
246245000 0.890650509574 0.0247776851714
246262500 0.890736788933 0.0246594632772
246280000 0.890677867495 0.0247075926966
246297500 0.890830785351 0.0244740032688
246315000 0.890900138498 0.0243496569059
246332500 0.89096767924 0.0244124100606
246350000 0.890803438189 0.0243177019378
246367500 0.89079791039 0.0243413586363
246385000 0.89065282505 0.02422083687
246402500 0.890670908372 0.0242298751053
246420000 0.890779286862 0.0242087570277
246437500 0.890610143906 0.0240916699052
246455000 0.890704807588 0.0238462023968
246472500 0.890802454561 0.0237730056696
246490000 0.890481538692 0.0237771775343
246507500 0.89030787764 0.0238049037919
246525000 0.890489837517 0.0235392581772
246542500 0.890456507209 0.0236717441097
246560000 0.890515753241 0.0236018315359
246577500 0.890205646314 0.0237473549345
246595000 0.8902917336 0.0235914781232
246612500 0.890454695557 0.0233127069926
246630000 0.89055784875 0.0232761178073
246647500 0.890543249542 0.0232196438074
246665000 0.890323405234 0.023113567957
246682500 0.890320869475 0.0231640060012
246700000 0.890361012251 0.0231188334824
246717500 0.89029326955 0.023061088163
246735000 0.890231990929 0.022925148194
246752500 0.890048972743 0.0228723775169
246770000 0.890089788628 0.0229087474681
246787500 0.890292114192 0.0227679246245
246805000 0.890168535185 0.0226592739108
246822500 0.890181663032 0.0224605668141
246840000 0.890166537298 0.0226815119055
246857500 0.890131789694 0.0225441923584
246875000 0.890455768435 0.0222810829724
246892500 0.890189787519 0.0223500383695
246910000 0.890323285835 0.0223904583252
246927500 0.890254198445 0.0222710482123
246945000 0.890259011801 0.0221988350884
246962500 0.890028806036 0.0219426933447
246980000 0.890389660463 0.02193557073
246997500 0.890405064918 0.0217529606732
247015000 0.889968828779 0.0220065021361
247032500 0.890075021379 0.0217814137244
247050000 0.890371847314 0.0216206870213
247067500 0.890224792581 0.021583925416
247085000 0.890066936786 0.0215232701427
247102500 0.890323891382 0.0214744489429
247120000 0.890274987524 0.0212126288377
247137500 0.890310383307 0.021169274424
247155000 0.890232976401 0.0212136580672
247172500 0.890121309533 0.0210469465167
247190000 0.890087249717 0.0209220046308
247207500 0.889822816241 0.0209315180665
247225000 0.889823498979 0.0209934380134
247242500 0.889623847187 0.0208422008048
247260000 0.889409530136 0.0204459286081
247277500 0.889563003936 0.0204734607902
247295000 0.889486254447 0.0205830926113
247312500 0.889704200179 0.020671975769
247330000 0.889541180433 0.0204663840366
247347500 0.889548083261 0.0205553464483
247365000 0.889408574909 0.0206067858324
247382500 0.889420829956 0.0204648259713
247400000 0.88973810093 0.020252356493
247417500 0.889657885931 0.0201066062273
247435000 0.889557372424 0.0201289987744
247452500 0.889580778738 0.0201536247306
247470000 0.889361790173 0.0199853746489
247487500 0.889662392115 0.0199612707431
247505000 0.889441432374 0.02009490703
247522500 0.889372309402 0.020034460384
247540000 0.889245309115 0.0198200676256
247557500 0.8893476687 0.0198420494621
247575000 0.889578928437 0.019983496595
247592500 0.889147449684 0.019842119287
247610000 0.88900373936 0.0196885418689
247627500 0.889394155168 0.0196091908154
247645000 0.889217306649 0.019528348159
247662500 0.88942469948 0.0197020328895
247680000 0.88922737729 0.0194580487411
247697500 0.889163228908 0.0193575043797
247715000 0.889166866466 0.0194711965506
247732500 0.88906248739 0.019364647914
247750000 0.889365556697 0.0191413091991
247767500 0.889272206368 0.0190590418475
247785000 0.889264528692 0.018800641368
247802500 0.889327109443 0.0189997688643
247820000 0.889287295977 0.0187500266106
247837500 0.889184457048 0.0187565749257
247855000 0.889111377207 0.018529255059
247872500 0.889323513632 0.018661498563
247890000 0.889422742043 0.018432487161
247907500 0.889339531851 0.0183313310105
247925000 0.889067114794 0.0182611241697
247942500 0.888951403766 0.0182912700463
247960000 0.888989416724 0.0182401915769
247977500 0.888816579651 0.018176198205
247995000 0.889099986385 0.0182384378282
248012500 0.888957712057 0.0180309605453
248030000 0.889289944496 0.0179847707798
248047500 0.888862086975 0.0179813691116
248065000 0.888667949569 0.0179173307704
248082500 0.888761483259 0.0177696377841
248100000 0.888754259919 0.0177361278168
248117500 0.888724976894 0.0177949349406
248135000 0.888910627018 0.0176199738842
248152500 0.888719175239 0.0173184954611
248170000 0.888508506406 0.017041515278
248187500 0.88879088605 0.0175331515644
248205000 0.888609449398 0.0173953344305
248222500 0.888582706601 0.0173143850725
248240000 0.888645138448 0.0174641006464
248257500 0.888846198808 0.0173214799078
248275000 0.888486394131 0.0172974940641
248292500 0.888442280811 0.0170419705147
248310000 0.888503823565 0.0171279493897
248327500 0.888579455658 0.0170420837557
248345000 0.888411214819 0.0172921162137
248362500 0.888529760408 0.0169902829738
248380000 0.888635502928 0.0170690065713
248397500 0.888688853033 0.0170389996811
248415000 0.88861375298 0.0169214033267
248432500 0.888543084398 0.0166554538473
248450000 0.888446304739 0.016697960761
248467500 0.888548412384 0.0165861317796
248485000 0.888438601704 0.0163647638616
248502500 0.888419404673 0.0163291591956
248520000 0.888146543043 0.016149501108
248537500 0.888815788646 0.0161775281216
248555000 0.888665147509 0.0162319441452
248572500 0.888355189387 0.0161744700773
248590000 0.88816126154 0.0160151871351
248607500 0.888584783602 0.0161690580002
248625000 0.888296142482 0.0158579289645
248642500 0.888353441859 0.0158274795687
248660000 0.888521725071 0.0157272117207
248677500 0.888651271276 0.0156282662291
248695000 0.888348872863 0.0154754194748
248712500 0.888361298385 0.0157128801745
248730000 0.888147631238 0.0156150271533
248747500 0.88836864578 0.0155433280813
248765000 0.888277715261 0.0151994519424
248782500 0.888118288942 0.0151224937825
248800000 0.888312435126 0.015226217923
248817500 0.888018718502 0.0151720663165
248835000 0.888147370086 0.0151124951183
248852500 0.887911513039 0.015050376992
248870000 0.887835949528 0.0151281890031
248887500 0.887708478656 0.0150560473294
248905000 0.887884763146 0.0149232603724
248922500 0.887848825151 0.0147019007526
248940000 0.887871561796 0.0146800207485
248957500 0.887696335776 0.0146814361237
248975000 0.887991286022 0.0146434608343
248992500 0.887747199662 0.0148128048918
249010000 0.887551041561 0.0148334105139
249027500 0.887392775523 0.0145519912489
249045000 0.887601752824 0.0144720372287
249062500 0.887707523641 0.0143413413277
249080000 0.887386133422 0.0144839077619
249097500 0.887354387379 0.014370410488
249115000 0.887934700582 0.0145416254254
249132500 0.887667382839 0.0144881802955
249150000 0.887707415234 0.0143464702425
249167500 0.88785005898 0.0142477399581
249185000 0.887960670265 0.0141812728342
249202500 0.887503010729 0.0141416447573
249220000 0.887634327739 0.014100925804
249237500 0.887540682975 0.0140965754993
249255000 0.887786168484 0.0139033643272
249272500 0.887654327586 0.0139103609089
249290000 0.887882879676 0.0137662953517
249307500 0.888146156182 0.0136107153998
249325000 0.887636506984 0.0135026086884
249342500 0.887878308732 0.01358145352
249360000 0.887675714486 0.0134651299465
249377500 0.887266647243 0.013185653123
249395000 0.887338569617 0.0130523784592
249412500 0.887459667178 0.0130777624126
249430000 0.887312076656 0.0133357213263
249447500 0.887418511334 0.0131939718403
249465000 0.887534240232 0.0130602591127
249482500 0.887720398522 0.0129198183208
249500000 0.887376097087 0.0129059428223
249517500 0.887170687089 0.0127123962316
249535000 0.887137731124 0.0125945767418
249552500 0.886850990877 0.0124220378145
249570000 0.887194201788 0.0125785054671
249587500 0.887182873849 0.0126596035041
249605000 0.887246097846 0.0125254301301
249622500 0.886881522535 0.0124842639604
249640000 0.886742724375 0.0123248974723
249657500 0.886579895659 0.0123401100004
249675000 0.88678707785 0.0122075595809
249692500 0.886687576773 0.01213937107
249710000 0.886778036879 0.0122194456631
249727500 0.886790241036 0.0121958877061
249745000 0.88672171371 0.0122661354584
249762500 0.88641140148 0.012167997361
249780000 0.886748027892 0.012128633029
249797500 0.886606630812 0.0119462108265
249815000 0.886638318922 0.01196998152
249832500 0.886594486813 0.0120836233314
249850000 0.886421434431 0.0119840789575
249867500 0.886487236575 0.0116485141951
249885000 0.886635596386 0.0117758301644
249902500 0.886396274672 0.0119891296782
249920000 0.886629816884 0.0116629956074
249937500 0.886653536054 0.0115574843814
249955000 0.886773645509 0.0115317200118
249972500 0.886716902687 0.0114235921306
249990000 0.886968222703 0.0113586190899
250007500 0.88667955763 0.0112368241732
250025000 0.886355324162 0.0111301547888
250042500 0.886489768861 0.0112101609235
250060000 0.886647140435 0.0111970218545
250077500 0.886630644401 0.0110785524995
250095000 0.886472552825 0.0110446482948
250112500 0.886341921355 0.0109862363565
250130000 0.886460088174 0.0111333499827
250147500 0.886402279949 0.0108723307089
250165000 0.88681132956 0.0107172317501
250182500 0.886451128294 0.0107047128726
250200000 0.886427328519 0.0106882129014
250217500 0.886592528425 0.010491536081
250235000 0.88455808085 0.0018648669969
250252500 0.886170781774 0.0104985134576
250270000 0.886225755128 0.0104660911037
250287500 0.886083083225 0.0102731639233
250305000 0.886320444477 0.0100788015424
250322500 0.886218235747 0.00990419373546
250340000 0.886066377837 0.0100287422326
250357500 0.886310040067 0.0100619296677
250375000 0.886184814419 0.0101742469223
250392500 0.886158864447 0.0101142972497
250410000 0.886196915619 0.00992175123755
250427500 0.886132636488 0.00982988026988
250445000 0.885805258435 0.00961366705072
250462500 0.885984696173 0.00976605095819
250480000 0.88584055771 0.009643472427
250497500 0.885744439454 0.00940019806322
250515000 0.885866220889 0.00942458304336
250532500 0.886241669206 0.00949386063913
250550000 0.8857548973 0.00942125437307
250567500 0.885787813194 0.00936473940403
250585000 0.885784782577 0.00917769520467
250602500 0.885648068621 0.00938116661123
250620000 0.885647937529 0.00940410340159
250637500 0.885551900499 0.00932305029168
250655000 0.885252583765 0.00925495072054
250672500 0.885224371036 0.0092223575957
250690000 0.885411431379 0.00928153466113
250707500 0.885638311708 0.00923292997927
250725000 0.885631521176 0.00918563221852
250742500 0.885497028341 0.00925383317417
250760000 0.885520502131 0.00909192947111
250777500 0.885359186414 0.00906595569563
250795000 0.885294655275 0.00898633642233
250812500 0.88549269448 0.00880295222761
250830000 0.885525597683 0.00872945629749
250847500 0.8853992538 0.00862831985425
250865000 0.885570576757 0.00855710507789
250882500 0.88537633201 0.0085039451022
250900000 0.885542986723 0.00830584867939
250917500 0.885429346844 0.008195168523
250935000 0.885338677852 0.00802819560871
250952500 0.885402633256 0.00783283315241
250970000 0.885476732591 0.00777926679595
250987500 0.885863306973 0.00793413574323
251005000 0.885669377228 0.00771540573806
251022500 0.885502055613 0.0075748724026
251040000 0.885493138576 0.00742407778729
251057500 0.885440096427 0.00756871374848
251075000 0.885042138037 0.00764010366321
251092500 0.884919210066 0.00759353465858
251110000 0.884938138301 0.00757126216283
251127500 0.885135889835 0.00720162973718
251145000 0.885072261749 0.00728706395206
251162500 0.885181827013 0.00715769686264
251180000 0.885079376719 0.00716993794771
251197500 0.885067874543 0.00723893824374
251215000 0.884983090997 0.00730695198037
251232500 0.88476037763 0.00706060523707
251250000 0.884479921407 0.00686105636786
251267500 0.884711743055 0.00718605591546
251285000 0.88451237052 0.00711755505251
251302500 0.884324259247 0.00709339234384
251320000 0.884427403181 0.00699132149374
251337500 0.884616340751 0.00681790028643
251355000 0.884485514211 0.00659990538014
251372500 0.884335714262 0.0067616454637
251390000 0.884617265884 0.00660253733988
251407500 0.884402209961 0.0065827239778
251425000 0.884433849263 0.00633520862676
251442500 0.884292447697 0.00637737368692
251460000 0.884398582504 0.00645062515905
251477500 0.884439731437 0.0061634068105
251495000 0.884669479284 0.00632458571688
251512500 0.884717269301 0.00632509016265
251530000 0.884523217274 0.00603863369186
251547500 0.884331899758 0.00604459225503
251565000 0.884248982173 0.00597946142698
251582500 0.884304241573 0.00594877560225
251600000 0.884693965717 0.00593415348374
251617500 0.884459775094 0.00590756139482
251635000 0.884273300071 0.00582685637226
251652500 0.884369516886 0.00566066528031
251670000 0.88446069589 0.00562351832274
251687500 0.884490968044 0.00552085584831
251705000 0.884107559685 0.0055095509237
251722500 0.884206133633 0.00539208122639
251740000 0.884188351661 0.00545026017299
251757500 0.884609152202 0.00545172697035
251775000 0.884422982853 0.00522818920579
251792500 0.883998212223 0.00527509995311
251810000 0.883978373049 0.00515102897322
251827500 0.884025794129 0.004894532769
251845000 0.884042874861 0.0048068806717
251862500 0.883973917047 0.00479436238664
251880000 0.88354719608 0.00481074220932
251897500 0.88372508452 0.00473508856294
251915000 0.883742754699 0.00499819048242
251932500 0.883729184538 0.0048508358477
251950000 0.88336689585 0.00488223428431
251967500 0.883359038291 0.00452892969456
251985000 0.883754998239 0.00441076660685
252002500 0.883509468458 0.00455425132115
252020000 0.88320560691 0.00436771257567
252037500 0.883532809373 0.00430947390564
252055000 0.883434766875 0.00428515253749
252072500 0.883454989384 0.00431588960673
252090000 0.883165700681 0.00435701153895
252107500 0.883400465137 0.00436342801455
252125000 0.882932443785 0.00391947445634
252142500 0.882980805273 0.00405118325674
252160000 0.883190288584 0.00384725751019
252177500 0.883099246803 0.00400769936948
252195000 0.883265401088 0.00399483329598
252212500 0.88306697552 0.00407799660542
252230000 0.88285924279 0.00380838586703
252247500 0.882799353939 0.00384598117591
252265000 0.882985368231 0.00382700812465
252282500 0.8829256244 0.00396974109117
252300000 0.88308032781 0.00382735707732
252317500 0.883032598317 0.00380633139144
252335000 0.883019310091 0.00367933798973
252352500 0.882938666101 0.00358069435985
252370000 0.882681032846 0.0034598479366
252387500 0.882892046988 0.00340465854334
252405000 0.884361442977 0.00359143885935
252422500 0.88291826591 0.00321020936245
252440000 0.882965136707 0.00345191939113
252457500 0.883038751797 0.00336062332208
252475000 0.882803835863 0.00291955168353
252492500 0.882666691931 0.00281107412154
252510000 0.882788361675 0.0030898455018
252527500 0.882511575279 0.00268936832831
252545000 0.882415086712 0.00282249632163
252562500 0.88255260622 0.00266269894303
252580000 0.882416239347 0.00265732580278
252597500 0.882289025654 0.00233057363815
252615000 0.882585920828 0.00244676104936
252632500 0.88263567243 0.00222990261578
252650000 0.882340627473 0.00242084963087
252667500 0.882218776469 0.00228542156819
252685000 0.882256220438 0.00238869516882
252702500 0.882181882867 0.00212784890756
252720000 0.881809942309 0.00213960586006
252737500 0.882143753905 0.00190681342618
252755000 0.8820263878 0.00211515809844
252772500 0.882018849786 0.0020695598494
252790000 0.881842751859 0.00202282474734
252807500 0.88198183673 0.00195306228341
252825000 0.881486294615 0.00197276298255
252842500 0.881628467685 0.00177400377234
252860000 0.881983898035 0.00168209070451
252877500 0.881795724225 0.0018713686243
252895000 0.881512633681 0.00190250607271
252912500 0.881559468981 0.0016238532554
252930000 0.881571619538 0.00148902429873
252947500 0.881311210016 0.00134678224614
252965000 0.8811737885 0.00177506645311
252982500 0.881411382331 0.00175427447716
253000000 0.881838677088 0.00132024059178
253017500 0.881682380826 0.00129508535144
253035000 0.88150373751 0.00113398937352
253052500 0.881665760345 0.00118945126023
253070000 0.881479149421 0.00113290680415
253087500 0.881736616049 0.00113915342158
253105000 0.881581218275 0.00110386803022
253122500 0.881468183975 0.00113047438803
253140000 0.881105021174 0.000927385023153
253157500 0.881144580315 0.000982885278172
253175000 0.881304820185 0.00069439536557
253192500 0.881449671523 0.000810190197211
253210000 0.881060799327 0.000585030315737
253227500 0.880757590131 0.00063651232776
253245000 0.881049019975 0.000470009018083
253262500 0.881488854455 0.000439541311132
253280000 0.880981940296 0.000369597781844
253297500 0.880863568389 0.00044498107513
253315000 0.881012228303 0.00017756942005
253332500 0.881016507553 -3.17063162787e-05
253350000 0.881110134761 -4.20104085476e-05
253367500 0.880761450774 0.000104168104197
253385000 0.88083011362 -0.000102786631155
253402500 0.880649693118 -7.61121711821e-05
253420000 0.880735937203 -0.000123477335555
253437500 0.880521978759 -0.000133321042383
253455000 0.880362801885 -0.000505605405406
253472500 0.880013999212 -0.000336992040741
253490000 0.88237538089 0.00533909594915
253507500 0.879758224171 -0.000111422095681
253525000 0.880089518274 -0.000510286555029
253542500 0.880087945915 -0.000378575501588
253560000 0.88006553577 -0.000229372504418
253577500 0.879823657214 -0.000356618290123
253595000 0.879897389878 -0.000384231620425
253612500 0.879715436575 -0.000609141783503
253630000 0.879359653425 -0.000529414881351
253647500 0.879473671638 -0.00055841908803
253665000 0.879769668425 -0.000469776814159
253682500 0.879542461009 -0.00066778674767
253700000 0.879635098432 -0.000614116629587
253717500 0.879600508813 -0.000813549496059
253735000 0.879207611148 -0.000710791343945
253752500 0.879594515056 -0.000993676061382
253770000 0.879465814255 -0.00094800054063
253787500 0.879305897636 -0.00085580029281
253805000 0.879167285687 -0.00040525782055
253822500 0.879699701633 -0.000858655028825
253840000 0.87939156627 -0.00100597756282
253857500 0.879326453027 -0.00104428512618
253875000 0.878828151029 -0.00103711298149
253892500 0.878994573632 -0.00140138004468
253910000 0.878947174356 -0.00101401020929
253927500 0.878984820306 -0.00097347651213
253945000 0.879030153398 -0.000945261927964
253962500 0.879190104293 -0.0010204720026
253980000 0.87908409497 -0.00134239569772
253997500 0.878939118774 -0.00123966974206
254015000 0.878458916294 -0.00144184911562
254032500 0.878671238475 -0.0014194550011
254050000 0.878638648375 -0.00159571767209
254067500 0.878525665757 -0.00166916436578
254085000 0.878286268801 -0.00168370741652
254102500 0.878439728684 -0.00160020389479
254120000 0.878585770364 -0.00164633067338
254137500 0.878623999581 -0.00152774096285
254155000 0.87843651017 -0.00152097030918
254172500 0.877957350714 -0.00178123935649
254190000 0.878139493881 -0.00195103895945
254207500 0.878410006076 -0.00193518985815
254225000 0.878073095979 -0.00168127443093
254242500 0.877719278741 -0.00167614984139
254260000 0.877959451626 -0.00187451624469
254277500 0.877904539372 -0.00191765532796
254295000 0.877921966991 -0.00180799571077
254312500 0.877525411454 -0.00174594628801
254330000 0.877587864636 -0.00189965553943
254347500 0.877796741468 -0.00179258374067
254365000 0.877725487067 -0.00177977538255
254382500 0.877528585498 -0.00187117273794
254400000 0.877506211642 -0.00207299015033
254417500 0.877340866894 -0.00203555463389
254435000 0.877273758103 -0.00196281374912
254452500 0.877065354782 -0.00181685095142
254470000 0.877342009393 -0.00197603894683
254487500 0.87765117917 -0.00204318510905
254505000 0.877751778995 -0.00213642941965
254522500 0.877421720883 -0.00189548473474
254540000 0.877447076384 -0.00185332650508
254557500 0.877380157096 -0.00214756521196
254575000 0.877546883427 -0.00190115298262
254592500 0.877355757268 -0.00212505115042
254610000 0.87748898397 -0.00211705264877
254627500 0.8775671141 -0.00235098071548
254645000 0.877475323821 -0.00216843840413
254662500 0.877229204657 -0.00219548609037
254680000 0.877088504335 -0.00226266664447
254697500 0.877167640564 -0.00240903289633
254715000 0.877169501525 -0.00232624392482
254732500 0.876967962461 -0.00248642617298
254750000 0.877049100468 -0.0026052936191
254767500 0.877372073526 -0.00258820755591
254785000 0.877628629179 -0.00275555619588
254802500 0.8773101481 -0.00257721006365
254820000 0.877032985423 -0.00285700138877
254837500 0.876831830999 -0.00283750030316
254855000 0.876997917933 -0.0028710720284
254872500 0.876733287378 -0.00293267556447
254890000 0.876652568915 -0.00288921345806
254907500 0.876603077412 -0.00299540411989
254925000 0.876644272815 -0.00315220315966
254942500 0.87648052933 -0.00310353769204
254960000 0.876038646229 -0.00316483563191
254977500 0.876293736131 -0.00314937522563
254995000 0.876370273223 -0.00329455792201
255012500 0.876198218407 -0.00319339242805
255030000 0.876330307337 -0.00316375870567
255047500 0.876166868003 -0.00310384738131
255065000 0.876243219527 -0.0031402019854
255082500 0.87635270287 -0.00322212356007
255100000 0.876269747888 -0.00329862570237
255117500 0.875975131312 -0.00318030465471
255135000 0.8757352355 -0.00304416048689
255152500 0.875893703482 -0.00338268459921
255170000 0.875798364569 -0.00324560263072
255187500 0.87590077496 -0.00333290072747
255205000 0.875743811125 -0.00321750640602
255222500 0.875566001826 -0.00346453151302
255240000 0.875341217914 -0.00312309453543
255257500 0.875328422591 -0.00335315903417
255275000 0.875642259265 -0.0033569939385
255292500 0.875602744849 -0.00355835219449
255310000 0.875595509038 -0.00350742528311
255327500 0.875717910926 -0.00348204834061
255345000 0.875734621265 -0.00343446728907
255362500 0.875368575384 -0.00361581740343
255380000 0.875485836102 -0.00378646573546
255397500 0.875673689538 -0.00373668764022
255415000 0.875417837724 -0.00382070767899
255432500 0.87519028911 -0.00400072274975
255450000 0.874975851146 -0.00380314768458
255467500 0.875226409111 -0.00397885281117
255485000 0.875393290142 -0.0041402374299
255502500 0.875141410425 -0.003917609883
255520000 0.875024676775 -0.00399144043833
255537500 0.875231945929 -0.00404781637164
255555000 0.87515706621 -0.00411997611437
255572500 0.87503299402 -0.00400484055397
255590000 0.875019405299 -0.00417620622852
255607500 0.875049950702 -0.00415623687299
255625000 0.87476003647 -0.00431389322766
255642500 0.874627971566 -0.00430696779117
255660000 0.874747257942 -0.00450635619954
255677500 0.874619625232 -0.00431963697152
255695000 0.874642960453 -0.00461779560426
255712500 0.874501887115 -0.00449798494765
255730000 0.87440310267 -0.0046023637838
255747500 0.874327263244 -0.00438335909129
255765000 0.874196808385 -0.00438306565794
255782500 0.874005748316 -0.00444183493642
255800000 0.874201770357 -0.00448944339337
255817500 0.874223756221 -0.0046061323261
255835000 0.874211603365 -0.00458064288307
255852500 0.873808978389 -0.0044644913607
255870000 0.873829232845 -0.00440765754316
255887500 0.873979590776 -0.00455799788831
255905000 0.87409466801 -0.00437414243181
255922500 0.874064531403 -0.00439768031732
255940000 0.873866935558 -0.00453648211581
255957500 0.873607414091 -0.00470809057609
255975000 0.87362300487 -0.00433863907516
255992500 0.873838633877 -0.00459283961655
256010000 0.873501920778 -0.00441231943384
256027500 0.87357309276 -0.00467400549209
256045000 0.873215870311 -0.004719588782
256062500 0.873449635581 -0.00456868829278
256080000 0.873448607385 -0.00456758028466
256097500 0.873698212264 -0.0046402915436
256115000 0.873694412189 -0.00453889844169
256132500 0.873625122273 -0.00467650401055
256150000 0.87341797963 -0.00464108305159
256167500 0.873119731764 -0.00471410840935
256185000 0.873231077523 -0.00482169223944
256202500 0.873459729052 -0.00489277605413
256220000 0.873360759921 -0.00475451878036
256237500 0.873384742969 -0.00485819548048
256255000 0.873094018183 -0.00498080980905
256272500 0.873203188682 -0.00499750349379
256290000 0.872949616294 -0.00484751671951
256307500 0.873123208665 -0.00500513781416
256325000 0.872944921336 -0.00538841314235
256342500 0.872878536394 -0.00522643465426
256360000 0.872889980047 -0.00507349924684
256377500 0.872999545492 -0.00503455383486
256395000 0.872890535412 -0.00526248603951
256412500 0.872675014797 -0.00501673634306
256430000 0.872954329673 -0.00542115801473
256447500 0.872584808842 -0.00513617733922
256465000 0.872356833764 -0.0051295572905
256482500 0.87229081243 -0.00516442822524
256500000 0.872365865601 -0.00532664216542
256517500 0.872125048992 -0.00533312799029
256535000 0.872448241048 -0.00516100530162
256552500 0.872224186488 -0.00515015663187
256570000 0.872270750175 -0.00551866593753
256587500 0.872132943268 -0.0053345749471
256605000 0.872175306669 -0.00535385156088
256622500 0.872155524337 -0.00533056874364
256640000 0.872084155372 -0.0054861387228
256657500 0.872053731453 -0.00554275791688
256675000 0.871812327415 -0.00543767780524
256692500 0.871582856083 -0.00552428583853
256710000 0.871629643908 -0.00548616634806
256727500 0.871547411235 -0.00534146066116
256745000 0.871791910623 -0.00513104328522
256762500 0.871617592039 -0.00531521857245
256780000 0.87156848218 -0.00514849460877
256797500 0.871677752931 -0.00523373415867
256815000 0.871605224483 -0.00521533806759
256832500 0.871610505794 -0.00537206491676
256850000 0.871229178677 -0.00523965137488
256867500 0.871668149488 -0.00531592643797
256885000 0.871671223028 -0.00523351972955
256902500 0.871680698785 -0.00536984613615
256920000 0.87132314459 -0.00529473107214
256937500 0.871224085381 -0.00534616875526
256955000 0.871330758299 -0.00551216301525
256972500 0.871290106272 -0.0053507154446
256990000 0.871289852897 -0.00517429504207
257007500 0.871072982632 -0.00544431199088
257025000 0.871301726534 -0.00538149321221
257042500 0.871150253004 -0.00550746934076
257060000 0.871072570488 -0.00550272216326
257077500 0.871231068257 -0.00572493059823
257095000 0.870983683311 -0.00582132642345
257112500 0.871092725664 -0.00575232166071
257130000 0.870988617551 -0.00584933368141
257147500 0.870820075206 -0.00555951081794
257165000 0.870966419483 -0.00568031597749
257182500 0.870910274783 -0.00551908011767
257200000 0.870832094751 -0.00582561785946
257217500 0.870949741975 -0.00552357004446
257235000 0.870813811125 -0.00596766090841
257252500 0.870574261558 -0.00561301056143
257270000 0.870545199785 -0.00571537209763
257287500 0.870251538279 -0.00545855034714
257305000 0.870678614262 -0.00583537290131
257322500 0.870541092211 -0.00564929795187
257340000 0.870590971144 -0.00590192177766
257357500 0.870476171706 -0.00583095377806
257375000 0.87067173705 -0.00604982368837
257392500 0.870092216426 -0.00565761728541
257410000 0.870214400423 -0.00579034862306
257427500 0.870127776763 -0.00576344323059
257445000 0.870063202032 -0.00602132256912
257462500 0.870291985881 -0.00606402021034
257480000 0.870186700401 -0.00587618771938
257497500 0.86983363254 -0.00572441594309
257515000 0.869866270232 -0.00563243567871
257532500 0.86999141745 -0.00577242403955
257550000 0.869988020807 -0.00586461681509
257567500 0.870130433651 -0.00571899568752
257585000 0.869934541581 -0.00555670747731
257602500 0.869719521701 -0.00568672340227
257620000 0.869876042467 -0.00561607026531
257637500 0.869773594119 -0.00568444146819
257655000 0.869829645977 -0.00555772771868
257672500 0.869823575135 -0.00579366502577
257690000 0.869838579025 -0.00552535202448
257707500 0.869655893455 -0.00579997652134
257725000 0.869729388614 -0.00558575832709
257742500 0.869468773202 -0.00586153300729
257760000 0.869599380207 -0.00576996609011
257777500 0.869547452174 -0.00582731081077
257795000 0.869789040068 -0.00562295563325
257812500 0.869566130657 -0.0058779543582
257830000 0.869304034682 -0.00561443440495
257847500 0.869612316737 -0.00576282946421
257865000 0.869771485736 -0.00598992871789
257882500 0.869598584463 -0.00608170557587
257900000 0.869405991447 -0.00602147928382
257917500 0.869604584744 -0.0060740570049
257935000 0.869403984319 -0.00586913951574
257952500 0.869310442909 -0.00582818699917
257970000 0.869431255146 -0.00605381013459
257987500 0.869376378102 -0.00589440255717
258005000 0.869407166603 -0.00605606730176
258022500 0.869111287984 -0.00606538126851
258040000 0.869587998894 -0.00618434320141
258057500 0.869316493871 -0.00593071007566
258075000 0.86905499889 -0.00596310026069
258092500 0.868801128902 -0.00576129223448
258110000 0.868712213101 -0.00604247030141
258127500 0.868935647348 -0.00611640959739
258145000 0.868580840796 -0.00629413561408
258162500 0.868801417537 -0.00623964134772
258180000 0.868585098573 -0.00632792214478
258197500 0.868681231621 -0.00603459888554
258215000 0.867933163138 -0.00664328758774
258232500 0.868241381867 -0.00586762828543
258250000 0.868399604959 -0.00610881559752
258267500 0.868598923903 -0.00567698202416
258285000 0.868415864041 -0.00609425723987
258302500 0.868552169418 -0.00638741117878
258320000 0.868454047992 -0.00610202083751
258337500 0.868519862597 -0.00584104615037
258355000 0.868398646781 -0.00553502003269
258372500 0.868357764005 -0.00617510026354
258390000 0.868344783163 -0.00600034412964
258407500 0.868143188495 -0.00576202886347
258425000 0.867973576905 -0.0056937883197
258442500 0.868314842113 -0.00619133942093
258460000 0.868556601462 -0.00610800087536
258477500 0.868519257955 -0.00604713226378
258495000 0.868306056355 -0.00562864332282
258512500 0.867910044736 -0.00608663906122
258530000 0.868198124134 -0.00608932414392
258547500 0.868179582678 -0.0059815295741
258565000 0.868349015558 -0.00607447474434
258582500 0.868091372245 -0.00642635267953
258600000 0.868036470966 -0.00629213437439
258617500 0.867853191038 -0.00614404346282
258635000 0.867760483629 -0.00585063017497
258652500 0.867817727436 -0.00607451447832
258670000 0.867768051772 -0.00634886606447
258687500 0.867861221205 -0.00631534503957
258705000 0.868073428097 -0.00596025185207
258722500 0.867883732393 -0.00609136087914
258740000 0.867769230604 -0.00633895919034
258757500 0.867978881437 -0.00632623804082
258775000 0.867782012514 -0.00621746299154
258792500 0.867616488817 -0.00611971070583
258810000 0.867648711668 -0.00634037612521
258827500 0.868169535599 -0.00672405173649
258845000 0.867728332745 -0.00623557783473
258862500 0.867771888639 -0.00626085832962
258880000 0.867461603674 -0.00645491407126
258897500 0.867638888568 -0.00633516679207
258915000 0.867478139647 -0.00623056621761
258932500 0.867382158259 -0.00608523373528
258950000 0.867196229937 -0.00625432751099
258967500 0.86728593616 -0.00638900250541
258985000 0.867338618129 -0.00633254767586
259002500 0.867247020402 -0.00605161439482
259020000 0.866902501111 -0.00625127040292
259037500 0.867155637879 -0.00629447541434
259055000 0.867438079718 -0.00612984648509
259072500 0.867179795491 -0.00589243150033
259090000 0.86705316687 -0.00618919069697
259107500 0.867028435698 -0.00624372485159
259125000 0.866986198585 -0.00610135997375
259142500 0.866846131662 -0.00582894940555
259160000 0.866900206908 -0.00581104285182
259177500 0.86697970841 -0.00597478648479
259195000 0.86709695773 -0.00628311298713
259212500 0.86702408182 -0.00602268107669
259230000 0.867079519579 -0.00578250673834
259247500 0.866996032133 -0.0061498780132
259265000 0.867151866222 -0.00623378090074
259282500 0.8671528663 -0.00636388254811
259300000 0.867241776914 -0.00631990223709
259317500 0.8669320688 -0.00649573298459
259335000 0.866870385413 -0.00624826572322
259352500 0.867004136537 -0.00623617243778
259370000 0.866861325248 -0.00601400906674
259387500 0.866731247196 -0.00623175115092
259405000 0.866808858477 -0.00643428046144
259422500 0.866963290931 -0.00642258420603
259440000 0.866837962513 -0.00614030458989
259457500 0.866577446876 -0.00634655926973
259475000 0.866701751261 -0.00670805535567
259492500 0.866836615095 -0.00631705175067
259510000 0.866843151258 -0.00612192780813
259527500 0.866670308816 -0.0062800720681
259545000 0.866589805388 -0.00660948650211
259562500 0.86668823644 -0.00639902932401
259580000 0.8666860148 -0.00639014327171
259597500 0.866546974677 -0.00638538008313
259615000 0.86662665324 -0.00656929046811
259632500 0.86674031381 -0.00636154115388
259650000 0.866586221416 -0.00637117338233
259667500 0.866506093848 -0.00636041203136
259685000 0.866607002774 -0.00657770864209
259702500 0.866652611109 -0.00633465219984
259720000 0.866451416079 -0.006411318809
259737500 0.866368552324 -0.00637547073379
259755000 0.865957504251 -0.00680791500664
259772500 0.865910376563 -0.00657605125208
259790000 0.865919278329 -0.00629421416633
259807500 0.865759864694 -0.00612459231488
259825000 0.86585710614 -0.00646156139466
259842500 0.86576032279 -0.0065422596736
259860000 0.865879156553 -0.00627890966046
259877500 0.865942479457 -0.00600175557011
259895000 0.865754207083 -0.00635367681571
259912500 0.866090999929 -0.00646062412604
259930000 0.865989995735 -0.00628005836377
259947500 0.866045648347 -0.00615371907242
259965000 0.866367942894 -0.0068873465032
259982500 0.869865858387 -0.0100037487777
260000000 0.870622954853 -0.0117432035861
260017500 0.866042103745 -0.00662323481391
260035000 0.866035134424 -0.00592685673981
260052500 0.865449187607 -0.0060978465581
260070000 0.865621855095 -0.00617912647653
260087500 0.865620591308 -0.00643173005024
260105000 0.865509484397 -0.00633761505957
260122500 0.865732597019 -0.00645102853779
260140000 0.865948869033 -0.00632322459238
260157500 0.865603434425 -0.00651370568688
260175000 0.865693195153 -0.00642417671327
260192500 0.865883024324 -0.00646742459202
260210000 0.865634679931 -0.00638305826696
260227500 0.865686498478 -0.00636648886888
260245000 0.865704078321 -0.00653105552871
260262500 0.865792817743 -0.00635892493162
260280000 0.865489521593 -0.00638945316251
260297500 0.865483208651 -0.00654486933599
260315000 0.865365328681 -0.00670377593324
260332500 0.865616090282 -0.00664096402341
260350000 0.865348889566 -0.00677142468978
260367500 0.865244173365 -0.00663867795562
260385000 0.865297399182 -0.00666621781069
260402500 0.865545019022 -0.00632282161414
260420000 0.865290933705 -0.00667625811229
260437500 0.865293985813 -0.00628605298116
260455000 0.865090835159 -0.0064043816115
260472500 0.865133650946 -0.00640261265572
260490000 0.865159869031 -0.00660761965632
260507500 0.865123527911 -0.00638636450418
260525000 0.86529840553 -0.00643946752591
260542500 0.864967978447 -0.0064044813211
260560000 0.864636365691 -0.00661023335529
260577500 0.864831714674 -0.00650783088449
260595000 0.865135201821 -0.00652241318896
260612500 0.865006172532 -0.00645065084793
260630000 0.864648399451 -0.00623605791281
260647500 0.864790802749 -0.00662199947802
260665000 0.864603216949 -0.00644601112063
260682500 0.864859731182 -0.00637277068001
260700000 0.864891979786 -0.00612148210569
260717500 0.864768076709 -0.0063242880287
260735000 0.864956620043 -0.00640946329598
260752500 0.864555259042 -0.00642540429444
260770000 0.864783298188 -0.00594672058199
260787500 0.864517574844 -0.00641667194077
260805000 0.864768461721 -0.00635391679052
260822500 0.864614267473 -0.00648088953232
260840000 0.86523569207 -0.0063199881397
260857500 0.864818296628 -0.00639123948352
260875000 0.864901750294 -0.00640460603952
260892500 0.864641169109 -0.00652466890778
260910000 0.864429763133 -0.00628893613823
260927500 0.864059200312 -0.00642585355955
260945000 0.864377575362 -0.00622729491349
260962500 0.864435536786 -0.00622137828139
260980000 0.864740909568 -0.00637331565232
260997500 0.864387413098 -0.00651601481069
261015000 0.864520972635 -0.00673507184652
261032500 0.864440704971 -0.00675395556257
261050000 0.864124234151 -0.00655127041332
261067500 0.864266549862 -0.00651202220247
261085000 0.864258504468 -0.00654519713343
261102500 0.864143485192 -0.00660179411931
261120000 0.864314785291 -0.00666474747397
261137500 0.864447718987 -0.00636181758794
261155000 0.864217733402 -0.00660787209884
261172500 0.864063413329 -0.00660402836615
261190000 0.864118422262 -0.00641696121625
261207500 0.864145502485 -0.0063364125748
261225000 0.86403860739 -0.00640978180165
261242500 0.863810449184 -0.00641651264038
261260000 0.863750564713 -0.00666773038285
261277500 0.864235421715 -0.00624401365658
261295000 0.863604245271 -0.00645265775655
261312500 0.863903910797 -0.00634523260204
261330000 0.864047964204 -0.0066537147512
261347500 0.864291682694 -0.00638180205693
261365000 0.863516568961 -0.00637302259879
261382500 0.863734680659 -0.00652706254887
261400000 0.863520180246 -0.00674474292251
261417500 0.863862279198 -0.00663211522042
261435000 0.863601573585 -0.00653104113235
261452500 0.863619736838 -0.0063736271401
261470000 0.863604750269 -0.00624437931326
261487500 0.86355671986 -0.00638217794835
261505000 0.863599133513 -0.00648348099065
261522500 0.863276662121 -0.00632254933554
261540000 0.863455470357 -0.00629558970744
261557500 0.863409947181 -0.0062167271091
261575000 0.863755192041 -0.00607542645494
261592500 0.863309093471 -0.00625476989081
261610000 0.863445253116 -0.00572218508367
261627500 0.863657656487 -0.00612058427313
261645000 0.863911435985 -0.0059268080166
261662500 0.863289924439 -0.00611452326498
261680000 0.863506581906 -0.00617967922813
261697500 0.863439567919 -0.00626054890644
261715000 0.863834086486 -0.00616342274587
261732500 0.863377041235 -0.00641159647401
261750000 0.863782434355 -0.00631108860484
261767500 0.863613555592 -0.00626960051422
261785000 0.863690072974 -0.0065645282618
261802500 0.863477011606 -0.0061765334568
261820000 0.863578708271 -0.00628369056726
261837500 0.863387352509 -0.00645297543614
261855000 0.863277352226 -0.00637867256633
261872500 0.863359231951 -0.00637959614973
261890000 0.863265817674 -0.00635080788821
261907500 0.863083779337 -0.00644076206304
261925000 0.863139904224 -0.00645600729882
261942500 0.8631199201 -0.00630713711815
261960000 0.863324921293 -0.0061840848027
261977500 0.862705534679 -0.00626673229965
261995000 0.863027221388 -0.00651745610761
262012500 0.862941702317 -0.00639929422224
262030000 0.863249517372 -0.00622782224171
262047500 0.862654228164 -0.0062990780017
262065000 0.862844628115 -0.00615500816306
262082500 0.862510026113 -0.00649230729655
262100000 0.862983660243 -0.00622302638125
262117500 0.862873700673 -0.00607401480966
262135000 0.862695416833 -0.00625361321633
262152500 0.862788005606 -0.00636805227354
262170000 0.862692939904 -0.00628892525525
262187500 0.862876542479 -0.00612975045194
262205000 0.862859891181 -0.00628021457517
262222500 0.862657708186 -0.00615669444847
262240000 0.862776723886 -0.00586739019603
262257500 0.862522276371 -0.00580080241729
262275000 0.862512801009 -0.00583207332682
262292500 0.862617900169 -0.00603447252571
262310000 0.8631258558 -0.00587771245284
262327500 0.863204543055 -0.00582307553178
262345000 0.862853395934 -0.00595120564185
262362500 0.862750898094 -0.00593669026856
262380000 0.862402894779 -0.00590177845435
262397500 0.862648024526 -0.00608878971637
262415000 0.862610332978 -0.0060493453571
262432500 0.862941709564 -0.00601244785683
262450000 0.862610182237 -0.00608644011954
262467500 0.862826540183 -0.00614725697339
262485000 0.862436705153 -0.0060905970187
262502500 0.862839076572 -0.00609698224374
262520000 0.862735566789 -0.00623419361765
262537500 0.862647072609 -0.00612826884594
262555000 0.86248804457 -0.00637940045718
262572500 0.862427243622 -0.0061028636658
262590000 0.862550922806 -0.00622175834551
262607500 0.862574444941 -0.00621637221553
262625000 0.862548332389 -0.00620986894655
262642500 0.862630724605 -0.00613021008044
262660000 0.862422905581 -0.0063270045728
262677500 0.862222462734 -0.00614465227622
262695000 0.862511301082 -0.0061484178861
262712500 0.861937088627 -0.00631113774572
262730000 0.862179552473 -0.00625829458277
262747500 0.86229592793 -0.00621339341889
262765000 0.86240085791 -0.00607773818681
262782500 0.861998625444 -0.00602451787776
262800000 0.862584806911 -0.0061264880696
262817500 0.862233697755 -0.00609135353126
262835000 0.862239547798 -0.0060037535013
262852500 0.861619656846 -0.00594820637997
262870000 0.861906844791 -0.00594379938538
262887500 0.862012985218 -0.00607734451838
262905000 0.862216484142 -0.00601048522746
262922500 0.862117087532 -0.00574567901213
262940000 0.862056743364 -0.00574929831169
262957500 0.861793438116 -0.00602251595889
262975000 0.862112971933 -0.00569566714786
262992500 0.861798990361 -0.00590107005457
263010000 0.861953558626 -0.0061149894746
263027500 0.861987518506 -0.00588031651007
263045000 0.862010400432 -0.00591936302039
263062500 0.86179272485 -0.00598749439191
263080000 0.861891266473 -0.00595196383348
263097500 0.86181834702 -0.00601000734472
263115000 0.861939420696 -0.00600139779081
263132500 0.861847340677 -0.00587471164878
263150000 0.861963046634 -0.00577366990365
263167500 0.86220724866 -0.0059766439007
263185000 0.861939567139 -0.00576253979432
263202500 0.862075447732 -0.0059954344516
263220000 0.862441561734 -0.00558252762596
263237500 0.862834234948 -0.00610162367618
263255000 0.862145373643 -0.00547302973756
263272500 0.8618210828 -0.00604241201288
263290000 0.862006778121 -0.00601270983903
263307500 0.862185331801 -0.00616821800005
263325000 0.861896659829 -0.00608579347551
263342500 0.862033335489 -0.00626732856076
263360000 0.861623003362 -0.00614339919066
263377500 0.861639177985 -0.00599316054383
263395000 0.861575431809 -0.00613734639765
263412500 0.861912337705 -0.00636913054647
263430000 0.861424766798 -0.00605899038221
263447500 0.86134292471 -0.00598216689906
263465000 0.861384619885 -0.00606500733044
263482500 0.86178774649 -0.00620829983481
263500000 0.861679446299 -0.00629037931799
263517500 0.861196935142 -0.00614297717547
263535000 0.861177022776 -0.00602711329821
263552500 0.860989709052 -0.00609341997239
263570000 0.861252668698 -0.00606224919746
263587500 0.861366972511 -0.00606318524405
263605000 0.861115296696 -0.00597945643596
263622500 0.861336281021 -0.00603874304141
263640000 0.861504399845 -0.00593009499451
263657500 0.861425078252 -0.00606025673779
263675000 0.861144516628 -0.0058397054286
263692500 0.861209262268 -0.0059603736665
263710000 0.861178401554 -0.00592544532127
263727500 0.861348365017 -0.00592071200147
263745000 0.861102017207 -0.00611789967124
263762500 0.861237859231 -0.0061705134832
263780000 0.861122505026 -0.00587029101315
263797500 0.86131409086 -0.00615226381092
263815000 0.860992580402 -0.00612732543197
263832500 0.86116282697 -0.00623372060888
263850000 0.861204895051 -0.00620928700185
263867500 0.86150418784 -0.00604731628145
263885000 0.861340891107 -0.00587436366707
263902500 0.860928768337 -0.00581878142026
263920000 0.860827888524 -0.00600854788212
263937500 0.861050264712 -0.00609695828418
263955000 0.861083487942 -0.00605919493777
263972500 0.86089802187 -0.00600869965569
263990000 0.860869188654 -0.0060546353245
264007500 0.860721777121 -0.0059584631749
264025000 0.860726170747 -0.0061738869126
264042500 0.860636485744 -0.00611184878021
264060000 0.861052782117 -0.00612086122247
264077500 0.860954582916 -0.00598599425608
264095000 0.860813162463 -0.00616628668383
264112500 0.860423944245 -0.00610250682542
264130000 0.860912876012 -0.00635856140953
264147500 0.860654455353 -0.00620822383868
264165000 0.860502881837 -0.00639247857735
264182500 0.860558295437 -0.00631970081789
264200000 0.860557068832 -0.00639126683148
264217500 0.860150218743 -0.00618212246003
264235000 0.860507468008 -0.0061656992638
264252500 0.860243934808 -0.00602970383851
264270000 0.860073229134 -0.00602270227604
264287500 0.860183389751 -0.00600887917916
264305000 0.86030029098 -0.00626687048011
264322500 0.860103800902 -0.00608784694002
264340000 0.860303388648 -0.00608136188267
264357500 0.859964972051 -0.0062044685552
264375000 0.860115778637 -0.00620915479875
264392500 0.859998181729 -0.00607499128507
264410000 0.859885549376 -0.00564169739306
264427500 0.859952024051 -0.00576715395057
264445000 0.860004730014 -0.00580384636508
264462500 0.860011693394 -0.00598918365469
264480000 0.859836555704 -0.00583442072149
264497500 0.85966232958 -0.0059298188104
264515000 0.859684558384 -0.00559741418843
264532500 0.859662815654 -0.00578539290675
264550000 0.859857277637 -0.00573285672418
264567500 0.859802352163 -0.00616097281965
264585000 0.859602812842 -0.00561109582876
264602500 0.85961815238 -0.0058231608446
264620000 0.859659127115 -0.00561832950938
264637500 0.859565344565 -0.00575185160441
264655000 0.859364703102 -0.00564950849185
264672500 0.859454525244 -0.00590800616167
264690000 0.859284305258 -0.0053384046772
264707500 0.859612492846 -0.00556100233077
264725000 0.859497048969 -0.00545231574916
264742500 0.859601620669 -0.00563493056531
264760000 0.859375193403 -0.00558299758757
264777500 0.859279071787 -0.00567737157062
264795000 0.859371875694 -0.00578889339174
264812500 0.859097057979 -0.00574792119452
264830000 0.858922040676 -0.00561820775436
264847500 0.858828018809 -0.00577322531231
264865000 0.858887433676 -0.00560066814085
264882500 0.85899868736 -0.00554230295975
264900000 0.858934464194 -0.0057497035474
264917500 0.858596800326 -0.00538736594764
264935000 0.858724808929 -0.00582667060587
264952500 0.858635121997 -0.00561418086706
264970000 0.85849073543 -0.00551527093864
264987500 0.858511301207 -0.0051924769994
265005000 0.858323724605 -0.00543240360717
265022500 0.858141213874 -0.00519558215796
265040000 0.858237399033 -0.00528169325257
265057500 0.858158576148 -0.00481393536595
265075000 0.858264082359 -0.00498243400676
265092500 0.858011498397 -0.00481983841844
265110000 0.858323652425 -0.00490909998253
265127500 0.857982536137 -0.00481147729793
265145000 0.858019802059 -0.00479340565306
265162500 0.858272254954 -0.00447029714875
265180000 0.858195647571 -0.00476384395607
265197500 0.857955650107 -0.0050127726375
265215000 0.858078234913 -0.00460798862279
265232500 0.858154351308 -0.00451096346045
265250000 0.858134719135 -0.00454916392124
265267500 0.858225123431 -0.00454875978396
265285000 0.858220722606 -0.00443586538199
265302500 0.85808647404 -0.00457940521004
265320000 0.857823425071 -0.00438756312991
265337500 0.857751288616 -0.00411555461141
265355000 0.857762544464 -0.00410962595079
265372500 0.857924021576 -0.00430044151832
265390000 0.857858875665 -0.00412800296906
265407500 0.857896607342 -0.00415506800432
265425000 0.857655664644 -0.00399153231489
265442500 0.857786828615 -0.00424435745632
265460000 0.85802170502 -0.00412781795061
265477500 0.857962068594 -0.00403699811551
265495000 0.857575195086 -0.00400050215946
265512500 0.857713566506 -0.00412612615814
265530000 0.857659123115 -0.00419331387038
265547500 0.857595892139 -0.00393269517233
265565000 0.857593702586 -0.00383774364401
265582500 0.857526063052 -0.00407689730641
265600000 0.857628927193 -0.00412229073302
265617500 0.857590373524 -0.00394279074732
265635000 0.857303374088 -0.00369056114624
265652500 0.857563939709 -0.00358741060013
265670000 0.857309705727 -0.00357451512762
265687500 0.857276284363 -0.00337059595968
265705000 0.857346778074 -0.00341071856688
265722500 0.857412052407 -0.00329088977119
265740000 0.857730470434 -0.00351329315419
265757500 0.857490222242 -0.00317054165176
265775000 0.857285855396 -0.00318673071235
265792500 0.856991057783 -0.00317936895505
265810000 0.857020463174 -0.00343352703124
265827500 0.85668065477 -0.00297920853478
265845000 0.856890766835 -0.00309507586768
265862500 0.856795063557 -0.00297308777721
265880000 0.856718651588 -0.00311679177777
265897500 0.856983643478 -0.00294757496699
265915000 0.857087462454 -0.00254582058699
265932500 0.856959756523 -0.0024176277302
265950000 0.857007171226 -0.00249747595612
265967500 0.85712068415 -0.00251639945169
265985000 0.857045662273 -0.00233102288035
266002500 0.856969667677 -0.00219221240235
266020000 0.856728904143 -0.00220767231009
266037500 0.856920997498 -0.00223344006675
266055000 0.857082921133 -0.00226802591741
266072500 0.857046995984 -0.00217118255403
266090000 0.856967542246 -0.00194792271038
266107500 0.857303432095 -0.00202089001333
266125000 0.857346692333 -0.00176148241332
266142500 0.856967939571 -0.00186091382916
266160000 0.857460938545 -0.00170102009627
266177500 0.857481921277 -0.0019392242556
266195000 0.857284298383 -0.00163493448074
266212500 0.857215503445 -0.00163100335854
266230000 0.857341082869 -0.00171580740106
266247500 0.857087440601 -0.00186678306516
266265000 0.856972410603 -0.00154946827695
266282500 0.857146424138 -0.00178200527035
266300000 0.856813534614 -0.00161849125236
266317500 0.856646510444 -0.00148861232678
266335000 0.856899120645 -0.00165522453293
266352500 0.857205829202 -0.00149238786781
266370000 0.857250102709 -0.00118742559541
266387500 0.857080572819 -0.00142610170952
266405000 0.856948290769 -0.00139880048843
266422500 0.857073322796 -0.00116197456802
266440000 0.857169387686 -0.00116288253512
266457500 0.857235284885 -0.00110381306546
266475000 0.855997314179 -0.00108190140269
266492500 0.854786187671 -0.000934397210328
266510000 0.856519973831 -0.000796355015333
266527500 0.856754873245 -0.00100631616673
266545000 0.856919327143 -0.00101042898488
266562500 0.857120987356 -0.000486219879968
266580000 0.857243734258 -0.000496412326822
266597500 0.857262070672 -0.000606064601729
266615000 0.856568458091 -0.000506167408124
266632500 0.856864924191 -0.000406872779188
266650000 0.85692617407 -0.000362389973081
266667500 0.857094535042 -0.000357166781966
266685000 0.856770194895 -0.000357876776329
266702500 0.857012457812 -0.000155673065162
266720000 0.856974073323 -0.000359756243995
266737500 0.857164884073 0.000190097615384
266755000 0.857026912593 9.58746842119e-05
266772500 0.857056335093 0.000193033914132
266790000 0.856972384984 0.000370626319908
266807500 0.857279055256 0.000345694226696
266825000 0.857139285461 0.000427219400829
266842500 0.857038471206 0.000457254770958
266860000 0.857446389548 0.000236570237014
266877500 0.857265932233 0.000509665721506
266895000 0.857481100565 0.000732952297788
266912500 0.857140538805 0.000430801188339
266930000 0.857421492674 0.000631836857166
266947500 0.857551893027 0.000745567066019
266965000 0.857341810555 0.000680399463752
266982500 0.857213536172 0.000657034461877
267000000 0.857421753909 0.000813337764299
267017500 0.857624465033 0.00104744608705
267035000 0.857568133941 0.00112705380623
267052500 0.857520878094 0.00091396527469
267070000 0.857398411585 0.000897312882028
267087500 0.85776296208 0.00119677593921
267105000 0.857649756745 0.00139208565474
267122500 0.857041080437 0.00127388806212
267140000 0.85718350022 0.00102328891562
267157500 0.857390095768 0.00112285093024
267175000 0.857583775682 0.00119341646481
267192500 0.857543582239 0.00121227300096
267210000 0.856105629337 0.00102258506703
267227500 0.857473713171 0.00124676809505
267245000 0.85779956355 0.00146599749651
267262500 0.857642287623 0.00170470165494
267280000 0.857486047158 0.00144046241037
267297500 0.857300082955 0.0014899647851
267315000 0.857490878491 0.00179609328082
267332500 0.857487858488 0.0018967051331
267350000 0.857760903457 0.00183383928809
267367500 0.857449105343 0.00161300300598
267385000 0.857543917066 0.00188753057448
267402500 0.857620464454 0.00200873814601
267420000 0.857445817891 0.00190111362631
267437500 0.857389916583 0.0017654056015
267455000 0.857585136737 0.00240067110409
267472500 0.857634670702 0.00243695036457
267490000 0.857553802596 0.00255656657308
267507500 0.857579434404 0.00240417962548
267525000 0.857809961714 0.00267640126313
267542500 0.857949191688 0.002661061898
267560000 0.85780076051 0.00283722051802
267577500 0.857534699466 0.00277479435909
267595000 0.858175078927 0.00284613629536
267612500 0.85828641849 0.00294867804139
267630000 0.857773093326 0.00295601670605
267647500 0.857783682142 0.00300477696228
267665000 0.857829629848 0.00317451253505
267682500 0.85835053045 0.0033083299022
267700000 0.858005893359 0.00315854134832
267717500 0.857940559344 0.00304817283455
267735000 0.858308155337 0.00310904045026
267752500 0.858640379545 0.00321484828363
267770000 0.858536131115 0.00323695607579
267787500 0.858323281062 0.00314868702925
267805000 0.858501979075 0.00320638724589
267822500 0.858588456734 0.00334405285073
267840000 0.858694411647 0.00360457721134
267857500 0.858506465811 0.00341153984206
267875000 0.858241956319 0.00338619004434
267892500 0.858925855182 0.00349461493595
267910000 0.858552927557 0.00347999189758
267927500 0.858530207873 0.00347033582689
267945000 0.858290062971 0.00360829655045
267962500 0.858592459909 0.00396026689262
267980000 0.858752027271 0.00373701209576
267997500 0.858541741754 0.00388562099032
268015000 0.858339751691 0.00395636539236
268032500 0.858129646731 0.003907284988
268050000 0.858324395464 0.00402601595788
268067500 0.858063148434 0.00385785879681
268085000 0.858419012892 0.0038160439133
268102500 0.858528032982 0.00356611397712
268120000 0.858771755378 0.0039886460696
268137500 0.858646646318 0.00422293245419
268155000 0.858571052502 0.00426428690391
268172500 0.858359240251 0.00450026103824
268190000 0.858971025695 0.0045922150166
268207500 0.859198228322 0.00438792610665
268225000 0.858868881812 0.00445588843021
268242500 0.858628756665 0.0043424102815
268260000 0.85902416836 0.0046743406653
268277500 0.859306405762 0.00479176609389
268295000 0.859017123872 0.00485276981861
268312500 0.859009510887 0.00484675998131
268330000 0.859473967728 0.00484958506774
268347500 0.859165119143 0.00484227031385
268365000 0.859277572935 0.00497451359186
268382500 0.859399935469 0.00483273141379
268400000 0.859681439699 0.00494268403916
268417500 0.859839395021 0.0053128410278
268435000 0.85934449833 0.00505454542847
268452500 0.859224656773 0.00508807028491
268470000 0.859404480887 0.00505342942831
268487500 0.859937894472 0.00512767413631
268505000 0.859689130428 0.0049315717907
268522500 0.859537988597 0.00504336855281
268540000 0.859694236053 0.00503927113817
268557500 0.859892258629 0.00529856980398
268575000 0.860041536044 0.00538607852185
268592500 0.860132623944 0.00544733908145
268610000 0.859735690345 0.00538474226187
268627500 0.860274205959 0.00539089878951
268645000 0.860149153308 0.00574022487119
268662500 0.859815392277 0.00566408759579
268680000 0.860171125265 0.00553584277921
268697500 0.860405968291 0.00521031226547
268715000 0.860357505745 0.00557853623694
268732500 0.860137540576 0.00569190417676
268750000 0.860197612595 0.00556152943936
268767500 0.860184940985 0.00546374341722
268785000 0.860065612523 0.00538547529386
268802500 0.860679633607 0.00573868021727
268820000 0.860560595671 0.00592593655316
268837500 0.860632957346 0.00582155340644
268855000 0.860103922104 0.00592624576514
268872500 0.860025145696 0.00564907971638
268890000 0.860153215913 0.00563474862261
268907500 0.8604341752 0.00591858339302
268925000 0.860191931276 0.00604779626763
268942500 0.860638186478 0.00595640812442
268960000 0.860314244147 0.00618863064538
268977500 0.860284181236 0.00643174940823
268995000 0.860224995365 0.00642564085962
269012500 0.860530795766 0.00631549026721
269030000 0.860752953605 0.00627935980883
269047500 0.860815982759 0.00646052503042
269065000 0.860743601859 0.00645891634086
269082500 0.861093857655 0.00643659622988
269100000 0.861211233429 0.0066147868928
269117500 0.86132930355 0.00650901044644
269135000 0.860785707633 0.00660991465016
269152500 0.86108554221 0.00673208384848
269170000 0.861301459926 0.00662702265013
269187500 0.861551717391 0.00690979375532
269205000 0.861246563718 0.00707453300905
269222500 0.861096794083 0.00702420149717
269240000 0.861374021809 0.00673335976062
269257500 0.861490683383 0.00660110516748
269275000 0.861760393131 0.00684270211736
269292500 0.861447604012 0.00699674262351
269310000 0.861895417626 0.00678111223085
269327500 0.862101159689 0.00693218513693
269345000 0.86168097176 0.00705328271151
269362500 0.86155380026 0.007137040635
269380000 0.861691191562 0.00714048210808
269397500 0.861562578575 0.00699012599085
269415000 0.861827094023 0.00707634820249
269432500 0.861550232232 0.0072163658873
269450000 0.861838960381 0.00718058205314
269467500 0.862243652361 0.00694385838948
269485000 0.862125338505 0.0070744001278
269502500 0.862074897205 0.00741758123318
269520000 0.86204172827 0.00741644333803
269537500 0.862221674047 0.0071065989048
269555000 0.862141084496 0.00709120836265
269572500 0.862002455587 0.00754510102558
269590000 0.862498212263 0.00759124396565
269607500 0.862564171045 0.00714469746347
269625000 0.86243107766 0.00747960509521
269642500 0.862276423934 0.00768660283154
269660000 0.861855701613 0.00808786114149
269677500 0.862283749315 0.00746010070579
269695000 0.862370620835 0.00741782096125
269712500 0.862084466159 0.00741105270179
269730000 0.862362243392 0.00805702365718
269747500 0.862567713218 0.00765033189018
269765000 0.862615724617 0.00781035662624
269782500 0.862870259553 0.00777986346053
269800000 0.862597250382 0.00823470681479
269817500 0.862936718289 0.00817121205922
269835000 0.863037048752 0.00800147352674
269852500 0.862749813726 0.00785482254406
269870000 0.862643048482 0.00822733248233
269887500 0.862702860654 0.00824427778775
269905000 0.862747286669 0.00829065641474
269922500 0.863107676515 0.00833065149041
269940000 0.863328111567 0.00851879927536
269957500 0.86312548924 0.00827030184849
269975000 0.863385385699 0.00807412670588
269992500 0.862958556449 0.00828116636872
270010000 0.862931704722 0.00859906165027
270027500 0.863215714241 0.00861114392219
270045000 0.863327923722 0.00842983731387
270062500 0.863517783212 0.00838864582207
270080000 0.863621114224 0.00834132911131
270097500 0.863642446097 0.00878256052675
270115000 0.863936789689 0.00851332303106
270132500 0.864132411836 0.00856834941435
270150000 0.863763921767 0.0086151359004
270167500 0.863514496882 0.00863896377489
270185000 0.863931105285 0.00820973817805
270202500 0.864332811335 0.00815072383311
270220000 0.864377495856 0.00851130749601
270237500 0.864217966722 0.00868478497076
270255000 0.864088354919 0.00851492438132
270272500 0.864166366208 0.00854485063548
270290000 0.864829232092 0.00828612042046
270307500 0.86443878059 0.00887816500561
270325000 0.864361563287 0.00853806363185
270342500 0.864178709978 0.00833620524485
270360000 0.864232901613 0.00858736622042
270377500 0.864487450662 0.00883347103976
270395000 0.864449829504 0.00873696634844
270412500 0.86432994048 0.00860153911659
270430000 0.864332753142 0.00885185557694
270447500 0.863949947013 0.00896115196152
270465000 0.864352604507 0.00919785245869
270482500 0.864752846041 0.00895035812975
270500000 0.864979025737 0.00922619605309
270517500 0.864842985826 0.00919693304777
270535000 0.864626088043 0.00914910015381
270552500 0.86478891167 0.00927980981271
270570000 0.8649721277 0.00957766234892
270587500 0.864925516579 0.0094949727605
270605000 0.864991140861 0.00958433168471
270622500 0.865047063095 0.00981811404692
270640000 0.864947346874 0.00968853843013
270657500 0.864837338574 0.00939323631777
270675000 0.864826388765 0.00989415696799
270692500 0.865037315303 0.00984696824193
270710000 0.865278362425 0.00988327696169
270727500 0.865584336578 0.00978673733933
270745000 0.865559637742 0.00988805392289
270762500 0.865612278246 0.00994514770633
270780000 0.865758685382 0.00989600840796
270797500 0.865738834312 0.00997807775719
270815000 0.865757420342 0.00997972826203
270832500 0.865770655703 0.00980592219548
270850000 0.86583975342 0.00995356962433
270867500 0.865912651166 0.00976535799114
270885000 0.865959229767 0.00988335543939
270902500 0.86610330217 0.00966594132976
270920000 0.866214307505 0.0102950551858
270937500 0.866402772838 0.0099682482738
270955000 0.866420109913 0.00972260520216
270972500 0.866558343339 0.00973942162453
270990000 0.866338504379 0.00985053358203
271007500 0.866485219528 0.00985308244592
271025000 0.866438759547 0.00989520711144
271042500 0.866137709724 0.0101030289767
271060000 0.866547547196 0.0101859864889
271077500 0.866528214631 0.0103366354693
271095000 0.866566655936 0.0100927946281
271112500 0.86685437051 0.0100171491529
271130000 0.86584350316 0.0110846517881
271147500 0.866816375064 0.0102941153967
271165000 0.866795798017 0.0101004114392
271182500 0.866766428346 0.0103705004212
271200000 0.86663975763 0.0103483192367
271217500 0.866838039089 0.0104142019528
271235000 0.866959680703 0.0102853360444
271252500 0.866657317686 0.010372638875
271270000 0.866966243091 0.0105098756242
271287500 0.867391109533 0.0105431580902
271305000 0.867217674538 0.0105814121487
271322500 0.867083248437 0.0107091804751
271340000 0.867085517657 0.0107907332724
271357500 0.867183139123 0.0108159983061
271375000 0.867682150149 0.010476252756
271392500 0.867575706707 0.0107028727135
271410000 0.867314082844 0.0110375048829
271427500 0.867669568831 0.0110662287338
271445000 0.867509151749 0.011040000472
271462500 0.867789561514 0.0107885752192
271480000 0.868178651701 0.0110450775335
271497500 0.868236829699 0.0110612383879
271515000 0.868177599778 0.0107382842784
271532500 0.868002280998 0.0110792381812
271550000 0.86779378008 0.0112821143875
271567500 0.868037627582 0.0111976745776
271585000 0.868396549245 0.0108037361755
271602500 0.868486985467 0.0109440044447
271620000 0.868394422138 0.011070717727
271637500 0.867991574148 0.011067265792
271655000 0.868274260646 0.0112135261155
271672500 0.868401309002 0.0111168829551
271690000 0.868582447991 0.0110479406203
271707500 0.868812314974 0.0112963641776
271725000 0.868979451567 0.0113560333243
271742500 0.869152404989 0.010946352981
271760000 0.869372330512 0.0112124574707
271777500 0.869250980076 0.0111749328703
271795000 0.868969320558 0.0113937653175
271812500 0.868838207291 0.011491547077
271830000 0.868934215293 0.0113567771252
271847500 0.869160048945 0.0113747710224
271865000 0.869244915669 0.011326335153
271882500 0.869145911935 0.011316527785
271900000 0.869553302419 0.0112367098503
271917500 0.869189157306 0.0111549331296
271935000 0.869174635534 0.0112705253772
271952500 0.869163320013 0.0111933772633
271970000 0.869433545108 0.0114463025028
271987500 0.869446302846 0.0115523827322
272005000 0.86956501039 0.0111159656325
272022500 0.869483940872 0.0114514508367
272040000 0.86967379148 0.0115625979076
272057500 0.869538972139 0.0118442972535
272075000 0.8699066468 0.0118703232112
272092500 0.870014837188 0.0117947673788
272110000 0.869664207815 0.0117665587335
272127500 0.870027105604 0.0121442709768
272145000 0.869891250424 0.0118918599813
272162500 0.870384749687 0.0117388438116
272180000 0.870210988876 0.0119717091261
272197500 0.87033302672 0.0118547397037
272215000 0.870479111603 0.0117280372325
272232500 0.871107956503 0.0120340440676
272250000 0.870809779849 0.0120808329305
272267500 0.87057294791 0.0122687970608
272285000 0.870989815262 0.0123529297688
272302500 0.870950643823 0.0122144634841
272320000 0.870602349313 0.0119685419398
272337500 0.870588107522 0.0122314891928
272355000 0.871057291193 0.0121116794818
272372500 0.871175788811 0.0120441008166
272390000 0.871553258728 0.0122527003906
272407500 0.87128532734 0.0124628799936
272425000 0.871495772385 0.0122067471764
272442500 0.87122590797 0.0121843042621
272460000 0.871193043272 0.0121495994212
272477500 0.871371106865 0.0123949326933
272495000 0.87190322079 0.0123871550107
272512500 0.871354798574 0.0122844972864
272530000 0.871488914043 0.0121102996003
272547500 0.871342120494 0.0121389804133
272565000 0.871425551793 0.0122763433852
272582500 0.871783856822 0.0123730587973
272600000 0.871799614662 0.0124406912698
272617500 0.871870909902 0.0124801690541
272635000 0.871998910494 0.0126101568014
272652500 0.871933857828 0.0123828040223
272670000 0.872147132994 0.0123991816664
272687500 0.872113080899 0.0122870445948
272705000 0.872327773845 0.0124766764641
272722500 0.872451172805 0.0125617261845
272740000 0.872291285585 0.0126199698616
272757500 0.872168543779 0.0124790008161
272775000 0.872273812938 0.0127496485571
272792500 0.872238820158 0.0128230374392
272810000 0.872646850399 0.0126792387513
272827500 0.872614904192 0.0127372399779
272845000 0.872518686334 0.0129262994484
272862500 0.872414042484 0.0129712380159
272880000 0.872448241069 0.0130754743714
272897500 0.872721524643 0.0128169538561
272915000 0.87320187116 0.0129345116777
272932500 0.873415531528 0.0131006834671
272950000 0.873607324519 0.0130346096367
272967500 0.874455820897 0.0168195360535
272985000 0.870822399924 0.0252900947528
273002500 0.87417573472 0.016963073535
273020000 0.873396800967 0.0132195551499
273037500 0.873497459706 0.0132799784377
273055000 0.87359956796 0.0131880118503
273072500 0.873647538673 0.0132518864317
273090000 0.87410886132 0.0132914576376
273107500 0.874517034415 0.0134076387142
273125000 0.874374033893 0.0135395091114
273142500 0.874453694323 0.0133279596217
273160000 0.874476355865 0.0135512271534
273177500 0.874340347462 0.0134798577814
273195000 0.874476532415 0.0134170780251
273212500 0.874548259073 0.0131649383378
273230000 0.874664307795 0.0133256471677
273247500 0.874700503185 0.0132818091332
273265000 0.874821877186 0.0134096219225
273282500 0.875158475083 0.013525191114
273300000 0.875012547316 0.0135422574309
273317500 0.875267908834 0.0133613737737
273335000 0.875699045709 0.0131248450738
273352500 0.87519130956 0.0134751133298
273370000 0.874406099794 0.0133772786082
273387500 0.875203583454 0.0135363842239
273405000 0.875499820192 0.0134206852621
273422500 0.87556315731 0.0133728747982
273440000 0.875354185946 0.0137466707541
273457500 0.875380475155 0.0136201917851
273475000 0.875290028514 0.0136537901651
273492500 0.875678672889 0.0134757793734
273510000 0.875529730062 0.0134211779973
273527500 0.875744401994 0.0134554867523
273545000 0.875876188477 0.0133890964707
273562500 0.87627254708 0.0135505688086
273580000 0.876450658883 0.0138090095114
273597500 0.876322760436 0.0139184473373
273615000 0.875831129359 0.0140244023067
273632500 0.876223948166 0.0139929245596
273650000 0.876282041279 0.0138952392501
273667500 0.876192128918 0.0137619842455
273685000 0.876484509742 0.013909817979
273702500 0.87663132335 0.0140483309995
273720000 0.876792660052 0.0141491271375
273737500 0.876968698353 0.0140801079885
273755000 0.876872516485 0.0142646557579
273772500 0.877035709881 0.0142461025446
273790000 0.877092782787 0.0142917737948
273807500 0.877632015499 0.0143083801774
273825000 0.877536315662 0.0140847360559
273842500 0.877646692609 0.0141893862655
273860000 0.877722648263 0.0146209846364
273877500 0.877723561323 0.0144374096654
273895000 0.877686419697 0.0144466520163
273912500 0.877803271021 0.0145014468867
273930000 0.878093577005 0.0141897580597
273947500 0.877856928804 0.0143319209676
273965000 0.87776181393 0.0145063603448
273982500 0.878151262897 0.0142066026821
274000000 0.878608181816 0.0142512224787
274017500 0.878736547115 0.0140751076186
274035000 0.878595066236 0.0141509869487
274052500 0.87873590581 0.0141850349081
274070000 0.878629724835 0.0142981471876
274087500 0.878709618514 0.0144146285949
274105000 0.878960527834 0.014518711786
274122500 0.879219769721 0.0147092331002
274140000 0.879301955192 0.0150581600459
274157500 0.879143359027 0.014509102745
274175000 0.879132474354 0.0143387013819
274192500 0.879450197887 0.0142651036394
274210000 0.879516989902 0.0141051020423
274227500 0.879336983447 0.0144072654532
274245000 0.879303856657 0.0143104797361
274262500 0.879478560661 0.0143035590003
274280000 0.879658616699 0.0145191909811
274297500 0.87994043085 0.0145513385867
274315000 0.879923562004 0.0145394512834
274332500 0.880244918401 0.0143629371257
274350000 0.880228375997 0.0145440811441
274367500 0.880032424295 0.0147347082393
274385000 0.880446694546 0.0147876799647
274402500 0.880609946677 0.0146236153892
274420000 0.880691788887 0.0144611881496
274437500 0.880607934995 0.0145545875382
274455000 0.880364335934 0.0145314276246
274472500 0.880651147492 0.014679591741
274490000 0.880771683812 0.0148853481661
274507500 0.881158920274 0.014657980742
274525000 0.880950602328 0.0148612401074
274542500 0.881282382677 0.0148903816559
274560000 0.881628278255 0.0149145078557
274577500 0.881421292701 0.0149169435631
274595000 0.881348770628 0.0149723206027
274612500 0.87951750639 0.0148656290421
274630000 0.882152146446 0.014737948541
274647500 0.881945428488 0.0150054791765
274665000 0.882242657109 0.0151266423318
274682500 0.882460669502 0.0148998183068
274700000 0.882337103978 0.0147923159264
274717500 0.882409079944 0.014714066684
274735000 0.882414426599 0.0147263602141
274752500 0.882772064145 0.0147761982456
274770000 0.883204665159 0.0146149305807
274787500 0.883186585579 0.0148944073777
274805000 0.883403811012 0.0145937345356
274822500 0.883003262645 0.0144442340555
274840000 0.882428553626 0.0155790706719
274857500 0.882572132236 0.0159764009661
274875000 0.883515849762 0.0148772855144
274892500 0.883647091396 0.0146011051267
274910000 0.883158465482 0.0146367615527
274927500 0.883502012868 0.0144812961311
274945000 0.883905683173 0.0142879886665
274962500 0.883784322497 0.0146092276815
274980000 0.884037503277 0.0145274098965
274997500 0.884308523329 0.0143444690128
275015000 0.884033638596 0.0146342834693
275032500 0.883920588834 0.0145630369278
275050000 0.884408295777 0.014455692253
275067500 0.884064991577 0.0146835597519
275085000 0.884519385489 0.0147609937578
275102500 0.884564251982 0.0149690600557
275120000 0.884640386813 0.0147163525148
275137500 0.885078071656 0.0147057858209
275155000 0.884854893103 0.0144674815329
275172500 0.884710399457 0.0148177513562
275190000 0.885112615413 0.0147939474933
275207500 0.885026408314 0.0149210207784
275225000 0.885145885858 0.0148060418196
275242500 0.88519237871 0.0149766188004
275260000 0.885526653475 0.0151866610206
275277500 0.885679248455 0.0151637403282
275295000 0.885692764523 0.0150170624383
275312500 0.886320391121 0.0146684710893
275330000 0.885927119388 0.0146235978755
275347500 0.885807106493 0.0144907281402
275365000 0.886359047251 0.0144588118566
275382500 0.886466987145 0.0146217497268
275400000 0.88632024271 0.0146707994004
275417500 0.886604504783 0.0148257321089
275435000 0.88681492964 0.0148277064824
275452500 0.886937706065 0.014700278794
275470000 0.886807770701 0.0144673539299
275487500 0.886962783712 0.0143872562967
275505000 0.887346228627 0.0145019777542
275522500 0.887334266692 0.01458266547
275540000 0.887537608053 0.0144938979873
275557500 0.887834643928 0.0145477720095
275575000 0.887970929089 0.0141200417487
275592500 0.88751642089 0.0146845756021
275610000 0.888002337228 0.0141294368714
275627500 0.88804994067 0.014314095486
275645000 0.88818831915 0.0142207118739
275662500 0.887950863508 0.0142057731473
275680000 0.888366798735 0.0141952094806
275697500 0.888015539064 0.0143789814876
275715000 0.888324464562 0.014332124872
275732500 0.888780664671 0.014011240028
275750000 0.889100436333 0.0139432406099
275767500 0.889052904375 0.0136205291033
275785000 0.888881594942 0.0137041828178
275802500 0.888481345378 0.0137119933523
275820000 0.888886658615 0.0136750971781
275837500 0.889343349143 0.0138656358312
275855000 0.889068365982 0.0135860783238
275872500 0.889198195624 0.0138954865071
275890000 0.889484913438 0.0140822353683
275907500 0.889561384197 0.013827590806
275925000 0.889527353248 0.0138566021163
275942500 0.890241666401 0.0136642942012
275960000 0.88987069753 0.0139657195891
275977500 0.890008158037 0.0141494505797
275995000 0.89035988566 0.0138900579939
276012500 0.890668008295 0.0138565460283
276030000 0.890562312632 0.014104871827
276047500 0.890651231511 0.0137639434496
276065000 0.890701651893 0.0138125344821
276082500 0.89072771811 0.0138441878659
276100000 0.891044736493 0.0139607588693
276117500 0.891262381866 0.0138921050959
276135000 0.89140373837 0.0138211954599
276152500 0.891148997319 0.01370691214
276170000 0.8915635908 0.0136327851689
276187500 0.89179816676 0.013684772115
276205000 0.892095115029 0.0133457769081
276222500 0.892001131396 0.0134948241609
276240000 0.892226473511 0.0134331846091
276257500 0.892417213178 0.013323532568
276275000 0.892220067139 0.0133198866033
276292500 0.892073025628 0.0136219533162
276310000 0.892428809544 0.013282795194
276327500 0.892554734542 0.0128963953262
276345000 0.892517752135 0.0131314477465
276362500 0.892675000874 0.0131050105438
276380000 0.893007315468 0.0131059732205
276397500 0.893061309244 0.0133027643675
276415000 0.893283392616 0.0130158854916
276432500 0.892986370512 0.0128810248199
276450000 0.892871560138 0.0127263160024
276467500 0.893237319177 0.0128308363134
276485000 0.893571636414 0.0126157840767
276502500 0.893903029697 0.0123448407091
276520000 0.893515875961 0.0127475340368
276537500 0.893520133363 0.0125550380717
276555000 0.893472150468 0.0125568618736
276572500 0.893599882366 0.0122254905261
276590000 0.893818520552 0.0124766972497
276607500 0.893792544785 0.0125298503365
276625000 0.894107800075 0.0123790506756
276642500 0.8941034655 0.0123124087234
276660000 0.894102968897 0.0122056867513
276677500 0.894254349153 0.012225639521
276695000 0.894897116956 0.012490259428
276712500 0.89458221119 0.0124975386306
276730000 0.894785788406 0.0121620198465
276747500 0.894886571922 0.0123794756869
276765000 0.895161071881 0.012210089576
276782500 0.895252500688 0.012095062944
276800000 0.895556357964 0.0122711304812
276817500 0.895675851171 0.0121634569869
276835000 0.895694177129 0.0120056778398
276852500 0.895553803289 0.0118015759387
276870000 0.89581801869 0.011850872671
276887500 0.895899118855 0.0117693791438
276905000 0.896452117011 0.0117566792947
276922500 0.896635911875 0.0118444636122
276940000 0.89648295012 0.011873873818
276957500 0.896680707027 0.0115240209915
276975000 0.896700135566 0.011519227957
276992500 0.896573139231 0.0114531009937
277010000 0.896927090224 0.0112349077657
277027500 0.896936612211 0.0116375524886
277045000 0.897397757913 0.011460920824
277062500 0.89780954362 0.011622842906
277080000 0.897389421857 0.0112799394491
277097500 0.897652817504 0.0113505292156
277115000 0.897626230747 0.0109926021275
277132500 0.897624563236 0.0112172085666
277150000 0.897776415643 0.010896765241
277167500 0.897615518965 0.01043044617
277185000 0.897588247021 0.010572428181
277202500 0.897854823653 0.010757774532
277220000 0.898051319212 0.0105025469399
277237500 0.89851345559 0.0103191093676
277255000 0.898214526431 0.0104648987585
277272500 0.898121721295 0.0103025364121
277290000 0.898515439847 0.0100979368141
277307500 0.898614006864 0.0100045561723
277325000 0.899016662828 0.0101061057213
277342500 0.898739786316 0.00999542443464
277360000 0.898594181577 0.0099923003179
277377500 0.898711405049 0.0101120284216
277395000 0.898828082336 0.0101994691694
277412500 0.898965897019 0.0102928874901
277430000 0.899010180158 0.00982607554857
277447500 0.899114370616 0.00982868001096
277465000 0.898811769353 0.00990489996142
277482500 0.899442953339 0.0100846393068
277500000 0.899911216249 0.00968467264623
277517500 0.899398515308 0.00974724360589
277535000 0.899664828497 0.00954911205209
277552500 0.900208580495 0.00962853306961
277570000 0.900005389895 0.00950342802437
277587500 0.899982242565 0.00965528829802
277605000 0.900329323725 0.00927631691228
277622500 0.900509280866 0.00900247686464
277640000 0.900600242257 0.00937136501412
277657500 0.900179805137 0.00916511777034
277675000 0.900568895822 0.00919769789513
277692500 0.900739322688 0.0091869915795
277710000 0.901337676796 0.00908214015238
277727500 0.901091483464 0.0091822374526
277745000 0.901317662944 0.00891229571541
277762500 0.900930262504 0.00887636103059
277780000 0.90109383747 0.00840678345489
277797500 0.901455469349 0.00861949101345
277815000 0.901425543039 0.00875240517724
277832500 0.901485763485 0.00834412653182
277850000 0.90162567531 0.00813098588264
277867500 0.901858033876 0.00820235955812
277885000 0.902025103227 0.00818278862758
277902500 0.901927698436 0.00779077770268
277920000 0.902211035897 0.00790530286344
277937500 0.902625508071 0.00800402229525
277955000 0.901929932362 0.00805430403987
277972500 0.902069447999 0.00773824213194
277990000 0.902216181956 0.0076164624163
278007500 0.902541851177 0.00770366450371
278025000 0.902459208324 0.00755007774651
278042500 0.902815103118 0.00708935690102
278060000 0.903083164633 0.00726358140735
278077500 0.902820873984 0.00756111483594
278095000 0.903125312256 0.00739110936833
278112500 0.903032760552 0.00735009296754
278130000 0.903223911313 0.00702940291402
278147500 0.902859388994 0.00680075411721
278165000 0.902968255959 0.00680896803893
278182500 0.903089221271 0.00678583307649
278200000 0.903134672098 0.00696856694021
278217500 0.903368059597 0.00669564808526
278235000 0.903349834412 0.00678205634488
278252500 0.903484578929 0.00651404359955
278270000 0.903801882398 0.00690938576258
278287500 0.903803073993 0.00678465843012
278305000 0.90374694625 0.0065240498536
278322500 0.903579531662 0.00651366126421
278340000 0.90386699923 0.00658811697028
278357500 0.904082715187 0.00616492150085
278375000 0.904071540853 0.00641365935932
278392500 0.904658916583 0.00650523610137
278410000 0.904864172624 0.00617236388226
278427500 0.904921845482 0.0060368517046
278445000 0.905302787426 0.00600137979879
278462500 0.90517492869 0.00585451084693
278480000 0.90464504854 0.00597351184769
278497500 0.9047972685 0.00569697737167
278515000 0.905136276866 0.00556893503826
278532500 0.905152278292 0.00595017852248
278550000 0.905412945467 0.00571962040382
278567500 0.905919353137 0.00542475975215
278585000 0.906001072963 0.005682532249
278602500 0.905822293065 0.00518549966561
278620000 0.905824301869 0.00500790767701
278637500 0.905861988644 0.00509512000082
278655000 0.905886898806 0.00487727306461
278672500 0.905608397806 0.00473144875166
278690000 0.906334557886 0.00452081369091
278707500 0.906449981252 0.00493477979641
278725000 0.906583867411 0.00436921856015
278742500 0.90636812148 0.00429320703249
278760000 0.905908396862 0.0043762987792
278777500 0.906216081302 0.00434215196035
278795000 0.906576829041 0.00437896457113
278812500 0.906616729742 0.00429063748398
278830000 0.906273325793 0.0042553190066
278847500 0.906143488359 0.00363826900367
278865000 0.906674181069 0.00354701770625
278882500 0.906803916376 0.00361698879341
278900000 0.906634669913 0.00365436351785
278917500 0.906948963668 0.00373974847654
278935000 0.906554122316 0.00372011149027
278952500 0.906877707164 0.00369279472836
278970000 0.907017559854 0.00401069604983
278987500 0.907012569928 0.00356863227792
279005000 0.907132613103 0.00348786035282
279022500 0.907200153516 0.00339427204911
279040000 0.907311449962 0.00338209777187
279057500 0.907236564134 0.00322072143447
279075000 0.907256656257 0.00341627296362
279092500 0.907363902784 0.00327585879323
279110000 0.907547599148 0.00316767320891
279127500 0.908010592588 0.00301895579275
279145000 0.908270574099 0.00293393875
279162500 0.908111884311 0.00291157975425
279180000 0.907978423457 0.00279580847975
279197500 0.908215847484 0.00275494478816
279215000 0.908171637975 0.00257967107773
279232500 0.908395731842 0.00236480456968
279250000 0.909106027749 0.00231772064951
279267500 0.908903067022 0.00248678574145
279285000 0.908819538614 0.00237446632771
279302500 0.908702411156 0.0023296976814
279320000 0.908894950533 0.00224173609795
279337500 0.908915634314 0.00162039440933
279355000 0.90911350957 0.00202985664518
279372500 0.90913637629 0.00189638873869
279390000 0.909051914598 0.00201849156454
279407500 0.909241714972 0.00184027424313
279425000 0.909486676133 0.0014302886159
279442500 0.909406809509 0.0014718016801
279460000 0.909620700505 0.00135326643521
279477500 0.909777714212 0.00108051645603
279495000 0.90997747735 0.0008759037665
279512500 0.909844375528 0.000715237172048
279530000 0.909968932217 0.000844063631536
279547500 0.90998928806 0.000679145454553
279565000 0.90952398143 0.000671962427736
279582500 0.909942797757 0.00054885546392
279600000 0.910032081603 0.000729593094027
279617500 0.910186795629 0.000527036787936
279635000 0.90995691174 0.000506521399628
279652500 0.910256608131 0.000340241409819
279670000 0.910142039865 0.000447015016971
279687500 0.909984572386 0.000210265852398
279705000 0.910365558659 0.00013994924423
279722500 0.910317650485 0.0001192400204
279740000 0.910521173236 3.21150149838e-05
279757500 0.91076578156 -0.000308923538093
279775000 0.910921489719 -0.000358811619743
279792500 0.9107695319 -0.000342295969834
279810000 0.910650526077 -0.000368003997123
279827500 0.910435692068 -0.000660570316908
279845000 0.910737920441 -0.000266395369081
279862500 0.911117201323 -0.000325845095935
279880000 0.910965023684 -0.000713395995153
279897500 0.910877566867 -0.000700523652952
279915000 0.911183343348 -0.000612120784551
279932500 0.910957364961 -0.000709699301851
279950000 0.911204794495 -0.000853641686065
279967500 0.910887415702 -0.00103491595237
279985000 0.91149503051 -0.00100592541074
280002500 0.912037208053 -0.00140789604724
280020000 0.911842077654 -0.00132830914878
280037500 0.911918124924 -0.00169142445768
280055000 0.912239518399 -0.00146169227731
280072500 0.911916707225 -0.00160033602009
280090000 0.911744794304 -0.00179367164479
280107500 0.911832212556 -0.0015413310719
280125000 0.911988717242 -0.00194538076498
280142500 0.912188766172 -0.00215286582284
280160000 0.91263283417 -0.00200692290899
280177500 0.91273050744 -0.00203785016062
280195000 0.912684675551 -0.00207020371989
280212500 0.912755151653 -0.0021294375733
280230000 0.912506488438 -0.00222492558516
280247500 0.912661957444 -0.00278112180774
280265000 0.912808356646 -0.00290391258745
280282500 0.913053124663 -0.00310363563715
280300000 0.91288104661 -0.00327460713472
280317500 0.912347212952 -0.00327081991377
280335000 0.912966394345 -0.00332859275326
280352500 0.913010953831 -0.00333973953852
280370000 0.912758990112 -0.00332404894486
280387500 0.912867750315 -0.00365370873754
280405000 0.912591124875 -0.00335355599528
280422500 0.913065166729 -0.00348767750297
280440000 0.913209654337 -0.0036988054469
280457500 0.913460845361 -0.00360868644972
280475000 0.913065837554 -0.0035071681482
280492500 0.913032670266 -0.00362661585942
280510000 0.913195579197 -0.00326466138035
280527500 0.913501550746 -0.00380206473992
280545000 0.913240214838 -0.00416105691068
280562500 0.913382946593 -0.00428350117676
280580000 0.913598288843 -0.00378589875209
280597500 0.914135840943 -0.00370507128503
280615000 0.913979215758 -0.00398970114494
280632500 0.913890344839 -0.00426346017212
280650000 0.914295044644 -0.00442503807308
280667500 0.914153156351 -0.00455686271148
280685000 0.914150637251 -0.00481625579852
280702500 0.914229445086 -0.00487917334571
280720000 0.914047435676 -0.00493533027553
280737500 0.914303178148 -0.00490575868366
280755000 0.914867502962 -0.00524138267048
280772500 0.91459957377 -0.00506450554975
280790000 0.914899331054 -0.00516321808139
280807500 0.914925595944 -0.00516327470069
280825000 0.915134691359 -0.00554362571093
280842500 0.915032822333 -0.0056883943031
280860000 0.914813550816 -0.00585283393084
280877500 0.914916909169 -0.00569928399282
280895000 0.915079485117 -0.00571381976803
280912500 0.915042863859 -0.00612702162041
280930000 0.915010151512 -0.00601881088105
280947500 0.915188982393 -0.00599170910524
280965000 0.914116193793 -0.0062270808033
280982500 0.915166323965 -0.00646494909788
281000000 0.915125436918 -0.00665311437352
281017500 0.915282488174 -0.00643985531905
281035000 0.914966121917 -0.00680100378539
281052500 0.915238654052 -0.00698559040907
281070000 0.915709203547 -0.00697726683113
281087500 0.915526772073 -0.0072709855747
281105000 0.915775035866 -0.00716743079575
281122500 0.916047285199 -0.00726928804619
281140000 0.91567963362 -0.00699046602923
281157500 0.915586910202 -0.00745903698609
281175000 0.915723973915 -0.00765419461243
281192500 0.915388142117 -0.00745149708113
281210000 0.91547481514 -0.00747298431299
281227500 0.915239196617 -0.00753443926411
281245000 0.915899761483 -0.00784047303128
281262500 0.915610467664 -0.00761817545795
281280000 0.915681981528 -0.00814302143351
281297500 0.915658779906 -0.00807307669563
281315000 0.91575970433 -0.00802246951468
281332500 0.91569170198 -0.00783316157012
281350000 0.916181606036 -0.00801732047973
281367500 0.916294236335 -0.00826034585447
281385000 0.916109688476 -0.00840014668025
281402500 0.91644969705 -0.00847146872186
281420000 0.916528110689 -0.0084326263474
281437500 0.916410607243 -0.0083219473985
281455000 0.916437764581 -0.00863311158805
281472500 0.916675066982 -0.00908712449553
281490000 0.916541469763 -0.00908704132689
281507500 0.916528692934 -0.00890921494253
281525000 0.916814824893 -0.00932981460467
281542500 0.916813796305 -0.0091269818877
281560000 0.916800206376 -0.00939847914715
281577500 0.917183009095 -0.00917439910973
281595000 0.917015023878 -0.0095147078335
281612500 0.917003605526 -0.00950476380038
281630000 0.916942781355 -0.00966572894251
281647500 0.917491566479 -0.0100247105156
281665000 0.917558461606 -0.0103835399942
281682500 0.917292737285 -0.0102212142029
281700000 0.917382575053 -0.0103509529006
281717500 0.917788446315 -0.0106365378362
281735000 0.917628851503 -0.0104415417112
281752500 0.917233787596 -0.0104456593991
281770000 0.917380206463 -0.0108396332796
281787500 0.916847622273 -0.0110609095842
281805000 0.917432943275 -0.0110353530036
281822500 0.917552543657 -0.0106516221086
281840000 0.91801167247 -0.0113437232103
281857500 0.917403159238 -0.0111630332573
281875000 0.917489652044 -0.0114223191539
281892500 0.917714462163 -0.0113431259901
281910000 0.91930809819 -0.010896245909
281927500 0.921051832949 -0.0101560670426
281945000 0.918831113429 -0.0112014592362
281962500 0.917581031636 -0.0119262719945
281980000 0.917717356208 -0.011988125258
281997500 0.917780911932 -0.0118719279603
282015000 0.917992065268 -0.0117990680566
282032500 0.918441671087 -0.0119997903997
282050000 0.918064606104 -0.0123248745362
282067500 0.917678616817 -0.0123294686405
282085000 0.918046413321 -0.0120346676236
282102500 0.918201819413 -0.0120666175196
282120000 0.918237170041 -0.0121333867047
282137500 0.918512853033 -0.0125194611746
282155000 0.918299202531 -0.0123882013371
282172500 0.918623093241 -0.0126068731481
282190000 0.918852599634 -0.0127725183813
282207500 0.917972506947 -0.0128390001653
282225000 0.918138513145 -0.0128972630738
282242500 0.919116212468 -0.0127239718078
282260000 0.918901829624 -0.0131351122745
282277500 0.919090737829 -0.0133480166554
282295000 0.918821183384 -0.0134301116008
282312500 0.919403367531 -0.0133378625698
282330000 0.919243427974 -0.0135272170665
282347500 0.919052572924 -0.0134955053332
282365000 0.918922688571 -0.013884299629
282382500 0.919054540111 -0.0139932676165
282400000 0.9193905235 -0.0141903050163
282417500 0.919239812947 -0.0142357626312
282435000 0.919049505488 -0.0143849391909
282452500 0.918984980372 -0.0146642185122
282470000 0.919700825764 -0.0149287968978
282487500 0.919177114823 -0.0148811643274
282505000 0.91900928713 -0.0149479580881
282522500 0.919351201827 -0.0150540718833
282540000 0.91949538723 -0.0154631473787
282557500 0.919506517011 -0.0153046747257
282575000 0.919456966985 -0.0154058162527
282592500 0.91927977248 -0.0151424658424
282610000 0.919032765424 -0.0152488244917
282627500 0.918993368216 -0.0155112671932
282645000 0.919376428889 -0.0155862859815
282662500 0.919386908466 -0.0157906248097
282680000 0.919387249829 -0.0156481689112
282697500 0.919631756126 -0.0158205283778
282715000 0.919254382382 -0.0155153986885
282732500 0.919163070635 -0.015606358023
282750000 0.919155180207 -0.0160862837003
282767500 0.919488942124 -0.0160193606395
282785000 0.91959321654 -0.0158847730031
282802500 0.91933194835 -0.0160902613948
282820000 0.919386085954 -0.0160443919712
282837500 0.919596403507 -0.0161939744833
282855000 0.919532678308 -0.0169301793274
282872500 0.919606698659 -0.0170748221454
282890000 0.919567502985 -0.0168650349242
282907500 0.919703791963 -0.0167570330609
282925000 0.919438440249 -0.0168287324208
282942500 0.919844980029 -0.016734518945
282960000 0.919633873034 -0.0169687566579
282977500 0.920034570748 -0.017137121097
282995000 0.920094434872 -0.0169350275496
283012500 0.920089749138 -0.0171540321484
283030000 0.920136790883 -0.0174239813479
283047500 0.919898682765 -0.017670861552
283065000 0.920249313461 -0.0177260508044
283082500 0.920157504886 -0.0179759954973
283100000 0.919817959877 -0.0178687875051
283117500 0.919908727771 -0.0178002609155
283135000 0.920454264543 -0.0179397143957
283152500 0.920325147467 -0.0180948862205
283170000 0.920062687252 -0.0182888911114
283187500 0.920476276503 -0.0184038570341
283205000 0.920772974783 -0.0185089715038
283222500 0.920869337131 -0.0188232053991
283240000 0.920831756968 -0.0188786983568
283257500 0.921108860153 -0.0188731209574
283275000 0.92061204926 -0.0193744276728
283292500 0.920808341143 -0.0192196900274
283310000 0.9203031184 -0.0192948691049
283327500 0.920705085027 -0.0191808211378
283345000 0.920694294061 -0.0192966674789
283362500 0.920123062735 -0.0193023135714
283380000 0.920690311825 -0.0198035401093
283397500 0.920519441073 -0.0196854378358
283415000 0.920456032317 -0.019619677448
283432500 0.920169524742 -0.0196401653552
283450000 0.92032471886 -0.0199168603779
283467500 0.920653614965 -0.0199341207041
283485000 0.920621091515 -0.0199459561603
283502500 0.9205912953 -0.0204407107693
283520000 0.920943801969 -0.0204796999752
283537500 0.921321379515 -0.0204566753857
283555000 0.920831128035 -0.0205431360285
283572500 0.92076970655 -0.020468723518
283590000 0.921256595326 -0.0200371763844
283607500 0.920893692576 -0.0205253622285
283625000 0.920508529503 -0.0207754771685
283642500 0.921410718298 -0.020784397124
283660000 0.921261472638 -0.0206677595056
283677500 0.921260602792 -0.0205751767411
283695000 0.921332750498 -0.0207674928222
283712500 0.921444782402 -0.0207815275176
283730000 0.920837890625 -0.0206669460876
283747500 0.920967015201 -0.0207546063866
283765000 0.921368629425 -0.0210774570717
283782500 0.921491883392 -0.021476298526
283800000 0.921124622552 -0.0213426962985
283817500 0.921003134337 -0.021302899505
283835000 0.921176275139 -0.021558165188
283852500 0.921689505974 -0.0216995921301
283870000 0.921996218296 -0.0218915020958
283887500 0.922283844249 -0.0218053850149
283905000 0.922191184885 -0.0215104021755
283922500 0.921632448968 -0.0216786307007
283940000 0.921831482642 -0.0223866542005
283957500 0.921741703209 -0.0222725302386
283975000 0.922014726289 -0.0223548885335
283992500 0.922086342456 -0.0221380928335
284010000 0.923342884969 -0.0229253551828
284027500 0.921984444308 -0.0229218444492
284045000 0.921801234934 -0.0229196305384
284062500 0.921988264078 -0.0227689330125
284080000 0.922288578284 -0.0228455802796
284097500 0.921873133495 -0.0231072010778
284115000 0.921455948316 -0.0232073492016
284132500 0.921843168067 -0.0235228756366
284150000 0.922135504195 -0.0235449898468
284167500 0.921579500917 -0.0232504713913
284185000 0.921918245099 -0.0233324667919
284202500 0.921669628594 -0.023443237403
284220000 0.921534548425 -0.0235616617251
284237500 0.92189243461 -0.0238981808643
284255000 0.922029227586 -0.0239774650997
284272500 0.921710184264 -0.0238979980883
284290000 0.921510370462 -0.0236659147119
284307500 0.921786251978 -0.0240915685863
284325000 0.921678870228 -0.0242153210844
284342500 0.921838450404 -0.0242316885081
284360000 0.921710702876 -0.0239688627321
284377500 0.92201185161 -0.0243490706077
284395000 0.92224681673 -0.0247122185616
284412500 0.922153415108 -0.0246032609239
284430000 0.922083627418 -0.0245966402653
284447500 0.921906382615 -0.0249301949061
284465000 0.922474801544 -0.0248538108698
284482500 0.922245738567 -0.025039603005
284500000 0.92237454082 -0.0250691049662
284517500 0.922503819029 -0.0252150094344
284535000 0.92251021966 -0.0252267724115
284552500 0.922385882956 -0.0250244983508
284570000 0.922110689434 -0.0252256317653
284587500 0.922433151384 -0.0252816603278
284605000 0.922394519451 -0.0255495841637
284622500 0.922438023311 -0.0252197220203
284640000 0.922547787647 -0.0255455375802
284657500 0.922613199899 -0.0256179481857
284675000 0.922625502718 -0.0257145333686
284692500 0.922210996632 -0.0256647075324
284710000 0.922110587556 -0.0257764573348
284727500 0.922780059326 -0.0260510611046
284745000 0.923198731027 -0.0260843690764
284762500 0.92287354754 -0.0261774619184
284780000 0.922964321986 -0.0261926579847
284797500 0.922944751616 -0.0263654158948
284815000 0.922647980204 -0.0264079949961
284832500 0.922576490877 -0.0268417942549
284850000 0.922429070843 -0.0271004405849
284867500 0.922831670148 -0.0269207349342
284885000 0.922939652644 -0.0273528500709
284902500 0.922562731716 -0.027429920056
284920000 0.922785025909 -0.027207008744
284937500 0.922513270874 -0.0273260592347
284955000 0.922598061231 -0.0274024858366
284972500 0.923009566224 -0.0276096977639
284990000 0.922812037771 -0.0275958754121
285007500 0.922279463138 -0.0280481000467
285025000 0.922473968759 -0.0277423050395
285042500 0.922518951742 -0.0278064701163
285060000 0.921948916601 -0.0282791893249
285077500 0.922274482113 -0.0277616242045
285095000 0.92247206038 -0.0276979424166
285112500 0.92281599077 -0.0282195226943
285130000 0.922924792028 -0.0280707874588
285147500 0.922915488573 -0.0281444401758
285165000 0.92270490911 -0.0280536227476
285182500 0.923035295135 -0.0280796227985
285200000 0.922837830779 -0.0282220763373
285217500 0.922838964774 -0.0281841952116
285235000 0.922844497504 -0.0281182141479
285252500 0.923026223493 -0.0283284999004
285270000 0.923266032095 -0.0288318219189
285287500 0.923196219338 -0.0288903729909
285305000 0.922985459376 -0.0287342306977
285322500 0.923242477542 -0.0288311256244
285340000 0.923410822157 -0.0288504537366
285357500 0.923709634301 -0.0288888132155
285375000 0.923438631723 -0.0288924682149
285392500 0.922732281493 -0.028926528712
285410000 0.922626886891 -0.0294405634488
285427500 0.922598362573 -0.0296458347276
285445000 0.922868056729 -0.0294912900167
285462500 0.923426281967 -0.0298361932223
285480000 0.9237327395 -0.029601864404
285497500 0.923816551432 -0.0297896934734
285515000 0.923951590696 -0.0297912693353
285532500 0.92402372615 -0.0300230347868
285550000 0.923710965992 -0.030429006596
285567500 0.923432776869 -0.0306019748661
285585000 0.923857849332 -0.0306562880469
285602500 0.92375131125 -0.0305153421292
285620000 0.923910023471 -0.0306729763552
285637500 0.923896764858 -0.0306804273207
285655000 0.923692217776 -0.0305025777691
285672500 0.923699757942 -0.0309497914263
285690000 0.923454639418 -0.0312614281809
285707500 0.923882734406 -0.0318662022176
285725000 0.924049359776 -0.0314296720827
285742500 0.923537307729 -0.0312601592798
285760000 0.923621255714 -0.0312929873472
285777500 0.923482563815 -0.0313247943912
285795000 0.923501371828 -0.0314439734219
285812500 0.923361209816 -0.0312283177455
285830000 0.923295190753 -0.0317438197268
285847500 0.923607770965 -0.0318784558403
285865000 0.924287970986 -0.0319884481749
285882500 0.923647430322 -0.0317232565074
285900000 0.923549464718 -0.0317135737382
285917500 0.924127391422 -0.0320524009471
285935000 0.924074292563 -0.0322730033005
285952500 0.923415609151 -0.032249773862
285970000 0.923891489872 -0.0320854422968
285987500 0.924283524485 -0.0320599266951
286005000 0.924219017881 -0.0322280393586
286022500 0.924032684746 -0.0326392823363
286040000 0.924055311968 -0.0327109962832
286057500 0.923436946716 -0.0324287778881
286075000 0.923427707035 -0.0327422461099
286092500 0.924078173604 -0.0329763963229
286110000 0.923854571336 -0.0329173242624
286127500 0.924278068975 -0.0333622036808
286145000 0.924058270659 -0.0330938010928
286162500 0.924034283293 -0.0330103043091
286180000 0.92391003186 -0.0331451960025
286197500 0.924105294315 -0.0331122894388
286215000 0.92388325683 -0.0327016745084
286232500 0.924376653618 -0.032984596044
286250000 0.924316217777 -0.0333792052192
286267500 0.924454199769 -0.0335717461821
286285000 0.924575330153 -0.0338405363529
286302500 0.924277585498 -0.0338954161798
286320000 0.923814677586 -0.0344195869951
286337500 0.923847699937 -0.0343056553166
286355000 0.924855727087 -0.0341831912931
286372500 0.924827800491 -0.0341070887745
286390000 0.924569068876 -0.0341825281009
286407500 0.924538049936 -0.0341385317162
286425000 0.924803562531 -0.0348079457361
286442500 0.924676754535 -0.0346862091841
286460000 0.92422757998 -0.0349553845319
286477500 0.923673238736 -0.0346233711573
286495000 0.923406622034 -0.0348298572081
286512500 0.92399903073 -0.0353036395732
286530000 0.924429784808 -0.0354931036189
286547500 0.924537612753 -0.0356897595897
286565000 0.924146687514 -0.0353373757196
286582500 0.925051046597 -0.0354518710804
286600000 0.924256694398 -0.0357932203651
286617500 0.923747780767 -0.0354034071002
286635000 0.92435448317 -0.0355554654784
286652500 0.924451500811 -0.0350924981045
286670000 0.924211105771 -0.0354832843727
286687500 0.924155807949 -0.035398770446
286705000 0.924247927085 -0.035464729022
286722500 0.924148406894 -0.0352899768088
286740000 0.924216179712 -0.0355042046522
286757500 0.924737257067 -0.0360675473182
286775000 0.92453920917 -0.0359853849765
286792500 0.92499585506 -0.0358268819543
286810000 0.924788924981 -0.0361976154641
286827500 0.924211799982 -0.0364626944739
286845000 0.924421701773 -0.0367158257051
286862500 0.924546805377 -0.036425002002
286880000 0.924469078444 -0.0364600065921
286897500 0.924271136128 -0.035875762379
286915000 0.92506998857 -0.036149635839
286932500 0.925204822588 -0.0368301685062
286950000 0.92516951431 -0.0367196395412
286967500 0.924605670422 -0.0369929378967
286985000 0.924224152263 -0.0370057789714
287002500 0.924573313726 -0.0369407563726
287020000 0.924749851894 -0.0371126741577
287037500 0.924929802892 -0.0373567802024
287055000 0.925001249244 -0.0374573116384
287072500 0.925025720824 -0.0378788997101
287090000 0.924935322048 -0.0374100124867
287107500 0.924719316535 -0.0375497876639
287125000 0.924599320546 -0.0373570375686
287142500 0.9246257285 -0.0377369744073
287160000 0.924864037609 -0.0374224897746
287177500 0.924902250668 -0.0376578198809
287195000 0.924925071481 -0.0376734212787
287212500 0.924889594427 -0.0379573099323
287230000 0.924689547649 -0.037906262535
287247500 0.924768748547 -0.0381676145522
287265000 0.924524963078 -0.0381746257963
287282500 0.92500471599 -0.038292012271
287300000 0.924721802883 -0.0383254096842
287317500 0.9248839997 -0.0386918658772
287335000 0.924756241144 -0.0385650842919
287352500 0.92480235234 -0.0384373721081
287370000 0.924863784527 -0.0384141256008
287387500 0.924770280403 -0.0386816371957
287405000 0.92491079602 -0.0386878236835
287422500 0.924476226361 -0.0384598501071
287440000 0.924851867579 -0.0388018359909
287457500 0.925150277153 -0.0391342255925
287475000 0.925006912596 -0.0387450651033
287492500 0.924968504423 -0.0394005964244
287510000 0.925042337651 -0.0394760024076
287527500 0.924527106074 -0.0392150202669
287545000 0.924789670545 -0.0393547851658
287562500 0.925120594017 -0.0395389299938
287580000 0.925249691123 -0.0392500413985
287597500 0.925419777124 -0.0395331648309
287615000 0.924519811675 -0.0393064685092
287632500 0.925615961219 -0.0395362493395
287650000 0.925485947311 -0.0398504813595
287667500 0.925149079482 -0.0394216166647
287685000 0.925330081528 -0.0396741980741
287702500 0.925296525359 -0.0395161224943
287720000 0.925074964591 -0.0398595120633
287737500 0.924859594381 -0.0402643740362
287755000 0.924989738002 -0.0403404725252
287772500 0.925432941926 -0.0403276905906
287790000 0.925874816028 -0.0404607141665
287807500 0.925447916124 -0.0403369624269
287825000 0.925679733155 -0.0404933274612
287842500 0.925034367387 -0.040964490283
287860000 0.925388345976 -0.0410402524204
287877500 0.925451018951 -0.0413194329245
287895000 0.925827218671 -0.0409033284366
287912500 0.925687608065 -0.0411475123594
287930000 0.925317730795 -0.041274709324
287947500 0.925726204781 -0.0411863589688
287965000 0.926035755627 -0.0412854869128
287982500 0.925671720383 -0.0416399579153
288000000 0.92558558138 -0.0418365970022
288017500 0.92507007795 -0.041853537002
288035000 0.925447260304 -0.0418065048001
288052500 0.925861035599 -0.0421372824997
288070000 0.925301038907 -0.0420967791996
288087500 0.925491578804 -0.0420513980411
288105000 0.925841751629 -0.0425229803263
288122500 0.925434059859 -0.0421626362954
288140000 0.925874611285 -0.0417679880611
288157500 0.925101679943 -0.0422579125439
288175000 0.925026584435 -0.0421285214696
288192500 0.925320530571 -0.0422080919986
288210000 0.925747081707 -0.0421769834371
288227500 0.925531328096 -0.0427861539741
288245000 0.925581363947 -0.042693496547
288262500 0.925323933289 -0.0424677805806
288280000 0.925039512525 -0.0423797892103
288297500 0.925084228069 -0.0424296664296
288315000 0.9254700084 -0.0426848427375
288332500 0.926113112987 -0.0426751583817
288350000 0.92580085538 -0.0426997948641
288367500 0.925823932453 -0.0429375194996
288385000 0.925448555195 -0.0432672948318
288402500 0.925957448604 -0.0432071051593
288420000 0.92596665586 -0.0432845299367
288437500 0.926022559755 -0.0430947758554
288455000 0.925887490812 -0.0431272411811
288472500 0.92596230815 -0.0433490706173
288490000 0.925971908863 -0.0435506752197
288507500 0.926385215335 -0.0432230354248
288525000 0.926138519173 -0.0432165619381
288542500 0.925858656712 -0.0435677235878
288560000 0.925444553066 -0.0434540173346
288577500 0.925805077076 -0.0434922551091
288595000 0.925706430441 -0.0437988966433
288612500 0.925281059824 -0.0439414436369
288630000 0.925370372246 -0.0441930850649
288647500 0.925627131754 -0.0445464126221
288665000 0.925694528218 -0.0445992277488
288682500 0.926386969269 -0.0445886591378
288700000 0.926213701624 -0.0445800311024
288717500 0.926172436807 -0.0446833370415
288735000 0.92597628057 -0.0446982984126
288752500 0.92594701278 -0.0447215733411
288770000 0.925607961765 -0.0451033884241
288787500 0.925615851752 -0.0453543510451
288805000 0.925447212663 -0.0451656748585
288822500 0.926156279896 -0.0450091194014
288840000 0.925680257637 -0.0450506121085
288857500 0.925395482041 -0.0453798768775
288875000 0.925434962587 -0.0456664597896
288892500 0.925544719354 -0.0453230119939
288910000 0.925398869697 -0.0452285993557
288927500 0.925847256705 -0.0459631171254
288945000 0.926212765551 -0.046239599422
288962500 0.925441556047 -0.0459292961212
288980000 0.925466503983 -0.0458859778542
288997500 0.925930301347 -0.0455589627738
289015000 0.925640839548 -0.0459725548725
289032500 0.925903906637 -0.0464417586979
289050000 0.926026844357 -0.0463418243582
289067500 0.925919250987 -0.0465389608833
289085000 0.925337155093 -0.046865122189
289102500 0.925486943721 -0.0466523561762
289120000 0.925725283068 -0.0464245694559
289137500 0.926125478782 -0.0464103386574
289155000 0.926345026288 -0.0465783178011
289172500 0.926148368459 -0.0464029682682
289190000 0.925922967355 -0.0469219913336
289207500 0.92615798318 -0.0468757852359
289225000 0.925570629085 -0.0464313240857
289242500 0.925928667299 -0.0467981775785
289260000 0.926279576736 -0.0467550231862
289277500 0.92631652 -0.0467650275943
289295000 0.926182197609 -0.046557494994
289312500 0.926249358783 -0.0474005615
289330000 0.926485856653 -0.0473486690166
289347500 0.926270640965 -0.0473278429804
289365000 0.92607034504 -0.0475282791983
289382500 0.926336208088 -0.0476560913197
289400000 0.925941278079 -0.047501402366
289417500 0.926270763411 -0.0476241520222
289435000 0.925762343574 -0.0479749466446
289452500 0.926191031857 -0.0477556019415
289470000 0.926168294955 -0.0476394184881
289487500 0.925804880604 -0.0477917061614
289505000 0.92598696232 -0.0480364442878
289522500 0.926370771485 -0.0483805872637
289540000 0.926348957379 -0.0484454757166
289557500 0.926064014417 -0.0485222159027
289575000 0.926377247775 -0.0483943985497
289592500 0.926452757426 -0.0486873075298
289610000 0.926748990713 -0.0490215085162
289627500 0.926517562579 -0.048659626942
289645000 0.926584136236 -0.0487253701877
289662500 0.925930751323 -0.0485186528673
289680000 0.926142276885 -0.0488065780371
289697500 0.926484474089 -0.0489846450435
289715000 0.925803692559 -0.0488913147034
289732500 0.925881444797 -0.0491449247818
289750000 0.926294002727 -0.0493066164788
289767500 0.925879677403 -0.0494596414045
289785000 0.925955753014 -0.0493542840975
289802500 0.926119116532 -0.0495783464519
289820000 0.925925323209 -0.049821867939
289837500 0.926285680393 -0.0495822738003
289855000 0.925652014723 -0.0497308367193
289872500 0.92580545689 -0.0498206636871
289890000 0.926526056129 -0.0496476251708
289907500 0.926388373023 -0.0495456493674
289925000 0.926363350696 -0.0499572886317
289942500 0.926221863232 -0.0497976681348
289960000 0.926370576949 -0.0500517451576
289977500 0.926662996602 -0.0496836137186
289995000 0.926462106388 -0.0498720394384
290012500 0.926297525389 -0.0501436499757
290030000 0.926555803618 -0.0503579493115
290047500 0.926603246838 -0.0502553185567
290065000 0.92645579449 -0.0503024429781
290082500 0.926716096221 -0.0510405506596
290100000 0.926597067976 -0.0507704131028
290117500 0.926605511546 -0.050838584037
290135000 0.926869556961 -0.0507188169343
290152500 0.926804860929 -0.0508189002852
290170000 0.926947915321 -0.0510204097212
290187500 0.926821114653 -0.0510087751065
290205000 0.926872323355 -0.0511845073073
290222500 0.926292104538 -0.0510011284905
290240000 0.926467997454 -0.051155885852
290257500 0.926552337039 -0.0513305099875
290275000 0.92642130107 -0.0516063393701
290292500 0.926604533815 -0.0519085809608
290310000 0.926841656628 -0.0517409393912
290327500 0.926662029219 -0.0515490080983
290345000 0.926864620482 -0.0519549642565
290362500 0.92635010119 -0.0518418528317
290380000 0.927020918104 -0.051882287656
290397500 0.926658746193 -0.0518537481615
290415000 0.926610812939 -0.052304611854
290432500 0.926555701469 -0.052427418953
290450000 0.926595680727 -0.0524690262662
290467500 0.926304141511 -0.0526093721643
290485000 0.925828427349 -0.0523736573526
290502500 0.925927952166 -0.0524129877185
290520000 0.926429497966 -0.0525322609434
290537500 0.926006951007 -0.0523529409936
290555000 0.925814514137 -0.0530327785484
290572500 0.926115304736 -0.0530384141084
290590000 0.926736682264 -0.0530588830854
290607500 0.926330225424 -0.0527878821905
290625000 0.926310571271 -0.0529389756832
290642500 0.926317438789 -0.0533783237637
290660000 0.926417764582 -0.0538032606762
290677500 0.926558536759 -0.053171515189
290695000 0.925676661539 -0.0522921737985
290712500 0.92647567449 -0.0530467523589
290730000 0.926612120848 -0.0532027422887
290747500 0.926598332774 -0.0530501804043
290765000 0.926819527464 -0.0531098300417
290782500 0.927141280035 -0.0535674117098
290800000 0.92664728453 -0.0537291107366
290817500 0.926502181285 -0.0535994883479
290835000 0.927233100403 -0.0539858810321
290852500 0.927204515331 -0.0538777886444
290870000 0.927169749613 -0.0539611921331
290887500 0.927343621703 -0.0537302335343
290905000 0.927255024707 -0.0541142172528
290922500 0.926711408289 -0.0542232372043
290940000 0.927183950603 -0.0542762273687
290957500 0.927360377575 -0.054235291686
290975000 0.926714288922 -0.0546861577961
290992500 0.926839716745 -0.0543137992729
291010000 0.926243039116 -0.0544110470136
291027500 0.926561133992 -0.0546298561884
291045000 0.926901061157 -0.0551465332617
291062500 0.926559462999 -0.0554677261639
291080000 0.926635067459 -0.05524044712
291097500 0.926508420808 -0.0551054694286
291115000 0.926544156084 -0.0552220843524
291132500 0.926590704686 -0.0554448218476
291150000 0.92716038021 -0.0556991890639
291167500 0.927040869723 -0.0555995083313
291185000 0.927164272464 -0.0556763777296
291202500 0.925944012266 -0.0554665838324
291220000 0.926627453552 -0.0557075714468
291237500 0.927114332909 -0.0558436563107
291255000 0.926775670579 -0.055773440063
291272500 0.927336783802 -0.056368165225
291290000 0.926974227719 -0.0562597498138
291307500 0.927005677872 -0.0565024418468
291325000 0.926667492119 -0.0569307464957
291342500 0.926709047299 -0.0565850890841
291360000 0.926701934708 -0.0563450337884
291377500 0.926795553373 -0.0562005244577
291395000 0.927493721207 -0.0560478501607
291412500 0.926613160611 -0.0560563551165
291430000 0.927026715374 -0.056688971225
291447500 0.926795612762 -0.0564220818169
291465000 0.926938634375 -0.0568023351464
291482500 0.926710053213 -0.0569085053423
291500000 0.926505844817 -0.0568523326876
291517500 0.926608076387 -0.0569271718585
291535000 0.926943633187 -0.0569319922046
291552500 0.926672839732 -0.0570692815951
291570000 0.926877599614 -0.0573901770251
291587500 0.927008620199 -0.0570957068575
291605000 0.927315300696 -0.0569801753742
291622500 0.927343067359 -0.0570065599558
291640000 0.927076842313 -0.0573982784286
291657500 0.926946318917 -0.0573245363617
291675000 0.927217593281 -0.0573271120566
291692500 0.927162677384 -0.057309706708
291710000 0.927187907776 -0.0577813953255
291727500 0.926739285325 -0.0576532426385
291745000 0.926726227842 -0.0576624690546
291762500 0.926645506918 -0.0581273388554
291780000 0.926288898296 -0.0577353344998
291797500 0.926634359353 -0.0582513700396
291815000 0.927186033836 -0.0585938765352
291832500 0.926574451317 -0.0584371179044
291850000 0.926561893901 -0.0584244793252
291867500 0.926251744266 -0.05850545114
291885000 0.92665430907 -0.058567339669
291902500 0.926519794701 -0.058846373778
291920000 0.926536451356 -0.0581913788181
291937500 0.926691676066 -0.0578265876292
291955000 0.926846341094 -0.0584282172192
291972500 0.927327034688 -0.0585598685762
291990000 0.926846942646 -0.0588536911431
292007500 0.927447680668 -0.0593056687096
292025000 0.926982374415 -0.0591809475246
292042500 0.927391330966 -0.0587656807134
292060000 0.927428952372 -0.0591148545189
292077500 0.926345827585 -0.0591994504213
292095000 0.92630392628 -0.0592042718698
292112500 0.926885304257 -0.0593836671346
292130000 0.926746456486 -0.0590706298419
292147500 0.926989689685 -0.0597612677118
292165000 0.926866694541 -0.0597667778766
292182500 0.926568559651 -0.0596422069696
292200000 0.926403984145 -0.0599518277574
292217500 0.926450105699 -0.0600394941713
292235000 0.927098684636 -0.0595597566666
292252500 0.927021018495 -0.0594943959892
292270000 0.926432208267 -0.0599211948283
292287500 0.9264702606 -0.0599996342694
292305000 0.927780850592 -0.0603183117222
292322500 0.927081274065 -0.0601831137147
292340000 0.926893185095 -0.0605469176701
292357500 0.926740601002 -0.0603660037651
292375000 0.927018589022 -0.0608720828075
292392500 0.926588255129 -0.0606648928113
292410000 0.927000649541 -0.0601921716389
292427500 0.926832169149 -0.0606106492893
292445000 0.927180530388 -0.0609627991775
292462500 0.926427874261 -0.0610677903809
292480000 0.92624528584 -0.0605097242498
292497500 0.926662639934 -0.0606870669236
292515000 0.926583708803 -0.0603842913983
292532500 0.926777813264 -0.0610044641682
292550000 0.92638635152 -0.0617352258621
292567500 0.926493473863 -0.0621004399715
292585000 0.926885346515 -0.061553584266
292602500 0.927030429673 -0.0613104094222
292620000 0.927167551366 -0.0614107936869
292637500 0.926697865536 -0.061242998444
292655000 0.926905322301 -0.061132637345
292672500 0.92670444458 -0.0616607131634
292690000 0.926232537056 -0.0614328481516
292707500 0.926281995743 -0.0615448905812
292725000 0.926746287702 -0.0620312079333
292742500 0.927057600026 -0.0621071244946
292760000 0.92656831225 -0.0618730515112
292777500 0.926277281952 -0.062304284759
292795000 0.92605334406 -0.0618922905969
292812500 0.92648095041 -0.0624095849321
292830000 0.926821616495 -0.062548564216
292847500 0.927324293332 -0.062400357321
292865000 0.926947787342 -0.0622713391447
292882500 0.926181797993 -0.0623618186685
292900000 0.926979005449 -0.0623892975898
292917500 0.927031277176 -0.0622886899603
292935000 0.927107180507 -0.0620761740958
292952500 0.926851249389 -0.0629475790109
292970000 0.926010391015 -0.0627077613148
292987500 0.926664334284 -0.0626765644732
293005000 0.927344486872 -0.0629577629528
293022500 0.926771854221 -0.0628188522484
293040000 0.926541149748 -0.0628405436342
293057500 0.926825538878 -0.0626240853771
293075000 0.926591276517 -0.062725551055
293092500 0.926864827548 -0.0629642667076
293110000 0.927334304095 -0.062962376995
293127500 0.927199242817 -0.0633488597991
293145000 0.927586318399 -0.0637126449278
293162500 0.926819045738 -0.0636637370959
293180000 0.92703499612 -0.063796998917
293197500 0.927041993271 -0.0642464413545
293215000 0.927221935464 -0.0638165044321
293232500 0.926716911471 -0.0640795223298
293250000 0.927489070877 -0.0642584887885
293267500 0.927167397122 -0.0643238205362
293285000 0.927020288163 -0.0641264044429
293302500 0.926863430902 -0.064213698789
293320000 0.926407948034 -0.0645931136367
293337500 0.926617546481 -0.0637845640073
293355000 0.926568575014 -0.0646454862885
293372500 0.926776541257 -0.0649775743547
293390000 0.926903453489 -0.0646055553707
293407500 0.926773218187 -0.0648318085684
293425000 0.926728894215 -0.0651118432651
293442500 0.926602923832 -0.0649385588998
293460000 0.926574985288 -0.0645628370231
293477500 0.926677864874 -0.0649854843237
293495000 0.92614096464 -0.0652906692656
293512500 0.926214204168 -0.0647762450515
293530000 0.926363034222 -0.0650273605699
293547500 0.926233925467 -0.0653908272942
293565000 0.926873646422 -0.065535834293
293582500 0.926519605286 -0.0653378421408
293600000 0.926020229235 -0.0649616349708
293617500 0.926236971648 -0.0658094965864
293635000 0.926518085529 -0.0652241674711
293652500 0.927030223421 -0.0651494894857
293670000 0.926833533599 -0.0655161544819
293687500 0.926380976404 -0.0658029476276
293705000 0.926585284487 -0.0658311300163
293722500 0.92634685436 -0.0654788951767
293740000 0.926705625162 -0.0653093829605
293757500 0.926510777984 -0.0653775724737
293775000 0.926334289115 -0.0657435202641
293792500 0.926130768936 -0.0657714703228
293810000 0.926189148788 -0.0663627332927
293827500 0.926416956955 -0.0654925339805
293845000 0.926576479663 -0.0664223556781
293862500 0.926167501463 -0.066176723874
293880000 0.926587021401 -0.0659220658842
293897500 0.92685601291 -0.0659520437616
293915000 0.926874094913 -0.06612984221
293932500 0.927355234124 -0.0663503950206
293950000 0.927206298558 -0.0663418678529
293967500 0.926929598545 -0.066453432731
293985000 0.926687903484 -0.0662676058892
294002500 0.92602323604 -0.0663656540773
294020000 0.926306307338 -0.0666652551809
294037500 0.92634805467 -0.0666078580985
294055000 0.926645747052 -0.0665447745093
294072500 0.926568014983 -0.0669356313293
294090000 0.926374277762 -0.0671773194718
294107500 0.926412805158 -0.0676226861952
294125000 0.926769801111 -0.0675204346028
294142500 0.927425887594 -0.0679884502474
294160000 0.926852168223 -0.0676044263136
294177500 0.926226203945 -0.067887034201
294195000 0.92610234145 -0.0676922594062
294212500 0.926125492376 -0.0680835189948
294230000 0.926382690624 -0.0678692802437
294247500 0.926570191231 -0.068216633068
294265000 0.926526817926 -0.0683187079498
294282500 0.926821847018 -0.0679998082693
294300000 0.926611544588 -0.068606867707
294317500 0.926536501209 -0.0684562460707
294335000 0.926061373726 -0.068598377757
294352500 0.926365650857 -0.0685339798581
294370000 0.926803700679 -0.0684292422711
294387500 0.927012738347 -0.0686895467626
294405000 0.926549542053 -0.0691996484132
294422500 0.926424769844 -0.0694072540862
294440000 0.92586713103 -0.0689408780343
294457500 0.925992089631 -0.0690722237844
294475000 0.926733845207 -0.0689283171167
294492500 0.927320029108 -0.0686474889375
294510000 0.926898876251 -0.0688802029375
294527500 0.926420832352 -0.0695016590951
294545000 0.926437561697 -0.0688191984921
294562500 0.927183852107 -0.0688393312421
294580000 0.926692572115 -0.0688970293027
294597500 0.926774405262 -0.0693059398489
294615000 0.926751832992 -0.0690118269838
294632500 0.92685445232 -0.0695727473397
294650000 0.926461562329 -0.0685257859504
294667500 0.925799135003 -0.0683566033668
294685000 0.92666995246 -0.0691240909997
294702500 0.926700909375 -0.0693209375722
294720000 0.927629210516 -0.0699886822034
294737500 0.92706208075 -0.0695431442091
294755000 0.927317438729 -0.0695703371752
294772500 0.927377896804 -0.069648936968
294790000 0.927271623839 -0.0699172615192
294807500 0.927083335497 -0.0703953737365
294825000 0.926833472851 -0.0705093247838
294842500 0.926991412405 -0.0706866585152
294860000 0.92680643134 -0.0697792219179
294877500 0.926912720551 -0.0702128915536
294895000 0.926978166588 -0.0706190317895
294912500 0.926738356248 -0.0709452197683
294930000 0.926417480069 -0.0709885338561
294947500 0.926066237305 -0.0714197954096
294965000 0.925987878547 -0.0708358005445
294982500 0.926106363145 -0.0711087848306
295000000 0.926303379475 -0.0716203947295
295017500 0.92691902364 -0.0714774287727
295035000 0.926189570599 -0.0707969342069
295052500 0.927068208172 -0.07133826491
295070000 0.926487071384 -0.0711581220067
295087500 0.926309330865 -0.0716169429931
295105000 0.926576480505 -0.0716935030731
295122500 0.9267527503 -0.0718980252771
295140000 0.926366843318 -0.0712832336116
295157500 0.926531941548 -0.0714890053264
295175000 0.926026174714 -0.0718943770043
295192500 0.926546797414 -0.0713866321497
295210000 0.927264980488 -0.071490803028
295227500 0.927076422159 -0.0719452283354
295245000 0.926503143646 -0.0713223055984
295262500 0.926921296893 -0.0713062046005
295280000 0.926505801749 -0.0715472957723
295297500 0.926058654303 -0.0715845918827
295315000 0.926381096826 -0.072170465164
295332500 0.92702074497 -0.0726756040633
295350000 0.926926632699 -0.0723892524222
295367500 0.92741725649 -0.0722152076407
295385000 0.927143221826 -0.0719543737711
295402500 0.927666561826 -0.0717782452934
295420000 0.92764881482 -0.0719199149287
295437500 0.926803619736 -0.0716355070646
295455000 0.926318977514 -0.0724912952013
295472500 0.926487411486 -0.0723361108522
295490000 0.926759780676 -0.0726875020404
295507500 0.927458699759 -0.0728634113587
295525000 0.927456774287 -0.0732476004553
295542500 0.927563212206 -0.072699751214
295560000 0.926611891877 -0.0723827062636
295577500 0.925973252284 -0.0728081724395
295595000 0.927226075041 -0.0734847913202
295612500 0.927267168703 -0.0732048383775
295630000 0.927273234726 -0.0732241875877
295647500 0.926778601458 -0.0734062648739
295665000 0.926541816297 -0.0742109125603
295682500 0.926546317253 -0.0737052744577
295700000 0.926453631296 -0.0738529813184
295717500 0.926683710742 -0.0738187681688
295735000 0.91873895437 -0.0702511076885
295752500 0.927025394887 -0.0734861102641
295770000 0.926643859726 -0.0743225828049
295787500 0.925784656887 -0.0742154140405
295805000 0.927102548318 -0.0742320217927
295822500 0.926914984059 -0.0747804993611
295840000 0.926265228416 -0.0744396195518
295857500 0.925821999886 -0.0745723945723
295875000 0.926612316229 -0.0743145808098
295892500 0.926589893525 -0.0745718558852
295910000 0.927154306391 -0.0746818831661
295927500 0.926173337933 -0.0749342682639
295945000 0.925995907229 -0.0742267913145
295962500 0.926155748738 -0.0745470072286
295980000 0.926511595476 -0.0745387103094
295997500 0.926555946984 -0.0745444077286
296015000 0.926572213863 -0.0750365730657
296032500 0.926129789764 -0.0746607856257
296050000 0.925675888333 -0.0749976603565
296067500 0.926015351213 -0.0747366045266
296085000 0.926239829726 -0.0749827039033
296102500 0.926180865704 -0.0753007920061
296120000 0.926508970623 -0.0749552883182
296137500 0.926856947135 -0.0751715993175
296155000 0.92686355455 -0.0760128570394
296172500 0.927041182807 -0.0755059196685
296190000 0.926721782325 -0.075069799823
296207500 0.927480097166 -0.0751859433561
296225000 0.927123139309 -0.075315838845
296242500 0.925994310434 -0.0750820652647
296260000 0.926242258481 -0.0752026089201
296277500 0.926487475029 -0.075997959831
296295000 0.926808707196 -0.0762234430857
296312500 0.926809255006 -0.0758834937575
296330000 0.92650601935 -0.076138038928
296347500 0.926754980547 -0.0759163999531
296365000 0.927544372445 -0.0764925987545
296382500 0.927736868555 -0.0766124042702
296400000 0.927048958081 -0.0763503169903
296417500 0.926669039554 -0.0767769377235
296435000 0.926711050617 -0.0768325780751
296452500 0.927098728023 -0.0768254394228
296470000 0.926219097174 -0.0762752626903
296487500 0.926540434941 -0.0767683324713
296505000 0.926805995515 -0.0762736200045
296522500 0.92664763475 -0.0767841322223
296540000 0.926487490012 -0.0766666917427
296557500 0.926643445376 -0.0767856910851
296575000 0.925699062116 -0.0770530226163
296592500 0.926971175075 -0.0770593960987
296610000 0.927114918352 -0.0770718422087
296627500 0.926859733823 -0.0769369391852
296645000 0.92738016109 -0.077605699534
296662500 0.926394074249 -0.0772548431705
296680000 0.926816765715 -0.077974966552
296697500 0.927013816601 -0.077727169696
296715000 0.926464495965 -0.0772301342699
296732500 0.925927870667 -0.0775918331109
296750000 0.926264388598 -0.0773720397048
296767500 0.92601225172 -0.0772219543182
296785000 0.92579197137 -0.0774780475455
296802500 0.926469739046 -0.0779210398446
296820000 0.926311201118 -0.0779127555689
296837500 0.926349845261 -0.0777659795045
296855000 0.927472452189 -0.0776115081837
296872500 0.926706412334 -0.0778060778162
296890000 0.926213972739 -0.0775972170815
296907500 0.925746480212 -0.0783452687085
296925000 0.926439735941 -0.0776624321121
296942500 0.926761900996 -0.077640435062
296960000 0.926027494929 -0.0782039699793
296977500 0.926661164083 -0.0781095616785
296995000 0.926345283987 -0.0780667201888
297012500 0.92692407966 -0.078704218118
297030000 0.925935754864 -0.0785532169327
297047500 0.92752775079 -0.0786621560932
297065000 0.926291222569 -0.0790157312524
297082500 0.926284499765 -0.0794726892908
297100000 0.926815418085 -0.0793533666992
297117500 0.927028607607 -0.0790852548118
297135000 0.927034684658 -0.0791508139514
297152500 0.926225358918 -0.0788802475288
297170000 0.925728876105 -0.0788127987853
297187500 0.9257423464 -0.0784230944877
297205000 0.926057056828 -0.0789779694912
297222500 0.927665090399 -0.079956022016
297240000 0.926853613836 -0.0797502448702
297257500 0.926495269132 -0.0795646238186
297275000 0.926362770689 -0.079390903399
297292500 0.926655762152 -0.079600807032
297310000 0.926319625838 -0.0799711181716
297327500 0.926244227425 -0.0804372229159
297345000 0.926629841847 -0.0798945824325
297362500 0.924743281918 -0.0799360834369
297380000 0.926227548085 -0.0800680401033
297397500 0.926247189268 -0.0803454328247
297415000 0.925677244991 -0.0799782479398
297432500 0.925903347381 -0.0801370645803
297450000 0.92643388983 -0.0806644080564
297467500 0.926564753285 -0.0805414909847
297485000 0.926368209335 -0.0798484310017
297502500 0.925882982155 -0.0800208175075
297520000 0.926004585182 -0.0806209777499
297537500 0.926826973854 -0.0813810739962
297555000 0.926075305534 -0.0804028279209
297572500 0.92678988734 -0.0803362935672
297590000 0.926920512688 -0.0804365368395
297607500 0.926839572799 -0.0809298300362
297625000 0.926924409704 -0.0806415088341
297642500 0.926863495464 -0.0811967041581
297660000 0.926273872376 -0.0809708716956
297677500 0.92756331938 -0.0812494489971
297695000 0.926359518143 -0.0807810490796
297712500 0.926699460729 -0.0814834846235
297730000 0.926784419746 -0.0805928700677
297747500 0.926493515129 -0.0810707172409
297765000 0.927085771116 -0.0811089836761
297782500 0.92689741414 -0.0806729658812
297800000 0.926569622784 -0.0819227157624
297817500 0.926629274682 -0.0815523766986
297835000 0.926327985088 -0.0817707820261
297852500 0.926357460537 -0.0813058418019
297870000 0.926259004039 -0.0820045738647
297887500 0.926407980756 -0.0826397303029
297905000 0.9271049514 -0.0815704924062
297922500 0.926240286731 -0.081972557566
297940000 0.926636079892 -0.0814914109855
297957500 0.926462823761 -0.0821307710328
297975000 0.926717891355 -0.0827069843326
297992500 0.926936047172 -0.0826632260921
298010000 0.926781347595 -0.082430471432
298027500 0.926738821594 -0.0827974465177
298045000 0.927051888256 -0.0822555667952
298062500 0.926359433706 -0.0821370233378
298080000 0.927174053374 -0.0828290760615
298097500 0.927386876174 -0.0828823179942
298115000 0.927478150496 -0.0825342729891
298132500 0.926521811114 -0.0830072389794
298150000 0.926700502546 -0.0832709135112
298167500 0.927187745004 -0.0834387973087
298185000 0.926408016987 -0.0831522330648
298202500 0.925974017119 -0.0833459510208
298220000 0.925858906738 -0.0834914482481
298237500 0.925642222075 -0.0838348850579
298255000 0.926071216027 -0.0834275239517
298272500 0.926343283567 -0.0829210715081
298290000 0.926602956424 -0.0837026555271
298307500 0.927297643347 -0.0838787402529
298325000 0.92628457224 -0.0843035709921
298342500 0.926050550001 -0.0844573950719
298360000 0.926266791321 -0.0841205571328
298377500 0.926021988449 -0.0836706500099
298395000 0.926311866408 -0.0831795389674
298412500 0.926044678299 -0.0831984565923
298430000 0.926577522402 -0.084093250252
298447500 0.926478324226 -0.0835517083589
298465000 0.926491079465 -0.0837448049919
298482500 0.92648985821 -0.0836320099398
298500000 0.926395244483 -0.0839126342631
298517500 0.926365818483 -0.0842566883121
298535000 0.926266601246 -0.0842754095312
298552500 0.926348976057 -0.0833673217322
298570000 0.926855329408 -0.0837782472866
298587500 0.926791821336 -0.0837162622048
298605000 0.92673579297 -0.0836418948703
298622500 0.925831483386 -0.0840443183965
298640000 0.926435420134 -0.0840619462425
298657500 0.925944104741 -0.0842209708159
298675000 0.926442515317 -0.08390546282
298692500 0.927577003225 -0.0844751498647
298710000 0.926805319118 -0.0853258471489
298727500 0.926871657753 -0.0850657298922
298745000 0.926646159545 -0.0848623516216
298762500 0.926621958511 -0.0856423939211
298780000 0.926673875488 -0.0859052763952
298797500 0.927555445322 -0.0859225238354
298815000 0.92700426845 -0.0861525580187
298832500 0.927150069425 -0.0860242685477
298850000 0.926525400292 -0.0861958192407
298867500 0.925498198859 -0.0861296126668
298885000 0.925926147843 -0.0861186471671
298902500 0.927132369941 -0.0864592836457
298920000 0.927375926349 -0.0867278532028
298937500 0.926946007159 -0.0858486164231
298955000 0.927043864137 -0.0862729463807
298972500 0.927190935349 -0.0858908715025
298990000 0.928351280321 -0.0821579340706
299007500 0.926462513716 -0.0865375162583
299025000 0.926252193674 -0.0869505909138
299042500 0.925728356065 -0.0867261569244
299060000 0.925683917468 -0.0871179332266
299077500 0.926383537794 -0.0860223711046
299095000 0.926756411227 -0.085703204501
299112500 0.926404843176 -0.0861758109008
299130000 0.926546726451 -0.0863527096456
299147500 0.926650492444 -0.0867477554856
299165000 0.927796254851 -0.0864100808031
299182500 0.927322848943 -0.0862915506545
299200000 0.927011385131 -0.0869999866486
299217500 0.926377130731 -0.0872874416267
299235000 0.92692004447 -0.0873640111881
299252500 0.926490214614 -0.087093399703
299270000 0.926274720066 -0.0869158179378
299287500 0.927339584823 -0.0868868620002
299305000 0.927593531255 -0.0873873409799
299322500 0.925805299521 -0.0868113545506
299340000 0.927007638205 -0.0871596521415
299357500 0.927442890448 -0.0871904661647
299375000 0.926757680194 -0.0876734117681
299392500 0.926639862917 -0.0873560906912
299410000 0.926347203522 -0.0883358302141
299427500 0.927206993814 -0.0870183782617
299445000 0.927592056052 -0.0870339982812
299462500 0.92708103311 -0.0878842767722
299480000 0.92690134498 -0.0874875071241
299497500 0.927140440715 -0.0877952308284
299515000 0.926748989793 -0.0881345279516
299532500 0.927322688171 -0.0884388297064
299550000 0.926046107104 -0.0884590008487
299567500 0.926062810051 -0.0878279720178
299585000 0.926177987113 -0.0880579953613
299602500 0.926257835837 -0.0882215306806
299620000 0.926752218378 -0.0881691359183
299637500 0.927391199464 -0.0884357138581
299655000 0.926714458706 -0.0887423540246
299672500 0.926519761045 -0.0889160709076
299690000 0.927513734531 -0.0888295002785
299707500 0.926902128129 -0.0892059357646
299725000 0.926157338614 -0.0885163015181
299742500 0.92634244124 -0.0894059681411
299760000 0.925903900488 -0.0887722142703
299777500 0.926970808772 -0.0896286384774
299795000 0.927057005274 -0.0900470521133
299812500 0.926851221263 -0.089969360614
299830000 0.926702525976 -0.0896711771326
299847500 0.926363043569 -0.0893567969006
299865000 0.926343758716 -0.0896089968821
299882500 0.927517419599 -0.0904102355536
299900000 0.926692742466 -0.0894428224745
299917500 0.926333680515 -0.0886394133465
299935000 0.926281876498 -0.088948828806
299952500 0.927644124246 -0.0893609904494
299970000 0.926630464107 -0.088939143222
299987500 0.92569202487 -0.0914083102316
300005000 0.922760928814 -0.0906488227111
300022500 0.921840966406 -0.0931249464997
300040000 0.920276207806 -0.0924713477733
300057500 0.92098639012 -0.0930864147395
300075000 0.920977166972 -0.0919686120837
300092500 0.92095101376 -0.0929841184193
300110000 0.921486872329 -0.0928316626536
300127500 0.922313798141 -0.0937616816729
300145000 0.921398194176 -0.0923385605785
300162500 0.921021057739 -0.0933092725315
300180000 0.921752258271 -0.0943499116999
300197500 0.922022350067 -0.0935822013956
300215000 0.92195505273 -0.0932191284952
300232500 0.921154969548 -0.0935450740511
300250000 0.920877405643 -0.0940286184215
300267500 0.92105931991 -0.0939988259942
300285000 0.921275548288 -0.0937096990685
300302500 0.920555008478 -0.0936410921094
300320000 0.920473191336 -0.0929901510504
300337500 0.92041531737 -0.092516465836
300355000 0.920447278206 -0.0922758886633
300372500 0.921551280846 -0.0934775617564
300390000 0.920967379022 -0.0944609191837
300407500 0.920399927773 -0.0941927320356
300425000 0.92013649879 -0.0942990681962
300442500 0.920846291905 -0.0943671742845
300460000 0.921203564683 -0.0949630185869
300477500 0.922226955811 -0.0944747476868
300495000 0.920233849642 -0.0955609311423
300512500 0.920797723355 -0.096559806133
300530000 0.92077901748 -0.0953025330466
300547500 0.920314572345 -0.0949794794282
300565000 0.920117581308 -0.0939168175947
300582500 0.920497966503 -0.0945054329468
300600000 0.923221971621 -0.0958750009296
300617500 0.925059622686 -0.0957196321812
300635000 0.922029761347 -0.0954990269494
300652500 0.9207592287 -0.095196867052
300670000 0.921172774069 -0.0965993945548
300687500 0.920778806313 -0.0963549773896
300705000 0.92091776844 -0.0958854987924
300722500 0.919743770421 -0.0953969605175
300740000 0.91994263484 -0.0953317492261
300757500 0.920563628491 -0.0961815843607
300775000 0.921316311865 -0.0961454057538
300792500 0.920102702148 -0.0951725032882
300810000 0.920399212235 -0.0961477218402
300827500 0.920229280743 -0.0956355394503
300845000 0.921353812331 -0.0971189037986
300862500 0.921084553453 -0.0958485571969
300880000 0.920727424216 -0.0961187425322
300897500 0.921497029578 -0.0954138648009
300915000 0.922084492898 -0.0969780391363
300932500 0.921609082143 -0.0951945427962
300950000 0.921308347438 -0.0963464744843
300967500 0.92051718129 -0.0964323258588
300985000 0.921698255541 -0.0961348492212
301002500 0.921364728646 -0.0962820796483
301020000 0.921551073345 -0.0967375937444
301037500 0.922218216451 -0.0973161016194
301055000 0.921404471441 -0.0963597233355
301072500 0.921159102835 -0.095954269102
301090000 0.921355984158 -0.0962845628239
301107500 0.921047933518 -0.0979479352204
301125000 0.920545218199 -0.0971809895057
301142500 0.920749950895 -0.0969515275486
301160000 0.920174450429 -0.0972037200724
301177500 0.922009629544 -0.0976602723812
301195000 0.922024101701 -0.0973731155321
301212500 0.921341839974 -0.0974051454465
301230000 0.920610164564 -0.0971917374757
301247500 0.921154612602 -0.0975090539505
301265000 0.921143624143 -0.0984339661116
301282500 0.921470150124 -0.0989257811067
301300000 0.921288590594 -0.0986783499284
301317500 0.920908901865 -0.0976215648221
301335000 0.920709484467 -0.0973266179599
301352500 0.916279112869 -0.092909553157
301370000 0.915356632477 -0.094071612574
301387500 0.919918027428 -0.0973669772504
301405000 0.921176244449 -0.0981133167417
301422500 0.920977004147 -0.0971211648039
301440000 0.921919227041 -0.0983192438189
301457500 0.922079021317 -0.0978395464653
301475000 0.921933112979 -0.097941749595
301492500 0.920826693925 -0.0974774061074
301510000 0.920822126246 -0.0982220692045
301527500 0.920312182961 -0.0988472487796
301545000 0.920837894329 -0.0988997590647
301562500 0.921273904632 -0.0983409917146
301580000 0.920460467388 -0.0989618745644
301597500 0.920632862788 -0.0983476359146
301615000 0.921127385658 -0.0987372730601
301632500 0.921245260655 -0.0983553543945
301650000 0.9214521739 -0.0981976631146
301667500 0.921735129347 -0.0988701965232
301685000 0.922352678029 -0.0993618878167
301702500 0.921445293169 -0.0993317665893
301720000 0.921377304381 -0.0993743317865
301737500 0.921281040527 -0.0989760926379
301755000 0.921513784461 -0.0995432360335
301772500 0.921097427398 -0.0983307431977
301790000 0.921525195085 -0.0995058203039
301807500 0.922166484922 -0.0999686467135
301825000 0.922154132704 -0.100364905647
301842500 0.921698081415 -0.0998978533811
301860000 0.921959391923 -0.100357001145
301877500 0.92149522998 -0.0998430625398
301895000 0.921663749967 -0.0996966664807
301912500 0.92157440233 -0.0995687540109
301930000 0.922937867655 -0.0997586125886
301947500 0.922175589576 -0.099917152307
301965000 0.921367494384 -0.10140089514
301982500 0.921504972058 -0.101592948368
302000000 0.921379001612 -0.100732972722
302017500 0.921459973989 -0.102212238089
302035000 0.920992171372 -0.101578007344
302052500 0.921217896866 -0.100769319344
302070000 0.921048620482 -0.101294763194
302087500 0.921420258765 -0.101470936757
302105000 0.920592964069 -0.100593604308
302122500 0.921921171001 -0.101152515163
302140000 0.921715987795 -0.10173543902
302157500 0.920821816576 -0.100951365891
302175000 0.92069486141 -0.100874698664
302192500 0.92042121611 -0.101557721627
302210000 0.919927807806 -0.101006485582
302227500 0.919915598309 -0.101033198289
302245000 0.921059187918 -0.1015150552
302262500 0.920365655256 -0.10204727317
302280000 0.919917329913 -0.100779865342
302297500 0.920560881215 -0.101469193692
302315000 0.921590457618 -0.101735167011
302332500 0.922637216934 -0.100588676966
302350000 0.92202432669 -0.10049030209
302367500 0.920750222802 -0.10164255065
302385000 0.919879907366 -0.101867869723
302402500 0.919823920829 -0.101103477465
302420000 0.920218766741 -0.101165293108
302437500 0.920986918702 -0.101163455569
302455000 0.922700089567 -0.101695157733
302472500 0.921966493435 -0.101767990837
302490000 0.92189873893 -0.10196023965
302507500 0.921160950834 -0.102127913924
302525000 0.921455615956 -0.101719237124
302542500 0.921184622876 -0.10204148093
302560000 0.921306064622 -0.101716176554
302577500 0.92135337363 -0.102380035661
302595000 0.92143430035 -0.102517101355
302612500 0.920667444504 -0.103457094867
302630000 0.921923609839 -0.103064110219
302647500 0.921191744837 -0.103770745102
302665000 0.921273043695 -0.103844348856
302682500 0.92187331217 -0.10325069349
302700000 0.922147016757 -0.102843040808
302717500 0.922092112179 -0.102983141438
302735000 0.921851930127 -0.103343774149
302752500 0.920700495998 -0.103621512693
302770000 0.920807910984 -0.103420660486
302787500 0.921586856239 -0.103343311625
302805000 0.921457868402 -0.105814271813
302822500 0.921486355641 -0.104817218283
302840000 0.921880504818 -0.104534156091
302857500 0.921259604418 -0.105165990003
302875000 0.920718050811 -0.105158251688
302892500 0.921446953745 -0.105350622706
302910000 0.922279794326 -0.104188337128
302927500 0.922192924408 -0.103848430364
302945000 0.920492984037 -0.103953983985
302962500 0.921872270793 -0.10452531234
302980000 0.921209219424 -0.104914646566
302997500 0.921983977137 -0.104011282197
303015000 0.920735361668 -0.104656822982
303032500 0.92130516813 -0.104518851876
303050000 0.921775347459 -0.105213481272
303067500 0.921879076162 -0.104742087295
303085000 0.920445613092 -0.104583575136
303102500 0.920883880912 -0.104866331573
303120000 0.921479276497 -0.104077015587
303137500 0.921389872201 -0.105582824796
303155000 0.922113071153 -0.104680651673
303172500 0.922320194152 -0.103622836422
303190000 0.922251686642 -0.104270712478
303207500 0.922076778598 -0.104974783806
303225000 0.922474648163 -0.106482818039
303242500 0.921560462797 -0.106502028442
303260000 0.919296757739 -0.105275948601
303277500 0.916772817126 -0.103014895538
303295000 0.925345821117 -0.113374431129
303312500 0.893545954672 -0.1418677721
303330000 0.89898784041 -0.123631019002
303347500 0.893434919384 -0.107483898854
303365000 0.912838280783 -0.1060630645
303382500 0.921049627381 -0.106181423891
303400000 0.920137376218 -0.106728088896
303417500 0.920842685236 -0.105859393379
303435000 0.920919126923 -0.106007457024
303452500 0.920620484669 -0.105943388916
303470000 0.921209765695 -0.106019937938
303487500 0.920575726249 -0.106420265973
303505000 0.922454524416 -0.10697077639
303522500 0.92253722642 -0.107106036531
303540000 0.922337879156 -0.106748680988
303557500 0.921065675671 -0.106628718282
303575000 0.921500397255 -0.107379670448
303592500 0.920340242643 -0.107986658067
303610000 0.920644773038 -0.107917227159
303627500 0.920968836319 -0.106586267948
303645000 0.921205556564 -0.107968013938
303662500 0.921808738709 -0.107170769653
303680000 0.922074862997 -0.106683996215
303697500 0.922520910856 -0.10655163314
303715000 0.921708352295 -0.107067284059
303732500 0.921513511952 -0.107271148506
303750000 0.921491388155 -0.107850643918
303767500 0.92187430862 -0.107158430184
303785000 0.921453382468 -0.107084527148
303802500 0.92067624389 -0.107809066347
303820000 0.920442201055 -0.108454519543
303837500 0.922150962005 -0.109271093133
303855000 0.926614782971 -0.108172731884
303872500 0.924920790403 -0.107979630015
303890000 0.918748803233 -0.105790277345
303907500 0.920344350147 -0.107337487081
303925000 0.92115644436 -0.108737367999
303942500 0.920935052747 -0.108694792169
303960000 0.921419404214 -0.108760809893
303977500 0.921912200544 -0.108728346389
303995000 0.920063297483 -0.109699591621
304012500 0.921444347506 -0.109054335449
304030000 0.92201363914 -0.109000129966
304047500 0.921961663262 -0.109241019754
304065000 0.92218998471 -0.109135915693
304082500 0.922120743364 -0.10919978002
304100000 0.921502152629 -0.10977305734
304117500 0.919825131377 -0.110458500155
304135000 0.921085871062 -0.110189568508
304152500 0.921486600932 -0.110812833776
304170000 0.920116103302 -0.109190323464
304187500 0.919594687865 -0.109219295519
304205000 0.921158389243 -0.109619105326
304222500 0.92066872032 -0.109694603895
304240000 0.920818226854 -0.109448912161
304257500 0.921792142915 -0.110172406678
304275000 0.920639042957 -0.110584296354
304292500 0.921920873021 -0.110761272375
304310000 0.918140395419 -0.1095294735
304327500 0.916339304127 -0.108456337027
304345000 0.918628275461 -0.110434666752
304362500 0.920522125059 -0.110215882621
304380000 0.922214560797 -0.111983518932
304397500 0.921797421571 -0.110653716567
304415000 0.921754371988 -0.110493764562
304432500 0.921314855493 -0.110025930848
304450000 0.919846041053 -0.110322624404
304467500 0.920629492477 -0.110870140636
304485000 0.921311562004 -0.11068647663
304502500 0.921290319322 -0.111692317609
304520000 0.920705812978 -0.113505550324
304537500 0.92008980677 -0.111883334991
304555000 0.920345878912 -0.110669822165
304572500 0.919164154347 -0.110328595856
304590000 0.919780937929 -0.110550878545
304607500 0.921449704764 -0.111006397156
304625000 0.921020516554 -0.111670375872
304642500 0.920619743042 -0.112016706997
304660000 0.920618729375 -0.112183794024
304677500 0.920722641018 -0.112342974043
304695000 0.92396911973 -0.111387621893
304712500 0.921090074622 -0.112377161686
304730000 0.920076523083 -0.112575527624
304747500 0.920101921418 -0.111956508014
304765000 0.921390320835 -0.112030011102
304782500 0.921410495614 -0.112797110537
304800000 0.92231655092 -0.113529857019
304817500 0.921793837856 -0.112871206522
304835000 0.921189166044 -0.1122577781
304852500 0.920707697367 -0.11299979533
304870000 0.921875662163 -0.114932755513
304887500 0.920966500665 -0.113341161621
304905000 0.922006333447 -0.112926496516
304922500 0.922417246559 -0.112943077125
304940000 0.921225985711 -0.113553749927
304957500 0.920503298933 -0.113146592801
304975000 0.919785856103 -0.113023005889
304992500 0.918382559616 -0.113899272726
305010000 0.920760068696 -0.113703507885
305027500 0.920055907128 -0.114163750612
305045000 0.919046899382 -0.113689289811
305062500 0.92018521922 -0.113712151827
305080000 0.91982922377 -0.114704132079
305097500 0.9196332048 -0.115155081818
305115000 0.919251535714 -0.114621871712
305132500 0.919377125372 -0.115284508544
305150000 0.920151879376 -0.114399732127
305167500 0.920649339313 -0.114018999893
305185000 0.920952949364 -0.115071727851
305202500 0.921418621136 -0.115011115244
305220000 0.920791833435 -0.114548625429
305237500 0.920216617987 -0.114608167863
305255000 0.92105219854 -0.114162826745
305272500 0.919934727173 -0.113556964908
305290000 0.920044499419 -0.11304147485
305307500 0.920220273642 -0.114912707176
305325000 0.920203403687 -0.115444428287
305342500 0.920701033995 -0.114798920193
305360000 0.920031298451 -0.114357152228
305377500 0.920465133131 -0.114908869128
305395000 0.920136177419 -0.114181894085
305412500 0.920511324629 -0.11532538156
305430000 0.920899069605 -0.115466647729
305447500 0.921541134352 -0.11538127202
305465000 0.920403422939 -0.11471505232
305482500 0.92056554701 -0.114804739955
305500000 0.920889696531 -0.115151050386
305517500 0.920241162225 -0.115195880124
305535000 0.920258235452 -0.116045288005
305552500 0.920724529362 -0.115743669234
305570000 0.920931518256 -0.115201643497
305587500 0.920278504808 -0.115110718147
305605000 0.921072140812 -0.116152370922
305622500 0.920983327526 -0.116459382917
305640000 0.920722471957 -0.116890019694
305657500 0.920817870932 -0.116816900259
305675000 0.920571785437 -0.117988150783
305692500 0.921458874936 -0.116008181798
305710000 0.921087269597 -0.115499026582
305727500 0.920748218069 -0.114954152954
305745000 0.920278489602 -0.115834332127
305762500 0.919150942031 -0.11673074262
305780000 0.919876483764 -0.116458347873
305797500 0.920220595928 -0.116067813689
305815000 0.920855582416 -0.1170534982
305832500 0.920656432473 -0.116920388089
305850000 0.919228426391 -0.117525400933
305867500 0.919711376648 -0.117617612873
305885000 0.919332535603 -0.117772155857
305902500 0.919822020846 -0.116618369959
305920000 0.919290056033 -0.1174027922
305937500 0.920227094793 -0.117569850853
305955000 0.920333022437 -0.118390317544
305972500 0.920221878065 -0.11848907295
305990000 0.91980554727 -0.117391670581
306007500 0.919340058083 -0.118326867135
306025000 0.919671708036 -0.118755797972
306042500 0.919813061158 -0.118406166964
306060000 0.920537200475 -0.118526829211
306077500 0.920076749903 -0.118773668529
306095000 0.92056091637 -0.118335033018
306112500 0.919348960178 -0.117634769296
306130000 0.918797348435 -0.118449126521
306147500 0.919319662916 -0.117656989706
306165000 0.919934992473 -0.117770333843
306182500 0.920673171822 -0.11776654221
306200000 0.920584779378 -0.118193123746
306217500 0.920172598096 -0.11841154188
306235000 0.919842733502 -0.118712633643
306252500 0.91966832543 -0.119591920838
306270000 0.919798893327 -0.119942785645
306287500 0.919759008585 -0.119662385221
306305000 0.920279956289 -0.119103112184
306322500 0.920504170503 -0.120157651249
306340000 0.919706148984 -0.119290307891
306357500 0.918976239199 -0.118484354519
306375000 0.919526382376 -0.119635268365
306392500 0.919351528183 -0.11885977723
306410000 0.920779131469 -0.122105531479
306427500 0.92303325559 -0.123074372853
306445000 0.920823730867 -0.12066421954
306462500 0.920241228706 -0.120515438163
306480000 0.919402067992 -0.12090732404
306497500 0.919720702094 -0.120487500138
306515000 0.920015403164 -0.119635728394
306532500 0.920079851709 -0.120197153749
306550000 0.920055737997 -0.120409868711
306567500 0.920151350963 -0.12081784809
306585000 0.919018766757 -0.121317021371
306602500 0.919403893323 -0.120690752439
306620000 0.919352891826 -0.121579012701
306637500 0.919630822857 -0.12112611546
306655000 0.919431663961 -0.120878573649
306672500 0.919524498455 -0.120682063456
306690000 0.920070414747 -0.121156027913
306707500 0.920189060968 -0.121659969992
306725000 0.919455391814 -0.121825535825
306742500 0.919319614253 -0.122263896858
306760000 0.91985383092 -0.121424512116
306777500 0.920051819614 -0.121960109552
306795000 0.918866462738 -0.1213399041
306812500 0.920312409742 -0.121648712517
306830000 0.920917977837 -0.122325794251
306847500 0.92001030539 -0.121819581353
306865000 0.920446723679 -0.122323764448
306882500 0.922213659371 -0.122996638399
306900000 0.920901015679 -0.121802070624
306917500 0.920093030582 -0.120785519574
306935000 0.918273127892 -0.120652509373
306952500 0.920307715196 -0.121742543769
306970000 0.92071268437 -0.122948998986
306987500 0.918865934009 -0.121925199251
307005000 0.91897138117 -0.122241745364
307022500 0.918429358495 -0.122449626167
307040000 0.919430859654 -0.123259505311
307057500 0.919966778877 -0.123393132652
307075000 0.92054163783 -0.123626375084
307092500 0.919193136548 -0.123721637505
307110000 0.918558640256 -0.12310241692
307127500 0.919140929252 -0.123797397223
307145000 0.919423520825 -0.123573276619
307162500 0.91991103773 -0.123435740607
307180000 0.919648701039 -0.123086475306
307197500 0.919231542981 -0.122824562271
307215000 0.918644967587 -0.12384957154
307232500 0.919098163673 -0.123682136643
307250000 0.919199276108 -0.121579458617
307267500 0.918759166733 -0.12276348125
307285000 0.920127283785 -0.124393996218
307302500 0.919007582479 -0.12514271088
307320000 0.919204397679 -0.123979950472
307337500 0.918242750205 -0.123432521628
307355000 0.918530502189 -0.123746282313
307372500 0.918528902137 -0.124660895669
307390000 0.91941375423 -0.124997621893
307407500 0.918117441875 -0.124764797162
307425000 0.91843363539 -0.124591906862
307442500 0.91873443779 -0.125099743113
307460000 0.919745202316 -0.125265527749
307477500 0.918741165238 -0.12514791594
307495000 0.918723099856 -0.125200220251
307512500 0.919452471149 -0.124197238309
307530000 0.919733556614 -0.124257616163
307547500 0.91991478283 -0.124477116877
307565000 0.920031516319 -0.125076042319
307582500 0.919374450765 -0.124789500508
307600000 0.919374889409 -0.124984542489
307617500 0.919758573982 -0.124938966259
307635000 0.919139693535 -0.125026844342
307652500 0.91825574544 -0.125755974288
307670000 0.917834423295 -0.125242254826
307687500 0.918581407769 -0.126005993558
307705000 0.918946810266 -0.126352261308
307722500 0.919209412479 -0.125445806678
307740000 0.919296290747 -0.12472956676
307757500 0.918702320999 -0.125198144855
307775000 0.918902698065 -0.125704962178
307792500 0.918741974738 -0.125653994543
307810000 0.91861468449 -0.125911736033
307827500 0.91934293886 -0.126732252876
307845000 0.9187006414 -0.126671051455
307862500 0.918380798792 -0.12688595672
307880000 0.918510725951 -0.126673834718
307897500 0.917357904914 -0.127419845574
307915000 0.919416628618 -0.127807997155
307932500 0.918920538487 -0.127583798376
307950000 0.919168888879 -0.127251824512
307967500 0.918977988203 -0.127313861759
307985000 0.919159155237 -0.126150869483
308002500 0.919527377663 -0.127518160691
308020000 0.918901211025 -0.127862451875
308037500 0.918060294115 -0.128182462989
308055000 0.917473058555 -0.127165967892
308072500 0.918489895242 -0.128314461338
308090000 0.918685577357 -0.127798314619
308107500 0.918080361459 -0.127733530201
308125000 0.917650710938 -0.127292040348
308142500 0.918401997652 -0.127703823182
308160000 0.917854251732 -0.128097026741
308177500 0.917444428697 -0.127168937685
308195000 0.917478483403 -0.127680764484
308212500 0.917876781306 -0.128501603586
308230000 0.917750374155 -0.128400092941
308247500 0.91744812879 -0.128323477224
308265000 0.919022073199 -0.128272991474
308282500 0.918742422308 -0.127161592333
308300000 0.918810802366 -0.127421106866
308317500 0.917758246497 -0.127949493352
308335000 0.918219465767 -0.128351278262
308352500 0.917784661237 -0.128347204481
308370000 0.918321229529 -0.129888776238
308387500 0.917787631332 -0.129222460329
308405000 0.917773774899 -0.127922870101
308422500 0.918422223649 -0.12889013094
308440000 0.919108555009 -0.129403614053
308457500 0.919229090747 -0.129111853635
308475000 0.918892480879 -0.12954833951
308492500 0.918135293763 -0.129747841232
308510000 0.919520444571 -0.129123657177
308527500 0.918914797644 -0.128845342933
308545000 0.918563749983 -0.12988348969
308562500 0.918823239302 -0.129451578627
308580000 0.917164812113 -0.13044030959
308597500 0.917430740074 -0.12952826762
308615000 0.917176583505 -0.129558596844
308632500 0.918404866218 -0.130406764145
308650000 0.918512256678 -0.130013963853
308667500 0.917672228944 -0.129459341372
308685000 0.917840849841 -0.130278538518
308702500 0.917436160549 -0.131010599024
308720000 0.917591948632 -0.128917518783
308737500 0.912425215275 -0.133266581207
308755000 0.917311070943 -0.130843581761
308772500 0.917105400603 -0.130747212693
308790000 0.917964567137 -0.129780651569
308807500 0.917098747887 -0.12992803791
308825000 0.916596459273 -0.13073459753
308842500 0.916377253844 -0.130698513048
308860000 0.916695534429 -0.131446662022
308877500 0.917622980205 -0.132007530579
308895000 0.917151971958 -0.13157364429
308912500 0.917657724177 -0.131124800257
308930000 0.918109623251 -0.130964547061
308947500 0.918680381787 -0.131463955216
308965000 0.916896857937 -0.130978848345
308982500 0.916992009596 -0.131189897195
309000000 0.917528633874 -0.130644481869
309017500 0.918121609771 -0.13186370594
309035000 0.916422388154 -0.131916221184
309052500 0.916900969312 -0.132717602239
309070000 0.917157314646 -0.132352170559
309087500 0.91748332214 -0.132492186458
309105000 0.916642544588 -0.131907856525
309122500 0.916788261617 -0.132364073513
309140000 0.916820986909 -0.132099070163
309157500 0.916902342768 -0.132220190518
309175000 0.9183050085 -0.132224292822
309192500 0.917815812873 -0.132621659199
309210000 0.918177563331 -0.133318102275
309227500 0.91724105905 -0.13253164826
309245000 0.917654648384 -0.13329425557
309262500 0.918291004683 -0.133000255678
309280000 0.917168009091 -0.133144903953
309297500 0.917614252033 -0.133594130749
309315000 0.917243738832 -0.133221580629
309332500 0.91751853463 -0.132420626929
309350000 0.91638568201 -0.132457510204
309367500 0.917365865658 -0.133073655511
309385000 0.918075443962 -0.133559575609
309402500 0.91749711771 -0.132557633645
309420000 0.916575161098 -0.133757436434
309437500 0.916858265203 -0.134328065281
309455000 0.915864374044 -0.138933265887
309472500 0.917613674326 -0.133900725682
309490000 0.916490482361 -0.134607456785
309507500 0.917005982736 -0.134645426357
309525000 0.91632192888 -0.135921553103
309542500 0.916191672222 -0.134541794452
309560000 0.916935221334 -0.133372885196
309577500 0.91609840308 -0.134558341121
309595000 0.916561686328 -0.134725210051
309612500 0.916666095514 -0.133930381574
309630000 0.916780322079 -0.134654249433
309647500 0.917589964619 -0.135154056243
309665000 0.917670201088 -0.134086357596
309682500 0.916829954107 -0.134763706627
309700000 0.91726033259 -0.134878379105
309717500 0.916495041722 -0.134463637749
309735000 0.916260230205 -0.134317575691
309752500 0.917292237369 -0.13359145486
309770000 0.916766141707 -0.134243744839
309787500 0.91725063629 -0.135248771816
309805000 0.916993141888 -0.135077780137
309822500 0.916190933643 -0.135406495827
309840000 0.916881679528 -0.135148954028
309857500 0.917340328986 -0.137369885293
309875000 0.917690488496 -0.13862848237
309892500 0.916766849113 -0.136019002494
309910000 0.91643237398 -0.135002905123
309927500 0.916379374796 -0.1357035571
309945000 0.916962655628 -0.135805583706
309962500 0.917341756849 -0.136419656953
309980000 0.91637829758 -0.137127436044
309997500 0.915844654437 -0.136404316814
310015000 0.917143041593 -0.135272125013
310032500 0.91747090969 -0.136262102054
310050000 0.916889973467 -0.13649518983
310067500 0.916135281472 -0.137089940946
310085000 0.916661255199 -0.13658875982
310102500 0.91679964855 -0.137304553293
310120000 0.917232327427 -0.137047410914
310137500 0.916497556659 -0.137356421761
310155000 0.916325136755 -0.137697561094
310172500 0.915838159894 -0.137842478583
310190000 0.915625496394 -0.137843153502
310207500 0.916090902034 -0.136437160776
310225000 0.91605502016 -0.13647126124
310242500 0.9159239766 -0.136014201796
310260000 0.915928109738 -0.136505065945
310277500 0.915211144786 -0.13728232022
310295000 0.916952709985 -0.138288997331
310312500 0.916842350739 -0.138104841792
310330000 0.915915878362 -0.136885323434
310347500 0.915707771755 -0.137369505183
310365000 0.915512102051 -0.137890497137
310382500 0.915805736619 -0.137253826021
310400000 0.916608798544 -0.137314723006
310417500 0.916681676432 -0.137624637453
310435000 0.917038530122 -0.136060595562
310452500 0.916633682419 -0.137307194396
310470000 0.91633703019 -0.138132617051
310487500 0.915641868074 -0.137722576478
310505000 0.915272070436 -0.136928001617
310522500 0.916773062978 -0.137676028579
310540000 0.911602672755 -0.134733122237
310557500 0.9157172562 -0.138599288415
310575000 0.916235140018 -0.137682435523
310592500 0.915877002685 -0.138456467746
310610000 0.915877480166 -0.137123565902
310627500 0.916007948992 -0.138252327715
310645000 0.913734706221 -0.137686088573
310662500 0.914370789208 -0.137704324183
310680000 0.913040114526 -0.137128853453
310697500 0.915887427462 -0.137840838479
310715000 0.916544494576 -0.138475190234
310732500 0.916684996155 -0.13941986243
310750000 0.917096477504 -0.139292915041
310767500 0.914776596042 -0.13950638523
310785000 0.915607879608 -0.139555937926
310802500 0.915384423532 -0.139716750459
310820000 0.915888622789 -0.139565436465
310837500 0.916229071713 -0.140310114836
310855000 0.915614435954 -0.139901630534
310872500 0.914914178746 -0.139493430468
310890000 0.914916307638 -0.140275724985
310907500 0.915069331161 -0.140399525087
310925000 0.914948593186 -0.140494402843
310942500 0.914873689408 -0.139856158343
310960000 0.9149180567 -0.139194281323
310977500 0.916502915102 -0.13966272269
310995000 0.91555187455 -0.140227836092
311012500 0.91600615657 -0.140750066368
311030000 0.916175781085 -0.141002174713
311047500 0.91563707214 -0.139870805691
311065000 0.914982461207 -0.138973914097
311082500 0.913803826197 -0.140153975477
311100000 0.913222965538 -0.140568489787
311117500 0.91327512089 -0.139911394792
311135000 0.914190553166 -0.140237759679
311152500 0.914915133508 -0.140829841742
311170000 0.915557611588 -0.141127370209
311187500 0.915419587855 -0.141096905202
311205000 0.914168277054 -0.14198882514
311222500 0.914415814952 -0.140884833016
311240000 0.914893846544 -0.14113869883
311257500 0.915131088978 -0.141014441459
311275000 0.915419150552 -0.141207541392
311292500 0.914525499104 -0.140711883353
311310000 0.914739982743 -0.14199460465
311327500 0.915242303666 -0.141867215189
311345000 0.914528798589 -0.141423041772
311362500 0.915331679696 -0.141382209361
311380000 0.915443981387 -0.141609951534
311397500 0.914369304033 -0.142089897794
311415000 0.914631654147 -0.141506545032
311432500 0.914609737754 -0.141499247045
311450000 0.914188009412 -0.142851134417
311467500 0.916070261463 -0.142454237096
311485000 0.918266509357 -0.142401934895
311502500 0.91541822918 -0.141201419967
311520000 0.914800984837 -0.142117684622
311537500 0.914376081571 -0.14175612782
311555000 0.915207230316 -0.142396036193
311572500 0.914969723569 -0.142422054002
311590000 0.913613541179 -0.143562261212
311607500 0.91435242922 -0.142929465131
311625000 0.913865681888 -0.143004144697
311642500 0.913894737892 -0.142923301747
311660000 0.913844564022 -0.142281193254
311677500 0.914825975419 -0.142999619587
311695000 0.915125173659 -0.142537008916
311712500 0.914930532057 -0.14288281423
311730000 0.914833202861 -0.142149684183
311747500 0.91419576072 -0.143401850592
311765000 0.914365769486 -0.143756815015
311782500 0.914126969255 -0.143043327372
311800000 0.914728086028 -0.14403642333
311817500 0.914527146871 -0.14422531969
311835000 0.913643309479 -0.144759006288
311852500 0.913389285881 -0.144631537854
311870000 0.91324655332 -0.144533233319
311887500 0.913742628807 -0.143989321977
311905000 0.91514635075 -0.144208803202
311922500 0.914516917866 -0.144019208408
311940000 0.913015747715 -0.143242274714
311957500 0.914349841628 -0.141707105288
311975000 0.914549808798 -0.141609364184
311992500 0.909972808571 -0.141084026008
312010000 0.910548529308 -0.142534852619
312027500 0.913411968995 -0.144332716944
312045000 0.912887913521 -0.144730078217
312062500 0.913872474673 -0.143476582207
312080000 0.914163955412 -0.144200071382
312097500 0.914363388933 -0.144371256959
312115000 0.914760031086 -0.145134429292
312132500 0.914619627183 -0.145218879243
312150000 0.913045449979 -0.145214722968
312167500 0.912811012791 -0.146353837929
312185000 0.913608649962 -0.145168213518
312202500 0.914218222233 -0.145070896197
312220000 0.914409319095 -0.145028862056
312237500 0.913054115855 -0.144728339658
312255000 0.913434902362 -0.145409737766
312272500 0.914492377058 -0.145263103718
312290000 0.913981036481 -0.144937400425
312307500 0.914024350252 -0.145142859104
312325000 0.913416919868 -0.145162188643
312342500 0.912764248522 -0.146023487816
312360000 0.913108733266 -0.145283283468
312377500 0.913780344548 -0.145875378274
312395000 0.913447281567 -0.146268655179
312412500 0.913355655909 -0.146842193626
312430000 0.913949017712 -0.147334366235
312447500 0.913249016255 -0.146432917524
312465000 0.913396747432 -0.146364443078
312482500 0.91339100723 -0.145651318128
312500000 0.913217707703 -0.145749532166
312517500 0.913666540945 -0.146401752946
312535000 0.913008679467 -0.146737270724
312552500 0.913109107195 -0.147225513717
312570000 0.91294541077 -0.146908452049
312587500 0.913261469185 -0.146822553638
312605000 0.912977182873 -0.147303929447
312622500 0.913629586327 -0.147583087832
312640000 0.913046249077 -0.147216798022
312657500 0.913969007193 -0.147276962335
312675000 0.913330300275 -0.147844651861
312692500 0.913401773398 -0.147612959046
312710000 0.914053935471 -0.148029469865
312727500 0.913311909848 -0.147216673183
312745000 0.912077143212 -0.147101907504
312762500 0.91270672643 -0.147413226736
312780000 0.91389968553 -0.148539861266
312797500 0.914682493385 -0.148056268996
312815000 0.913303191777 -0.147614888037
312832500 0.911974712118 -0.146182879889
312850000 0.912181819464 -0.14711601822
312867500 0.912840624871 -0.147219083777
312885000 0.912587878401 -0.147562148689
312902500 0.913249628964 -0.147733349308
312920000 0.911762817028 -0.146890285745
312937500 0.91352171977 -0.148643309271
312955000 0.913344163891 -0.14913795182
312972500 0.913382036531 -0.148643542887
312990000 0.912638132279 -0.148137762432
313007500 0.912199075391 -0.149125414099
313025000 0.913883066803 -0.149703775603
313042500 0.91418118124 -0.149504418308
313060000 0.912545170089 -0.147016235371
313077500 0.913098572487 -0.148070734348
313095000 0.912583250334 -0.149079391602
313112500 0.911967565406 -0.14862583854
313130000 0.912731890572 -0.14913229385
313147500 0.9122623456 -0.14863952263
313165000 0.912275715623 -0.148737925786
313182500 0.911709874763 -0.149574244348
313200000 0.91265885608 -0.149023795496
313217500 0.912526160856 -0.14924908646
313235000 0.912293684186 -0.149171322234
313252500 0.912386446338 -0.14984077217
313270000 0.912158515552 -0.149542359216
313287500 0.913134936458 -0.149499585019
313305000 0.911520769266 -0.148984780654
313322500 0.910062927594 -0.149901665804
313340000 0.911292329496 -0.150324351667
313357500 0.91080569186 -0.150428609344
313375000 0.908921254009 -0.150967862791
313392500 0.910036585354 -0.151367424008
313410000 0.912748606976 -0.149869316582
313427500 0.912090831659 -0.151102478953
313445000 0.911933142991 -0.15080846254
313462500 0.911431970323 -0.150838244631
313480000 0.912630234665 -0.150139611548
313497500 0.912610100925 -0.149868735973
313515000 0.9125767166 -0.149250157206
313532500 0.912425604398 -0.149978877458
313550000 0.912286039489 -0.150374244541
313567500 0.911548948385 -0.150502873563
313585000 0.911790139509 -0.150418588418
313602500 0.910910254465 -0.150366190009
313620000 0.911624740197 -0.150300648842
313637500 0.911871547125 -0.151103879504
313655000 0.911044117462 -0.150516549805
313672500 0.912183413455 -0.151038466438
313690000 0.911919804501 -0.150799492793
313707500 0.911928876533 -0.150226126462
313725000 0.912633241095 -0.150165660985
313742500 0.912526648299 -0.150968089043
313760000 0.911831232653 -0.152229515721
313777500 0.911074107139 -0.152707854899
313795000 0.911003982863 -0.152649935928
313812500 0.910668366913 -0.151734072966
313830000 0.911098275066 -0.152490691398
313847500 0.912170598195 -0.152144140656
313865000 0.911028272214 -0.151783993796
313882500 0.911448824179 -0.152002410721
313900000 0.912121769993 -0.152304032318
313917500 0.911868175385 -0.15145783799
313935000 0.911293078088 -0.151213679313
313952500 0.911044265921 -0.152804393608
313970000 0.911277810695 -0.151835990927
313987500 0.911979634921 -0.151845463322
314005000 0.912554733975 -0.150956664428
314022500 0.911661329963 -0.151604811813
314040000 0.911416667649 -0.152211978262
314057500 0.910935020291 -0.151517102226
314075000 0.910479931091 -0.152219204407
314092500 0.911042898899 -0.152576218681
314110000 0.910959240809 -0.152897670432
314127500 0.91218716998 -0.153231477441
314145000 0.914896108531 -0.143208323366
314162500 0.913515269746 -0.1538919713
314180000 0.91155571698 -0.152735359096
314197500 0.911391805112 -0.15272213898
314215000 0.91196697168 -0.152491995271
314232500 0.911675637561 -0.152683814492
314250000 0.911476518873 -0.154016352953
314267500 0.911118921455 -0.153096445004
314285000 0.910380769656 -0.153556561878
314302500 0.910802346354 -0.154580082304
314320000 0.911137592656 -0.153860115364
314337500 0.91139429105 -0.154509844724
314355000 0.91096374862 -0.154043896529
314372500 0.911406999888 -0.153939534681
314390000 0.911514146902 -0.154423209597
314407500 0.911345514898 -0.154064767153
314425000 0.910916303769 -0.153665456931
314442500 0.909586927157 -0.152864302991
314460000 0.910800598274 -0.152749228495
314477500 0.910697489533 -0.15364338988
314495000 0.911277804403 -0.15384973273
314512500 0.911203132484 -0.1540226409
314530000 0.910268754762 -0.152645850444
314547500 0.910743827775 -0.153544200318
314565000 0.91133573263 -0.153917834001
314582500 0.911086093296 -0.15369717316
314600000 0.910710399748 -0.154016130223
314617500 0.911334539831 -0.154953626733
314635000 0.909970825693 -0.153803545254
314652500 0.910326285855 -0.154812861968
314670000 0.910515709646 -0.154242173752
314687500 0.909573041018 -0.153441582203
314705000 0.910664028406 -0.154294983918
314722500 0.910428828656 -0.154520677055
314740000 0.910727953888 -0.154820732987
314757500 0.910286750095 -0.155762281604
314775000 0.911434510759 -0.15548842855
314792500 0.908997095804 -0.156863406844
314810000 0.911504174218 -0.154713780823
314827500 0.91055598563 -0.1546467088
314845000 0.910563645378 -0.155199448319
314862500 0.911002487922 -0.155148587683
314880000 0.911194725078 -0.156386449093
314897500 0.911379597614 -0.15589112839
314915000 0.91025305509 -0.15646257771
314932500 0.910443495138 -0.156588543074
314950000 0.909717139384 -0.156095161747
314967500 0.911452514744 -0.156063670641
314985000 0.914220864953 -0.155448780096
315002500 0.913522196688 -0.155753433394
315020000 0.910442473005 -0.156983047197
315037500 0.910704215342 -0.156904860211
315055000 0.909859348003 -0.156848788242
315072500 0.9102449657 -0.156438595207
315090000 0.910434996345 -0.156198519501
315107500 0.910864804603 -0.155294792441
315125000 0.910242318115 -0.155750790002
315142500 0.910485021076 -0.15644955833
315160000 0.910796898521 -0.155490418922
315177500 0.910407343546 -0.156242529076
315195000 0.910130154881 -0.156954432221
315212500 0.910281236235 -0.156076593661
315230000 0.910159038413 -0.15613858003
315247500 0.910761422099 -0.156522601484
315265000 0.911240901802 -0.157044583642
315282500 0.911107948285 -0.157718709745
315300000 0.909969244544 -0.156744874914
315317500 0.909101301646 -0.156533023192
315335000 0.909898788426 -0.156542092432
315352500 0.910127640228 -0.157661339586
315370000 0.909738116758 -0.157913545271
315387500 0.910102093098 -0.159194779874
315405000 0.909656994737 -0.158785129525
315422500 0.909684439945 -0.157987448618
315440000 0.909126031726 -0.15926497672
315457500 0.909165580057 -0.159101535357
315475000 0.908306696194 -0.158953203581
315492500 0.909060841416 -0.159000842406
315510000 0.912007955065 -0.159213236155
315527500 0.910398313813 -0.158189883895
315545000 0.910515143818 -0.158617249083
315562500 0.910526904682 -0.159737822271
315580000 0.909370545274 -0.159604623994
315597500 0.908824792887 -0.159469312008
315615000 0.910441637969 -0.158783598126
315632500 0.909526707359 -0.157692764329
315650000 0.909498793213 -0.158175142597
315667500 0.91059121013 -0.158837022951
315685000 0.907092647035 -0.159902279526
315702500 0.908818216538 -0.15766980416
315720000 0.909636242651 -0.15912876078
315737500 0.9098130182 -0.158494027305
315755000 0.909843939189 -0.158427388824
315772500 0.910195486503 -0.158689959472
315790000 0.909550564577 -0.159450426697
315807500 0.910371439541 -0.158877487485
315825000 0.910331991935 -0.159498966649
315842500 0.910521907162 -0.159248051943
315860000 0.90940089124 -0.159491665494
315877500 0.910685183311 -0.158739006113
315895000 0.910001275995 -0.15870995135
315912500 0.909867756154 -0.159055272914
315930000 0.909457597447 -0.159759897158
315947500 0.908599565684 -0.159720166292
315965000 0.908026222754 -0.158587660303
315982500 0.908924258916 -0.159821369528
316000000 0.909549855611 -0.160341397034
316017500 0.909908139217 -0.159811240917
316035000 0.908449556945 -0.159712304056
316052500 0.909353562824 -0.160906778896
316070000 0.909456428399 -0.159864523862
316087500 0.909563443122 -0.159868382824
316105000 0.908833532736 -0.159992856946
316122500 0.908440846539 -0.160086235836
316140000 0.909212669524 -0.160922323725
316157500 0.909952906322 -0.160084142091
316175000 0.90966057597 -0.160261097594
316192500 0.908182976848 -0.160500399456
316210000 0.909165452704 -0.161313376253
316227500 0.909256432134 -0.160488609275
316245000 0.908740256683 -0.160397390848
316262500 0.909061976787 -0.161707173175
316280000 0.909840069985 -0.162517684571
316297500 0.908314154888 -0.161827857771
316315000 0.908327129255 -0.161323822007
316332500 0.909703184748 -0.162327373841
316350000 0.91003358078 -0.161806222456
316367500 0.909201202457 -0.160989488661
316385000 0.908827939762 -0.162245564507
316402500 0.909047794807 -0.162633242996
316420000 0.909658818452 -0.162626129159
316437500 0.909984887518 -0.16269043338
316455000 0.909193320536 -0.16247804966
316472500 0.909307470059 -0.162034095761
316490000 0.909109984294 -0.162525467982
316507500 0.910393485602 -0.161774720414
316525000 0.909248985384 -0.16179689787
316542500 0.908739654405 -0.161664305664
316560000 0.908841583395 -0.162033556856
316577500 0.909244978006 -0.161608652059
316595000 0.908720323435 -0.162550955807
316612500 0.909124087972 -0.162559763558
316630000 0.909031946725 -0.163073118268
316647500 0.912637818733 -0.164788029778
316665000 0.912737512128 -0.164940026775
316682500 0.910276815714 -0.16187242712
316700000 0.908937222624 -0.162248817988
316717500 0.909460505141 -0.161151320196
316735000 0.907592024619 -0.169115971487
316752500 0.910233809209 -0.163440226448
316770000 0.910042972346 -0.162791206145
316787500 0.909466783463 -0.162999025131
316805000 0.908560799166 -0.163789286348
316822500 0.909064535283 -0.163425523369
316840000 0.908129126343 -0.164260708936
316857500 0.908964008911 -0.163456722747
316875000 0.90902871828 -0.162900207138
316892500 0.909413271192 -0.162822862423
316910000 0.909487839029 -0.164252325914
316927500 0.908221968999 -0.164332246765
316945000 0.908192138527 -0.164003981014
316962500 0.908460949377 -0.164462355696
316980000 0.909520191892 -0.16463349707
316997500 0.908665606962 -0.164474539022
317015000 0.908055955076 -0.164241537829
317032500 0.908638038533 -0.164007522377
317050000 0.907162133554 -0.164164857471
317067500 0.908164975825 -0.163900179949
317085000 0.908885712709 -0.163974960545
317102500 0.908447404732 -0.164367712245
317120000 0.90789756888 -0.164929285908
317137500 0.907732780963 -0.165497958351
317155000 0.907892421413 -0.165278957435
317172500 0.908356180777 -0.163687514457
317190000 0.908745437969 -0.164098689629
317207500 0.908004723272 -0.164758518419
317225000 0.908126045118 -0.164564582516
317242500 0.907712045819 -0.164823035734
317260000 0.907819211657 -0.164989437626
317277500 0.907529611715 -0.165910551739
317295000 0.907874196006 -0.16534050803
317312500 0.907822880216 -0.166250853302
317330000 0.90806551281 -0.166093473172
317347500 0.908435223988 -0.166033915237
317365000 0.908042159561 -0.166906972028
317382500 0.908381979735 -0.166273732197
317400000 0.909255930144 -0.16588518565
317417500 0.909676391713 -0.166554061057
317435000 0.909488305187 -0.166544275217
317452500 0.909533419011 -0.166435005181
317470000 0.908804219635 -0.165767592662
317487500 0.909956906325 -0.167076992657
317505000 0.90851205562 -0.16670995021
317522500 0.908953992056 -0.166425793194
317540000 0.908057877806 -0.166710071045
317557500 0.906585200342 -0.165685581239
317575000 0.902064932202 -0.167085341817
317592500 0.906373067498 -0.167357978171
317610000 0.908336329542 -0.16708572045
317627500 0.907875711553 -0.167347752152
317645000 0.908559643739 -0.16719820274
317662500 0.907983483678 -0.167116024024
317680000 0.909464533026 -0.167592717561
317697500 0.908746576108 -0.16765653302
317715000 0.90697096597 -0.167090203237
317732500 0.90741207075 -0.167227862171
317750000 0.907567162305 -0.16673134387
317767500 0.907913999213 -0.166066305045
317785000 0.907411998947 -0.167514730939
317802500 0.908325304439 -0.166727438
317820000 0.908078913196 -0.168033971503
317837500 0.906803670861 -0.1677714449
317855000 0.907367468404 -0.167920814222
317872500 0.90755722953 -0.167067284872
317890000 0.907985813562 -0.167574660083
317907500 0.907580298984 -0.168206247421
317925000 0.907356619216 -0.168096340516
317942500 0.907792010338 -0.168015469303
317960000 0.908535666289 -0.167792845413
317977500 0.90791790271 -0.165915526002
317995000 0.907368090233 -0.167311897285
318012500 0.907729139642 -0.168136472506
318030000 0.907384992269 -0.167746132896
318047500 0.907531862053 -0.168061050306
318065000 0.906539735105 -0.167286397665
318082500 0.907015815631 -0.16838817971
318100000 0.908126008476 -0.170001083436
318117500 0.908207929191 -0.168682180019
318135000 0.909303632763 -0.168720992283
318152500 0.912569109722 -0.169635101798
318170000 0.909328124676 -0.168347056974
318187500 0.908578342724 -0.169442168659
318205000 0.907682170576 -0.170150014157
318222500 0.907419378857 -0.170421117221
318240000 0.907531639168 -0.169299520647
318257500 0.907697483591 -0.169201747777
318275000 0.908048199081 -0.16921656254
318292500 0.908063769618 -0.169935755341
318310000 0.907653645204 -0.169492572571
318327500 0.909006977549 -0.170526849441
318345000 0.907932291352 -0.170810737762
318362500 0.907648443506 -0.170717626706
318380000 0.908316188778 -0.17025590441
318397500 0.908049342803 -0.170031833257
318415000 0.907647173635 -0.170110705365
318432500 0.907692471549 -0.169986181029
318450000 0.907335590568 -0.170413869486
318467500 0.907847102961 -0.170436290814
318485000 0.907214484165 -0.169155072139
318502500 0.908228271559 -0.170166005535
318520000 0.907770038497 -0.17205398188
318537500 0.907244574522 -0.172221701002
318555000 0.907288344986 -0.171545499367
318572500 0.906458327226 -0.171367808325
318590000 0.906396979825 -0.171109849504
318607500 0.907516512336 -0.171518926289
318625000 0.908285140536 -0.170210265352
318642500 0.906809701023 -0.171592844887
318660000 0.907014651035 -0.171085793754
318677500 0.908706599221 -0.171771353747
318695000 0.906418210326 -0.171369879641
318712500 0.906645760716 -0.171722929626
318730000 0.906842605224 -0.171810997756
318747500 0.906403918078 -0.171587461496
318765000 0.906948712855 -0.171761052421
318782500 0.908310047296 -0.171526107191
318800000 0.90582377999 -0.173707350583
318817500 0.906815228866 -0.171626109539
318835000 0.906704427459 -0.171949756378
318852500 0.907602472889 -0.17130729878
318870000 0.906963644891 -0.171828420413
318887500 0.907211551442 -0.172225703003
318905000 0.90783659715 -0.172756759939
318922500 0.907258859183 -0.173047736505
318940000 0.907283849542 -0.17325021917
318957500 0.906853870318 -0.172835322889
318975000 0.907511510718 -0.172331543099
318992500 0.907210729005 -0.173043574741
319010000 0.907776873855 -0.172970304495
319027500 0.908031290905 -0.173203985292
319045000 0.908271232722 -0.173144139297
319062500 0.908609183438 -0.173954610457
319080000 0.907453428856 -0.172429619871
319097500 0.905783302761 -0.173021251188
319115000 0.905984676763 -0.172781635325
319132500 0.907398523036 -0.174135032306
319150000 0.906819882253 -0.174471176376
319167500 0.906221919454 -0.174961753901
319185000 0.90651230183 -0.173252636409
319202500 0.906053903202 -0.174273324878
319220000 0.906470867524 -0.17486890586
319237500 0.90740653624 -0.173832505837
319255000 0.906870215882 -0.175257072912
319272500 0.907131497296 -0.173588457822
319290000 0.905977373584 -0.174738078581
319307500 0.904716785256 -0.174303171913
319325000 0.906663627378 -0.175054831663
319342500 0.906446123335 -0.174959835794
319360000 0.907260356915 -0.174548094335
319377500 0.906841484298 -0.174311159401
319395000 0.9067679101 -0.174129280553
319412500 0.906067497085 -0.175265017114
319430000 0.906630063037 -0.174973476962
319447500 0.90715960195 -0.173814412874
319465000 0.907212214183 -0.175514958971
319482500 0.906759973079 -0.175565834444
319500000 0.906972333592 -0.175098936462
319517500 0.906649874178 -0.17458758523
319535000 0.90671084463 -0.174475191156
319552500 0.906561458069 -0.174300258073
319570000 0.903577439835 -0.173508078582
319587500 0.906425960953 -0.175486435031
319605000 0.907271287954 -0.175970204828
319622500 0.907463687975 -0.1755763724
319640000 0.907276935504 -0.175132548535
319657500 0.907244135789 -0.17561933401
319675000 0.906310041896 -0.176916002686
319692500 0.9061254614 -0.176725663723
319710000 0.907123169968 -0.176599113245
319727500 0.906042373261 -0.176036381828
319745000 0.905571982657 -0.175936808629
319762500 0.905510525923 -0.177387110542
319780000 0.905499300728 -0.176491827792
319797500 0.904365123655 -0.176197483735
319815000 0.905205002327 -0.17641143958
319832500 0.90566257497 -0.176919795935
319850000 0.906140870092 -0.176539615916
319867500 0.905623621443 -0.177674946756
319885000 0.905799108551 -0.178071056177
319902500 0.906131059683 -0.176764208842
319920000 0.905635207998 -0.176642431547
319937500 0.905939411833 -0.177302210244
319955000 0.90566444336 -0.177750995372
319972500 0.905980821063 -0.176907193806
319990000 0.905765901011 -0.176424511933
320007500 0.906256299044 -0.177034275316
320025000 0.905732364829 -0.177428710787
320042500 0.905935581772 -0.177563674776
320060000 0.906304702359 -0.177729496355
320077500 0.906361628073 -0.178096509251
320095000 0.90608145972 -0.177654729426
320112500 0.905942431977 -0.180575070224
320130000 0.905983160412 -0.17716522386
320147500 0.906196125233 -0.178449120407
320165000 0.905685215859 -0.178678707998
320182500 0.905855068814 -0.178561519798
320200000 0.905387112755 -0.178961304418
320217500 0.905418265556 -0.179238686443
320235000 0.90637999432 -0.178263582171
320252500 0.906267509419 -0.178574403952
320270000 0.909299354048 -0.179348900586
320287500 0.909572157346 -0.179133032006
320305000 0.906205104024 -0.17880087267
320322500 0.907077395833 -0.178129297045
320340000 0.906085351983 -0.17961498031
320357500 0.906331431576 -0.180312359931
320375000 0.905872227929 -0.179151515285
320392500 0.906438329847 -0.180503340206
320410000 0.905361660303 -0.179788209277
320427500 0.905462986935 -0.180174038211
320445000 0.906422884895 -0.178885828391
320462500 0.906021271537 -0.179907624693
320480000 0.904960728166 -0.181005562786
320497500 0.905200173344 -0.180289792345
320515000 0.906037108872 -0.18033047789
320532500 0.906327505315 -0.18148893091
320550000 0.906296221943 -0.181056738563
320567500 0.905273041994 -0.180308029856
320585000 0.90599145751 -0.180515629049
320602500 0.905288070086 -0.18093773339
320620000 0.904953737028 -0.180688226481
320637500 0.904335280684 -0.180504527492
320655000 0.902482813163 -0.180214621814
320672500 0.905496004318 -0.180783720346
320690000 0.905192887542 -0.181039825686
320707500 0.905558679509 -0.180409054149
320725000 0.906161990784 -0.180031494677
320742500 0.905557805686 -0.18093062212
320760000 0.904974251615 -0.181124265834
320777500 0.904694974985 -0.181187360219
320795000 0.90602453866 -0.18033837885
320812500 0.906009114612 -0.18040997256
320830000 0.905664647335 -0.180753619064
320847500 0.90500631536 -0.181491584602
320865000 0.906167035883 -0.181051046043
320882500 0.905325203449 -0.181159647966
320900000 0.905473661287 -0.182456403058
320917500 0.904879430445 -0.182696183551
320935000 0.904451628332 -0.181734940371
320952500 0.904899767838 -0.181976549595
320970000 0.904825748679 -0.182975040264
320987500 0.905605928168 -0.182839172863
321005000 0.904473104605 -0.182795841379
321022500 0.904248282927 -0.18243709023
321040000 0.903701335351 -0.18317492221
321057500 0.905761668777 -0.182778080989
321075000 0.904193128085 -0.182477914369
321092500 0.903619448777 -0.183230398119
321110000 0.903000391857 -0.183831863045
321127500 0.90481423049 -0.18376615026
321145000 0.903587225619 -0.183779184224
321162500 0.904850827898 -0.183417667776
321180000 0.905330834762 -0.182441866923
321197500 0.90364713308 -0.183349689181
321215000 0.903384926385 -0.184168835567
321232500 0.903655946771 -0.184584792473
321250000 0.90372493053 -0.183979813193
321267500 0.904370427049 -0.183735885751
321285000 0.904582047629 -0.184240360758
321302500 0.904224886455 -0.183943177134
321320000 0.903752658592 -0.184155565272
321337500 0.903544128169 -0.184091069405
321355000 0.904162738045 -0.184049183134
321372500 0.904543464628 -0.183447152468
321390000 0.90372534132 -0.183830765535
321407500 0.904271515193 -0.183924450654
321425000 0.905150735953 -0.184608679944
321442500 0.905019394365 -0.183410219605
321460000 0.904630441744 -0.183923093287
321477500 0.904548504396 -0.184210714962
321495000 0.904684793298 -0.183337174325
321512500 0.903924783275 -0.183841900711
321530000 0.904476566127 -0.184882925525
321547500 0.904808324673 -0.184536977359
321565000 0.903833830123 -0.183237367039
321582500 0.903326926765 -0.183064710831
321600000 0.904409976551 -0.185039212255
321617500 0.902938485331 -0.184390291435
321635000 0.903842767301 -0.18487846901
321652500 0.90390862222 -0.183569020433
321670000 0.903855816496 -0.185080531993
321687500 0.904376250073 -0.185557497109
321705000 0.903404609903 -0.185773828458
321722500 0.903724903156 -0.185243539173
321740000 0.905034699503 -0.185327174623
321757500 0.905074582684 -0.185983835046
321775000 0.904904553088 -0.186868375819
321792500 0.904182241752 -0.185644992091
321810000 0.903745980276 -0.185308933686
321827500 0.903846972313 -0.185183212448
321845000 0.903488409048 -0.185505594376
321862500 0.90373754414 -0.186095441098
321880000 0.903880998363 -0.185226749751
321897500 0.904328717573 -0.185132592572
321915000 0.904171011303 -0.185326945394
321932500 0.904173549779 -0.186570878499
321950000 0.903970460421 -0.187457416584
321967500 0.905028642285 -0.186346222647
321985000 0.903833558717 -0.186676436353
322002500 0.903088463549 -0.186908524291
322020000 0.902093298154 -0.185611348145
322037500 0.901294498711 -0.185711976459
322055000 0.902707588675 -0.187565902717
322072500 0.903121664933 -0.187568290196
322090000 0.903080944985 -0.186992085018
322107500 0.903515017676 -0.186994316559
322125000 0.902999826581 -0.18790953943
322142500 0.903521361125 -0.188045076987
322160000 0.901439322191 -0.189534653969
322177500 0.898821115578 -0.192372444244
322195000 0.901224982668 -0.189960870725
322212500 0.902825883744 -0.187854757349
322230000 0.903085020894 -0.187667131115
322247500 0.903904268501 -0.18819109553
322265000 0.903104121795 -0.187647762132
322282500 0.903402865831 -0.187449079536
322300000 0.903414904996 -0.188118445547
322317500 0.903474194299 -0.18879164301
322335000 0.903029657925 -0.188083225809
322352500 0.902482524347 -0.188261693582
322370000 0.9024753717 -0.188581769453
322387500 0.903303137476 -0.188376914087
322405000 0.904146685662 -0.189748673912
322422500 0.903069854147 -0.188684502109
322440000 0.902838070496 -0.189005606683
322457500 0.901827907254 -0.189571884586
322475000 0.903096054454 -0.190248564651
322492500 0.901357851096 -0.188403868094
322510000 0.903551376411 -0.189308454942
322527500 0.903081168799 -0.18952137068
322545000 0.902695554587 -0.190261144297
322562500 0.902399193946 -0.190892299088
322580000 0.902357220113 -0.190851978054
322597500 0.902394500371 -0.190432208985
322615000 0.903548662192 -0.189721788962
322632500 0.905697218216 -0.19248350666
322650000 0.902038824212 -0.190432199708
322667500 0.901765886573 -0.189879769265
322685000 0.902380793957 -0.190371389465
322702500 0.902348198496 -0.189933072825
322720000 0.903322093379 -0.190393621281
322737500 0.903122646556 -0.190949949905
322755000 0.899967863675 -0.192953504645
322772500 0.902728437953 -0.19150979643
322790000 0.902712686336 -0.191092339899
322807500 0.901755005644 -0.190751775755
322825000 0.902320272108 -0.191648269756
322842500 0.902712197392 -0.192044421103
322860000 0.90273393435 -0.191191053298
322877500 0.901786745551 -0.190576689252
322895000 0.901964942496 -0.191202570742
322912500 0.901759969164 -0.191104481142
322930000 0.902259920639 -0.191714254109
322947500 0.901475121777 -0.191660792731
322965000 0.901750222387 -0.19168160289
322982500 0.902367390287 -0.191448643797
323000000 0.902520310767 -0.191738365551
323017500 0.901930364201 -0.191132258571
323035000 0.902086887796 -0.191739711283
323052500 0.901655328162 -0.191430676487
323070000 0.902515487265 -0.191409902853
323087500 0.902906100545 -0.191594263675
323105000 0.903036536879 -0.19140216982
323122500 0.902003304293 -0.191846894692
323140000 0.902421977508 -0.192664063598
323157500 0.902611000175 -0.192841943334
323175000 0.901360749628 -0.192776715249
323192500 0.900987656402 -0.192638617832
323210000 0.900727503909 -0.19343954453
323227500 0.902046614585 -0.192481349646
323245000 0.902164606679 -0.193733307517
323262500 0.901565619238 -0.194861212857
323280000 0.901673935427 -0.193964631345
323297500 0.901501212398 -0.192991660569
323315000 0.901456824252 -0.193013058553
323332500 0.901907720054 -0.193377415507
323350000 0.901802349427 -0.193270727966
323367500 0.900523418445 -0.193710674239
323385000 0.899028642223 -0.194339673955
323402500 0.900836296525 -0.193365443636
323420000 0.901271871978 -0.19398830214
323437500 0.900562026185 -0.192863490664
323455000 0.900437988847 -0.194381992718
323472500 0.900854280033 -0.194688034815
323490000 0.900117459265 -0.194526400502
323507500 0.900819283088 -0.193771411075
323525000 0.901342309015 -0.194570782371
323542500 0.901752674177 -0.195312744551
323560000 0.902911359282 -0.195941282726
323577500 0.901003028091 -0.194502495934
323595000 0.900685403677 -0.195291754737
323612500 0.902878782554 -0.197384967326
323630000 0.900536163739 -0.195661439648
323647500 0.900688598625 -0.194889134212
323665000 0.89999220536 -0.194573953497
323682500 0.900753406561 -0.19587058025
323700000 0.900454452388 -0.194812247379
323717500 0.900668122499 -0.195182379184
323735000 0.901781684106 -0.19496324757
323752500 0.899230777029 -0.19560729217
323770000 0.899614867886 -0.193860380734
323787500 0.900352677249 -0.194057625116
323805000 0.900255795369 -0.195189858062
323822500 0.900398273591 -0.195868681689
323840000 0.901123286847 -0.195786924165
323857500 0.900404494819 -0.195813964883
323875000 0.900337708295 -0.195610134551
323892500 0.901213204789 -0.196395660913
323910000 0.900936732032 -0.196202028311
323927500 0.900872566816 -0.195694504282
323945000 0.900454304372 -0.195879407697
323962500 0.899877537185 -0.196644780858
323980000 0.900494704592 -0.196466169734
323997500 0.901600171873 -0.196669969791
324015000 0.900820980709 -0.197566890538
324032500 0.90076251058 -0.197262323178
324050000 0.900643568824 -0.197381018915
324067500 0.900638236009 -0.197471465625
324085000 0.900594236096 -0.197972320957
324102500 0.899622303526 -0.198199375882
324120000 0.899966789759 -0.197138509733
324137500 0.900266489988 -0.196905526893
324155000 0.898535029207 -0.198708268342
324172500 0.898675933435 -0.197424008748
324190000 0.899216816752 -0.197867910397
324207500 0.898410224787 -0.197688984573
324225000 0.898407543521 -0.197323559819
324242500 0.899933637736 -0.198173957547
324260000 0.900007469873 -0.197465700086
324277500 0.900582933961 -0.197177854692
324295000 0.89906008875 -0.198445768752
324312500 0.900103231633 -0.199023854735
324330000 0.900108292528 -0.19946884217
324347500 0.899859164436 -0.198967000598
324365000 0.898927325818 -0.199021984293
324382500 0.899484526767 -0.198854261489
324400000 0.899765950686 -0.198925991278
324417500 0.899930052242 -0.198714078518
324435000 0.899278761319 -0.198682983825
324452500 0.89889366541 -0.1988357211
324470000 0.898759683162 -0.198926438206
324487500 0.90020423033 -0.199342241356
324505000 0.899698819355 -0.198966088562
324522500 0.899275890175 -0.19874963939
324540000 0.898481436646 -0.199162878037
324557500 0.898886566215 -0.19945562374
324575000 0.898486831834 -0.199685477924
324592500 0.897809412871 -0.198258076801
324610000 0.899366938274 -0.20005759489
324627500 0.899341125373 -0.201332934456
324645000 0.898666662715 -0.200103441642
324662500 0.898952098698 -0.200724686052
324680000 0.898723221919 -0.200870774071
324697500 0.898546084708 -0.20017324347
324715000 0.898018454036 -0.200189072106
324732500 0.899139622736 -0.200388291893
324750000 0.899180450764 -0.201469339684
324767500 0.899951543897 -0.201962106569
324785000 0.8991542077 -0.201026226589
324802500 0.898439621889 -0.200674935578
324820000 0.897954160556 -0.201187019276
324837500 0.898720764232 -0.200560835356
324855000 0.899853675666 -0.20101278245
324872500 0.897977254226 -0.201596748097
324890000 0.897169604672 -0.201827117001
324907500 0.896595542395 -0.201249010418
324925000 0.898485196224 -0.20234626766
324942500 0.893332718518 -0.194773481214
324960000 0.874714500598 -0.174604321301
324977500 0.880763416597 -0.197297089408
324995000 0.885270303394 -0.217217462783
325012500 0.906445534953 -0.218643869952
325030000 0.899124594342 -0.206943828888
325047500 0.902203326346 -0.200207245531
325065000 0.896526850442 -0.201612910622
325082500 0.898385101386 -0.201829717267
325100000 0.897802623863 -0.202027270312
325117500 0.897417173102 -0.201830110011
325135000 0.897848830059 -0.202167786662
325152500 0.89834062516 -0.201837445115
325170000 0.898429695053 -0.203193366984
325187500 0.896903269871 -0.202984129454
325205000 0.898072226545 -0.20341326895
325222500 0.896943930238 -0.202057542924
325240000 0.897710286851 -0.203058802939
325257500 0.896753164788 -0.20330167725
325275000 0.897333773355 -0.202762271745
325292500 0.897086862607 -0.20290790616
325310000 0.897341410105 -0.201641991846
325327500 0.897844199734 -0.202924866699
325345000 0.897563001111 -0.20463492535
325362500 0.898227372433 -0.203490708032
325380000 0.898412147429 -0.203630284703
325397500 0.896973594478 -0.203369604382
325415000 0.896669859509 -0.202619295686
325432500 0.896730522021 -0.202588283159
325450000 0.896708348838 -0.203061489427
325467500 0.896477124503 -0.204244986206
325485000 0.897378349625 -0.204223150345
325502500 0.896707601596 -0.203774236062
325520000 0.896168760158 -0.204660411582
325537500 0.897923020827 -0.203772099943
325555000 0.895773883775 -0.204173197128
325572500 0.896408497836 -0.204674973436
325590000 0.896900972421 -0.205828973787
325607500 0.896751442637 -0.205721641819
325625000 0.895708615407 -0.205086471044
325642500 0.895657851721 -0.205693793321
325660000 0.896733452651 -0.205588535458
325677500 0.896190369674 -0.204984001217
325695000 0.89641717765 -0.205153821906
325712500 0.895863197742 -0.205977513353
325730000 0.895935302978 -0.204749173152
325747500 0.896015503804 -0.205412750794
325765000 0.897304229958 -0.20513473755
325782500 0.895871797391 -0.204670201875
325800000 0.896936035243 -0.204849384019
325817500 0.895836925083 -0.204257397738
325835000 0.895782653153 -0.205533198204
325852500 0.896379720069 -0.205185834696
325870000 0.897049360142 -0.207069889714
325887500 0.8979757988 -0.206199551446
325905000 0.897216939965 -0.205249568516
325922500 0.896780355499 -0.206248749093
325940000 0.895774357036 -0.206200450475
325957500 0.895677487679 -0.206341872817
325975000 0.896159299794 -0.206184453205
325992500 0.895997679115 -0.205316458624
326010000 0.8948310493 -0.20650332057
326027500 0.895319539875 -0.206070279393
326045000 0.894986887562 -0.206986202625
326062500 0.89584432247 -0.206753315729
326080000 0.896449168976 -0.206321190888
326097500 0.896766243552 -0.207504997168
326115000 0.895389799958 -0.207134469789
326132500 0.894633993324 -0.207292577686
326150000 0.894428395114 -0.207747503118
326167500 0.895376014982 -0.206291466647
326185000 0.895340347659 -0.207995855673
326202500 0.896311085833 -0.208480737102
326220000 0.896026516563 -0.207728640825
326237500 0.89401639343 -0.207442037329
326255000 0.895750882611 -0.20830985
326272500 0.895625316755 -0.207996627675
326290000 0.895379883102 -0.208719946515
326307500 0.894280973047 -0.20673978718
326325000 0.895300721258 -0.207287872065
326342500 0.894255296158 -0.207356073716
326360000 0.895149504101 -0.208976974715
326377500 0.894610784735 -0.208237369889
326395000 0.894299381429 -0.208001859219
326412500 0.89389457391 -0.208564089749
326430000 0.892366774066 -0.209693379384
326447500 0.892621649836 -0.207751068919
326465000 0.893103889944 -0.207525640805
326482500 0.894207681748 -0.208720625443
326500000 0.894620512643 -0.209407459136
326517500 0.893166272341 -0.209827751916
326535000 0.893411667565 -0.209304067223
326552500 0.894591872524 -0.208986277906
326570000 0.894142335163 -0.209381469071
326587500 0.894019639743 -0.208480466584
326605000 0.89454855661 -0.208612477849
326622500 0.894810266188 -0.209765997327
326640000 0.895327003814 -0.209578266672
326657500 0.894003810928 -0.210255596332
326675000 0.893069146467 -0.209571901451
326692500 0.893525262152 -0.210258813018
326710000 0.89454984052 -0.210049982692
326727500 0.895273399245 -0.210004233491
326745000 0.894988185769 -0.209748243167
326762500 0.894307720534 -0.210707294907
326780000 0.894721810278 -0.208999757561
326797500 0.893994678908 -0.208944569139
326815000 0.892705740415 -0.210292119555
326832500 0.894066191782 -0.21095048022
326850000 0.89283513282 -0.210799395854
326867500 0.893573972846 -0.210322186124
326885000 0.893466618517 -0.21126227675
326902500 0.892828376476 -0.210927050235
326920000 0.893380302551 -0.211833664805
326937500 0.894081426349 -0.211248514977
326955000 0.893141916387 -0.210599851723
326972500 0.893641569635 -0.211351292794
326990000 0.89274621332 -0.21128689024
327007500 0.892267100619 -0.210338492837
327025000 0.892709470159 -0.211256219594
327042500 0.893264982459 -0.212522324365
327060000 0.89374029184 -0.212688628003
327077500 0.892940191419 -0.212486087355
327095000 0.891896516105 -0.211440405052
327112500 0.893253156396 -0.212043716164
327130000 0.892906349554 -0.212400683279
327147500 0.892068529037 -0.212487725609
327165000 0.891963018792 -0.212082248954
327182500 0.891759827326 -0.212146773635
327200000 0.892365071406 -0.212631629135
327217500 0.891676930944 -0.212348503671
327235000 0.893326406564 -0.21237473149
327252500 0.892511059347 -0.212282573555
327270000 0.89229465871 -0.212560798577
327287500 0.893032641032 -0.212094551054
327305000 0.892533738774 -0.212732801011
327322500 0.892840552621 -0.213259650114
327340000 0.893440409769 -0.212848599476
327357500 0.892943957883 -0.213235791795
327375000 0.892549624913 -0.212803353536
327392500 0.892325506603 -0.213669762382
327410000 0.892339320701 -0.212182452643
327427500 0.891880534132 -0.212977732179
327445000 0.892254398468 -0.213230587515
327462500 0.891793459759 -0.213784201148
327480000 0.892320920181 -0.213831828321
327497500 0.891764890151 -0.213838585881
327515000 0.892054807853 -0.212386654829
327532500 0.891905417667 -0.213274527763
327550000 0.893010679239 -0.213843831958
327567500 0.891963733974 -0.214022349298
327585000 0.891955886284 -0.213625222177
327602500 0.892706207616 -0.214353839658
327620000 0.89199749783 -0.213747669746
327637500 0.891446987901 -0.213774682442
327655000 0.891415638593 -0.214368921568
327672500 0.891475433555 -0.213238837816
327690000 0.890565285001 -0.212205645305
327707500 0.891261815526 -0.213055170271
327725000 0.891166024591 -0.215620902987
327742500 0.891019379755 -0.215050203379
327760000 0.890147742149 -0.215051178452
327777500 0.890112866881 -0.215365345989
327795000 0.890249044274 -0.215377934251
327812500 0.891073818581 -0.214439535278
327830000 0.891552425145 -0.214795852336
327847500 0.891411039344 -0.215663918379
327865000 0.892236485741 -0.215468572523
327882500 0.891839285646 -0.215796974132
327900000 0.891188559454 -0.216014993889
327917500 0.891208849279 -0.215402628766
327935000 0.891223633421 -0.215543658656
327952500 0.892370711791 -0.215393504313
327970000 0.891421501923 -0.216037990736
327987500 0.890902831491 -0.215130726972
328005000 0.890080931723 -0.216024048653
328022500 0.890664646124 -0.216437308832
328040000 0.890624595799 -0.216691193257
328057500 0.89101015045 -0.215973204356
328075000 0.889230001364 -0.215756474841
328092500 0.890309267048 -0.216188769713
328110000 0.889939544026 -0.215500456539
328127500 0.890079311774 -0.215400160138
328145000 0.889313103406 -0.215881510988
328162500 0.889801253063 -0.216691717512
328180000 0.890725880841 -0.217118667646
328197500 0.888963991218 -0.21495583481
328215000 0.891038943368 -0.216320720064
328232500 0.889972278096 -0.217229221159
328250000 0.890141735335 -0.217404609871
328267500 0.890263442129 -0.216855386755
328285000 0.890229012737 -0.217581916435
328302500 0.889777905484 -0.217116686339
328320000 0.891246381219 -0.217670692008
328337500 0.889921682197 -0.217636180871
328355000 0.889713168066 -0.218273753522
328372500 0.889499979141 -0.217728035879
328390000 0.889817876153 -0.216719685353
328407500 0.894030197978 -0.218365322525
328425000 0.893606758599 -0.216869810344
328442500 0.888723963169 -0.219360481461
328460000 0.88968959428 -0.218891546031
328477500 0.889725018794 -0.219150163757
328495000 0.88889299299 -0.217699530358
328512500 0.88945242113 -0.218688247083
328530000 0.889817317138 -0.219862576172
328547500 0.890206361435 -0.218296117932
328565000 0.889387935694 -0.218302985738
328582500 0.890130233406 -0.218927012021
328600000 0.890884936666 -0.220922911665
328617500 0.889530376213 -0.218625518384
328635000 0.889593566886 -0.21863065397
328652500 0.889731344487 -0.220167727395
328670000 0.89024467992 -0.219378529707
328687500 0.889300364887 -0.219162638176
328705000 0.888755258317 -0.219123410648
328722500 0.888089779663 -0.219149041482
328740000 0.889026806009 -0.218677811737
328757500 0.889557802272 -0.218507182896
328775000 0.890549366654 -0.218533678236
328792500 0.888934738436 -0.218993055821
328810000 0.88867808455 -0.219555374114
328827500 0.889491052372 -0.221442395967
328845000 0.890253595125 -0.218839935745
328862500 0.888893713634 -0.220407792999
328880000 0.889476818168 -0.219469911455
328897500 0.89058426271 -0.220926365898
328915000 0.888751497992 -0.220091865531
328932500 0.887743669901 -0.221497789843
328950000 0.888360077389 -0.2202739636
328967500 0.887204854081 -0.219350836356
328985000 0.889038398194 -0.219321992192
329002500 0.888114980326 -0.219889698368
329020000 0.886825436844 -0.220974323427
329037500 0.888081145623 -0.221380834593
329055000 0.887808701841 -0.220676424713
329072500 0.887910999914 -0.220830095171
329090000 0.888142745107 -0.221282033739
329107500 0.887802835893 -0.221754029091
329125000 0.887707330291 -0.22082934235
329142500 0.888626279359 -0.220683294311
329160000 0.887824074249 -0.222295794883
329177500 0.888484271746 -0.221537222313
329195000 0.887554857075 -0.221807212076
329212500 0.887571780726 -0.220981042317
329230000 0.887365041086 -0.222163006254
329247500 0.887660489475 -0.223683833447
329265000 0.886945496494 -0.223013203265
329282500 0.886935884671 -0.222509532215
329300000 0.887354537015 -0.223722238861
329317500 0.887438317779 -0.222726228546
329335000 0.887230077067 -0.222071147466
329352500 0.887464790588 -0.221878763702
329370000 0.888535804119 -0.223494013628
329387500 0.886814817896 -0.222393331863
329405000 0.886992731702 -0.22263338035
329422500 0.887546089804 -0.222717431074
329440000 0.886338617642 -0.221619712137
329457500 0.887104203274 -0.221036628478
329475000 0.88635729241 -0.22060522018
329492500 0.886394167342 -0.22234484968
329510000 0.887168700975 -0.223158900378
329527500 0.887343492954 -0.223334254395
329545000 0.887865622143 -0.224041491735
329562500 0.886716115471 -0.223297340906
329580000 0.887042317204 -0.224136239161
329597500 0.889364394533 -0.224324417178
329615000 0.886599749873 -0.223925297601
329632500 0.886572700816 -0.223290027405
329650000 0.887922420343 -0.224579331237
329667500 0.887047595884 -0.224612074426
329685000 0.886354130661 -0.223516464026
329702500 0.886258416149 -0.224979688871
329720000 0.8867364175 -0.224411604165
329737500 0.885572123082 -0.224077447017
329755000 0.886524580285 -0.224268020797
329772500 0.885924438647 -0.224906385223
329790000 0.886528963586 -0.22463456393
329807500 0.886878100591 -0.225156583314
329825000 0.886743591296 -0.224769578439
329842500 0.886806887107 -0.225074273119
329860000 0.885619737147 -0.224775789218
329877500 0.885324479368 -0.223819224569
329895000 0.884979895749 -0.224848877609
329912500 0.886287743907 -0.225526769967
329930000 0.884878822021 -0.225342196212
329947500 0.885576864949 -0.224908092576
329965000 0.886081984018 -0.225904199684
329982500 0.88439228345 -0.225964430827
330000000 0.886399191388 -0.224719036857
330017500 0.88703573804 -0.225157120467
330035000 0.884067163784 -0.225895439164
330052500 0.885048681624 -0.226211210589
330070000 0.885238604718 -0.226364559051
330087500 0.885574227148 -0.225306559578
330105000 0.886235654147 -0.226441181685
330122500 0.886166834637 -0.227071723231
330140000 0.885798143687 -0.22629845666
330157500 0.885604096292 -0.226354312944
330175000 0.885772953598 -0.226562760387
330192500 0.884874361432 -0.2256248803
330210000 0.885597385719 -0.225775765259
330227500 0.884639375704 -0.227258886184
330245000 0.884918071581 -0.227180954814
330262500 0.884818220734 -0.226470754108
330280000 0.884296966523 -0.225279459632
330297500 0.884269290312 -0.225381530813
330315000 0.884819739701 -0.225958046515
330332500 0.884975442422 -0.226603478119
330350000 0.885409542864 -0.227011996621
330367500 0.884593768316 -0.227583596237
330385000 0.887768751158 -0.227727050861
330402500 0.889975569008 -0.226776278675
330420000 0.885701066506 -0.228233899534
330437500 0.883573445933 -0.227445051669
330455000 0.884571870925 -0.227394580901
330472500 0.884734491412 -0.22786982824
330490000 0.884196756484 -0.227872659384
330507500 0.883168137125 -0.22887885024
330525000 0.883136351577 -0.228276069456
330542500 0.882886140997 -0.229256629094
330560000 0.888295531315 -0.225708110366
330577500 0.884141945035 -0.227699253869
330595000 0.884484625119 -0.227871695431
330612500 0.884507781337 -0.229017396678
330630000 0.883917316382 -0.229089652663
330647500 0.883565699756 -0.229228398274
330665000 0.882703617281 -0.229689485187
330682500 0.884573460325 -0.22885871819
330700000 0.883387556767 -0.229390720584
330717500 0.884257201715 -0.228412834594
330735000 0.882724319559 -0.229199260504
330752500 0.883032632978 -0.229148623025
330770000 0.884072699045 -0.228332720042
330787500 0.881711771723 -0.229359362852
330805000 0.880817575009 -0.22973666944
330822500 0.882836862955 -0.228987791954
330840000 0.883400779475 -0.229461555434
330857500 0.883738501477 -0.228475888934
330875000 0.882811287425 -0.229274150702
330892500 0.882654337654 -0.229488289325
330910000 0.882280255708 -0.229309832403
330927500 0.882059958584 -0.230045422498
330945000 0.881154842745 -0.230850755896
330962500 0.881456396794 -0.230069386581
330980000 0.881988087165 -0.230215682407
330997500 0.882507985197 -0.229659556562
331015000 0.883636124601 -0.230085243433
331032500 0.882622250413 -0.231193359827
331050000 0.882727687335 -0.229867263266
331067500 0.882995943103 -0.230880573761
331085000 0.88322929014 -0.230381065989
331102500 0.882131199541 -0.230644241498
331120000 0.881997593387 -0.230162798719
331137500 0.882565034114 -0.231085679806
331155000 0.88373531101 -0.231640600862
331172500 0.882650662071 -0.2324264201
331190000 0.882322472117 -0.231249711578
331207500 0.883091499953 -0.230494337136
331225000 0.881699326128 -0.230417945382
331242500 0.881358006928 -0.233071555406
331260000 0.882359569405 -0.232465535207
331277500 0.883908748674 -0.232780935956
331295000 0.882460085775 -0.232503196971
331312500 0.882523722543 -0.23160234475
331330000 0.882233669592 -0.231914115451
331347500 0.880705450019 -0.233221999486
331365000 0.882345609214 -0.233202370284
331382500 0.881215325211 -0.232593334329
331400000 0.880769826559 -0.231704831256
331417500 0.880874250742 -0.232969815872
331435000 0.881336663052 -0.2342436101
331452500 0.881430749565 -0.232475022432
331470000 0.881593120853 -0.232137705679
331487500 0.887089024284 -0.234882909355
331505000 0.88159825471 -0.233189439221
331522500 0.881459650716 -0.232274792332
331540000 0.881106610204 -0.23294388699
331557500 0.881191784202 -0.23382123098
331575000 0.882348926249 -0.232362549859
331592500 0.881697264542 -0.233122803364
331610000 0.880023486083 -0.233470078922
331627500 0.879685841186 -0.233888128202
331645000 0.881003103975 -0.234855749805
331662500 0.881369461038 -0.232729898066
331680000 0.880552052981 -0.234204435907
331697500 0.880998494714 -0.234492534749
331715000 0.880400340994 -0.233903755031
331732500 0.88115855921 -0.233067813045
331750000 0.879791932137 -0.233272135137
331767500 0.878576269043 -0.23389752809
331785000 0.87769502689 -0.234775791379
331802500 0.881016950309 -0.234606678281
331820000 0.879663368615 -0.233784793921
331837500 0.881034334395 -0.234673430912
331855000 0.880030481536 -0.233520329819
331872500 0.880224864417 -0.234179254599
331890000 0.880712405116 -0.233685678587
331907500 0.881517165586 -0.233868808717
331925000 0.880652284927 -0.234341183466
331942500 0.880921082639 -0.234497663871
331960000 0.880047773497 -0.236232518403
331977500 0.879886742345 -0.235223807328
331995000 0.879898005791 -0.235354178952
332012500 0.880472056349 -0.236348236204
332030000 0.879783422843 -0.23478851646
332047500 0.880201496657 -0.235421125952
332065000 0.879550163868 -0.235621571652
332082500 0.879845596705 -0.235458822873
332100000 0.880830936764 -0.235444570584
332117500 0.879831514245 -0.236133323226
332135000 0.879044097656 -0.236337343843
332152500 0.878815983101 -0.236971639352
332170000 0.879207945821 -0.236611894175
332187500 0.878279506507 -0.236660243489
332205000 0.875390008635 -0.238584221032
332222500 0.876922779288 -0.237041682698
332240000 0.879129568703 -0.235112382176
332257500 0.878803347488 -0.23575812112
332275000 0.878169233787 -0.236169566192
332292500 0.878710255866 -0.23645438373
332310000 0.879997290575 -0.236698517078
332327500 0.87964726027 -0.237062144778
332345000 0.878674841952 -0.236100012695
332362500 0.879160414018 -0.236856399686
332380000 0.877868044202 -0.236824952143
332397500 0.878326203836 -0.237177843351
332415000 0.878443046721 -0.237203641324
332432500 0.879026879195 -0.237689897166
332450000 0.878263321571 -0.237798229759
332467500 0.878842994841 -0.237277330786
332485000 0.87795809399 -0.23663402976
332502500 0.878044017885 -0.236706192341
332520000 0.878285007136 -0.237413805156
332537500 0.878455893932 -0.237977939633
332555000 0.877617396597 -0.237105074574
332572500 0.877269106103 -0.237515222351
332590000 0.878860241989 -0.237961162248
332607500 0.87866706724 -0.237084823928
332625000 0.878816265852 -0.238525382616
332642500 0.878417094419 -0.2386156049
332660000 0.880247109116 -0.239163225505
332677500 0.879134981944 -0.239074591417
332695000 0.877858991124 -0.23948343412
332712500 0.875169144356 -0.232439990213
332730000 0.874497026898 -0.226361929196
332747500 0.876495762373 -0.233726969385
332765000 0.878447503066 -0.238662358138
332782500 0.877778930292 -0.238037201206
332800000 0.878214275844 -0.239871725365
332817500 0.877254330506 -0.240400072095
332835000 0.876411935896 -0.238867618982
332852500 0.876530288636 -0.240608224442
332870000 0.877120353533 -0.240559363362
332887500 0.877366776964 -0.240253601058
332905000 0.876717859303 -0.239544325258
332922500 0.876529162773 -0.239886653781
332940000 0.877394464516 -0.239590788605
332957500 0.876725274531 -0.239746485831
332975000 0.877357991746 -0.239675453934
332992500 0.875926408609 -0.238839132449
333010000 0.875611043346 -0.239858945828
333027500 0.875510384704 -0.239288659223
333045000 0.87638530731 -0.239639147719
333062500 0.876830120123 -0.239572279266
333080000 0.876711882749 -0.240262225956
333097500 0.876386445286 -0.241528577371
333115000 0.876721031314 -0.241385240187
333132500 0.876474698791 -0.24028340559
333150000 0.876377518352 -0.240175285979
333167500 0.876137597898 -0.240560039649
333185000 0.87676342862 -0.239450400201
333202500 0.875823540509 -0.239789778921
333220000 0.874991147818 -0.241286027681
333237500 0.875820152941 -0.241853652314
333255000 0.875907153877 -0.242044595959
333272500 0.874878798588 -0.243965728455
333290000 0.876270502157 -0.242352197328
333307500 0.875900902408 -0.24068312833
333325000 0.874566770684 -0.241348340852
333342500 0.876213483452 -0.241990524684
333360000 0.876738676484 -0.241173249294
333377500 0.876026934553 -0.242758183025
333395000 0.875444224592 -0.242712320357
333412500 0.876299757633 -0.242567616996
333430000 0.875368535733 -0.241865589683
333447500 0.874799446117 -0.240890923493
333465000 0.875657501043 -0.242282944273
333482500 0.875207143736 -0.243068137624
333500000 0.875041856229 -0.242099394332
333517500 0.875478662956 -0.242580386172
333535000 0.876786551894 -0.242086382724
333552500 0.874512676297 -0.242182051813
333570000 0.874379411887 -0.242931907564
333587500 0.874607378821 -0.24272521083
333605000 0.876576107568 -0.242935599998
333622500 0.875801589733 -0.243884172463
333640000 0.875119010777 -0.243174075596
333657500 0.875174648975 -0.242808286053
333675000 0.874828061719 -0.243416140368
333692500 0.874869690322 -0.243920045644
333710000 0.874260197524 -0.24283692793
333727500 0.874665433413 -0.243997722899
333745000 0.874416732355 -0.245013639366
333762500 0.875176704947 -0.24460961125
333780000 0.8753157121 -0.244518105408
333797500 0.875823860315 -0.244334721795
333815000 0.875202388405 -0.244142571162
333832500 0.874441307159 -0.243449869095
333850000 0.873125816501 -0.243570475665
333867500 0.874104309824 -0.243379333447
333885000 0.874700649746 -0.243986525058
333902500 0.87356575623 -0.244021883295
333920000 0.873599079651 -0.244821570796
333937500 0.873864290297 -0.245447517373
333955000 0.873898220465 -0.244861660525
333972500 0.87348309033 -0.243788596563
333990000 0.873323853171 -0.244007604641
334007500 0.874650817029 -0.244348598879
334025000 0.874923179816 -0.244852209233
334042500 0.874108320656 -0.244898119663
334060000 0.872692354719 -0.245325610034
334077500 0.873261628634 -0.244363125443
334095000 0.873999998172 -0.24444740004
334112500 0.873302452063 -0.246168024419
334130000 0.873070051647 -0.245886258921
334147500 0.872966433043 -0.244651578695
334165000 0.874138192786 -0.245164572374
334182500 0.873226245965 -0.244586911693
334200000 0.873375221339 -0.245728414316
334217500 0.873861143286 -0.247215830302
334235000 0.873339622639 -0.246800144901
334252500 0.872869133687 -0.247155301994
334270000 0.871378447575 -0.246446448188
334287500 0.873994055123 -0.245821597697
334305000 0.873510654747 -0.246644047858
334322500 0.872986498022 -0.246384950715
334340000 0.871783291488 -0.246660915067
334357500 0.872187671059 -0.247076842525
334375000 0.872685793838 -0.246967552891
334392500 0.873299125554 -0.246808653563
334410000 0.872534920068 -0.246981885845
334427500 0.873108186108 -0.247868816722
334445000 0.872472345719 -0.247313783185
334462500 0.872404956412 -0.246951205492
334480000 0.872814989198 -0.247955054922
334497500 0.872174538856 -0.246987633126
334515000 0.871639490147 -0.247452462816
334532500 0.87187978187 -0.247981461185
334550000 0.871579593329 -0.247563099974
334567500 0.871422415225 -0.247669505492
334585000 0.871464417667 -0.24850180276
334602500 0.872242513541 -0.247601263953
334620000 0.869866808412 -0.250805044804
334637500 0.871631462487 -0.247602127933
334655000 0.872242909944 -0.248063766357
334672500 0.871808703703 -0.248169946568
334690000 0.872211086391 -0.248202036449
334707500 0.871061487549 -0.248902876792
334725000 0.871881283988 -0.248706795669
334742500 0.871698679268 -0.248014946668
334760000 0.870421007603 -0.247669060838
334777500 0.870634733018 -0.248078506317
334795000 0.870320552238 -0.249652877803
334812500 0.870822347053 -0.248589308993
334830000 0.871297730564 -0.249280436588
334847500 0.871193839589 -0.249494093286
334865000 0.871462574977 -0.249232916932
334882500 0.871128768117 -0.248045252365
334900000 0.87102644816 -0.248998837973
334917500 0.871410987772 -0.249221818148
334935000 0.870418951646 -0.249863071935
334952500 0.871249160547 -0.249910949384
334970000 0.870936832162 -0.25017902846
334987500 0.873274601445 -0.248611585321
335005000 0.87059708835 -0.250153850218
335022500 0.870023338061 -0.250707314943
335040000 0.871107073174 -0.251384006085
335057500 0.871522984699 -0.250770415504
335075000 0.870372205491 -0.250343832582
335092500 0.87084052786 -0.250213604034
335110000 0.870586078356 -0.249653818039
335127500 0.871137790447 -0.24954068672
335145000 0.87118132298 -0.251320749916
335162500 0.870821199601 -0.250804158947
335180000 0.869955611197 -0.251051679851
335197500 0.869455962206 -0.251578443239
335215000 0.869049241117 -0.250640481194
335232500 0.868493109276 -0.250336561961
335250000 0.870201865249 -0.250583629074
335267500 0.869222741768 -0.250500908924
335285000 0.868323394411 -0.250565011675
335302500 0.869467313193 -0.25058411354
335320000 0.869694685448 -0.251010696397
335337500 0.869657494106 -0.252451656466
335355000 0.868767000008 -0.251449290269
335372500 0.869702357626 -0.250903568983
335390000 0.869306063732 -0.251794736658
335407500 0.868708535336 -0.25227875491
335425000 0.869307754897 -0.251185397251
335442500 0.869496828519 -0.251443722791
335460000 0.869246193722 -0.25142651868
335477500 0.868569996091 -0.251503491712
335495000 0.868429217118 -0.25109336769
335512500 0.86876714606 -0.250827131941
335530000 0.868983898121 -0.252102937661
335547500 0.868429698206 -0.252139936353
335565000 0.868324212832 -0.252290845253
335582500 0.868393365891 -0.251973986081
335600000 0.869854237731 -0.250894898114
335617500 0.868165050441 -0.252683598737
335635000 0.867881018054 -0.253185970459
335652500 0.868924960285 -0.253081488762
335670000 0.869111849277 -0.253051357652
335687500 0.868492488472 -0.253477845814
335705000 0.867969284391 -0.253713387574
335722500 0.868074156656 -0.253605783876
335740000 0.868143313779 -0.253403132177
335757500 0.869095713248 -0.253471534566
335775000 0.867608154505 -0.254290888978
335792500 0.868424781756 -0.254591184161
335810000 0.863293818335 -0.254421337086
335827500 0.856599830216 -0.250044870317
335845000 0.861750424407 -0.255082075275
335862500 0.866731096859 -0.253688572077
335880000 0.869342738187 -0.254528998282
335897500 0.86788856695 -0.253808603374
335915000 0.870973631003 -0.254337444627
335932500 0.868708930036 -0.254278325297
335950000 0.866370378739 -0.25438649118
335967500 0.867415712932 -0.255244771272
335985000 0.867568053337 -0.255144727118
336002500 0.867126085054 -0.253886768692
336020000 0.867259254082 -0.254243242822
336037500 0.867043386885 -0.254465126528
336055000 0.867459472821 -0.25460769699
336072500 0.866205998639 -0.254403039499
336090000 0.866864624462 -0.255491404378
336107500 0.86661426791 -0.254102844851
336125000 0.866174011246 -0.253044719107
336142500 0.865342295788 -0.255245027962
336160000 0.865942406 -0.254195313909
336177500 0.866401205452 -0.254915643663
336195000 0.86651641765 -0.25526420915
336212500 0.867531182751 -0.254971842228
336230000 0.866550634585 -0.254701169631
336247500 0.866826403529 -0.255667709469
336265000 0.866439577584 -0.254157856515
336282500 0.866000073088 -0.255669422738
336300000 0.866463029346 -0.255678096814
336317500 0.866385502308 -0.256507083458
336335000 0.867276886607 -0.255753324721
336352500 0.866627248854 -0.255418970455
336370000 0.866250494666 -0.256333853754
336387500 0.865951607594 -0.256744394596
336405000 0.866176789691 -0.255935056555
336422500 0.865328822468 -0.257366209865
336440000 0.864556211081 -0.256613079435
336457500 0.865493356755 -0.256956897181
336475000 0.866200425096 -0.256593723447
336492500 0.864945596059 -0.256817152521
336510000 0.865401407099 -0.257679144108
336527500 0.866264473429 -0.258722999169
336545000 0.865502869519 -0.257313315359
336562500 0.865752021013 -0.256861791762
336580000 0.865244025238 -0.258042708211
336597500 0.864671686449 -0.257361967297
336615000 0.8645392536 -0.257260003329
336632500 0.864690792034 -0.258391807824
336650000 0.864491585711 -0.2582772085
336667500 0.864198869271 -0.258065188094
336685000 0.865610111169 -0.258431804734
336702500 0.86505790339 -0.258597099606
336720000 0.864497993614 -0.258001362262
336737500 0.864196359886 -0.258269599242
336755000 0.863610567014 -0.258332470166
336772500 0.863640013633 -0.258221661919
336790000 0.863691470821 -0.259008987587
336807500 0.864668033117 -0.259286715714
336825000 0.864724825449 -0.258635787
336842500 0.864217398868 -0.259191994614
336860000 0.864801447461 -0.258465808725
336877500 0.864352225816 -0.258621517344
336895000 0.864101328866 -0.259361785821
336912500 0.865002544551 -0.25961615446
336930000 0.864264595126 -0.258993200319
336947500 0.864044873036 -0.258924098087
336965000 0.864413830119 -0.25911130676
336982500 0.863777672647 -0.25883550487
337000000 0.864307575059 -0.260259021259
337017500 0.865069484178 -0.259754546037
337035000 0.864010403396 -0.260095695269
337052500 0.863987054697 -0.259419261436
337070000 0.86312426655 -0.26007122516
337087500 0.863648707654 -0.259782816084
337105000 0.864788954742 -0.260265523237
337122500 0.863253200124 -0.260952685978
337140000 0.863614665461 -0.26055124798
337157500 0.861882400991 -0.261831155195
337175000 0.862900308824 -0.260942521024
337192500 0.863186719862 -0.261173408346
337210000 0.863691562506 -0.261665700867
337227500 0.862925008829 -0.261334360568
337245000 0.86269813476 -0.261261495017
337262500 0.862864675254 -0.260139411184
337280000 0.863011662238 -0.260956434723
337297500 0.863174209185 -0.260653553375
337315000 0.863018754196 -0.261484857485
337332500 0.861945528694 -0.261359562584
337350000 0.862231485409 -0.261639901598
337367500 0.873109155432 -0.261708594548
337385000 0.861364406858 -0.262145404502
337402500 0.860795129719 -0.260986452403
337420000 0.861585218762 -0.26149029867
337437500 0.862070486127 -0.262352137763
337455000 0.862392638634 -0.262331453016
337472500 0.862467290511 -0.26203694172
337490000 0.862030237293 -0.262582280498
337507500 0.862213384216 -0.263118773058
337525000 0.86138848758 -0.26235876829
337542500 0.860897219945 -0.263564702944
337560000 0.86111668641 -0.262308459328
337577500 0.861823667849 -0.263178552666
337595000 0.860898627782 -0.263280697002
337612500 0.860984693686 -0.263756998371
337630000 0.861622424334 -0.262679201592
337647500 0.860788044053 -0.262383994894
337665000 0.861313141908 -0.263744419489
337682500 0.860565897778 -0.263589558473
337700000 0.861334538086 -0.263430431762
337717500 0.860816140009 -0.262404690294
337735000 0.860720857392 -0.2626455151
337752500 0.861243456608 -0.263191777718
337770000 0.86130269104 -0.263653267169
337787500 0.861581030408 -0.263977507884
337805000 0.860351562414 -0.264813903039
337822500 0.861292616856 -0.265644971427
337840000 0.861179128381 -0.265426325971
337857500 0.86065651297 -0.264870073024
337875000 0.860265657939 -0.264950387328
337892500 0.860178793981 -0.265206944827
337910000 0.860632283659 -0.265634006298
337927500 0.8591163442 -0.26441434955
337945000 0.859821109713 -0.264540839706
337962500 0.858094928195 -0.264372441727
337980000 0.850035534145 -0.265628486588
337997500 0.849388613915 -0.26698695555
338015000 0.857911118642 -0.265925753617
338032500 0.860580457483 -0.264684067271
338050000 0.860798279027 -0.264327223051
338067500 0.860063043316 -0.265422602141
338085000 0.860584252149 -0.265832475967
338102500 0.859183435317 -0.265668747398
338120000 0.859574571847 -0.26552771248
338137500 0.859688195346 -0.26548917193
338155000 0.859578243918 -0.266423307487
338172500 0.859667398712 -0.266483029921
338190000 0.859697421741 -0.266196114515
338207500 0.858716116487 -0.265609566099
338225000 0.859026681068 -0.266359314483
338242500 0.858555316676 -0.265618672583
338260000 0.858686329464 -0.266232737798
338277500 0.859886845345 -0.26677555497
338295000 0.859224700669 -0.266212612809
338312500 0.859174845025 -0.26649736507
338330000 0.859454133164 -0.267017062793
338347500 0.858986956704 -0.267219108962
338365000 0.858172304548 -0.267326523384
338382500 0.859037587504 -0.267394562229
338400000 0.858395634973 -0.266826301792
338417500 0.858553216535 -0.26804294023
338435000 0.858650836159 -0.26733100653
338452500 0.858083319888 -0.267210446418
338470000 0.859149416649 -0.268187505553
338487500 0.858636235705 -0.268401734202
338505000 0.857525575293 -0.268419079297
338522500 0.857853795111 -0.267879307993
338540000 0.857879420263 -0.268347399521
338557500 0.858292496775 -0.268587717679
338575000 0.858546090106 -0.267359351914
338592500 0.86130220928 -0.267708331479
338610000 0.859307241051 -0.267807779902
338627500 0.857975781339 -0.267990169272
338645000 0.857304218575 -0.26817422354
338662500 0.856123038984 -0.270219838764
338680000 0.852861026157 -0.272745026686
338697500 0.855934739991 -0.270995039841
338715000 0.857021924163 -0.269991527893
338732500 0.857102623633 -0.269060215345
338750000 0.857343124435 -0.26914938399
338767500 0.857249440688 -0.268945540286
338785000 0.856879792205 -0.269981381744
338802500 0.856016038951 -0.270244425653
338820000 0.856014038278 -0.269593140122
338837500 0.856074012646 -0.269224861524
338855000 0.855852245974 -0.268052806645
338872500 0.856258206453 -0.268937020035
338890000 0.856025472856 -0.269707528362
338907500 0.856728154152 -0.270652376536
338925000 0.854326357001 -0.270063712734
338942500 0.852670053972 -0.269762790638
338960000 0.85562100474 -0.269799162332
338977500 0.856247759741 -0.27036300901
338995000 0.855318585846 -0.27004192171
339012500 0.855235013754 -0.26994206024
339030000 0.856162739867 -0.270082013652
339047500 0.856351518231 -0.269609374035
339065000 0.856437307043 -0.269837916591
339082500 0.856493948669 -0.27043817468
339100000 0.856188047969 -0.27092503205
339117500 0.856100513033 -0.271635905495
339135000 0.855645112506 -0.271791745095
339152500 0.855065108047 -0.271392084784
339170000 0.857239822597 -0.269742362145
339187500 0.856514095408 -0.271306243077
339205000 0.856302645178 -0.271488441403
339222500 0.856256320108 -0.271465571987
339240000 0.855186983384 -0.2719461333
339257500 0.854846457293 -0.271741237012
339275000 0.85422686044 -0.272313925421
339292500 0.854298757986 -0.272596299748
339310000 0.854300297983 -0.271438071378
339327500 0.854472728133 -0.271857645726
339345000 0.853987413585 -0.272922895417
339362500 0.854665336602 -0.272924823657
339380000 0.85479134312 -0.272748282426
339397500 0.853632777968 -0.272328450097
339415000 0.850784602493 -0.27071768602
339432500 0.849819924522 -0.270241958393
339450000 0.853127214795 -0.272405026963
339467500 0.853450244232 -0.273770164991
339485000 0.853137485627 -0.273128071314
339502500 0.853519122937 -0.273864801037
339520000 0.852770178205 -0.274063800809
339537500 0.85341234798 -0.273482014339
339555000 0.853005154963 -0.27323231208
339572500 0.853060278384 -0.273395093068
339590000 0.853615409913 -0.27361631515
339607500 0.853747383611 -0.272529396545
339625000 0.854004602955 -0.273432412435
339642500 0.854284043082 -0.274117240282
339660000 0.852988110305 -0.273918290155
339677500 0.852559839676 -0.274724373305
339695000 0.852920733021 -0.27420517301
339712500 0.852942168071 -0.274533784088
339730000 0.852372313989 -0.27418334439
339747500 0.852156271151 -0.274030711713
339765000 0.852273112437 -0.273641486869
339782500 0.85239433444 -0.274757549452
339800000 0.852362304883 -0.275692596759
339817500 0.852678833942 -0.274329354853
339835000 0.852327012246 -0.274581750773
339852500 0.85239198037 -0.274890138721
339870000 0.852013260708 -0.275005026457
339887500 0.852288404896 -0.275871904917
339905000 0.852810194782 -0.275525893412
339922500 0.85211637839 -0.275685942027
339940000 0.851928842508 -0.276007047866
339957500 0.851056576733 -0.275147819863
339975000 0.850963955185 -0.274964780598
339992500 0.85247409887 -0.275468185126
340010000 0.852334206834 -0.276338693845
340027500 0.852344394653 -0.275715105091
340045000 0.851279712608 -0.275393693513
340062500 0.851177285614 -0.276365968841
340080000 0.850985394637 -0.277008233368
340097500 0.852813901113 -0.277065716621
340115000 0.85075528859 -0.276549301005
340132500 0.850933568756 -0.276841583123
340150000 0.850090617112 -0.277085742442
340167500 0.849520439893 -0.276467853409
340185000 0.850354389241 -0.276630513062
340202500 0.849771051017 -0.276071906265
340220000 0.850378707558 -0.275684902383
340237500 0.849895042018 -0.276030417481
340255000 0.85090003317 -0.275840362499
340272500 0.850767992985 -0.276530830775
340290000 0.850999444091 -0.276716951464
340307500 0.84965031201 -0.276999830603
340325000 0.848914321214 -0.277392406337
340342500 0.849289617404 -0.277543386701
340360000 0.849809278335 -0.277048001649
340377500 0.850221439673 -0.276498139889
340395000 0.849498445422 -0.278656412963
340412500 0.849244778677 -0.278138361646
340430000 0.849061382051 -0.277102777171
340447500 0.855149664336 -0.274918286037
340465000 0.85865438455 -0.273342352973
340482500 0.852516695288 -0.275456524219
340500000 0.849863982308 -0.277871458498
340517500 0.850462319692 -0.278281990875
340535000 0.849490246922 -0.278444961071
340552500 0.848775480907 -0.278092674347
340570000 0.848649360019 -0.278162762212
340587500 0.849066272605 -0.277776004404
340605000 0.848957325018 -0.277972836172
340622500 0.849577635356 -0.278668195537
340640000 0.849139382054 -0.279610073635
340657500 0.849159409408 -0.278315096365
340675000 0.849317512759 -0.278622025489
340692500 0.848801317433 -0.279206949243
340710000 0.847731704804 -0.278962660579
340727500 0.848848749349 -0.279585699738
340745000 0.850075192653 -0.27957097734
340762500 0.848553729088 -0.280461054053
340780000 0.84901678415 -0.279008370719
340797500 0.847922428185 -0.279101516385
340815000 0.847887583318 -0.279538825566
340832500 0.847618877178 -0.280388036799
340850000 0.847540989383 -0.280216413444
340867500 0.847561362277 -0.279614983221
340885000 0.847062714247 -0.279614611688
340902500 0.847961499143 -0.280480341532
340920000 0.847158340601 -0.280603514968
340937500 0.847337346448 -0.280815530749
340955000 0.846749329257 -0.279063783087
340972500 0.846723112819 -0.280186930165
340990000 0.84617027016 -0.280767001716
341007500 0.847008008736 -0.28117581599
341025000 0.846367367947 -0.280715095206
341042500 0.84623529685 -0.280551167608
341060000 0.847850020918 -0.280263302908
341077500 0.846773421146 -0.281043656171
341095000 0.846757474693 -0.28075236791
341112500 0.849691685472 -0.278337553107
341130000 0.847289533745 -0.282437281833
341147500 0.846052910619 -0.281498146183
341165000 0.846050952516 -0.281268830125
341182500 0.846024982547 -0.281741866162
341200000 0.846270183617 -0.281068630322
341217500 0.844842979067 -0.281792882725
341235000 0.846740721774 -0.284228639761
341252500 0.846326105036 -0.283625109878
341270000 0.845899864482 -0.281928557513
341287500 0.845502122481 -0.281623521255
341305000 0.845032424708 -0.282427565864
341322500 0.846436403625 -0.28302588953
341340000 0.846120262539 -0.282033126174
341357500 0.845811414929 -0.283348917353
341375000 0.845711333569 -0.282976031069
341392500 0.84504591529 -0.283325122503
341410000 0.845638205898 -0.283640331047
341427500 0.845425047874 -0.28349604518
341445000 0.845158923288 -0.282987367131
341462500 0.845235681944 -0.283155764197
341480000 0.846250501679 -0.283040521697
341497500 0.849188237873 -0.282839471832
341515000 0.845464762049 -0.283045504923
341532500 0.844757655751 -0.283134108233
341550000 0.845137074935 -0.282894636243
341567500 0.844431538815 -0.28343763166
341585000 0.844498010072 -0.28420939721
341602500 0.843922813917 -0.284517530185
341620000 0.844315523825 -0.284429635185
341637500 0.843811646616 -0.284105750441
341655000 0.845210753406 -0.284120470018
341672500 0.844220278982 -0.284466081643
341690000 0.844167404687 -0.284211000656
341707500 0.844606559175 -0.284380944392
341725000 0.843264317471 -0.283724452072
341742500 0.843398847695 -0.284854083477
341760000 0.843211454709 -0.284659965268
341777500 0.843626327228 -0.283793480302
341795000 0.843605918693 -0.284707529136
341812500 0.842632383331 -0.285364684836
341830000 0.842488051557 -0.285577169196
341847500 0.842668065224 -0.285230646364
341865000 0.843309149638 -0.285291495689
341882500 0.84311018593 -0.284741297821
341900000 0.842955952309 -0.285217209709
341917500 0.842893817337 -0.284512547286
341935000 0.843511294075 -0.286055887083
341952500 0.843090595386 -0.285897229801
341970000 0.84317503756 -0.286005011983
341987500 0.841816108822 -0.286325591033
342005000 0.841640201886 -0.284617525436
342022500 0.84168624483 -0.28529968463
342040000 0.841232805567 -0.285612213045
342057500 0.842095067256 -0.286330104679
342075000 0.842537934039 -0.285927184073
342092500 0.841486724835 -0.286878460097
342110000 0.841346047974 -0.286699233564
342127500 0.84208258493 -0.286925476482
342145000 0.842159208864 -0.285966399686
342162500 0.841564510547 -0.286213637004
342180000 0.841513409024 -0.286696787025
342197500 0.840854627679 -0.287557833184
342215000 0.841590962321 -0.287334790487
342232500 0.840431758796 -0.285378582386
342250000 0.841648721925 -0.288024717651
342267500 0.840405183147 -0.287685933824
342285000 0.840364419321 -0.287432871924
342302500 0.841686214097 -0.288030065284
342320000 0.843772045755 -0.280870756811
342337500 0.840120995865 -0.287313355712
342355000 0.840549804121 -0.287146863665
342372500 0.839980597829 -0.287927922768
342390000 0.839381953611 -0.288045863556
342407500 0.838688972478 -0.287762217872
342425000 0.838433589461 -0.2880065376
342442500 0.838804345046 -0.288148150216
342460000 0.839075064519 -0.288017503642
342477500 0.839118812842 -0.288453464966
342495000 0.839583226454 -0.289121668984
342512500 0.838949010157 -0.288626051786
342530000 0.838668117686 -0.289086852216
342547500 0.839824952998 -0.28853871946
342565000 0.839285216277 -0.287691431957
342582500 0.838652148527 -0.288261382769
342600000 0.838257862715 -0.287956842366
342617500 0.838785696561 -0.288136656094
342635000 0.838853985027 -0.288252566821
342652500 0.838064682987 -0.287784327873
342670000 0.838673729013 -0.288671826781
342687500 0.83856511942 -0.288849542046
342705000 0.839033467692 -0.289556804596
342722500 0.838603304161 -0.289562065389
342740000 0.838131916213 -0.289444008696
342757500 0.838942044294 -0.288660087001
342775000 0.838764172286 -0.289459285643
342792500 0.837345476815 -0.290224035649
342810000 0.837473227956 -0.290252324259
342827500 0.837894659759 -0.290419340949
342845000 0.837746029788 -0.289875692457
342862500 0.841529133409 -0.287342136563
342880000 0.837601068467 -0.290501762913
342897500 0.837037177427 -0.28984130204
342915000 0.837251865514 -0.290336310766
342932500 0.836824275053 -0.290322431122
342950000 0.836804839454 -0.289810312716
342967500 0.836971823865 -0.289569229024
342985000 0.836991334058 -0.290948955557
343002500 0.836843106389 -0.290660635134
343020000 0.837834734449 -0.289745544927
343037500 0.836705448052 -0.29119267548
343055000 0.836784076218 -0.290296555939
343072500 0.83646896512 -0.291987767999
343090000 0.836660512663 -0.291326274621
343107500 0.83673012591 -0.29194611782
343125000 0.836061411927 -0.292313648247
343142500 0.836439510158 -0.291679209826
343160000 0.836496681155 -0.291027493106
343177500 0.835594088187 -0.290736431916
343195000 0.835075424066 -0.291869088897
343212500 0.835053868891 -0.29131473228
343230000 0.83637073805 -0.291700642
343247500 0.837376922558 -0.291254609604
343265000 0.835611234573 -0.292126964179
343282500 0.83373980745 -0.292515905015
343300000 0.835130411723 -0.292542302958
343317500 0.835023323078 -0.292241515371
343335000 0.835503856793 -0.291929246266
343352500 0.835935356266 -0.29154969712
343370000 0.835495720543 -0.291220422506
343387500 0.834915885891 -0.291018734755
343405000 0.834090337135 -0.293203047017
343422500 0.834113934669 -0.293163003005
343440000 0.833880838918 -0.293208932479
343457500 0.834507028917 -0.293313038903
343475000 0.834638382685 -0.29192718378
343492500 0.834640194947 -0.291290037866
343510000 0.833318760267 -0.292168234287
343527500 0.833507109229 -0.292133629993
343545000 0.833497901322 -0.29298282876
343562500 0.834515895287 -0.295436258849
343580000 0.833685798215 -0.293903503294
343597500 0.834271578625 -0.294492784432
343615000 0.834726410293 -0.294213968467
343632500 0.834744836739 -0.293380566854
343650000 0.834618297088 -0.294016969613
343667500 0.833936220915 -0.294155247316
343685000 0.834113874578 -0.294780842872
343702500 0.833375931796 -0.294467173712
343720000 0.83352530818 -0.294198706187
343737500 0.834041720138 -0.295005857067
343755000 0.833086078601 -0.293805022601
343772500 0.832921918619 -0.294078796758
343790000 0.832336565316 -0.293804557465
343807500 0.833049652789 -0.293992522464
343825000 0.832777849587 -0.294969851356
343842500 0.832658132684 -0.295411248452
343860000 0.83198513682 -0.295785035092
343877500 0.832081645511 -0.295816655929
343895000 0.832343432423 -0.294470936563
343912500 0.83346266035 -0.294559271994
343930000 0.832217746262 -0.295137519821
343947500 0.831099849159 -0.295924309849
343965000 0.831835375967 -0.29475664531
343982500 0.831301100672 -0.294966095471
344000000 0.831705238491 -0.295104993915
344017500 0.832443530981 -0.295059588838
344035000 0.832573613706 -0.29579135127
344052500 0.830919488239 -0.295933577134
344070000 0.830335229569 -0.295209608799
344087500 0.830007056619 -0.294543274147
344105000 0.831024284168 -0.295849717352
344122500 0.831225483333 -0.295876189775
344140000 0.830579637151 -0.297388414168
344157500 0.830720052489 -0.297542049909
344175000 0.83113156029 -0.29637036687
344192500 0.830933489346 -0.297151168504
344210000 0.830788061519 -0.296757088697
344227500 0.831071480799 -0.296819493207
344245000 0.836347206283 -0.311006861264
344262500 0.831327688055 -0.297383954988
344280000 0.830702461493 -0.297410701279
344297500 0.830169150067 -0.29695950815
344315000 0.829808087546 -0.296415768838
344332500 0.829585600793 -0.295930745931
344350000 0.830172495042 -0.29660482948
344367500 0.830489422978 -0.296772967553
344385000 0.830117572318 -0.297513361744
344402500 0.83016849486 -0.297363388245
344420000 0.829631828412 -0.297079186127
344437500 0.829973514901 -0.297399761148
344455000 0.829386217335 -0.298035284154
344472500 0.829359731376 -0.298290928913
344490000 0.839438472288 -0.298875010528
344507500 0.831959060858 -0.298150922709
344525000 0.831028786709 -0.297963226462
344542500 0.829683347382 -0.29890326484
344560000 0.829326831855 -0.298878927031
344577500 0.828718725008 -0.299081065735
344595000 0.827971089679 -0.298280831699
344612500 0.828660838823 -0.298420538898
344630000 0.828817102017 -0.298899843032
344647500 0.82886719183 -0.298684156032
344665000 0.828143722204 -0.298582946572
344682500 0.829232220517 -0.298392671075
344700000 0.829150679277 -0.29925151744
344717500 0.827731146289 -0.298539064266
344735000 0.827586638424 -0.299071004967
344752500 0.827154650901 -0.299349981374
344770000 0.82722644055 -0.299162411381
344787500 0.827383540641 -0.299729522257
344805000 0.827371776027 -0.29991603518
344822500 0.827621180646 -0.299269336066
344840000 0.827421952394 -0.298885581031
344857500 0.828481960024 -0.298757321105
344875000 0.828299939444 -0.299384485047
344892500 0.827865650461 -0.298731678479
344910000 0.826622839244 -0.2998229199
344927500 0.827389962154 -0.300384394887
344945000 0.826542828749 -0.300474891531
344962500 0.826253216864 -0.299552561624
344980000 0.825994993697 -0.300370996922
344997500 0.826305170912 -0.300912096626
345015000 0.826509644794 -0.299871467925
345032500 0.827324110823 -0.299992403272
345050000 0.827211965259 -0.300659608949
345067500 0.826433728702 -0.299835328236
345085000 0.827193998113 -0.299766187281
345102500 0.826375399676 -0.30045442371
345120000 0.826771969176 -0.300789399633
345137500 0.825844444347 -0.301346235264
345155000 0.826414326208 -0.300286349911
345172500 0.826331254202 -0.300213455922
345190000 0.826066705742 -0.300856727488
345207500 0.82532682881 -0.301072972054
345225000 0.825484166434 -0.30201594369
345242500 0.824648423516 -0.301830178728
345260000 0.824326392116 -0.301220639295
345277500 0.825011788994 -0.301639711131
345295000 0.82499110568 -0.302305137873
345312500 0.824297592145 -0.30206892778
345330000 0.823942300153 -0.302514678498
345347500 0.823379335101 -0.30345459922
345365000 0.824316576123 -0.303180270517
345382500 0.824508384989 -0.303190154176
345400000 0.823948449406 -0.302467323757
345417500 0.82296584534 -0.302898323089
345435000 0.824886489367 -0.303621518339
345452500 0.822830704346 -0.303178262281
345470000 0.824050401439 -0.302563437511
345487500 0.823711882985 -0.302116492738
345505000 0.824093657496 -0.301851168389
345522500 0.822802485183 -0.302974645376
345540000 0.822628425398 -0.303243981148
345557500 0.823046509442 -0.303094769595
345575000 0.824587652948 -0.303694270658
345592500 0.822896848341 -0.302833679737
345610000 0.824346066223 -0.302930117574
345627500 0.823057380538 -0.302392899022
345645000 0.822817096934 -0.302564684922
345662500 0.822410134406 -0.303474857689
345680000 0.822138965938 -0.303495568029
345697500 0.822486841942 -0.303324788236
345715000 0.823135562284 -0.303288162907
345732500 0.823132315279 -0.303385202531
345750000 0.823250364006 -0.302736963212
345767500 0.82337803824 -0.30407247727
345785000 0.822645562896 -0.305014037094
345802500 0.822230246818 -0.303091398135
345820000 0.821870340381 -0.304460138573
345837500 0.821810824095 -0.304067632064
345855000 0.821175018238 -0.303950046955
345872500 0.821789497255 -0.304456702261
345890000 0.821744362086 -0.303687633332
345907500 0.821785823667 -0.304669095453
345925000 0.821110019706 -0.305362842691
345942500 0.819550228172 -0.305651755259
345960000 0.819590623269 -0.305345595056
345977500 0.820708754522 -0.30454972429
345995000 0.821450899658 -0.304811137176
346012500 0.821003485462 -0.30500154401
346030000 0.821507996136 -0.306157294519
346047500 0.821252298548 -0.306935958023
346065000 0.821287937387 -0.306249086316
346082500 0.820158968472 -0.306019486274
346100000 0.820256768128 -0.305980428054
346117500 0.819478285774 -0.305789628113
346135000 0.819589288786 -0.306558745786
346152500 0.820678515506 -0.306231359465
346170000 0.819731830538 -0.306103592988
346187500 0.819788474264 -0.305295514371
346205000 0.820138382547 -0.304987526239
346222500 0.819609911881 -0.305502055041
346240000 0.818697546121 -0.306066979017
346257500 0.819283872672 -0.306240585843
346275000 0.819621184168 -0.306144258431
346292500 0.819327147782 -0.307034678465
346310000 0.819489820059 -0.306714035704
346327500 0.818827133964 -0.307550571478
346345000 0.81815773601 -0.308210700121
346362500 0.818996158419 -0.306667718928
346380000 0.818492444928 -0.306001585566
346397500 0.818366829653 -0.305991119347
346415000 0.818924103562 -0.307311312284
346432500 0.818735927184 -0.306288680704
346450000 0.818516137781 -0.307578310062
346467500 0.818675652683 -0.308622630572
346485000 0.819538700923 -0.307320207381
346502500 0.818551819615 -0.307029083723
346520000 0.818218601819 -0.307676969755
346537500 0.8185693863 -0.308158123305
346555000 0.81766799153 -0.306818756667
346572500 0.818124276351 -0.30772875004
346590000 0.817600073194 -0.308341839197
346607500 0.818693399263 -0.309763811496
346625000 0.806953347648 -0.304173592745
346642500 0.81503305949 -0.296839217207
346660000 0.803353269005 -0.306722054288
346677500 0.807675545127 -0.282234651432
346695000 0.81619888659 -0.308537728395
346712500 0.817058165557 -0.309558855098
346730000 0.8143071722 -0.307792568617
346747500 0.817697928877 -0.308538660125
346765000 0.816348357844 -0.309110903084
346782500 0.817347047099 -0.309787269257
346800000 0.817813853569 -0.309308970043
346817500 0.818865521624 -0.3086223304
346835000 0.815704593828 -0.308987129881
346852500 0.816680008833 -0.309070039084
346870000 0.815671387794 -0.31012803023
346887500 0.815664302309 -0.30936450319
346905000 0.815632837765 -0.309171108231
346922500 0.815431034058 -0.309283837925
346940000 0.815881199345 -0.308900199129
346957500 0.816391547971 -0.309282902314
346975000 0.815261168905 -0.309123759362
346992500 0.815342826484 -0.310269930119
347010000 0.815710827786 -0.309728629514
347027500 0.815623205622 -0.310628785559
347045000 0.814975865762 -0.310201220339
347062500 0.81547433187 -0.311373163573
347080000 0.815135175316 -0.309966236873
347097500 0.813975347661 -0.310301086761
347115000 0.814963216098 -0.310565120736
347132500 0.814538266291 -0.310422983031
347150000 0.81475863541 -0.310523689878
347167500 0.813833779464 -0.310988856283
347185000 0.815459585749 -0.310433322782
347202500 0.814892121604 -0.310785294435
347220000 0.814071137377 -0.310583277939
347237500 0.812523486789 -0.30872992083
347255000 0.813730077742 -0.311387341712
347272500 0.814414485198 -0.312276075828
347290000 0.812812526451 -0.312020468154
347307500 0.812564283286 -0.312077209272
347325000 0.81392736082 -0.31243850079
347342500 0.814118512792 -0.312323940415
347360000 0.813299946533 -0.313344597608
347377500 0.812851782103 -0.312650610435
347395000 0.813203170737 -0.312159215475
347412500 0.813248946432 -0.312754735892
347430000 0.813425060397 -0.312509693066
347447500 0.812739332414 -0.311580672716
347465000 0.813192251643 -0.312025721077
347482500 0.812909279943 -0.312581751683
347500000 0.812227686788 -0.31183745256
347517500 0.812365141487 -0.312504767337
347535000 0.813064664214 -0.311728472676
347552500 0.812044017301 -0.313515170972
347570000 0.812236156702 -0.313389829136
347587500 0.811989989229 -0.312594872725
347605000 0.812167332706 -0.31226469772
347622500 0.812368238025 -0.313186336538
347640000 0.810634557947 -0.314158349586
347657500 0.811060541013 -0.312586303325
347675000 0.812152771548 -0.312697961001
347692500 0.811739037764 -0.314593802002
347710000 0.812086184872 -0.314376135437
347727500 0.811701877746 -0.313915407064
347745000 0.811013192729 -0.314574987871
347762500 0.810472065741 -0.313660907885
347780000 0.810873564438 -0.313751169166
347797500 0.811327309036 -0.312989094553
347815000 0.809847220165 -0.313174700323
347832500 0.810842453155 -0.313221763203
347850000 0.812083003689 -0.315055097742
347867500 0.811152871403 -0.313853145302
347885000 0.811309959147 -0.315497888933
347902500 0.810767396696 -0.314678052624
347920000 0.810393438964 -0.315491188571
347937500 0.8108673007 -0.314827959986
347955000 0.809767963926 -0.315572688687
347972500 0.808934637308 -0.315575656829
347990000 0.808686041137 -0.314841173022
348007500 0.807680251608 -0.316562749645
348025000 0.809254612268 -0.315328329414
348042500 0.809670472517 -0.314802453085
348060000 0.809325400736 -0.315501699228
348077500 0.808685558477 -0.315431294577
348095000 0.809320900573 -0.315593272923
348112500 0.808746704411 -0.314477044531
348130000 0.808114487277 -0.314886563933
348147500 0.808101485782 -0.31546871468
348165000 0.809382209646 -0.315855139593
348182500 0.808461426725 -0.316085630285
348200000 0.808850066018 -0.31494958637
348217500 0.807013200558 -0.316093202389
348235000 0.807504688304 -0.31554986389
348252500 0.807304912289 -0.316384757383
348270000 0.807348012904 -0.316396287896
348287500 0.807071136688 -0.317160689277
348305000 0.807218587508 -0.315777438328
348322500 0.806924470439 -0.315880900771
348340000 0.807575316138 -0.314884786211
348357500 0.806612462599 -0.316147188731
348375000 0.80673798309 -0.317616166086
348392500 0.806913361091 -0.316693578795
348410000 0.807785881458 -0.316508232112
348427500 0.807366350657 -0.31769934859
348445000 0.807935872671 -0.316523858918
348462500 0.806547504522 -0.316791129509
348480000 0.806263341409 -0.316573099332
348497500 0.803643454822 -0.316291982308
348515000 0.801563103351 -0.316863522223
348532500 0.806445320081 -0.317179038127
348550000 0.806662815509 -0.317664100882
348567500 0.806439808036 -0.318075656337
348585000 0.805903112118 -0.31801847415
348602500 0.804608455858 -0.317241963355
348620000 0.804318148505 -0.319223687607
348637500 0.805522172352 -0.31858535706
348655000 0.805964604263 -0.317743459938
348672500 0.805741118468 -0.317331355723
348690000 0.805108819035 -0.31823610254
348707500 0.806540212294 -0.316891400388
348725000 0.805880106804 -0.317416509705
348742500 0.805358597829 -0.317196948224
348760000 0.804412387912 -0.317624212981
348777500 0.805741377348 -0.31897223255
348795000 0.805351364648 -0.318876946659
348812500 0.804156937766 -0.31893493256
348830000 0.802721991149 -0.317795478586
348847500 0.804986015603 -0.31915133868
348865000 0.805241766152 -0.318684757594
348882500 0.804758818502 -0.319087119644
348900000 0.805392420087 -0.320398329812
348917500 0.805658858937 -0.320630277483
348935000 0.804410226558 -0.320075912784
348952500 0.803761919963 -0.320782949083
348970000 0.803300892711 -0.320594668092
348987500 0.80423969693 -0.318740869373
349005000 0.804938019339 -0.317870748564
349022500 0.803255797466 -0.320937675952
349040000 0.802091707868 -0.31788473543
349057500 0.802608589443 -0.319413860049
349075000 0.804420158759 -0.319784255033
349092500 0.803899740948 -0.320401390864
349110000 0.803918466561 -0.319343550277
349127500 0.802959368998 -0.320254706375
349145000 0.802172999544 -0.319601720233
349162500 0.803213893537 -0.320911201292
349180000 0.80272293875 -0.32032137463
349197500 0.802268939211 -0.320437081138
349215000 0.802131412213 -0.320808438573
349232500 0.801613601967 -0.320431465376
349250000 0.801704300079 -0.321191697528
349267500 0.802119052172 -0.321227901505
349285000 0.801499915735 -0.321509223258
349302500 0.800715676269 -0.321537850442
349320000 0.80108058091 -0.321737237147
349337500 0.800770779377 -0.321862950364
349355000 0.800225640848 -0.323319915636
349372500 0.800801000587 -0.320806410876
349390000 0.799562913796 -0.321686807248
349407500 0.801207207078 -0.320692631223
349425000 0.802573749024 -0.322360489279
349442500 0.802719256872 -0.323868257701
349460000 0.803209130588 -0.32173547017
349477500 0.800740168552 -0.322030082278
349495000 0.801205986715 -0.322834557189
349512500 0.800317864008 -0.323818464649
349530000 0.799474543367 -0.322900945334
349547500 0.799617761392 -0.321733626131
349565000 0.799926871597 -0.322915600999
349582500 0.799472812453 -0.323676681207
349600000 0.800764057541 -0.323223364069
349617500 0.799389913213 -0.322444904792
349635000 0.799739477776 -0.322653821165
349652500 0.800021207897 -0.323129475069
349670000 0.799667862778 -0.322502083301
349687500 0.799048000213 -0.322843982995
349705000 0.800081323233 -0.3233068624
349722500 0.799399475203 -0.325045757319
349740000 0.798639647895 -0.325337263416
349757500 0.798477897801 -0.324545258579
349775000 0.79928974442 -0.323859643207
349792500 0.798098825409 -0.323451865514
349810000 0.797677464461 -0.323302382494
349827500 0.798835050785 -0.324124718634
349845000 0.798885303966 -0.322934453694
349862500 0.797561818855 -0.323341451685
349880000 0.79747899529 -0.323755735467
349897500 0.798662733707 -0.32334319133
349915000 0.798997576318 -0.324121407145
349932500 0.798110458824 -0.325317335152
349950000 0.797875647332 -0.324044593529
349967500 0.796630942393 -0.323776534107
349985000 0.797788707445 -0.325502754841
350002500 0.79871459757 -0.32408869135
350020000 0.798309178628 -0.324915229772
350037500 0.798278435017 -0.324717073002
350055000 0.798067169226 -0.325602167225
350072500 0.797390603923 -0.324559012418
350090000 0.797982516303 -0.324606543088
350107500 0.796962297955 -0.326151753591
350125000 0.797630737419 -0.32602223864
350142500 0.798700499662 -0.325068904739
350160000 0.797582442783 -0.326881815124
350177500 0.796334591572 -0.325307762808
350195000 0.79670922019 -0.325816583061
350212500 0.795690958569 -0.325374249827
350230000 0.795721226768 -0.325268311634
350247500 0.795375720339 -0.325355520414
350265000 0.792702922444 -0.321850642111
350282500 0.795455908471 -0.325001428272
350300000 0.795925734785 -0.327039051575
350317500 0.796753166703 -0.327265454868
350335000 0.796067271378 -0.328399308915
350352500 0.796711420647 -0.327288658177
350370000 0.795685883182 -0.326865174046
350387500 0.796074972508 -0.327045516216
350405000 0.794642930838 -0.326952197133
350422500 0.796054593244 -0.32734648611
350440000 0.79565132501 -0.327046222447
350457500 0.795435558063 -0.327618175389
350475000 0.796313315407 -0.328531290192
350492500 0.794343385969 -0.32660704217
350510000 0.793139675015 -0.328195333861
350527500 0.793960960737 -0.326053647652
350545000 0.790976722764 -0.327693205006
350562500 0.79462695522 -0.327722424211
350580000 0.79249631982 -0.327735284307
350597500 0.792517726831 -0.328146814394
350615000 0.793003473708 -0.329218604006
350632500 0.793379579535 -0.328553350392
350650000 0.79307060879 -0.327666555264
350667500 0.793738450048 -0.328971181865
350685000 0.794483131864 -0.328748608637
350702500 0.793225047391 -0.327458184039
350720000 0.793789541569 -0.32935820923
350737500 0.79363559127 -0.327324704198
350755000 0.793031860836 -0.328271536585
350772500 0.793883464773 -0.328977205632
350790000 0.793747990978 -0.3291031279
350807500 0.792172327717 -0.327976346092
350825000 0.792405894594 -0.329453944517
350842500 0.792772699963 -0.330195093954
350860000 0.792332102043 -0.32931053825
350877500 0.792187904299 -0.329965394057
350895000 0.791622607078 -0.329022625992
350912500 0.79140594909 -0.3295935222
350930000 0.792135375647 -0.329441457039
350947500 0.791939562532 -0.329874200915
350965000 0.789751678874 -0.332671159863
350982500 0.781569084874 -0.336243272201
351000000 0.791189797596 -0.339776219471
351017500 0.791203090005 -0.330377376231
351035000 0.791570503746 -0.330858067681
351052500 0.791562067211 -0.331034898426
351070000 0.790797640161 -0.32974631072
351087500 0.791703943427 -0.331211391514
351105000 0.789795440726 -0.331674540195
351122500 0.789059018596 -0.331054841883
351140000 0.790322281293 -0.331046466612
351157500 0.790344619259 -0.330815130395
351175000 0.790504387068 -0.331905521467
351192500 0.789614301712 -0.331702261736
351210000 0.789179741896 -0.331396691069
351227500 0.790028954875 -0.330735761927
351245000 0.789873857535 -0.331538158888
351262500 0.789118327578 -0.331375129665
351280000 0.790179281199 -0.331784624362
351297500 0.789352009575 -0.332043346377
351315000 0.7893907561 -0.332078066792
351332500 0.789149769204 -0.331852220441
351350000 0.788752425504 -0.332990096517
351367500 0.78849598606 -0.333020521817
351385000 0.788959091623 -0.334093486253
351402500 0.78840513874 -0.332760912514
351420000 0.787809496315 -0.331880929638
351437500 0.788623570222 -0.332157926801
351455000 0.787668711768 -0.332493046439
351472500 0.786958776255 -0.332561713607
351490000 0.787449781071 -0.331631769626
351507500 0.787857852393 -0.332625061165
351525000 0.787105199541 -0.332669004039
351542500 0.787732783332 -0.333167720772
351560000 0.786986864995 -0.332819286576
351577500 0.787501667404 -0.334351277975
351595000 0.786244370013 -0.333606637979
351612500 0.785495215651 -0.333597615878
351630000 0.786874347284 -0.333568450449
351647500 0.786882081088 -0.334233101804
351665000 0.78639044036 -0.335353366574
351682500 0.786356923102 -0.333944653587
351700000 0.787350587627 -0.33414387306
351717500 0.786594552604 -0.333681789337
351735000 0.786529092015 -0.334242734251
351752500 0.786671676888 -0.33438525
351770000 0.786223623095 -0.333916437193
351787500 0.785668321715 -0.334010039395
351805000 0.786841798242 -0.335123772302
351822500 0.786765230366 -0.335875922777
351840000 0.786296101618 -0.336445147075
351857500 0.785385590169 -0.335667569363
351875000 0.784738683002 -0.334418490265
351892500 0.784765447867 -0.334619431803
351910000 0.785018266869 -0.334332498493
351927500 0.785223253848 -0.335728713408
351945000 0.784393092563 -0.335972979129
351962500 0.785495699579 -0.335279055486
351980000 0.784456935882 -0.335631606213
351997500 0.783614264588 -0.336084284973
352015000 0.784196246232 -0.336318335867
352032500 0.783721651533 -0.336298196559
352050000 0.787701883991 -0.332625438314
352067500 0.813204036108 -0.308707334416
352085000 0.813192711127 -0.309266815031
352102500 0.786456692811 -0.333450012577
352120000 0.783628715823 -0.337369960153
352137500 0.783192472985 -0.336281472482
352155000 0.783326027003 -0.336347979931
352172500 0.782964549439 -0.336209816936
352190000 0.781554048004 -0.336684801058
352207500 0.782342758434 -0.33597533906
352225000 0.782902224242 -0.336134858072
352242500 0.782481924479 -0.337498122727
352260000 0.782549186114 -0.337217571971
352277500 0.782140682197 -0.33806755215
352295000 0.78135700157 -0.336969904477
352312500 0.781415834076 -0.337410948068
352330000 0.781596457013 -0.338298289369
352347500 0.781220859948 -0.338713613266
352365000 0.781173805142 -0.337715037313
352382500 0.7810628203 -0.337767405964
352400000 0.780254648549 -0.337596705219
352417500 0.780410780036 -0.337678142522
352435000 0.780964166736 -0.337643881357
352452500 0.78160402336 -0.338810334772
352470000 0.780430563563 -0.33825146227
352487500 0.780704917293 -0.338961696192
352505000 0.781050606576 -0.338667984923
352522500 0.781215341381 -0.338212089238
352540000 0.780287861862 -0.338266586756
352557500 0.778847559507 -0.338068541944
352575000 0.77919889757 -0.338413533868
352592500 0.779551324912 -0.339742190065
352610000 0.780230500047 -0.339354355046
352627500 0.779763834741 -0.339669259809
352645000 0.779248464657 -0.339078917771
352662500 0.779196038766 -0.339732993468
352680000 0.778408819446 -0.339283052541
352697500 0.779016570263 -0.340171800864
352715000 0.777999468226 -0.340023142927
352732500 0.780239610923 -0.340656598663
352750000 0.779329759512 -0.340195030917
352767500 0.778811367225 -0.340008448483
352785000 0.777313906792 -0.340295235489
352802500 0.777357405012 -0.339576144954
352820000 0.776981312975 -0.339377107336
352837500 0.77724283829 -0.339356143642
352855000 0.776119565802 -0.340715044783
352872500 0.777228987243 -0.340521445133
352890000 0.777445776869 -0.340791191664
352907500 0.777115285075 -0.340589666028
352925000 0.776964292964 -0.341158093003
352942500 0.777194874545 -0.340808365355
352960000 0.77654032124 -0.340744906028
352977500 0.776535255511 -0.341175109586
352995000 0.775840936684 -0.34172265971
353012500 0.777069856575 -0.342080816905
353030000 0.776223690929 -0.342406571649
353047500 0.775909814164 -0.340977171019
353065000 0.775397586258 -0.340796093086
353082500 0.776238114616 -0.340579580344
353100000 0.77548622632 -0.340640556056
353117500 0.77486674813 -0.340984642376
353135000 0.775520618571 -0.341236357941
353152500 0.775325267841 -0.341782604109
353170000 0.775981227021 -0.343073237475
353187500 0.773593616406 -0.341986674884
353205000 0.774848168026 -0.34197211817
353222500 0.774582981464 -0.342020997802
353240000 0.773797868725 -0.342822127776
353257500 0.775072490525 -0.341670797591
353275000 0.774380112289 -0.341677545382
353292500 0.774029613886 -0.342448959562
353310000 0.773141040363 -0.342336122628
353327500 0.774109593816 -0.343941422103
353345000 0.77432973562 -0.343417101584
353362500 0.774011368359 -0.343991851657
353380000 0.773045300974 -0.342462949479
353397500 0.772124502666 -0.343493150492
353415000 0.772858748585 -0.344078123951
353432500 0.772227875078 -0.344245564395
353450000 0.772962071104 -0.343290603164
353467500 0.772345315881 -0.343265760251
353485000 0.771311901417 -0.343399990648
353502500 0.772077591994 -0.344190795066
353520000 0.772523460284 -0.344393851342
353537500 0.771555613352 -0.343871530574
353555000 0.771353799768 -0.344500482742
353572500 0.77133019768 -0.344121933199
353590000 0.771207549814 -0.344777530665
353607500 0.770801354598 -0.345079787025
353625000 0.771022014599 -0.344369930769
353642500 0.770918282688 -0.344352257204
353660000 0.770598233731 -0.344889332734
353677500 0.770151036755 -0.344922918868
353695000 0.769965307323 -0.345228480855
353712500 0.770130136084 -0.344518390866
353730000 0.769643503242 -0.345577381942
353747500 0.770378536874 -0.345512063703
353765000 0.769998323423 -0.345096734499
353782500 0.769840674416 -0.344887772906
353800000 0.770011954226 -0.344169167201
353817500 0.769672638091 -0.344547490992
353835000 0.769292834236 -0.345289055769
353852500 0.768738644529 -0.345903433158
353870000 0.764456442866 -0.351903325213
353887500 0.769233267024 -0.346144650044
353905000 0.769212559717 -0.346234554997
353922500 0.769546841595 -0.345040014059
353940000 0.768634398196 -0.34659657072
353957500 0.768757189971 -0.346561913097
353975000 0.768958012365 -0.3469974347
353992500 0.76777878956 -0.346776993673
354010000 0.76804831897 -0.347514630058
354027500 0.767854144272 -0.346904681125
354045000 0.766936802061 -0.34605838722
354062500 0.767292763008 -0.346461906062
354080000 0.767358399673 -0.347126464086
354097500 0.766506255798 -0.346988819882
354115000 0.766540159256 -0.347380893383
354132500 0.76631908319 -0.347502513412
354150000 0.766338506026 -0.347559405804
354167500 0.766152681153 -0.348045713366
354185000 0.765678999279 -0.348030312565
354202500 0.766081507499 -0.347574827936
354220000 0.765767606914 -0.347306229982
354237500 0.765324293353 -0.345113407985
354255000 0.7663118018 -0.347779037308
354272500 0.765676799807 -0.348478352128
354290000 0.764997778533 -0.347655370949
354307500 0.764286372192 -0.347024108174
354325000 0.763800392694 -0.347796513055
354342500 0.764671127505 -0.347783836215
354360000 0.764535098443 -0.348317562119
354377500 0.764168314493 -0.348888152723
354395000 0.764184169789 -0.349107626308
354412500 0.763955577465 -0.348885535293
354430000 0.763903712328 -0.347548854632
354447500 0.763659843005 -0.347478874241
354465000 0.763262107134 -0.349136543051
354482500 0.764208601808 -0.34828765823
354500000 0.763328916773 -0.349025020068
354517500 0.761996374463 -0.34880065558
354535000 0.762743192216 -0.348209901497
354552500 0.763328534849 -0.349676423376
354570000 0.762114509785 -0.349106924356
354587500 0.762838916928 -0.348894164289
354605000 0.762435147718 -0.349417238811
354622500 0.762739049301 -0.348837468406
354640000 0.761959012427 -0.349589736811
354657500 0.76172461817 -0.350267158387
354675000 0.762310315214 -0.349671235427
354692500 0.762799594759 -0.349403613645
354710000 0.761816790349 -0.349203921082
354727500 0.761652818731 -0.3496607468
354745000 0.761093185574 -0.34994623119
354762500 0.760490989734 -0.349392752942
354780000 0.759412167694 -0.348748960536
354797500 0.760771693206 -0.350704660351
354815000 0.761183032966 -0.350503512279
354832500 0.760355084395 -0.349968021984
354850000 0.760366822307 -0.351170394377
354867500 0.760035890256 -0.351734396115
354885000 0.759875111135 -0.350976226884
354902500 0.759514967637 -0.35092888297
354920000 0.759777917379 -0.350604892063
354937500 0.759678149898 -0.35186515083
354955000 0.75898312922 -0.351871834388
354972500 0.75976002232 -0.351666588813
354990000 0.758932948867 -0.351704470232
355007500 0.758418748123 -0.351621978752
355025000 0.75775090028 -0.351670087767
355042500 0.757422542098 -0.3512829256
355060000 0.757252716992 -0.352124749139
355077500 0.757717708816 -0.352312206927
355095000 0.757854270148 -0.352803899842
355112500 0.757993474288 -0.352728269752
355130000 0.757522663266 -0.352459159451
355147500 0.756359284569 -0.35161209812
355165000 0.757537953547 -0.351831951354
355182500 0.75783325995 -0.353173763071
355200000 0.757488334164 -0.352390598471
355217500 0.756483023919 -0.352540372322
355235000 0.755949831969 -0.352734479345
355252500 0.75617163227 -0.352875818383
355270000 0.756276414919 -0.352558199618
355287500 0.756374530972 -0.352650068192
355305000 0.755726932075 -0.352127456385
355322500 0.755238693251 -0.353134223577
355340000 0.755597400248 -0.353477383946
355357500 0.756601745405 -0.353048547707
355375000 0.756131841402 -0.352755048537
355392500 0.755573185382 -0.353325236912
355410000 0.755737701547 -0.354578531278
355427500 0.755470577404 -0.353800270325
355445000 0.755283740472 -0.354179155001
355462500 0.754926169877 -0.353541738853
355480000 0.754003258653 -0.353980488503
355497500 0.754283617032 -0.354122466512
355515000 0.754265150418 -0.353276330317
355532500 0.754956069167 -0.353781526901
355550000 0.753457001972 -0.353497297486
355567500 0.753545116991 -0.354187617687
355585000 0.754727471679 -0.354518324259
355602500 0.753932145421 -0.354164372701
355620000 0.753688182371 -0.35388096859
355637500 0.753042929057 -0.354400662858
355655000 0.753265540369 -0.354614423485
355672500 0.753180690442 -0.355002452455
355690000 0.751945081966 -0.354732147281
355707500 0.752337756404 -0.354608475932
355725000 0.752032791202 -0.354442987165
355742500 0.751772103075 -0.355074793341
355760000 0.751539723956 -0.355317286023
355777500 0.751561647162 -0.354998606439
355795000 0.751463718017 -0.354673993728
355812500 0.7508158938 -0.35565867343
355830000 0.75041305865 -0.355549448377
355847500 0.750252745608 -0.35493047805
355865000 0.7495718775 -0.355469701909
355882500 0.749877772522 -0.355339208025
355900000 0.749924648498 -0.355836402642
355917500 0.749953831618 -0.356042377413
355935000 0.749270478219 -0.356121423456
355952500 0.750104745835 -0.354646310753
355970000 0.750021582988 -0.355640397114
355987500 0.748584565585 -0.358010546675
356005000 0.748215755484 -0.356916923731
356022500 0.748887380325 -0.356255342964
356040000 0.74968918646 -0.355331059058
356057500 0.748343481573 -0.356017410245
356075000 0.748251286375 -0.356821685962
356092500 0.748498938108 -0.356460009818
356110000 0.749301763691 -0.356932472019
356127500 0.748809949508 -0.35669504412
356145000 0.74819899936 -0.356606010113
356162500 0.747986337278 -0.355955497002
356180000 0.747949386685 -0.357128346531
356197500 0.747803436916 -0.357066925025
356215000 0.747764861537 -0.357073884684
356232500 0.746791012826 -0.356696887817
356250000 0.745658660398 -0.355901310781
356267500 0.746285160426 -0.357406160536
356285000 0.746700318314 -0.358654029316
356302500 0.746865255525 -0.357886787755
356320000 0.746452730647 -0.359081065036
356337500 0.746004520345 -0.358763443452
356355000 0.746240270788 -0.357745204792
356372500 0.746256959667 -0.358167131373
356390000 0.745414248366 -0.358187305778
356407500 0.745352220069 -0.357524603925
356425000 0.744706758734 -0.357817219315
356442500 0.74580294076 -0.358193061343
356460000 0.745393430567 -0.358679049628
356477500 0.745119269104 -0.358892722548
356495000 0.745587986473 -0.364130999774
356512500 0.744931020495 -0.364915775622
356530000 0.743700988446 -0.359270692569
356547500 0.743324382308 -0.358997220542
356565000 0.742851482537 -0.358410524516
356582500 0.743924894477 -0.358857806502
356600000 0.743769797367 -0.358128587694
356617500 0.742891541265 -0.358246724703
356635000 0.742411263514 -0.359118026465
356652500 0.742640909751 -0.358567873654
356670000 0.741648301153 -0.358992023476
356687500 0.742557560659 -0.359202528211
356705000 0.742574378 -0.358934767758
356722500 0.742044637316 -0.359099459791
356740000 0.741249142471 -0.358778231424
356757500 0.741459232803 -0.357910717364
356775000 0.741697194507 -0.358878151127
356792500 0.74130372239 -0.358883822526
356810000 0.741174722774 -0.359580104543
356827500 0.741431961966 -0.359495726571
356845000 0.739761642975 -0.359612075809
356862500 0.740078429984 -0.359443208485
356880000 0.740070394998 -0.360092626096
356897500 0.740059966508 -0.358666767688
356915000 0.740014974905 -0.359590016876
356932500 0.740306948899 -0.359797385695
356950000 0.739771066943 -0.360126378773
356967500 0.739798027532 -0.359654570661
356985000 0.738706066336 -0.359923792938
357002500 0.739219020282 -0.360365382938
357020000 0.739071874623 -0.360074488945
357037500 0.737636764909 -0.360879477234
357055000 0.737664609906 -0.360152918489
357072500 0.738873701111 -0.359651672129
357090000 0.738605681379 -0.360142174704
357107500 0.738944792222 -0.36038281142
357125000 0.738743865235 -0.361013598173
357142500 0.738771895418 -0.361355943844
357160000 0.738074712156 -0.362026882496
357177500 0.736854405571 -0.362563232338
357195000 0.737306383055 -0.361106931289
357212500 0.737588472024 -0.361261940218
357230000 0.736714340484 -0.361447698541
357247500 0.736893067651 -0.360991151423
357265000 0.736666885634 -0.361431742654
357282500 0.736327247428 -0.361758726744
357300000 0.73585487848 -0.362714108813
357317500 0.736012142788 -0.362980350352
357335000 0.735663470468 -0.361548185622
357352500 0.735501483933 -0.361389788957
357370000 0.735056920886 -0.361987338765
357387500 0.734753341618 -0.361184086539
357405000 0.734682332904 -0.361409986399
357422500 0.73562412621 -0.361463365989
357440000 0.735219324747 -0.3616119242
357457500 0.735357314616 -0.362175857202
357475000 0.732867696437 -0.359882972362
357492500 0.731645377536 -0.360449983452
357510000 0.734939815671 -0.361883700256
357527500 0.734434613212 -0.362289752803
357545000 0.734780975461 -0.362056906192
357562500 0.733527173969 -0.362463578926
357580000 0.733026907322 -0.361975359518
357597500 0.73305372831 -0.362485278473
357615000 0.732549343023 -0.362402232912
357632500 0.731932037197 -0.362925866563
357650000 0.73250922681 -0.363144683906
357667500 0.732846060914 -0.36337344536
357685000 0.732508297484 -0.362903414543
357702500 0.731870088162 -0.36281445291
357720000 0.730994514443 -0.362402053846
357737500 0.732081958036 -0.362923238532
357755000 0.731870375535 -0.362702890052
357772500 0.730829104402 -0.36361721864
357790000 0.731221726161 -0.362499381779
357807500 0.730626456947 -0.363379922405
357825000 0.729466085413 -0.363959489684
357842500 0.729894151599 -0.363043729458
357860000 0.730350166919 -0.362503888335
357877500 0.7301073652 -0.36398568667
357895000 0.729702483242 -0.363820810836
357912500 0.729131164698 -0.363135227224
357930000 0.730406010303 -0.36312687238
357947500 0.729812360423 -0.363090124581
357965000 0.728952212725 -0.363516828886
357982500 0.72873133156 -0.364024142462
358000000 0.729175199163 -0.363208263691
358017500 0.728252773547 -0.363325084671
358035000 0.728955119802 -0.36368799367
358052500 0.7293548637 -0.363938936878
358070000 0.728375406263 -0.364432946552
358087500 0.727199228259 -0.364412943769
358105000 0.727263382052 -0.364564993072
358122500 0.726962161727 -0.363323478093
358140000 0.726839954027 -0.363619822819
358157500 0.727351820974 -0.363974199389
358175000 0.727792432633 -0.365172653831
358192500 0.727481317624 -0.364663098394
358210000 0.725735298232 -0.365294513448
358227500 0.726229122208 -0.365031356035
358245000 0.726534245036 -0.364376713347
358262500 0.724962044909 -0.365251963052
358280000 0.726169708245 -0.365028380432
358297500 0.726101902317 -0.364967660175
358315000 0.726625129083 -0.365093722244
358332500 0.725807756664 -0.365166085582
358350000 0.724880954957 -0.365688048638
358367500 0.725316710183 -0.365715177817
358385000 0.725448573615 -0.365031844183
358402500 0.724511376048 -0.364989582972
358420000 0.724574455604 -0.365289713244
358437500 0.724158570886 -0.365786735091
358455000 0.724222510554 -0.365824004027
358472500 0.724429678151 -0.365384182521
358490000 0.724063013258 -0.364531647956
358507500 0.723369524032 -0.365248684929
358525000 0.722972276031 -0.365530687393
358542500 0.722629190074 -0.365001570826
358560000 0.72269243454 -0.365778206853
358577500 0.723093839353 -0.366429836973
358595000 0.722874170621 -0.365983315997
358612500 0.722232681147 -0.365401035056
358630000 0.72284232872 -0.36568510201
358647500 0.721786352025 -0.365864130864
358665000 0.721484823954 -0.366004831758
358682500 0.721570569131 -0.365965584006
358700000 0.721641528636 -0.366125622266
358717500 0.720334576788 -0.365785177745
358735000 0.720301992135 -0.36560488912
358752500 0.720391532349 -0.366018950782
358770000 0.721471874412 -0.365162775373
358787500 0.720902728463 -0.365929691753
358805000 0.720217141996 -0.367264899728
358822500 0.72133175609 -0.366135313542
358840000 0.720335663489 -0.366186095999
358857500 0.719031650544 -0.366567722208
358875000 0.71854385376 -0.366556728598
358892500 0.718599229017 -0.366734762876
358910000 0.718900413614 -0.366853328568
358927500 0.71849546015 -0.367466501624
358945000 0.717506210482 -0.368108216198
358962500 0.719152770209 -0.366665559097
358980000 0.71803682526 -0.366701568951
358997500 0.718233677213 -0.366802308125
359015000 0.717519567672 -0.366916824315
359032500 0.716968600516 -0.365716340693
359050000 0.716200132965 -0.36724601387
359067500 0.7174827456 -0.366516525469
359085000 0.717920028793 -0.367380779627
359102500 0.717045485469 -0.367470293997
359120000 0.715721332933 -0.366848858338
359137500 0.717833940432 -0.367197236829
359155000 0.716974115995 -0.367564895678
359172500 0.71559840814 -0.367871380187
359190000 0.715768791646 -0.36891833466
359207500 0.716477060428 -0.369014505903
359225000 0.717578730599 -0.368349474514
359242500 0.71670659919 -0.367155572566
359260000 0.715627427282 -0.367623139043
359277500 0.716178131283 -0.367816030229
359295000 0.714919759034 -0.370319689047
359312500 0.714525845646 -0.368536850336
359330000 0.71405602361 -0.368130700222
359347500 0.714352470959 -0.36778690772
359365000 0.714142658575 -0.368726024843
359382500 0.71375623421 -0.367947050322
359400000 0.714514431661 -0.367942089209
359417500 0.71260872234 -0.368072854612
359435000 0.712687416892 -0.36767845294
359452500 0.713249405372 -0.368072108876
359470000 0.712549826885 -0.368022151923
359487500 0.71312043432 -0.367139433424
359505000 0.711984891489 -0.368600994132
359522500 0.713257195454 -0.369464242764
359540000 0.714050263546 -0.367272745063
359557500 0.713533681589 -0.367346541138
359575000 0.711839062704 -0.367911755582
359592500 0.711247267698 -0.36827046059
359610000 0.710967765559 -0.368611214366
359627500 0.711106782543 -0.368244244569
359645000 0.711317266402 -0.36760229865
359662500 0.710434945252 -0.368553682003
359680000 0.710810917384 -0.368483657506
359697500 0.710149659556 -0.369288305401
359715000 0.709428466492 -0.370019085858
359732500 0.708377119453 -0.368985846898
359750000 0.709180954111 -0.36929665082
359767500 0.709465140265 -0.368570592551
359785000 0.708035716695 -0.368230428309
359802500 0.708532357411 -0.370263722543
359820000 0.70910899833 -0.370611195746
359837500 0.707528616358 -0.368281780598
359855000 0.707319009016 -0.369367057568
359872500 0.707482524387 -0.370072513424
359890000 0.706923425957 -0.368337509062
359907500 0.707298725113 -0.370800697269
359925000 0.709023101536 -0.368838442249
359942500 0.707914248895 -0.369732648247
359960000 0.707562554877 -0.369194154407
359977500 0.707021088825 -0.369572981031
359995000 0.707181125937 -0.36871978196
360012500 0.706839269704 -0.368280941391
360030000 0.705849650313 -0.368057822567
360047500 0.705820856536 -0.369146343576
360065000 0.705942119497 -0.369947710795
360082500 0.705207562883 -0.370017832386
360100000 0.705064885425 -0.370660830612
360117500 0.704662134582 -0.370024572307
360135000 0.705427822447 -0.369276864435
360152500 0.70515289261 -0.370993552309
360170000 0.705509768153 -0.371140836786
360187500 0.705518736448 -0.37104247503
360205000 0.703646729844 -0.369768160108
360222500 0.704382586721 -0.370089473701
360240000 0.703663267021 -0.368775672681
360257500 0.703994135933 -0.369026193517
360275000 0.702623264405 -0.369941527903
360292500 0.704126876313 -0.37067880758
360310000 0.702621982513 -0.371130193482
360327500 0.703456782644 -0.370143473855
360345000 0.702844255525 -0.370373671743
360362500 0.702971976757 -0.370660953402
360380000 0.701668846481 -0.370187221069
360397500 0.701501837127 -0.370209518461
360415000 0.702344208305 -0.371706316788
360432500 0.702670490789 -0.369335558385
360450000 0.70171017242 -0.3686223063
360467500 0.70154465779 -0.369105706914
360485000 0.70160372989 -0.371028911454
360502500 0.699737627047 -0.37117344618
360520000 0.700566613354 -0.371090490662
360537500 0.700108953022 -0.36962308695
360555000 0.699882789503 -0.370976391439
360572500 0.700724945036 -0.370374060606
360590000 0.698814846923 -0.371459567849
360607500 0.699872116821 -0.370199828748
360625000 0.699491400333 -0.37010859117
360642500 0.699662988453 -0.371142036573
360660000 0.698673213006 -0.370365791115
360677500 0.698712860432 -0.370888860052
360695000 0.698440265645 -0.371127034866
360712500 0.698735696837 -0.371066865147
360730000 0.699644596021 -0.370990256438
360747500 0.698263440053 -0.371212287716
360765000 0.697351522933 -0.371007434467
360782500 0.697865713342 -0.371370302881
360800000 0.697682637132 -0.371137783989
360817500 0.697513837069 -0.371254948399
360835000 0.697183156165 -0.371907607363
360852500 0.696109210362 -0.372156170563
360870000 0.697789935518 -0.372024636489
360887500 0.697159970565 -0.370585462158
360905000 0.696153990374 -0.371205994807
360922500 0.696758942131 -0.370973092171
360940000 0.695848065393 -0.370895907178
360957500 0.694865070581 -0.370724103292
360975000 0.694821256774 -0.370595768334
360992500 0.695878563335 -0.371539778439
361010000 0.694878579001 -0.370644571249
361027500 0.69379319921 -0.37098064354
361045000 0.693199495187 -0.370921228876
361062500 0.692676674754 -0.371099119303
361080000 0.693845931121 -0.370636121677
361097500 0.692596294554 -0.368922225216
361115000 0.693145925047 -0.370240635679
361132500 0.693407834502 -0.371723871038
361150000 0.693462611738 -0.371700120776
361167500 0.693135392472 -0.371657377237
361185000 0.692306211332 -0.371823702347
361202500 0.691586144983 -0.37160087665
361220000 0.692132397848 -0.371328179584
361237500 0.691259638014 -0.373008976226
361255000 0.692508835917 -0.372023730754
361272500 0.692904237899 -0.371201251113
361290000 0.691564366035 -0.372573452431
361307500 0.691752068337 -0.371449385916
361325000 0.691114586728 -0.372736653396
361342500 0.690298299999 -0.371548772245
361360000 0.691084582566 -0.372260778846
361377500 0.689668437726 -0.372010558118
361395000 0.688952742326 -0.372849787449
361412500 0.690817769798 -0.372124931512
361430000 0.69087639684 -0.373243577422
361447500 0.688643046514 -0.370897281673
361465000 0.68991241459 -0.372080197129
361482500 0.688059866298 -0.371013849432
361500000 0.688755510142 -0.371565281776
361517500 0.688033848111 -0.371141382905
361535000 0.688585760715 -0.371973359334
361552500 0.688624035916 -0.371569114721
361570000 0.687749259452 -0.371251330292
361587500 0.686721002187 -0.371402486252
361605000 0.687425767271 -0.371776142306
361622500 0.687417051029 -0.372311955015
361640000 0.686842836639 -0.371438669066
361657500 0.6860509764 -0.371441396265
361675000 0.686628111221 -0.371399038309
361692500 0.68604624581 -0.371958193797
361710000 0.685375060905 -0.371902188159
361727500 0.685723111127 -0.371270318684
361745000 0.685435060243 -0.371363559888
361762500 0.68491364782 -0.371510411726
361780000 0.684728894481 -0.371585051602
361797500 0.684810466562 -0.371808774087
361815000 0.684466149872 -0.371849398816
361832500 0.682673314281 -0.371386601914
361850000 0.684863847483 -0.371642854401
361867500 0.683413718671 -0.371311471464
361885000 0.683703282237 -0.371450160417
361902500 0.684132054918 -0.372882078874
361920000 0.683021367227 -0.371362301923
361937500 0.683017356472 -0.370808538827
361955000 0.683500987167 -0.372131572343
361972500 0.682029406484 -0.372024279237
361990000 0.683113814099 -0.371743320803
362007500 0.68306891185 -0.371757492658
362025000 0.682531853727 -0.371631573285
362042500 0.682806433305 -0.37224801529
362060000 0.682746162284 -0.372458601698
362077500 0.682787759765 -0.372420176057
362095000 0.681181324979 -0.371308847257
362112500 0.680978854547 -0.371544887518
362130000 0.681585347964 -0.371473457535
362147500 0.68336571327 -0.37319003079
362165000 0.680726062736 -0.372201144904
362182500 0.680825827007 -0.371341281823
362200000 0.680219199921 -0.372243227425
362217500 0.680502004781 -0.37257442136
362235000 0.679867899801 -0.372617081242
362252500 0.679575442375 -0.371374136096
362270000 0.679101280828 -0.372275156208
362287500 0.679058437569 -0.370654392395
362305000 0.678992338296 -0.37103883395
362322500 0.677982187058 -0.370836694348
362340000 0.678058799566 -0.37252388499
362357500 0.678428333619 -0.372245639418
362375000 0.678733678099 -0.372382526525
362392500 0.677475218838 -0.372439194799
362410000 0.678310946787 -0.371910932925
362427500 0.679088676153 -0.372906551184
362445000 0.677306715258 -0.372508131861
362462500 0.6767452472 -0.372822474889
362480000 0.676286662122 -0.371929501588
362497500 0.67610554918 -0.371060482331
362515000 0.676275697184 -0.372366782975
362532500 0.67590844389 -0.372063439222
362550000 0.675798890564 -0.37208033884
362567500 0.675880993893 -0.372115417877
362585000 0.676080478693 -0.371742898017
362602500 0.675430659287 -0.372403424105
362620000 0.675337152994 -0.373217306623
362637500 0.675372405962 -0.372789706761
362655000 0.675613674159 -0.372147013807
362672500 0.675716696475 -0.372206478667
362690000 0.675416170206 -0.371764766961
362707500 0.673789390597 -0.371113221891
362725000 0.674137119437 -0.371290621277
362742500 0.673755184396 -0.371590242091
362760000 0.674115423547 -0.372061034253
362777500 0.673504224172 -0.37166170806
362795000 0.673378180665 -0.372075135428
362812500 0.673061662161 -0.372125526187
362830000 0.672781276952 -0.372185855828
362847500 0.67161342694 -0.372103002731
362865000 0.671883038164 -0.371812758046
362882500 0.672581894618 -0.372066089278
362900000 0.668723827329 -0.374331982287
362917500 0.673293458531 -0.37130296779
362935000 0.671726937527 -0.371583891584
362952500 0.672256254043 -0.372312400123
362970000 0.671574599002 -0.37222612098
362987500 0.671529053743 -0.371858777565
363005000 0.669890660818 -0.372290328886
363022500 0.670252065374 -0.372603645237
363040000 0.67075875264 -0.371770911997
363057500 0.670233550257 -0.372071054888
363075000 0.670218772024 -0.372310603579
363092500 0.669641855765 -0.371584403499
363110000 0.669092435295 -0.371531385524
363127500 0.669507815729 -0.371793582319
363145000 0.668796996455 -0.371113136655
363162500 0.668785373708 -0.371568969222
363180000 0.668402913909 -0.372433850458
363197500 0.669005133429 -0.372241941821
363215000 0.668646227304 -0.371434184359
363232500 0.668853539956 -0.371605470651
363250000 0.667938344039 -0.372594402924
363267500 0.667909104033 -0.37169508975
363285000 0.667948502114 -0.371538850707
363302500 0.66771689023 -0.371457739716
363320000 0.667316510137 -0.370884312192
363337500 0.667608614806 -0.37063520715
363355000 0.666658452777 -0.37096770637
363372500 0.66709823304 -0.371031875845
363390000 0.666732421342 -0.371780585058
363407500 0.667092354913 -0.371698636283
363425000 0.66624555368 -0.371033213028
363442500 0.667068212612 -0.371450533874
363460000 0.666426461371 -0.370848844105
363477500 0.664527034062 -0.370819262824
363495000 0.665695893789 -0.370618693282
363512500 0.665177407129 -0.371660767532
363530000 0.666458481518 -0.371744842081
363547500 0.664580606815 -0.372004026481
363565000 0.665855868065 -0.372472463192
363582500 0.664920862079 -0.372055367776
363600000 0.664671913741 -0.372495178769
363617500 0.664075434198 -0.371993195808
363635000 0.665052605342 -0.371290608591
363652500 0.663702896553 -0.371428282742
363670000 0.664030762736 -0.371505301906
363687500 0.663449283243 -0.3716383517
363705000 0.661978353343 -0.370872521515
363722500 0.662104212441 -0.369907437108
363740000 0.662679306207 -0.370872023639
363757500 0.662343430227 -0.371281554408
363775000 0.661926709146 -0.371434453059
363792500 0.662059622584 -0.371376867902
363810000 0.661429198166 -0.371384007872
363827500 0.66174443712 -0.371039029066
363845000 0.661966331887 -0.371610136385
363862500 0.661242202628 -0.3717641286
363880000 0.660891175394 -0.371520984783
363897500 0.660213652106 -0.371341884645
363915000 0.660861066408 -0.371583877207
363932500 0.659881239625 -0.371114427627
363950000 0.660446537299 -0.371163016641
363967500 0.660146413772 -0.370905276601
363985000 0.660364258719 -0.37079008517
364002500 0.659269886618 -0.370965691084
364020000 0.659960027461 -0.370870669896
364037500 0.659641654118 -0.371397386764
364055000 0.657951623232 -0.37047047193
364072500 0.658347178879 -0.37042952074
364090000 0.657967617964 -0.371812252165
364107500 0.657399214611 -0.371874098564
364125000 0.658017163165 -0.371253333482
364142500 0.657889035913 -0.371318189868
364160000 0.65810267752 -0.371199276444
364177500 0.656992318948 -0.372637606192
364195000 0.657159355091 -0.372106450691
364212500 0.656604259343 -0.371158082349
364230000 0.657160026869 -0.371451355741
364247500 0.656858663836 -0.371543600586
364265000 0.656126825604 -0.37086049243
364282500 0.656102538603 -0.371730012295
364300000 0.65483743593 -0.37098878815
364317500 0.656138682028 -0.37147499119
364335000 0.655640920231 -0.371482335822
364352500 0.655006688508 -0.371492186205
364370000 0.654751148349 -0.371256450998
364387500 0.655206581007 -0.37113106011
364405000 0.65472604124 -0.371380367226
364422500 0.654510229787 -0.372115544196
364440000 0.653387231067 -0.372162522377
364457500 0.653992250159 -0.370343998786
364475000 0.654409042472 -0.370365332807
364492500 0.653400652501 -0.371074447551
364510000 0.65378774892 -0.371517913823
364527500 0.654173037614 -0.371720396182
364545000 0.653811258512 -0.371420714137
364562500 0.653515765386 -0.371737069176
364580000 0.652908611843 -0.371808025882
364597500 0.652931578358 -0.371519818528
364615000 0.652441142641 -0.371948553641
364632500 0.651893192397 -0.371466002758
364650000 0.651640386662 -0.370836550578
364667500 0.651575347034 -0.371637155201
364685000 0.651701467126 -0.371791628985
364702500 0.651457531093 -0.370909337547
364720000 0.650943731632 -0.370935360569
364737500 0.650753334045 -0.371137163145
364755000 0.650996312806 -0.371389728806
364772500 0.650999467934 -0.371659437301
364790000 0.651193155561 -0.371300949276
364807500 0.649887329144 -0.370691380529
364825000 0.650340844449 -0.371027226176
364842500 0.650429964537 -0.370580275813
364860000 0.650743023238 -0.371118789562
364877500 0.648916287934 -0.372292935408
364895000 0.648832231612 -0.371784575444
364912500 0.649262675249 -0.371457225778
364930000 0.648860395648 -0.371225910135
364947500 0.648166557478 -0.37099985079
364965000 0.648731187566 -0.371215897356
364982500 0.648557594406 -0.370800730791
365000000 0.648093848121 -0.370720143821
365017500 0.647491117873 -0.370741158341
365035000 0.647405219823 -0.370845377987
365052500 0.647046131835 -0.370675943858
365070000 0.645665964905 -0.371139115538
365087500 0.646468739771 -0.370807965787
365105000 0.647204044038 -0.371252419147
365122500 0.646796654022 -0.37070660451
365140000 0.646261402593 -0.370365235298
365157500 0.645488258111 -0.371148371198
365175000 0.645608305189 -0.370561617514
365192500 0.646490859519 -0.371038710635
365210000 0.645297415581 -0.371251298285
365227500 0.648228503387 -0.378620579053
365245000 0.645161184875 -0.370916202564
365262500 0.644339287706 -0.370773135161
365280000 0.644768118998 -0.370986051254
365297500 0.644582979444 -0.371234645319
365315000 0.644556478245 -0.370600560088
365332500 0.643944249574 -0.371108044291
365350000 0.643071519317 -0.370284390771
365367500 0.642959308798 -0.370628122951
365385000 0.643607318099 -0.370502545022
365402500 0.642719687546 -0.370223862704
365420000 0.642455647229 -0.369745760289
365437500 0.64219577506 -0.37046840274
365455000 0.641952917161 -0.37023944684
365472500 0.641956686611 -0.372170553814
365490000 0.641833077044 -0.370774310424
365507500 0.641692939487 -0.370262209956
365525000 0.642509523849 -0.366382397487
365542500 0.642021374934 -0.370284076668
365560000 0.64117058596 -0.369942977697
365577500 0.640696473541 -0.370239350162
365595000 0.639722428556 -0.370806173904
365612500 0.637602948665 -0.371075873206
365630000 0.640286556812 -0.370969712996
365647500 0.63999028025 -0.370105973764
365665000 0.63954065846 -0.370509996858
365682500 0.639600472686 -0.371693812421
365700000 0.640279691883 -0.371970379729
365717500 0.640073364362 -0.371193861097
365735000 0.639031006535 -0.370785256083
365752500 0.639677059367 -0.370735119192
365770000 0.638747239956 -0.37086798445
365787500 0.637628700966 -0.370875258868
365805000 0.637929751527 -0.370983360146
365822500 0.638165479723 -0.370817715961
365840000 0.637892181344 -0.371484021319
365857500 0.637868872632 -0.370802037787
365875000 0.63841512121 -0.370516342503
365892500 0.637532022835 -0.369708586961
365910000 0.637289705115 -0.370389493272
365927500 0.637206125912 -0.370340237897
365945000 0.636614126329 -0.370178984398
365962500 0.636241697424 -0.369929511295
365980000 0.636684989876 -0.369957391036
365997500 0.63592895934 -0.369913105704
366015000 0.635326186718 -0.369537247414
366032500 0.634707583883 -0.369628750702
366050000 0.635028316594 -0.370296165045
366067500 0.634566446278 -0.369884999838
366085000 0.634339721544 -0.370079152527
366102500 0.634002709533 -0.370107025236
366120000 0.633585853942 -0.369849634006
366137500 0.633325863589 -0.370200268778
366155000 0.630842340769 -0.369249069971
366172500 0.633823816022 -0.370818149451
366190000 0.633786029487 -0.369793559065
366207500 0.633284186075 -0.370059026291
366225000 0.633139592964 -0.369852209727
366242500 0.632558189467 -0.370110541871
366260000 0.632822334883 -0.369546073381
366277500 0.632705667626 -0.367524781813
366295000 0.63286766761 -0.370804895529
366312500 0.633136649582 -0.369792953967
366330000 0.631656572554 -0.36873406017
366347500 0.6323520424 -0.369229868717
366365000 0.631960514468 -0.36953490821
366382500 0.631816395427 -0.37076334189
366400000 0.631081640919 -0.370017932499
366417500 0.631511814474 -0.370170859388
366435000 0.631458755008 -0.370189725736
366452500 0.630460079835 -0.369110516926
366470000 0.630400722159 -0.369421516606
366487500 0.630933378615 -0.370070065909
366505000 0.630395022405 -0.370047587822
366522500 0.63036067212 -0.369584944514
366540000 0.630320637891 -0.37000354024
366557500 0.629889692204 -0.369455284593
366575000 0.629413377527 -0.369806931335
366592500 0.628011631001 -0.368838985289
366610000 0.628439611645 -0.369385252537
366627500 0.627579121107 -0.368797687976
366645000 0.627429043853 -0.369469036191
366662500 0.626768545069 -0.369412744467
366680000 0.626785669224 -0.369103468154
366697500 0.628130041934 -0.369557578165
366715000 0.627292928097 -0.369561276297
366732500 0.627003468232 -0.36899171791
366750000 0.627276549747 -0.3688480101
366767500 0.626841860932 -0.370398835577
366785000 0.626617126985 -0.368900919275
366802500 0.627065840931 -0.36963144351
366820000 0.626437102758 -0.369283051087
366837500 0.626008013282 -0.369376072013
366855000 0.625420075211 -0.370190953723
366872500 0.625408690284 -0.368662533321
366890000 0.625298636366 -0.368899251103
366907500 0.624838049765 -0.370316943798
366925000 0.624719441719 -0.369496398408
366942500 0.625346943573 -0.367984144643
366960000 0.623847091722 -0.369202272966
366977500 0.624858275522 -0.369101368748
366995000 0.624350550168 -0.368233964527
367012500 0.624238204627 -0.369144923135
367030000 0.624160487145 -0.368714289827
367047500 0.6233429192 -0.369016201319
367065000 0.624982095323 -0.369401263716
367082500 0.623672040817 -0.367941325997
367100000 0.623325638576 -0.368515632828
367117500 0.623005017972 -0.368833386854
367135000 0.623185882011 -0.368670186028
367152500 0.622471703578 -0.368102627079
367170000 0.621917692522 -0.368640242478
367187500 0.621174610908 -0.368651800301
367205000 0.621262936961 -0.369087100331
367222500 0.620545259071 -0.369057147349
367240000 0.619868687352 -0.368376822982
367257500 0.62121569015 -0.368720311727
367275000 0.620626689562 -0.368335842204
367292500 0.619961602812 -0.368168628812
367310000 0.620200785904 -0.368089968781
367327500 0.61906821352 -0.368488772846
367345000 0.619431219542 -0.368094664853
367362500 0.619935231537 -0.368645559071
367380000 0.619409504592 -0.368481697951
367397500 0.619329377594 -0.368002410344
367415000 0.61934313509 -0.367910182322
367432500 0.619288704912 -0.368368458247
367450000 0.618308805273 -0.367904410591
367467500 0.61880417105 -0.367764487543
367485000 0.61942385028 -0.366721709279
367502500 0.618523809707 -0.36790456066
367520000 0.617352348343 -0.368393086262
367537500 0.617921362456 -0.366950495143
367555000 0.617871259428 -0.36782129943
367572500 0.617933446878 -0.368326127442
367590000 0.617418065548 -0.368534715496
367607500 0.616600701085 -0.367664093956
367625000 0.616987329499 -0.368371565033
367642500 0.616983615957 -0.368347719826
367660000 0.61692329753 -0.367336861513
367677500 0.616375518631 -0.36672004627
367695000 0.616141829574 -0.367751657563
367712500 0.615569361843 -0.366931543505
367730000 0.615500818205 -0.367078657104
367747500 0.615406418699 -0.367317301466
367765000 0.615523908877 -0.36728456787
367782500 0.615090015097 -0.367410563157
367800000 0.614728890098 -0.367770758373
367817500 0.615731387282 -0.36816431925
367835000 0.614077825176 -0.36886062233
367852500 0.613718935055 -0.367814914417
367870000 0.613658144842 -0.366896497133
367887500 0.612982084035 -0.366707178747
367905000 0.612829872614 -0.366656733938
367922500 0.61246485561 -0.367194953565
367940000 0.612767165609 -0.367826881352
367957500 0.61242305332 -0.367219780428
367975000 0.61255429989 -0.366133294616
367992500 0.612478983077 -0.367147502325
368010000 0.611456330065 -0.367962119992
368027500 0.611181449937 -0.368305347158
368045000 0.611396065288 -0.367821582773
368062500 0.611744152742 -0.367634527754
368080000 0.611507462524 -0.367221572329
368097500 0.611452704614 -0.367077839979
368115000 0.611756960708 -0.367481552643
368132500 0.611181479142 -0.367160252125
368150000 0.610697551539 -0.367183827833
368167500 0.610155866731 -0.366802240093
368185000 0.609764091594 -0.366706840854
368202500 0.609971805133 -0.367426606124
368220000 0.610142300924 -0.367249724234
368237500 0.609628942133 -0.366864992778
368255000 0.60879298222 -0.366617865415
368272500 0.611210078881 -0.364509217534
368290000 0.61531932102 -0.358616609065
368307500 0.609712400399 -0.365834838111
368325000 0.613249385901 -0.354624788764
368342500 0.575235027068 -0.376384634476
368360000 0.608444948017 -0.364926136413
368377500 0.606876445195 -0.366375017247
368395000 0.607671381841 -0.366088131962
368412500 0.608356562256 -0.366256425401
368430000 0.607117836611 -0.36582030429
368447500 0.607349736715 -0.366661268569
368465000 0.606993777901 -0.366673912242
368482500 0.607040481947 -0.366350462308
368500000 0.606923440661 -0.366720100712
368517500 0.606105926173 -0.367369023175
368535000 0.605195040502 -0.367644511821
368552500 0.605579963917 -0.367285437008
368570000 0.605454312522 -0.366100604497
368587500 0.605131055939 -0.366219558396
368605000 0.605252027298 -0.365171597067
368622500 0.604638275204 -0.366091027162
368640000 0.605238061804 -0.366602389724
368657500 0.605471603015 -0.366257791915
368675000 0.604891908449 -0.366146061922
368692500 0.603735354226 -0.365458415074
368710000 0.603702969725 -0.366264531999
368727500 0.603486906853 -0.366284036702
368745000 0.603193664262 -0.365711735617
368762500 0.603267977029 -0.365667039731
368780000 0.60256928255 -0.365459442091
368797500 0.602112595706 -0.366079222799
368815000 0.602837833376 -0.365938971969
368832500 0.602955138321 -0.365364087042
368850000 0.603196269893 -0.365987797763
368867500 0.601398434055 -0.364883478461
368885000 0.601674217271 -0.365993878298
368902500 0.602545140684 -0.365534182395
368920000 0.604957223039 -0.367528815883
368937500 0.603725443328 -0.366360556156
368955000 0.602319031238 -0.36621230734
368972500 0.601133409365 -0.366205478857
368990000 0.600394368921 -0.365848206916
369007500 0.600074982911 -0.365976435596
369025000 0.600118869831 -0.364173130868
369042500 0.600173262134 -0.363942542993
369060000 0.600099356789 -0.364585354737
369077500 0.600618972059 -0.36500700718
369095000 0.600246098167 -0.364996859451
369112500 0.599458811235 -0.3644574951
369130000 0.599186113917 -0.365151442851
369147500 0.598533471879 -0.364444192794
369165000 0.598340589075 -0.364905646565
369182500 0.59870315284 -0.364814676283
369200000 0.598798211326 -0.36385669831
369217500 0.596972308477 -0.364496966275
369235000 0.597818162104 -0.364255500382
369252500 0.597042398705 -0.364524902198
369270000 0.597046350327 -0.364147317019
369287500 0.596907889186 -0.364159751129
369305000 0.596690876091 -0.364071750997
369322500 0.598575978555 -0.364914255214
369340000 0.596431306698 -0.365042253456
369357500 0.596733879069 -0.364847752757
369375000 0.595607159994 -0.36460456422
369392500 0.595986921073 -0.364356724557
369410000 0.595739317117 -0.364084278591
369427500 0.595395479874 -0.36484098652
369445000 0.595460567349 -0.364788501931
369462500 0.595221376377 -0.365142907486
369480000 0.594875368624 -0.364743791249
369497500 0.594205186809 -0.364216607165
369515000 0.595780064706 -0.36391893519
369532500 0.593817376059 -0.364178796985
369550000 0.59359209674 -0.363770871536
369567500 0.593526123899 -0.36406297498
369585000 0.593885681493 -0.364019176231
369602500 0.593385152887 -0.363356649219
369620000 0.593675089385 -0.36387381986
369637500 0.592425999214 -0.363443815716
369655000 0.591939337473 -0.362853513871
369672500 0.59236766665 -0.363714597779
369690000 0.592423519399 -0.363180736531
369707500 0.59205546322 -0.362959338839
369725000 0.591619227935 -0.362315802599
369742500 0.591401814284 -0.362982386186
369760000 0.591105531934 -0.363659882031
369777500 0.59140298254 -0.363394186291
369795000 0.591184332136 -0.363892611558
369812500 0.59114382858 -0.363435781112
369830000 0.5902569717 -0.363377202808
369847500 0.590340050367 -0.362318648116
369865000 0.590531514793 -0.362878846157
369882500 0.58962628326 -0.362814490945
369900000 0.590511020231 -0.362319984881
369917500 0.589796092341 -0.362612466167
369935000 0.589817110883 -0.362193921622
369952500 0.590142314556 -0.362521875775
369970000 0.588791994547 -0.363520616352
369987500 0.589378516831 -0.36629341343
370005000 0.590050462017 -0.362994490623
370022500 0.587954963048 -0.363143766281
370040000 0.589431970874 -0.362473667779
370057500 0.587397310321 -0.362625101298
370075000 0.588017542642 -0.362115767144
370092500 0.587712159063 -0.361953905937
370110000 0.587729959632 -0.362116031346
370127500 0.587633980755 -0.362255696484
370145000 0.586850127878 -0.361966235594
370162500 0.586477640034 -0.362178300809
370180000 0.586917357542 -0.361914536938
370197500 0.586236595809 -0.361725573826
370215000 0.585677458339 -0.361624105058
370232500 0.586596240686 -0.3610661487
370250000 0.585678573847 -0.362508184856
370267500 0.585230738289 -0.362338751141
370285000 0.585371411674 -0.362113824598
370302500 0.585086078577 -0.360987076371
370320000 0.584607732107 -0.360962562764
370337500 0.583816938462 -0.361119477892
370355000 0.584464672653 -0.360951819918
370372500 0.583721194649 -0.360971000147
370390000 0.583801611219 -0.360652962172
370407500 0.587705999548 -0.358134527866
370425000 0.589399701466 -0.358284855775
370442500 0.585124752847 -0.360881899817
370460000 0.58326174771 -0.361784993319
370477500 0.582456926512 -0.361451973818
370495000 0.581962079696 -0.361779622262
370512500 0.582365984104 -0.360681739957
370530000 0.582174701345 -0.361247281293
370547500 0.582504992337 -0.361328520969
370565000 0.582540631922 -0.361568213375
370582500 0.58140941252 -0.360623549082
370600000 0.581629825094 -0.361524607481
370617500 0.580669580488 -0.36075065629
370635000 0.580995620387 -0.361221694823
370652500 0.580976255113 -0.361379405613
370670000 0.581187858554 -0.360947518962
370687500 0.581107940269 -0.360895462143
370705000 0.580617783498 -0.361192468115
370722500 0.580618233932 -0.360721675561
370740000 0.580626939564 -0.360384803419
370757500 0.58021322356 -0.360764795927
370775000 0.579770147139 -0.360266925445
370792500 0.580247475064 -0.36077768869
370810000 0.57848531037 -0.361089452
370827500 0.577493459135 -0.360800488412
370845000 0.578469879007 -0.360106345842
370862500 0.578596373277 -0.360449843938
370880000 0.578088275399 -0.359898641354
370897500 0.57855575923 -0.360879959127
370915000 0.577849273813 -0.360243219795
370932500 0.577765344015 -0.360237500481
370950000 0.577441482598 -0.360278899032
370967500 0.57717672412 -0.360047314205
370985000 0.576717926125 -0.359292508769
371002500 0.576843369663 -0.359335646746
371020000 0.577165964809 -0.360736355183
371037500 0.575652680249 -0.359500449486
371055000 0.575674934966 -0.359740580925
371072500 0.576493424206 -0.358482312475
371090000 0.575128585126 -0.359498841535
371107500 0.576087059117 -0.360347421686
371125000 0.575849492959 -0.359618587717
371142500 0.575099936784 -0.359081304014
371160000 0.57739037975 -0.358268887805
371177500 0.576221485511 -0.359173505309
371195000 0.574754378838 -0.35892379183
371212500 0.573633746979 -0.359033070811
371230000 0.574403130191 -0.358611287428
371247500 0.573624932492 -0.359340085732
371265000 0.574162216386 -0.359133044093
371282500 0.572695005905 -0.358858464766
371300000 0.573581280767 -0.359164565133
371317500 0.573761421464 -0.358312187902
371335000 0.573175192547 -0.358526643281
371352500 0.572429115387 -0.358732030599
371370000 0.572322982112 -0.357883221443
371387500 0.571743545932 -0.358446367679
371405000 0.572262342623 -0.358857880883
371422500 0.572842321835 -0.357619997136
371440000 0.572007145889 -0.358042185924
371457500 0.57121307523 -0.358002861385
371475000 0.571579303351 -0.358448927169
371492500 0.570679184438 -0.359465024483
371510000 0.571371719358 -0.359135721781
371527500 0.570339037697 -0.358107235196
371545000 0.57083391231 -0.359042931848
371562500 0.570414951851 -0.357810146615
371580000 0.570394621778 -0.357998630831
371597500 0.570295206344 -0.358026597526
371615000 0.57191885479 -0.358860599793
371632500 0.57085257146 -0.357097340833
371650000 0.569614481037 -0.357614021723
371667500 0.570398015719 -0.357530639054
371685000 0.570399538318 -0.357339406387
371702500 0.56774933616 -0.358196974616
371720000 0.567948342481 -0.358000274737
371737500 0.568406483907 -0.356525415853
371755000 0.567830614896 -0.356352145115
371772500 0.568749008176 -0.358009825521
371790000 0.567843284107 -0.357165994747
371807500 0.568046506945 -0.35747522775
371825000 0.566984432437 -0.35736825102
371842500 0.5658574903 -0.357208944408
371860000 0.56653358739 -0.35784092632
371877500 0.565891149584 -0.357225941318
371895000 0.566426822851 -0.356827745859
371912500 0.565207548025 -0.357299802278
371930000 0.566154206548 -0.355982039746
371947500 0.565604549086 -0.355943151298
371965000 0.564827665201 -0.356044722958
371982500 0.564034842565 -0.355881885937
372000000 0.565049758686 -0.35628403673
372017500 0.564888142905 -0.355972472114
372035000 0.564875892787 -0.356101540306
372052500 0.564146946349 -0.356287711402
372070000 0.564077480662 -0.356226487369
372087500 0.562983500264 -0.355623932456
372105000 0.565035626442 -0.356435688602
372122500 0.56222508556 -0.355730002632
372140000 0.560706765585 -0.355463798348
372157500 0.560385022975 -0.356269695028
372175000 0.561977849496 -0.355397574684
372192500 0.561853898993 -0.354833057754
372210000 0.563164206755 -0.355672931817
372227500 0.563469996867 -0.35629053279
372245000 0.563160109819 -0.355429186917
372262500 0.569555547822 -0.358760898493
372280000 0.5622454494 -0.356084460474
372297500 0.5612367723 -0.355791497441
372315000 0.562382978365 -0.356501148286
372332500 0.560846012315 -0.354009348042
372350000 0.560458114716 -0.353925330802
372367500 0.560327908969 -0.354642372954
372385000 0.56015253798 -0.35536535968
372402500 0.560536922621 -0.354573894664
372420000 0.559929232346 -0.355041097584
372437500 0.559144190912 -0.354385391102
372455000 0.559543600043 -0.355567881983
372472500 0.558582244263 -0.355556526135
372490000 0.554682458695 -0.354956376315
372507500 0.558027380738 -0.355513805173
372525000 0.558909038467 -0.355843843304
372542500 0.558066022501 -0.353898794532
372560000 0.559203550787 -0.355698947731
372577500 0.557283745491 -0.354534169254
372595000 0.558136378264 -0.354430405792
372612500 0.555690987128 -0.355277394167
372630000 0.556734339729 -0.354361711812
372647500 0.558173330955 -0.356440005548
372665000 0.557087702082 -0.356175044303
372682500 0.557285803309 -0.354007402266
372700000 0.555087759567 -0.354133427597
372717500 0.555503594294 -0.353431806763
372735000 0.556052680416 -0.354785845335
372752500 0.55515718133 -0.355853803438
372770000 0.556709237256 -0.353753856283
372787500 0.555127608238 -0.353645122684
372805000 0.555845468133 -0.35271963816
372822500 0.554739943577 -0.353834214766
372840000 0.555330957871 -0.353748243411
372857500 0.554881930231 -0.35385878401
372875000 0.555081983932 -0.353120572368
372892500 0.553786910159 -0.353326285928
372910000 0.55524889628 -0.352590622873
372927500 0.553258793086 -0.35257148353
372945000 0.552872237066 -0.353020455403
372962500 0.553085572265 -0.3531839255
372980000 0.553216338045 -0.353466982439
372997500 0.553384463891 -0.352854070252
373015000 0.553494522906 -0.354041253832
373032500 0.552411248983 -0.353908049068
373050000 0.55230515651 -0.352765478224
373067500 0.553735062229 -0.352699890546
373085000 0.553042383033 -0.353068195594
373102500 0.551408099897 -0.353724216573
373120000 0.551740780415 -0.352961754046
373137500 0.553217583719 -0.352568358908
373155000 0.551887911582 -0.351812421518
373172500 0.55185848437 -0.351127235152
373190000 0.550750413064 -0.352344626211
373207500 0.551110139001 -0.3522296388
373225000 0.55085676935 -0.351144744574
373242500 0.551829706185 -0.352860853359
373260000 0.548615077084 -0.352735954357
373277500 0.549196343371 -0.352828896983
373295000 0.551633280136 -0.352677443649
373312500 0.549516095202 -0.350639638923
373330000 0.549413289683 -0.350333288983
373347500 0.548608906803 -0.351269683899
373365000 0.548884766991 -0.350856229795
373382500 0.547964117045 -0.351174551073
373400000 0.547673773096 -0.350287927074
373417500 0.548782612 -0.351666211804
373435000 0.547916035459 -0.351416867696
373452500 0.546496384575 -0.351036725777
373470000 0.547721327094 -0.351277034645
373487500 0.546590891493 -0.349518247947
373505000 0.546208843434 -0.350256880101
373522500 0.546412013031 -0.351404759302
373540000 0.545607048539 -0.351630092523
373557500 0.546263094611 -0.351060543892
373575000 0.545951505401 -0.350480182912
373592500 0.545365303742 -0.351599800681
373610000 0.544485695656 -0.350689292169
373627500 0.545489226208 -0.349631877269
373645000 0.546171552735 -0.349954758328
373662500 0.54515871715 -0.351804323676
373680000 0.545032963303 -0.349301120971
373697500 0.545470096438 -0.349791012103
373715000 0.544693988843 -0.349299025017
373732500 0.542442184342 -0.349535696626
373750000 0.54318140232 -0.350189027568
373767500 0.544491300691 -0.348958491491
373785000 0.544679914592 -0.348757886483
373802500 0.543445802891 -0.34857623191
373820000 0.542206220484 -0.349633510053
373837500 0.54330061206 -0.348188660543
373855000 0.544223545541 -0.349006685551
373872500 0.54173046417 -0.349425942248
373890000 0.542279853317 -0.349453621827
373907500 0.542372419939 -0.348828522588
373925000 0.542047321192 -0.34800218829
373942500 0.542003334743 -0.349872563922
373960000 0.540899584448 -0.348357843503
373977500 0.539849304037 -0.349661797402
373995000 0.541223040674 -0.349974082611
374012500 0.540570635564 -0.348858654489
374030000 0.539064452817 -0.347852422386
374047500 0.53953182357 -0.349376624848
374065000 0.538321916429 -0.349020481737
374082500 0.538262023274 -0.348735141535
374100000 0.538146355722 -0.346583288876
374117500 0.538892161692 -0.3473581448
374135000 0.537850380526 -0.348449544463
374152500 0.538985641796 -0.348881648755
374170000 0.538879206366 -0.347485660815
374187500 0.539771225478 -0.346565373436
374205000 0.537960964446 -0.34788130491
374222500 0.539160064014 -0.348679535544
374240000 0.535355854424 -0.34750349299
374257500 0.53789061846 -0.347969149552
374275000 0.538544297461 -0.3471221001
374292500 0.53618949943 -0.348119233581
374310000 0.53768657309 -0.348743038715
374327500 0.537906759641 -0.347229476329
374345000 0.537268835706 -0.34764377321
374362500 0.536494585667 -0.347033774556
374380000 0.536670977287 -0.348017293436
374397500 0.535101068314 -0.346546917909
374415000 0.53515280925 -0.347994796606
374432500 0.534866955011 -0.346020214955
374450000 0.535703398883 -0.348166235034
374467500 0.535808954283 -0.347532758629
374485000 0.535360635846 -0.345553241299
374502500 0.533918315557 -0.34670044765
374520000 0.535338099856 -0.346483033505
374537500 0.533564704479 -0.346779917259
374555000 0.533648530747 -0.344744380426
374572500 0.534259527813 -0.345862548319
374590000 0.533802951141 -0.34576109652
374607500 0.53380566925 -0.345426008934
374625000 0.532314830315 -0.346856467062
374642500 0.532219617653 -0.34584843264
374660000 0.531151468597 -0.345739142054
374677500 0.531579208608 -0.345485912709
374695000 0.53004608327 -0.345224830762
374712500 0.532035305012 -0.34588568219
374730000 0.530890552478 -0.344675317604
374747500 0.531581814968 -0.347306599362
374765000 0.532531346615 -0.345191634601
374782500 0.531114997381 -0.344794905752
374800000 0.530865683624 -0.346048593526
374817500 0.530965325657 -0.345226810681
374835000 0.530396987191 -0.344279068657
374852500 0.529431080569 -0.343630590557
374870000 0.529595065053 -0.345801498808
374887500 0.529280597771 -0.344177968493
374905000 0.52927726889 -0.344744833112
374922500 0.529041964245 -0.344793778618
374940000 0.529648670793 -0.342809598998
374957500 0.527204620763 -0.343873886417
374975000 0.52961406342 -0.344381804548
374992500 0.529120512963 -0.344970444205
375010000 0.527873214256 -0.34511895418
375027500 0.527920008728 -0.344346398962
375045000 0.528459084436 -0.343488748262
375062500 0.527714218507 -0.343618762622
375080000 0.527626903354 -0.341863445988
375097500 0.52726083004 -0.342906026327
375115000 0.525838305676 -0.343431708323
375132500 0.526874437848 -0.342643496081
375150000 0.526132837562 -0.344078881619
375167500 0.525308688707 -0.345466016237
375185000 0.526788214715 -0.343139340308
375202500 0.525003641388 -0.343246463498
375220000 0.525389208538 -0.343427583171
375237500 0.526434030314 -0.343281828105
375255000 0.524817466729 -0.343536699175
375272500 0.523794962925 -0.342283812559
375290000 0.524627159863 -0.342317942785
375307500 0.52504686111 -0.342922817902
375325000 0.523376024326 -0.342422789353
375342500 0.522969641391 -0.343292897021
375360000 0.524115433063 -0.342146152973
375377500 0.523980429087 -0.341691076825
375395000 0.523668032175 -0.342070454752
375412500 0.523350703395 -0.34190393913
375430000 0.523595350809 -0.340764277675
375447500 0.522120821263 -0.340842325539
375465000 0.522110291075 -0.342085228987
375482500 0.521998138118 -0.343294394414
375500000 0.521890676398 -0.342409029284
375517500 0.519859029733 -0.340506781188
375535000 0.518394134068 -0.33966863624
375552500 0.520669430725 -0.340324676193
375570000 0.521249604984 -0.341396414039
375587500 0.521092147896 -0.340862116347
375605000 0.520463551647 -0.341941053224
375622500 0.520937563361 -0.341053245936
375640000 0.519437510204 -0.341534082158
375657500 0.519685739635 -0.340326749554
375675000 0.519837527169 -0.340298391561
375692500 0.519757214012 -0.340960278539
375710000 0.519211375037 -0.341143590363
375727500 0.519811156 -0.340962044265
375745000 0.519634398106 -0.340551125588
375762500 0.51941192514 -0.340624746209
375780000 0.518058795977 -0.340066317935
375797500 0.518595091048 -0.340571183036
375815000 0.517802322248 -0.340155246287
375832500 0.517495313907 -0.339369502385
375850000 0.51737652471 -0.339453992092
375867500 0.517163380549 -0.339797831616
375885000 0.516007816125 -0.338990401889
375902500 0.516451852437 -0.339369301257
375920000 0.51664610904 -0.339861447608
375937500 0.516172787462 -0.338703637694
375955000 0.515947215315 -0.338503548984
375972500 0.515642264376 -0.339132771302
375990000 0.51530566391 -0.339094628481
376007500 0.514459371669 -0.338334864692
376025000 0.515320182502 -0.338448688409
376042500 0.513828324776 -0.338274628663
376060000 0.513662332187 -0.339066632015
376077500 0.514192116157 -0.338612566096
376095000 0.513961607579 -0.338943293219
376112500 0.514010263981 -0.338198448566
376130000 0.514075747754 -0.338505702195
376147500 0.513600839151 -0.338428775846
376165000 0.513406711767 -0.338787152644
376182500 0.51321048927 -0.338819781599
376200000 0.512337136802 -0.339230136897
376217500 0.513713166892 -0.337862386183
376235000 0.513596056639 -0.337414949268
376252500 0.512622961226 -0.337879175353
376270000 0.512635735184 -0.338352425729
376287500 0.511833576083 -0.337921503397
376305000 0.511909050153 -0.338614823428
376322500 0.511600161731 -0.337743884738
376340000 0.511750803367 -0.336620615552
376357500 0.509982727022 -0.337174260646
376375000 0.510208398273 -0.337089686346
376392500 0.510789643749 -0.337216554716
376410000 0.509480489094 -0.336748597108
376427500 0.509583956545 -0.336704563601
376445000 0.508535026943 -0.335627113872
376462500 0.508300499981 -0.33609172331
376480000 0.507942905176 -0.336271200503
376497500 0.509465206158 -0.335452493399
376515000 0.509177298182 -0.335661467602
376532500 0.508919449538 -0.336069394441
376550000 0.508186670561 -0.336466557701
376567500 0.508932064844 -0.336246039282
376585000 0.507512469321 -0.335663468525
376602500 0.507568578977 -0.334941551655
376620000 0.507239554115 -0.335554002381
376637500 0.507007661704 -0.334614586273
376655000 0.50581466251 -0.335758665634
376672500 0.506391050836 -0.334983116888
376690000 0.506816223319 -0.335050794122
376707500 0.506471500479 -0.334705129612
376725000 0.505670898935 -0.335916397182
376742500 0.505739240332 -0.33552505073
376760000 0.506744467675 -0.335069159353
376777500 0.50475907561 -0.334364351143
376795000 0.505554471875 -0.334351161169
376812500 0.505349074741 -0.334763759489
376830000 0.504551148301 -0.333984279107
376847500 0.505711677601 -0.333931260761
376865000 0.503955100248 -0.333641979149
376882500 0.504024267048 -0.333531550476
376900000 0.503738355199 -0.333556342026
376917500 0.503785613899 -0.33348171009
376935000 0.503683626784 -0.332942391638
376952500 0.502370614079 -0.332641689588
376970000 0.503015725803 -0.333003735447
376987500 0.503626467876 -0.32788375378
377005000 0.502378973565 -0.33413943478
377022500 0.502315141021 -0.333531301557
377040000 0.502379823802 -0.332769435191
377057500 0.501608785922 -0.333081978201
377075000 0.501039216223 -0.332650633708
377092500 0.500874054378 -0.333541854549
377110000 0.501226777656 -0.332606258427
377127500 0.501486248058 -0.332252799792
377145000 0.500477372338 -0.331795598978
377162500 0.500181801202 -0.332220219085
377180000 0.499240148738 -0.331862222841
377197500 0.500274112483 -0.332029852056
377215000 0.500040154901 -0.33062105173
377232500 0.499481396722 -0.330592878747
377250000 0.499619358153 -0.331416596359
377267500 0.498629737314 -0.331810506581
377285000 0.498596933167 -0.332070662178
377302500 0.498176747973 -0.33136441269
377320000 0.497178299015 -0.33127949853
377337500 0.49829999601 -0.329655218532
377355000 0.498580520866 -0.329330706444
377372500 0.498408715563 -0.330820481807
377390000 0.497520773637 -0.330358402939
377407500 0.496819428111 -0.33096821338
377425000 0.496448450911 -0.330820304452
377442500 0.496090987446 -0.330208655328
377460000 0.49661573941 -0.330278030305
377477500 0.495649058145 -0.330409904864
377495000 0.49562429714 -0.330229086241
377512500 0.495563150079 -0.330485050353
377530000 0.49522738619 -0.330245743701
377547500 0.494801007847 -0.33000625114
377565000 0.494628747398 -0.32928060653
377582500 0.494652428257 -0.328967817201
377600000 0.494638919863 -0.328676401138
377617500 0.494299185736 -0.32852151066
377635000 0.494153013 -0.329545014999
377652500 0.494408706656 -0.329106390248
377670000 0.493830295961 -0.32810787338
377687500 0.493628145709 -0.327819301654
377705000 0.492760553858 -0.328194471863
377722500 0.4930897088 -0.328492091296
377740000 0.492566529774 -0.327409611191
377757500 0.492514684401 -0.327426186129
377775000 0.491710044537 -0.327860041792
377792500 0.491277664352 -0.327981358577
377810000 0.491308351476 -0.328733271621
377827500 0.491425113143 -0.327772262087
377845000 0.490754278163 -0.327718094527
377862500 0.490279987438 -0.327147249649
377880000 0.490484441803 -0.326912162944
377897500 0.490354088903 -0.327322045699
377915000 0.489896705324 -0.326989440903
377932500 0.489902242011 -0.327170775887
377950000 0.488879160154 -0.327216228763
377967500 0.488505274232 -0.326744074162
377985000 0.489340136593 -0.326922556012
378002500 0.489531096057 -0.326494210253
378020000 0.489471707805 -0.326511734568
378037500 0.489317403937 -0.327227081182
378055000 0.489224611552 -0.326633798791
378072500 0.488782355634 -0.326805792301
378090000 0.48728719304 -0.325973604237
378107500 0.487855401411 -0.325932719658
378125000 0.487824861644 -0.32639439871
378142500 0.487099560733 -0.325861294223
378160000 0.487416359618 -0.325828518028
378177500 0.485969487322 -0.324867275727
378195000 0.486343887504 -0.324966764146
378212500 0.485083799782 -0.324898017554
378230000 0.485280345937 -0.325285891721
378247500 0.485696391431 -0.325034955379
378265000 0.485409424669 -0.324567573776
378282500 0.484800999509 -0.324345577584
378300000 0.484106346835 -0.324674746456
378317500 0.484473509547 -0.323769603777
378335000 0.484473598634 -0.324094766859
378352500 0.484932837244 -0.3232729321
378370000 0.483807788451 -0.324093867356
378387500 0.483752470018 -0.324138849734
378405000 0.483635793472 -0.32316236179
378422500 0.482915950007 -0.323367140621
378440000 0.483000787554 -0.322371544063
378457500 0.482575906973 -0.32237603267
378475000 0.482381457581 -0.323142147961
378492500 0.482386777354 -0.322922994344
378510000 0.481225630732 -0.322863995901
378527500 0.482542135944 -0.322226820193
378545000 0.482423070755 -0.322373654226
378562500 0.481272078987 -0.322949663216
378580000 0.481448926062 -0.323068958631
378597500 0.483112561698 -0.322820290485
378615000 0.484516202445 -0.323653728671
378632500 0.482310554541 -0.32336403135
378650000 0.480609269197 -0.321730019808
378667500 0.480484995058 -0.321331521548
378685000 0.479488340958 -0.321323912209
378702500 0.479172524724 -0.320172065192
378720000 0.479867811383 -0.320287589391
378737500 0.478992056428 -0.322053114764
378755000 0.478731954934 -0.320934609398
378772500 0.478203423083 -0.320687215224
378790000 0.478367189822 -0.320497675217
378807500 0.477478432282 -0.32036528558
378825000 0.478215395384 -0.319406313986
378842500 0.477560257146 -0.319814402288
378860000 0.479204352167 -0.320113124449
378877500 0.476592363258 -0.319859411809
378895000 0.476810787218 -0.319578694893
378912500 0.476313119413 -0.319436703849
378930000 0.477418946482 -0.31799000931
378947500 0.476436583422 -0.31936961608
378965000 0.475938950535 -0.319714631333
378982500 0.476030529256 -0.318555722957
379000000 0.475314363088 -0.318803934577
379017500 0.475728265755 -0.319619638872
379035000 0.475671583304 -0.318606712846
379052500 0.47501575335 -0.318231691738
379070000 0.47486824431 -0.319148065206
379087500 0.474397611366 -0.317263104407
379105000 0.474097497307 -0.317238135228
379122500 0.474357928214 -0.316877157287
379140000 0.472158261079 -0.315587118476
379157500 0.469916829021 -0.316333915665
379175000 0.472481652795 -0.315613352997
379192500 0.473238502462 -0.317339226499
379210000 0.472897796884 -0.316916889986
379227500 0.473744938 -0.317338934845
379245000 0.472456247685 -0.316467615425
379262500 0.472775749738 -0.316777921697
379280000 0.471949378144 -0.316406694067
379297500 0.471117910287 -0.317884111576
379315000 0.470659686553 -0.316140496753
379332500 0.470724691657 -0.316252603962
379350000 0.470437763931 -0.315906405807
379367500 0.470150144816 -0.315638103382
379385000 0.469516615877 -0.315804890219
379402500 0.469294370334 -0.315592250452
379420000 0.469757886152 -0.315171583937
379437500 0.469604521367 -0.315568158942
379455000 0.469386040825 -0.316486190725
379472500 0.469802107029 -0.315182495278
379490000 0.469493546355 -0.314032497665
379507500 0.468662856426 -0.314158756789
379525000 0.46844113423 -0.314949566097
379542500 0.467272882319 -0.314347709173
379560000 0.468478925554 -0.313041574374
379577500 0.468418731723 -0.313966202906
379595000 0.468368711622 -0.314460448754
379612500 0.468121000157 -0.313263442714
379630000 0.46686993228 -0.312876144135
379647500 0.467038673651 -0.312906467575
379665000 0.466126730319 -0.31252077267
379682500 0.465549053717 -0.312597341122
379700000 0.464500140412 -0.31282556816
379717500 0.465358901807 -0.311999877972
379735000 0.465207053734 -0.312414665612
379752500 0.465650568184 -0.311455944157
379770000 0.46467831569 -0.312454544653
379787500 0.465744051586 -0.311711573629
379805000 0.464357602298 -0.312138715813
379822500 0.464325758246 -0.312500021263
379840000 0.46372596156 -0.311403657472
379857500 0.463386313397 -0.311188822889
379875000 0.463758883148 -0.311026963209
379892500 0.462995584913 -0.310520725403
379910000 0.463495576171 -0.309943680535
379927500 0.462831850787 -0.310803211269
379945000 0.46264012416 -0.311036647308
379962500 0.461024947766 -0.310308848996
379980000 0.461689236434 -0.310135091208
379997500 0.461752340906 -0.309537587525
380015000 0.460837153736 -0.309473287165
380032500 0.4593893748 -0.310046901454
380050000 0.461557073461 -0.308969170717
380067500 0.461493987408 -0.30881976957
380085000 0.461015629484 -0.309010270444
380102500 0.46077594508 -0.308588367938
380120000 0.459948075189 -0.308937598796
380137500 0.461791940043 -0.308106432231
380155000 0.459313647553 -0.308836963205
380172500 0.459681055354 -0.308307096807
380190000 0.458647725336 -0.306651078896
380207500 0.45903244474 -0.307080728004
380225000 0.459390403462 -0.308260023938
380242500 0.459697789178 -0.308744449404
380260000 0.458878810988 -0.307525167756
380277500 0.45798421242 -0.306791494059
380295000 0.458344406389 -0.306189422432
380312500 0.458046723572 -0.307218955599
380330000 0.457930336687 -0.307050161154
380347500 0.456739177186 -0.306680342
380365000 0.45634315167 -0.305747680462
380382500 0.455786502916 -0.306917309789
380400000 0.45662909421 -0.306168332134
380417500 0.457142942673 -0.306169684729
380435000 0.456005491544 -0.306128350866
380452500 0.456486726844 -0.305748681937
380470000 0.456113033368 -0.305083526445
380487500 0.456557414565 -0.305916667821
380505000 0.454897775194 -0.306166932631
380522500 0.455041024616 -0.305297967514
380540000 0.454865794177 -0.304040017426
380557500 0.45464223986 -0.304149321647
380575000 0.455332504269 -0.303280681871
380592500 0.4546364426 -0.303783548534
380610000 0.45362379691 -0.303016492487
380627500 0.452671663029 -0.303111628635
380645000 0.452438692939 -0.303401712888
380662500 0.451852321912 -0.303884639351
380680000 0.452857950728 -0.302863058448
380697500 0.452114231726 -0.302870636055
380715000 0.453037061847 -0.303014012393
380732500 0.45217310066 -0.302637390424
380750000 0.452183605285 -0.301812891585
380767500 0.451423227605 -0.300771673513
380785000 0.451450586837 -0.302029428869
380802500 0.451656474122 -0.300983180648
380820000 0.450618925786 -0.301329554195
380837500 0.450703392882 -0.300596203004
380855000 0.450397183031 -0.301119871514
380872500 0.450077833952 -0.300526410879
380890000 0.449824518525 -0.30095365293
380907500 0.44965921264 -0.300576604422
380925000 0.44917675455 -0.299716816735
380942500 0.448552868534 -0.300876698677
380960000 0.448700069624 -0.299324259842
380977500 0.449057943967 -0.299276943479
380995000 0.449020227063 -0.299388385509
381012500 0.447882591724 -0.29931148278
381030000 0.447683778548 -0.298174055983
381047500 0.4481562863 -0.298327044837
381065000 0.448623124056 -0.298685621825
381082500 0.446766687218 -0.299106440721
381100000 0.447401490613 -0.298387336361
381117500 0.446153758822 -0.297593058608
381135000 0.446339245278 -0.297868449094
381152500 0.44630029004 -0.297626513884
381170000 0.446371014736 -0.297324610069
381187500 0.446916310064 -0.297584654215
381205000 0.446270656722 -0.296716751068
381222500 0.4465871574 -0.296757093035
381240000 0.445339917766 -0.296922120886
381257500 0.443931890771 -0.29715224572
381275000 0.444419724863 -0.296172534362
381292500 0.444726124609 -0.296642501602
381310000 0.444891236102 -0.295829549492
381327500 0.444475084269 -0.295406163715
381345000 0.443330556114 -0.294916866786
381362500 0.443532044788 -0.294164012168
381380000 0.443636721965 -0.294004383815
381397500 0.442847558488 -0.295262006882
381415000 0.443220756538 -0.294251007052
381432500 0.443586679088 -0.294218569392
381450000 0.443256539446 -0.293766599012
381467500 0.442987038441 -0.29412664006
381485000 0.442273470104 -0.294231769006
381502500 0.441138217467 -0.293750965278
381520000 0.441497204091 -0.292922511938
381537500 0.441540872923 -0.293096789807
381555000 0.440859796913 -0.293400640203
381572500 0.440955434339 -0.292387316354
381590000 0.440374771321 -0.292483908572
381607500 0.44019995747 -0.291317848452
381625000 0.441185839174 -0.291657372211
381642500 0.440236667383 -0.29067960404
381660000 0.44045050577 -0.291239626255
381677500 0.439796950238 -0.291366846642
381695000 0.439873427505 -0.290969575379
381712500 0.439200318859 -0.289594508825
381730000 0.439981562947 -0.290354168225
381747500 0.439339697694 -0.290839151585
381765000 0.439461596668 -0.290982560949
381782500 0.438390997801 -0.289673269778
381800000 0.437854501664 -0.28980846306
381817500 0.438431269971 -0.288902333003
381835000 0.43755743433 -0.289244018834
381852500 0.438986499325 -0.289199435131
381870000 0.438427300213 -0.289694741491
381887500 0.438031352121 -0.289016131479
381905000 0.436709842247 -0.289046424484
381922500 0.437066715985 -0.288349754514
381940000 0.435904251306 -0.288059857213
381957500 0.435825864499 -0.287602508655
381975000 0.435806263193 -0.287146442404
381992500 0.435656282236 -0.286788802608
382010000 0.435830083676 -0.286471626811
382027500 0.43606836606 -0.286057277117
382045000 0.43504108496 -0.286289752437
382062500 0.435407329537 -0.2858562767
382080000 0.435110718841 -0.285884564147
382097500 0.43407158288 -0.285036097637
382115000 0.433660312661 -0.285013620676
382132500 0.433414447786 -0.284997075029
382150000 0.43411120408 -0.284759800115
382167500 0.433009759247 -0.284756698503
382185000 0.433595612205 -0.283758713531
382202500 0.434003698199 -0.28490618465
382220000 0.433216726424 -0.283484294089
382237500 0.432664100117 -0.283416712602
382255000 0.433326768356 -0.283562155751
382272500 0.433184075945 -0.283622160643
382290000 0.432936169507 -0.283387077494
382307500 0.432760703033 -0.28256647085
382325000 0.431570275375 -0.28259366992
382342500 0.431367923105 -0.282210824875
382360000 0.431250489301 -0.281354685672
382377500 0.431039769481 -0.281379918479
382395000 0.430945522412 -0.281474904482
382412500 0.43085561863 -0.281354884633
382430000 0.431454530452 -0.281294251398
382447500 0.430458249532 -0.280709313378
382465000 0.429638874679 -0.28131285034
382482500 0.429917860905 -0.280651714705
382500000 0.42998210725 -0.27997041778
382517500 0.429919926395 -0.279736865608
382535000 0.429549203842 -0.279640273066
382552500 0.429573348361 -0.279936665825
382570000 0.429096047753 -0.279622043996
382587500 0.428613187209 -0.279195176051
382605000 0.429025616541 -0.278719428923
382622500 0.428493865814 -0.279185719321
382640000 0.428177295741 -0.278127972223
382657500 0.428133756346 -0.278695219766
382675000 0.42800651814 -0.277380489139
382692500 0.42823389747 -0.278088393971
382710000 0.427666009393 -0.277074606837
382727500 0.427275546116 -0.276591308623
382745000 0.427354583283 -0.276478305124
382762500 0.430355019602 -0.275067256811
382780000 0.42695456746 -0.275967623338
382797500 0.426520699753 -0.276046315758
382815000 0.425938082332 -0.275752709178
382832500 0.425592134551 -0.275521859535
382850000 0.425563488114 -0.275117232684
382867500 0.425517446384 -0.27458096265
382885000 0.425153628858 -0.274543477221
382902500 0.425118010046 -0.274295659815
382920000 0.42536713429 -0.273528922143
382937500 0.425236655388 -0.273197268843
382955000 0.425323171169 -0.273096541694
382972500 0.424798746978 -0.273085208655
382990000 0.424654236193 -0.2723140679
383007500 0.42422469712 -0.272606752846
383025000 0.424059252868 -0.272081019183
383042500 0.424518133 -0.272202864769
383060000 0.42464190301 -0.272490321711
383077500 0.423888613775 -0.271800590514
383095000 0.424577684741 -0.27337303657
383112500 0.423638781041 -0.27167660906
383130000 0.423021396581 -0.270916127049
383147500 0.422718155727 -0.27144740473
383165000 0.423103013394 -0.270353657683
383182500 0.423362068584 -0.270301478471
383200000 0.422629482336 -0.269540749526
383217500 0.422885446719 -0.269958211335
383235000 0.422028953329 -0.269646536047
383252500 0.422189850141 -0.26949235044
383270000 0.421644472741 -0.268534884357
383287500 0.421921801119 -0.268582670313
383305000 0.42146361732 -0.26904065047
383322500 0.421694656431 -0.267970634124
383340000 0.421850120778 -0.267637575328
383357500 0.421481882124 -0.267829775265
383375000 0.420797604811 -0.267433693816
383392500 0.420835190086 -0.266713090515
383410000 0.420787933471 -0.266235230939
383427500 0.420757934195 -0.265951978298
383445000 0.419735013766 -0.266517835724
383462500 0.419355203685 -0.265915014121
383480000 0.420079011954 -0.265980339564
383497500 0.418947777748 -0.26570593641
383515000 0.419093983986 -0.265137961544
383532500 0.419107959202 -0.265122680786
383550000 0.419228550547 -0.265130654583
383567500 0.417885398635 -0.267363061964
383585000 0.419061687755 -0.264638655468
383602500 0.418842373778 -0.263596383156
383620000 0.4182238196 -0.264449075814
383637500 0.417756913029 -0.26412335683
383655000 0.418258250894 -0.263551373163
383672500 0.418388086223 -0.262828165117
383690000 0.418527018645 -0.262824927954
383707500 0.417209159534 -0.262422634489
383725000 0.41764880015 -0.261863396731
383742500 0.417826642954 -0.261162386386
383760000 0.418591132486 -0.261660218641
383777500 0.417622346352 -0.26061738107
383795000 0.417836879919 -0.261884174207
383812500 0.417776241568 -0.260921672612
383830000 0.417369644159 -0.260542762809
383847500 0.415842431217 -0.259808267699
383865000 0.417398923122 -0.259746847548
383882500 0.416743348318 -0.260554548895
383900000 0.417151676375 -0.259420598761
383917500 0.4158597641 -0.259437714076
383935000 0.416383543091 -0.25859608871
383952500 0.415615016444 -0.258949991897
383970000 0.415826735742 -0.257379226163
383987500 0.415893571935 -0.25787592805
384005000 0.415722209672 -0.258810531556
384022500 0.415071809404 -0.258268804349
384040000 0.415072619574 -0.258315940704
384057500 0.415215907402 -0.257422475354
384075000 0.414933849806 -0.257094164604
384092500 0.413989196462 -0.256846313968
384110000 0.415772687287 -0.256438733784
384127500 0.414488287034 -0.257283313911
384145000 0.415000322167 -0.256698046427
384162500 0.414665117067 -0.256896145499
384180000 0.413776347189 -0.255396329371
384197500 0.413632166129 -0.255693217097
384215000 0.413494479925 -0.253962897179
384232500 0.413979884301 -0.255327580124
384250000 0.413284506639 -0.25497379578
384267500 0.413955659231 -0.253541751613
384285000 0.413526236641 -0.254044238617
384302500 0.413805557465 -0.254124853511
384320000 0.412840861697 -0.253300747731
384337500 0.412569425275 -0.254259803997
384355000 0.41220888595 -0.252647114267
384372500 0.413785472508 -0.252367437356
384390000 0.412123245953 -0.252404470903
384407500 0.413188837682 -0.252801329602
384425000 0.411944508431 -0.25266273969
384442500 0.411698047265 -0.251200156951
384460000 0.412404975469 -0.251688617875
384477500 0.411439640519 -0.251985645146
384495000 0.411660165205 -0.251547960234
384512500 0.412452447595 -0.250396960038
384530000 0.41131687313 -0.250630932333
384547500 0.410673534942 -0.250363575502
384565000 0.411480842016 -0.249502440645
384582500 0.410576659353 -0.249765063821
384600000 0.410308591968 -0.248563720232
384617500 0.4112030699 -0.249555586874
384635000 0.410576436976 -0.249848583357
384652500 0.41099726716 -0.248501081327
384670000 0.41084030593 -0.249465768697
384687500 0.410417291462 -0.248426670258
384705000 0.41066647844 -0.248042696244
384722500 0.41174588545 -0.247279387466
384740000 0.40989534119 -0.247007339232
384757500 0.409641522445 -0.247248521387
384775000 0.410506212878 -0.247105680516
384792500 0.409296949508 -0.24755380528
384810000 0.409391001995 -0.247646969129
384827500 0.408769309732 -0.248595441134
384845000 0.408129190704 -0.246235495735
384862500 0.409183829071 -0.245743189621
384880000 0.40860462003 -0.24587134175
384897500 0.408778228024 -0.245553828667
384915000 0.408180298977 -0.245806950143
384932500 0.409172944864 -0.245134112281
384950000 0.40826693607 -0.244651356264
384967500 0.407949328581 -0.245504524442
384985000 0.40871626263 -0.243958633854
385002500 0.407876960249 -0.244261172172
385020000 0.408425921761 -0.243274029875
385037500 0.407922672745 -0.243093087406
385055000 0.406855550854 -0.243389465772
385072500 0.407476040932 -0.243302877972
385090000 0.407715821941 -0.242340748333
385107500 0.40657144004 -0.241924405433
385125000 0.406671495443 -0.241443916896
385142500 0.407359403679 -0.242155631959
385160000 0.407025646091 -0.24130544577
385177500 0.406623427838 -0.24159370072
385195000 0.407184780636 -0.241414188444
385212500 0.407508996652 -0.241611162773
385230000 0.406639185924 -0.241105574136
385247500 0.407218033532 -0.240204906016
385265000 0.406627855763 -0.240276169979
385282500 0.406429153252 -0.240292586779
385300000 0.407028548559 -0.239887623038
385317500 0.406198746059 -0.239721231281
385335000 0.406129570812 -0.238730216801
385352500 0.406152115175 -0.239571131598
385370000 0.406192347541 -0.238956638559
385387500 0.406352930944 -0.238620764565
385405000 0.404618139246 -0.238150559643
385422500 0.403527382455 -0.238460340432
385440000 0.403802219668 -0.237495430181
385457500 0.405046431772 -0.236721157412
385475000 0.405541919531 -0.236271063973
385492500 0.405238947468 -0.237251756262
385510000 0.405243227996 -0.236150234969
385527500 0.405335763471 -0.236110437537
385545000 0.405249534693 -0.235972780905
385562500 0.404885389317 -0.235892802588
385580000 0.403812098514 -0.235907618832
385597500 0.403133844998 -0.235662443149
385615000 0.403763373548 -0.235220241372
385632500 0.404971236682 -0.234145806991
385650000 0.404415036341 -0.235331675771
385667500 0.40374572233 -0.234720140569
385685000 0.404476501869 -0.233846206217
385702500 0.403766906434 -0.234778077427
385720000 0.403505607289 -0.2332244679
385737500 0.404356967682 -0.233814560244
385755000 0.403610593627 -0.234397888818
385772500 0.403216243593 -0.233999639229
385790000 0.404657143203 -0.231876629609
385807500 0.402615585223 -0.233149832034
385825000 0.403686436896 -0.231450833512
385842500 0.403752613657 -0.231798366772
385860000 0.401601626704 -0.232855824513
385877500 0.402676873994 -0.231283158207
385895000 0.402443727117 -0.232839876231
385912500 0.402152564937 -0.231601670034
385930000 0.403085014152 -0.230797278935
385947500 0.401419790514 -0.230537799071
385965000 0.40301913572 -0.231650959683
385982500 0.401785729159 -0.231715084076
386000000 0.4036668711 -0.230379293253
386017500 0.402242695904 -0.229325136582
386035000 0.401950869885 -0.229062007568
386052500 0.402039904011 -0.229094205686
386070000 0.401672055416 -0.229259227406
386087500 0.400603375694 -0.227849195683
386105000 0.40061125478 -0.228172936371
386122500 0.400367667953 -0.228765225586
386140000 0.401470806471 -0.228789925728
386157500 0.401472748549 -0.227376766389
386175000 0.401736047902 -0.227082572273
386192500 0.400648340071 -0.227083447753
386210000 0.400526217605 -0.227838447417
386227500 0.40025692889 -0.227477577608
386245000 0.40098944865 -0.227053328696
386262500 0.399734794208 -0.227549312862
386280000 0.400132345054 -0.225641180491
386297500 0.400959343834 -0.226067596596
386315000 0.399394649243 -0.225626000028
386332500 0.399789582293 -0.226180597744
386350000 0.399633622566 -0.22548827787
386367500 0.400331211669 -0.226599122577
386385000 0.400204647139 -0.225120271015
386402500 0.398871122912 -0.225109164599
386420000 0.399357977359 -0.224808251671
386437500 0.400519662223 -0.225075154239
386455000 0.398728841199 -0.224281568023
386472500 0.398046777669 -0.224665915136
386490000 0.399794689791 -0.224038819934
386507500 0.399105337365 -0.22362884596
386525000 0.398990372824 -0.223595874915
386542500 0.398518346445 -0.223724899252
386560000 0.399231856928 -0.222278502318
386577500 0.400414015546 -0.222095886053
386595000 0.39830427714 -0.222265173763
386612500 0.398457057029 -0.221820116322
386630000 0.397394522511 -0.221856363985
386647500 0.398216991238 -0.221477299428
386665000 0.399346770201 -0.220688411792
386682500 0.398470353779 -0.219591172217
386700000 0.397629255309 -0.221663104344
386717500 0.398188360512 -0.220349467584
386735000 0.399137036322 -0.220691727825
386752500 0.397420387919 -0.219831708498
386770000 0.397141160314 -0.220097510153
386787500 0.39701789873 -0.219788184097
386805000 0.397438048074 -0.218918499773
386822500 0.396925085161 -0.219251265702
386840000 0.397303488769 -0.219677703195
386857500 0.397507572834 -0.219976082738
386875000 0.396985515683 -0.219346290051
386892500 0.399318572079 -0.218942711715
386910000 0.397309260838 -0.219573947838
386927500 0.396768124451 -0.218402027266
386945000 0.396844642034 -0.217653395508
386962500 0.397340067865 -0.217601757149
386980000 0.395980649643 -0.216725234558
386997500 0.396248084937 -0.216520898209
387015000 0.397298914192 -0.217261354749
387032500 0.397468603541 -0.216219871377
387050000 0.397360601941 -0.215865189853
387067500 0.396008072839 -0.21634594475
387085000 0.396492462662 -0.215374599767
387102500 0.395862454392 -0.215619754884
387120000 0.395761878233 -0.215191557888
387137500 0.394849220269 -0.215515898696
387155000 0.395240585232 -0.214589577366
387172500 0.394513520754 -0.213543476869
387190000 0.395282869972 -0.213369667328
387207500 0.395138414918 -0.214556559243
387225000 0.394344588044 -0.213434846344
387242500 0.394165328193 -0.214131412525
387260000 0.394557218072 -0.213561833885
387277500 0.394969938349 -0.214576746018
387295000 0.395530372319 -0.212994579783
387312500 0.394129791679 -0.212815768149
387330000 0.394929166064 -0.212986631617
387347500 0.39457146998 -0.212563635998
387365000 0.394922944069 -0.211886415869
387382500 0.394295812562 -0.210929342794
387400000 0.394254011718 -0.211037515506
387417500 0.393523702134 -0.211665671955
387435000 0.393472405792 -0.211076047494
387452500 0.393634454504 -0.211399168098
387470000 0.393835543333 -0.210758894186
387487500 0.393800901893 -0.210055941253
387505000 0.393305851377 -0.210251084851
387522500 0.393699557362 -0.209888075999
387540000 0.393564547502 -0.209330536866
387557500 0.393829420602 -0.210083819877
387575000 0.394511223165 -0.208966225023
387592500 0.393646374811 -0.209106273492
387610000 0.39313622862 -0.208915089253
387627500 0.393612757125 -0.20829779298
387645000 0.393057568307 -0.208955006664
387662500 0.392561466961 -0.20809581328
387680000 0.392845155964 -0.20745499905
387697500 0.392474817875 -0.206901331006
387715000 0.392153479883 -0.207790973686
387732500 0.392306615239 -0.207303084113
387750000 0.39238640718 -0.207584824469
387767500 0.392441422974 -0.207499439861
387785000 0.392318312206 -0.206259354218
387802500 0.392332158259 -0.206495393476
387820000 0.392949255674 -0.205780866029
387837500 0.391450537342 -0.205618432302
387855000 0.391825930446 -0.205607836489
387872500 0.3922399483 -0.205695964288
387890000 0.391950040243 -0.204809833876
387907500 0.391364456211 -0.205185446833
387925000 0.391731568183 -0.204475428448
387942500 0.391849615471 -0.204312405587
387960000 0.391663913785 -0.20394992012
387977500 0.391096555002 -0.20355432309
387995000 0.39056109669 -0.203464792682
388012500 0.390681878991 -0.202325107461
388030000 0.391249264853 -0.202931292054
388047500 0.390435798544 -0.20285004382
388065000 0.389282014931 -0.201650994505
388082500 0.390606623173 -0.201512816231
388100000 0.391080276778 -0.201459563899
388117500 0.390278227629 -0.201715018521
388135000 0.390661003821 -0.202488954625
388152500 0.390844843802 -0.20161375059
388170000 0.390716134636 -0.200775632948
388187500 0.3903439521 -0.200981273231
388205000 0.390667754515 -0.201425594883
388222500 0.389471590021 -0.201282169628
388240000 0.390484155368 -0.199908146525
388257500 0.390665770245 -0.199978712181
388275000 0.390123525435 -0.19974780392
388292500 0.390093438213 -0.19992627571
388310000 0.389957845969 -0.200380957907
388327500 0.389279761902 -0.20098670307
388345000 0.389993805809 -0.199299484674
388362500 0.390559255995 -0.196501886663
388380000 0.39008568261 -0.19929546163
388397500 0.39053380222 -0.198972315381
388415000 0.390357550103 -0.198477999908
388432500 0.388041725873 -0.199629728907
388450000 0.387771214116 -0.198023794628
388467500 0.388989855307 -0.197713156776
388485000 0.389839704499 -0.197439943221
388502500 0.390539332844 -0.195398021494
388520000 0.39045136817 -0.196633316022
388537500 0.389937007561 -0.196674568014
388555000 0.387384082098 -0.196361702574
388572500 0.388391492907 -0.194890094325
388590000 0.388462015122 -0.196595034634
388607500 0.390082914959 -0.195931402042
388625000 0.387303756341 -0.195154302791
388642500 0.389817034787 -0.195602456975
388660000 0.388942098432 -0.195952990202
388677500 0.387353283965 -0.194017890109
388695000 0.387873902104 -0.195743964028
388712500 0.389331276874 -0.194295422578
388730000 0.386658818104 -0.193495712358
388747500 0.387254879128 -0.194702420659
388765000 0.387441682475 -0.193652461237
388782500 0.388310557155 -0.192781281905
388800000 0.388211371448 -0.192313953721
388817500 0.38761587943 -0.192428786037
388835000 0.387034679635 -0.190660233184
388852500 0.386943925416 -0.193684380368
388870000 0.3873380615 -0.19356499905
388887500 0.385714603839 -0.192595277113
388905000 0.385259168795 -0.193489248001
388922500 0.386318126284 -0.192374625162
388940000 0.385702707333 -0.190986971072
388957500 0.386072654508 -0.190725278015
388975000 0.388282752937 -0.190745958319
388992500 0.386704812508 -0.191666238353
389010000 0.387083517367 -0.192173503743
389027500 0.387036171711 -0.191097268104
389045000 0.386927958792 -0.191505149418
389062500 0.387108404143 -0.191011241181
389080000 0.386522802452 -0.19104062001
389097500 0.387264216698 -0.190992215074
389115000 0.38599632489 -0.188935845917
389132500 0.386354435007 -0.188539591519
389150000 0.386446094434 -0.189220071724
389167500 0.384649868644 -0.18913137195
389185000 0.385287148304 -0.191049760968
389202500 0.384784432996 -0.1893562032
389220000 0.384506862365 -0.186320255535
389237500 0.385045473367 -0.187765277472
389255000 0.386657743634 -0.188730779133
389272500 0.387639105566 -0.186361884833
389290000 0.38640408736 -0.188284379465
389307500 0.386202064505 -0.187984713189
389325000 0.384537875541 -0.186403956545
389342500 0.384065181065 -0.187815331277
389360000 0.384798284842 -0.186969570666
389377500 0.386459274981 -0.186264214885
389395000 0.385946100266 -0.186765026795
389412500 0.383173438525 -0.186695500891
389430000 0.384598083198 -0.185497446099
389447500 0.383644930409 -0.186093162249
389465000 0.383961125451 -0.183934050901
389482500 0.384682742267 -0.185049739501
389500000 0.384510524762 -0.185280235178
389517500 0.382952610799 -0.185409932497
389535000 0.383728406275 -0.185691788367
389552500 0.38432796927 -0.183815142593
389570000 0.383798632446 -0.18345474424
389587500 0.384337914518 -0.183351376599
389605000 0.384650641756 -0.182506290302
389622500 0.384567925905 -0.183832873631
389640000 0.383055281659 -0.183014567966
389657500 0.382983358962 -0.182596580829
389675000 0.383092428009 -0.182304220474
389692500 0.384666495268 -0.1827402882
389710000 0.383957701748 -0.182201849024
389727500 0.383409111669 -0.180925386362
389745000 0.38388539542 -0.183473393181
389762500 0.38370143624 -0.180080581387
389780000 0.38331421824 -0.180934226675
389797500 0.382079383509 -0.181940606082
389815000 0.382950136608 -0.180454150686
389832500 0.383496354484 -0.179784103074
389850000 0.38201397782 -0.179442516069
389867500 0.382795202037 -0.179276068478
389885000 0.383744884792 -0.17931791735
389902500 0.382439567479 -0.180308172936
389920000 0.383121299298 -0.180264323856
389937500 0.383750365335 -0.181545764566
389955000 0.385055937041 -0.186434450241
389972500 0.386331422341 -0.18107478806
389990000 0.383592381567 -0.149507185178
390007500 0.341797109963 -0.248254249363
390025000 0.383135735125 -0.175658560891
390042500 0.381855960149 -0.180111375541
390060000 0.380501656484 -0.178729541095
390077500 0.381138650457 -0.177050309272
390095000 0.381473470082 -0.176445125785
390112500 0.380820704895 -0.176294713524
390130000 0.380049349765 -0.176388125256
390147500 0.381114771662 -0.176748816348
390165000 0.38128952543 -0.17589579806
390182500 0.381121789669 -0.175737130417
390200000 0.380961592411 -0.175981079123
390217500 0.38157404269 -0.175623603888
390235000 0.381002589217 -0.175775328324
390252500 0.38087105077 -0.174818599338
390270000 0.381376297207 -0.174185846185
390287500 0.381208556643 -0.175434375175
390305000 0.380029196702 -0.173903156958
390322500 0.38071270886 -0.174688717743
390340000 0.380410635754 -0.174127486226
390357500 0.38145961316 -0.174563468569
390375000 0.381356079919 -0.173762015401
390392500 0.379659566569 -0.173254440717
390410000 0.380155311034 -0.174139326912
390427500 0.378914065466 -0.174493117916
390445000 0.379979762152 -0.173371034303
390462500 0.378094094577 -0.171256588508
390480000 0.380912397394 -0.173106618151
390497500 0.380000991049 -0.172138998354
390515000 0.38026175208 -0.173409674743
390532500 0.381006210695 -0.170987422394
390550000 0.381856484803 -0.172393806521
390567500 0.380950877943 -0.171050181587
390585000 0.379918427414 -0.172092762896
390602500 0.37976439583 -0.17235178206
390620000 0.37818681727 -0.169959912045
390637500 0.37901638518 -0.170326216196
390655000 0.37960452427 -0.170288694383
390672500 0.378798396522 -0.171112073368
390690000 0.378121947637 -0.17163911579
390707500 0.379146224207 -0.168775438243
390725000 0.377831956725 -0.169270522933
390742500 0.378866813093 -0.16927071181
390760000 0.379854107006 -0.170032531639
390777500 0.379286860054 -0.169333048621
390795000 0.378758070603 -0.169110990428
390812500 0.378876399223 -0.167664564997
390830000 0.378038036493 -0.168742665747
390847500 0.378404267163 -0.166095747918
390865000 0.378285011921 -0.16779054429
390882500 0.377893190253 -0.167287823531
390900000 0.378500770382 -0.167258760358
390917500 0.379553187565 -0.167698765188
390935000 0.379990693922 -0.166759196681
390952500 0.378067950388 -0.166066426542
390970000 0.377317875238 -0.167768240435
390987500 0.378453917517 -0.165803968811
391005000 0.377669400237 -0.165332023145
391022500 0.377292071171 -0.167028419201
391040000 0.378203728506 -0.165820524421
391057500 0.376650074647 -0.165686155108
391075000 0.375955659046 -0.165237876626
391092500 0.376558880533 -0.165203308054
391110000 0.376656117649 -0.165411419213
391127500 0.377515885103 -0.16510525769
391145000 0.377095712606 -0.164028985535
391162500 0.377093106356 -0.164095868306
391180000 0.375541219539 -0.164823858997
391197500 0.377985889673 -0.166383071885
391215000 0.376773827045 -0.16565658106
391232500 0.377633356619 -0.16385829218
391250000 0.376764748546 -0.164291310362
391267500 0.377095454134 -0.162643390573
391285000 0.378245170917 -0.163736879817
391302500 0.378127682814 -0.163228980861
391320000 0.376692248679 -0.162090869408
391337500 0.378478549347 -0.161224828787
391355000 0.374613328861 -0.163212759147
391372500 0.377308475737 -0.161470225941
391390000 0.376031336982 -0.161094977287
391407500 0.375505928716 -0.160732322459
391425000 0.376874711267 -0.161379192453
391442500 0.375790642328 -0.16098067774
391460000 0.374714233417 -0.161074140964
391477500 0.374980707611 -0.160191474046
391495000 0.375048083725 -0.160021398991
391512500 0.376031431631 -0.160842498438
391530000 0.375517214554 -0.159819416983
391547500 0.375105370165 -0.159248354737
391565000 0.373759887794 -0.158415033338
391582500 0.376164062826 -0.158926693143
391600000 0.374528104976 -0.15948704129
391617500 0.37609967833 -0.159266203489
391635000 0.374496537846 -0.157661913225
391652500 0.373967001178 -0.158506474832
391670000 0.374472074094 -0.158243280001
391687500 0.374030163557 -0.158930338418
391705000 0.373795869495 -0.157701296081
391722500 0.374456531491 -0.156854268044
391740000 0.374359104001 -0.157182107533
391757500 0.374037726317 -0.156823219729
391775000 0.374452057823 -0.156634982451
391792500 0.374209696779 -0.157129992358
391810000 0.37328364509 -0.155839038097
391827500 0.374252751775 -0.155896876266
391845000 0.374653883136 -0.15552655251
391862500 0.373632820447 -0.154913239353
391880000 0.373443174368 -0.154320694412
391897500 0.374013961517 -0.155830645134
391915000 0.37561993685 -0.153797688541
391932500 0.373831627217 -0.154374461782
391950000 0.374668128408 -0.156444099553
391967500 0.374167844709 -0.154546668935
391985000 0.37275692859 -0.154901291528
392002500 0.372049043582 -0.154124207756
392020000 0.373329965026 -0.15397221862
392037500 0.373644014637 -0.153289955138
392055000 0.372299533258 -0.153291030898
392072500 0.373847845825 -0.153057698052
392090000 0.372963744594 -0.152608690554
392107500 0.372537500974 -0.152622920914
392125000 0.372830109873 -0.152992001891
392142500 0.370333968255 -0.152745532903
392160000 0.37183213705 -0.152183477163
392177500 0.372295459283 -0.150569564256
392195000 0.372626722843 -0.150925165051
392212500 0.371887322771 -0.150766812472
392230000 0.370823905101 -0.151617301005
392247500 0.372122080519 -0.151427115033
392265000 0.371577450116 -0.149891609755
392282500 0.372172964089 -0.14999009215
392300000 0.37080244907 -0.14971723364
392317500 0.371257008964 -0.150750855515
392335000 0.370587862507 -0.14954436047
392352500 0.371943030826 -0.148889425004
392370000 0.371042105961 -0.149607058757
392387500 0.370149626469 -0.150302852556
392405000 0.371919644194 -0.148534870355
392422500 0.371008088571 -0.14850422665
392440000 0.370829534662 -0.149155348818
392457500 0.371098795965 -0.148162314839
392475000 0.370483771075 -0.148157967495
392492500 0.370052630469 -0.147337175283
392510000 0.370240743439 -0.146769635631
392527500 0.370291084683 -0.147578767312
392545000 0.369545579027 -0.147301207578
392562500 0.370486093337 -0.146469507539
392580000 0.370776405627 -0.145746251011
392597500 0.370205713235 -0.147343157735
392615000 0.36969385032 -0.146649977323
392632500 0.370094572103 -0.145350462474
392650000 0.370192911306 -0.146119232244
392667500 0.369743776508 -0.143942688823
392685000 0.369089507543 -0.145987531581
392702500 0.369031879736 -0.145892612498
392720000 0.369404839364 -0.145051738716
392737500 0.369434817887 -0.143259310713
392755000 0.367936140094 -0.142893465225
392772500 0.369432228159 -0.143911513855
392790000 0.369472799571 -0.144298896811
392807500 0.36935508172 -0.144663262993
392825000 0.36906623492 -0.143376397777
392842500 0.368155980873 -0.142377071352
392860000 0.367954193843 -0.142742349514
392877500 0.368256875859 -0.142285671745
392895000 0.367750983131 -0.141541798411
392912500 0.368230336784 -0.142929003578
392930000 0.367197004487 -0.143331663075
392947500 0.368419250363 -0.141510213098
392965000 0.368606242261 -0.141184108514
392982500 0.367547395378 -0.142203705128
393000000 0.366886583515 -0.141294781915
393017500 0.367914937578 -0.141745786471
393035000 0.366652951957 -0.142073360592
393052500 0.367282360875 -0.140995893164
393070000 0.366709939678 -0.141118292999
393087500 0.367835758997 -0.139910153962
393105000 0.366890438994 -0.139647099537
393122500 0.367893606039 -0.139389059936
393140000 0.368060273309 -0.1396467604
393157500 0.367490174293 -0.139538382111
393175000 0.364847190288 -0.138784569636
393192500 0.367081296543 -0.138722227297
393210000 0.366155378369 -0.13976626028
393227500 0.366558674641 -0.139330607803
393245000 0.366215152394 -0.138716874048
393262500 0.367553199801 -0.137784731874
393280000 0.366879166716 -0.136553284119
393297500 0.365812133743 -0.137867097882
393315000 0.366459200581 -0.136663223012
393332500 0.366588464367 -0.136819210017
393350000 0.365579197243 -0.136145651737
393367500 0.367162109816 -0.137815450754
393385000 0.366266542014 -0.136225128223
393402500 0.365672629177 -0.135227596902
393420000 0.365594521759 -0.13700221887
393437500 0.365776676867 -0.136066377007
393455000 0.365718629243 -0.134138827141
393472500 0.365435445397 -0.13546173401
393490000 0.366979776826 -0.135533573739
393507500 0.365502239782 -0.134295224771
393525000 0.366012600186 -0.133582644319
393542500 0.363477483789 -0.133412562469
393560000 0.365126661227 -0.135031720358
393577500 0.364876985484 -0.133611959296
393595000 0.364948183264 -0.13334346627
393612500 0.36400753493 -0.132380446491
393630000 0.36521271644 -0.132496473136
393647500 0.365527232149 -0.134088154697
393665000 0.364087988205 -0.133518970597
393682500 0.364741122494 -0.133023161892
393700000 0.364874205435 -0.131519819475
393717500 0.364179332664 -0.131988921338
393735000 0.363881630933 -0.130611709454
393752500 0.36359702897 -0.131509003332
393770000 0.364313271925 -0.132075025408
393787500 0.364167313744 -0.130973826356
393805000 0.362573882051 -0.131010550128
393822500 0.362722218508 -0.131083401221
393840000 0.362667874041 -0.129434183819
393857500 0.364766187877 -0.129486489403
393875000 0.363798549881 -0.129572991903
393892500 0.36432719425 -0.12949118261
393910000 0.362896516083 -0.128580239993
393927500 0.363225065994 -0.127843281586
393945000 0.362839634978 -0.12901466283
393962500 0.36205414152 -0.127104979929
393980000 0.362095667527 -0.128539463199
393997500 0.363059772919 -0.128314669016
394015000 0.361727593246 -0.128394141369
394032500 0.361911394356 -0.127234816122
394050000 0.362954070952 -0.127845982048
394067500 0.361974675272 -0.126093407725
394085000 0.361580708942 -0.12592712257
394102500 0.362046626521 -0.125390626537
394120000 0.36148804426 -0.1259591896
394137500 0.361745989702 -0.127367338339
394155000 0.360571044498 -0.125805569895
394172500 0.360773938295 -0.124579357762
394190000 0.361778857876 -0.123105794887
394207500 0.36070705588 -0.12449749075
394225000 0.360931871235 -0.12397331935
394242500 0.361371801077 -0.124975214406
394260000 0.361249887643 -0.123575478715
394277500 0.361228794062 -0.124031165411
394295000 0.361227061229 -0.123530823439
394312500 0.361589000584 -0.123558116
394330000 0.360903923462 -0.12255272062
394347500 0.359683108056 -0.121501056943
394365000 0.360260067906 -0.122657140566
394382500 0.360635713485 -0.121792305257
394400000 0.360503023183 -0.122363031112
394417500 0.359967005078 -0.121545674144
394435000 0.359536406963 -0.121018209615
394452500 0.359684574292 -0.121771655334
394470000 0.360272814736 -0.12168745036
394487500 0.358638127526 -0.120696178037
394505000 0.359365040071 -0.120226247364
394522500 0.359304789237 -0.120341376625
394540000 0.36018578795 -0.119946233678
394557500 0.358873557119 -0.119120361076
394575000 0.359232725225 -0.119180867739
394592500 0.356358184782 -0.117725455468
394610000 0.358218009677 -0.117416397146
394627500 0.35871698868 -0.118362458083
394645000 0.359293034864 -0.118273146697
394662500 0.358947400126 -0.117446855169
394680000 0.358678218964 -0.117513315989
394697500 0.358339792058 -0.117784456166
394715000 0.357630688769 -0.117005055245
394732500 0.358703081286 -0.117107255273
394750000 0.359013348648 -0.116532562281
394767500 0.358195941757 -0.116720196051
394785000 0.357829712329 -0.116431921118
394802500 0.358299863781 -0.113926933702
394820000 0.358542137185 -0.115295376202
394837500 0.35791232658 -0.11529741617
394855000 0.357929351625 -0.115396590495
394872500 0.357301715357 -0.114226100716
394890000 0.357990067707 -0.115113243912
394907500 0.357485586632 -0.11485739228
394925000 0.357646187288 -0.113851367626
394942500 0.358585492071 -0.113899687706
394960000 0.357223498742 -0.113260768499
394977500 0.357390408777 -0.113762290667
394995000 0.357127548012 -0.112283181226
395012500 0.357774258605 -0.111902319562
395030000 0.356797559955 -0.112375037368
395047500 0.357744792042 -0.11213423977
395065000 0.357392283866 -0.111435343081
395082500 0.357503584777 -0.111195900182
395100000 0.356705199175 -0.111002797912
395117500 0.356822404563 -0.110976310408
395135000 0.356588137653 -0.110543832869
395152500 0.355996866802 -0.110284145245
395170000 0.356071886954 -0.110277295191
395187500 0.356482086671 -0.109879937284
395205000 0.356050594122 -0.110066172399
395222500 0.356230691914 -0.109553539148
395240000 0.355916160629 -0.109704922847
395257500 0.355898914884 -0.108600101337
395275000 0.355805183982 -0.108392574975
395292500 0.355809588404 -0.109012695862
395310000 0.356068253383 -0.108670368584
395327500 0.356174689335 -0.107915227332
395345000 0.356263312412 -0.107707605022
395362500 0.355987242511 -0.107765731597
395380000 0.355755398503 -0.106759565951
395397500 0.355292831089 -0.105869929286
395415000 0.355567533557 -0.105622728784
395432500 0.355429463355 -0.105907115719
395450000 0.354799118783 -0.106487343823
395467500 0.35505247403 -0.104810361549
395485000 0.355621054973 -0.106081413491
395502500 0.354953253916 -0.104763813453
395520000 0.354400359521 -0.104475222
395537500 0.354363292477 -0.104291303824
395555000 0.354871347506 -0.104247261068
395572500 0.354324701041 -0.102925048319
395590000 0.354862139837 -0.103437923307
395607500 0.354122520532 -0.103044428323
395625000 0.355276682496 -0.102862016497
395642500 0.355211463281 -0.102950800599
395660000 0.35442296896 -0.101940955672
395677500 0.353561072285 -0.10157048979
395695000 0.354660843223 -0.101970979511
395712500 0.353577088791 -0.101219218313
395730000 0.353255179632 -0.101232683606
395747500 0.354797704303 -0.101772039083
395765000 0.35420802368 -0.100606339142
395782500 0.354556307992 -0.100986031627
395800000 0.354102588671 -0.10051288926
395817500 0.35422722403 -0.0999116556643
395835000 0.353746423441 -0.100263370318
395852500 0.354214307072 -0.0997852438928
395870000 0.354422536898 -0.0992685861982
395887500 0.354308651504 -0.0986480550967
395905000 0.353588934962 -0.098864964398
395922500 0.354192151707 -0.0988454469366
395940000 0.353089993922 -0.0985090475711
395957500 0.352907924903 -0.0982463470108
395975000 0.352778072187 -0.0979418599677
395992500 0.353266284457 -0.097189200298
396010000 0.353008031108 -0.0968424168757
396027500 0.352775251692 -0.0968277999906
396045000 0.353162368997 -0.0964834546185
396062500 0.353384254292 -0.0960846806701
396080000 0.353201253299 -0.0953295683937
396097500 0.352830683144 -0.0954445992207
396115000 0.352421358455 -0.0952033197063
396132500 0.353324653258 -0.094187981636
396150000 0.352703624701 -0.09431932553
396167500 0.352115494939 -0.0928676468065
396185000 0.352236691422 -0.0933151741886
396202500 0.352370066406 -0.0930205672819
396220000 0.352468591617 -0.09271626351
396237500 0.352303778732 -0.0928505112137
396255000 0.351856964076 -0.0922372710379
396272500 0.352348430201 -0.0923009261657
396290000 0.352285987759 -0.0924281118588
396307500 0.352593451909 -0.091926550202
396325000 0.351785301 -0.0924107670237
396342500 0.352586429583 -0.0911392347589
396360000 0.352995193201 -0.0904298346752
396377500 0.352496745494 -0.0904173732143
396395000 0.352303600694 -0.0905948562744
396412500 0.351395447654 -0.0895360719798
396430000 0.3522281784 -0.0906649038534
396447500 0.352162443566 -0.0889773097341
396465000 0.351343486044 -0.0890762942879
396482500 0.350666365444 -0.0886955071296
396500000 0.351880970097 -0.0886767378829
396517500 0.350815693368 -0.08709960339
396535000 0.351917625898 -0.0872143474272
396552500 0.351557241264 -0.0868491571862
396570000 0.351561407537 -0.0878393319077
396587500 0.351487015068 -0.0876902901855
396605000 0.351212546597 -0.0869281334885
396622500 0.351760545612 -0.085806707062
396640000 0.350925642199 -0.085953277185
396657500 0.350698877199 -0.0850934689348
396675000 0.351378874177 -0.0859033029754
396692500 0.350682269792 -0.0849706773593
396710000 0.350813550208 -0.0843665478024
396727500 0.350222628709 -0.0834774924249
396745000 0.350005532156 -0.0842723191895
396762500 0.350565407415 -0.0834716662848
396780000 0.350458704477 -0.0835829635552
396797500 0.349698713588 -0.0827489747684
396815000 0.350026640061 -0.0829583111467
396832500 0.349950192909 -0.0824021000254
396850000 0.350460009879 -0.0818383817797
396867500 0.351172545936 -0.0813200245246
396885000 0.35028830488 -0.0816274107866
396902500 0.350379264249 -0.0806250466747
396920000 0.350501205737 -0.0799647610836
396937500 0.350069655808 -0.0800159525959
396955000 0.35029118359 -0.0799066694852
396972500 0.350281633253 -0.0800223684658
396990000 0.350493379834 -0.0792692375821
397007500 0.350405348505 -0.0791770308821
397025000 0.350358263967 -0.0791653209246
397042500 0.349765706784 -0.0788730910862
397060000 0.349881067767 -0.0785344952247
397077500 0.349918359725 -0.0785925014355
397095000 0.349105144718 -0.077266715201
397112500 0.350250002849 -0.0778159770425
397130000 0.349906868184 -0.0777659409476
397147500 0.349563663491 -0.0775610859472
397165000 0.349336830323 -0.0763006013435
397182500 0.349839174736 -0.0766980354288
397200000 0.350755224954 -0.0774781808954
397217500 0.352399000259 -0.0772905854789
397235000 0.349759761441 -0.0758441464266
397252500 0.349801353291 -0.0756299960698
397270000 0.349385463987 -0.0748795585217
397287500 0.350396261127 -0.0748564357394
397305000 0.349673629212 -0.0744220681474
397322500 0.349212210392 -0.0736808230176
397340000 0.349614833872 -0.0737199986564
397357500 0.34985751253 -0.0736705156797
397375000 0.350029296748 -0.0725291624728
397392500 0.349917260043 -0.0724326122073
397410000 0.349532126207 -0.0733852706003
397427500 0.34956484459 -0.0723409538606
397445000 0.350139403962 -0.0721938117034
397462500 0.349620204577 -0.0712817175812
397480000 0.348827144654 -0.0713734341813
397497500 0.34979505687 -0.0705154204063
397515000 0.35006173056 -0.0701503287465
397532500 0.349448829282 -0.0710125233903
397550000 0.34917820537 -0.0702758552306
397567500 0.349141790249 -0.0691490667367
397585000 0.348852045057 -0.0695325533046
397602500 0.348859049359 -0.0682379929213
397620000 0.349660137295 -0.0691304055076
397637500 0.349067659413 -0.0681948422681
397655000 0.350182937125 -0.0687134637185
397672500 0.349615702359 -0.0674794359668
397690000 0.349803700588 -0.0680251935043
397707500 0.349373862221 -0.067461514253
397725000 0.348984553718 -0.0671166794541
397742500 0.349223756752 -0.0672947416877
397760000 0.349800931135 -0.0669872891902
397777500 0.349776198766 -0.0672858141921
397795000 0.350597465474 -0.0667880048903
397812500 0.349135408182 -0.0651323806572
397830000 0.35026118205 -0.0652423908552
397847500 0.350027309689 -0.0652145670293
397865000 0.3540732204 -0.0570278234598
397882500 0.349764991205 -0.0640551319617
397900000 0.349579376687 -0.0634818986982
397917500 0.349082180723 -0.0640370249344
397935000 0.349208874253 -0.0635694384892
397952500 0.349411056045 -0.0630834897789
397970000 0.349598936477 -0.0624287932163
397987500 0.349802870896 -0.0624708752111
398005000 0.349426342216 -0.0629558210583
398022500 0.349610971526 -0.0615845337054
398040000 0.348772161744 -0.0613061953057
398057500 0.349571580696 -0.061848114818
398075000 0.349876604925 -0.0609233530978
398092500 0.350341426604 -0.0605416725961
398110000 0.349183059358 -0.0590382643998
398127500 0.349568162208 -0.0592973898488
398145000 0.349403406426 -0.0600530393956
398162500 0.349984725719 -0.0592382879035
398180000 0.348565017987 -0.0588312584947
398197500 0.349098425564 -0.0586135035557
398215000 0.349629904136 -0.0587740168463
398232500 0.349208925299 -0.0583620770378
398250000 0.348605963737 -0.057718418605
398267500 0.348779888247 -0.0571642865758
398285000 0.349079174416 -0.0569795452051
398302500 0.350581811561 -0.0578235126782
398320000 0.349658690379 -0.0570782719995
398337500 0.349769111788 -0.0566274581847
398355000 0.349027344315 -0.0561758747335
398372500 0.349677776583 -0.0567321171006
398390000 0.349426360626 -0.0551425351111
398407500 0.34928443837 -0.0551750276121
398425000 0.349058041847 -0.0544400508889
398442500 0.349398801865 -0.0551687311755
398460000 0.348950064518 -0.0543721940799
398477500 0.349350949459 -0.0544001260457
398495000 0.349021487553 -0.0542784740522
398512500 0.348872230172 -0.0545984163221
398530000 0.348743320529 -0.0534997568526
398547500 0.348600375331 -0.0541831483247
398565000 0.349043542274 -0.0524047453382
398582500 0.349243515655 -0.0522084629627
398600000 0.348975611339 -0.0522666680446
398617500 0.349481816895 -0.0520310294075
398635000 0.349460267997 -0.0523598129108
398652500 0.350083189666 -0.0530519287505
398670000 0.34965241538 -0.0518901242012
398687500 0.350335076102 -0.0505077759331
398705000 0.349744400327 -0.0499282118896
398722500 0.348674534023 -0.0493999820024
398740000 0.349313888126 -0.0491687755052
398757500 0.348938803021 -0.0496753776278
398775000 0.349568204081 -0.0486242022526
398792500 0.348988569922 -0.0481943471359
398810000 0.349807745505 -0.0490876792849
398827500 0.349311990235 -0.047939281594
398845000 0.350143279572 -0.048083269115
398862500 0.350201945714 -0.0472882669841
398880000 0.349219406698 -0.0468300569506
398897500 0.349292237469 -0.0468306579464
398915000 0.349487633097 -0.046514400334
398932500 0.34911983752 -0.0464067609227
398950000 0.349106897684 -0.0465182629399
398967500 0.348918843057 -0.0463310388503
398985000 0.350097280582 -0.0456842973011
399002500 0.349599750715 -0.0452305258026
399020000 0.34971798831 -0.0448008993387
399037500 0.349307449534 -0.0449969651311
399055000 0.349715607534 -0.0445855714658
399072500 0.350485615596 -0.0443245536468
399090000 0.3496319325 -0.0442285533978
399107500 0.34992001532 -0.0440978095249
399125000 0.349992373793 -0.0437889373101
399142500 0.350269561017 -0.0429022650768
399160000 0.349912413434 -0.0421340138166
399177500 0.348915158346 -0.0425741015365
399195000 0.349860921062 -0.0419489747328
399212500 0.350178089049 -0.0415050284446
399230000 0.350059015833 -0.0404017656131
399247500 0.350055696627 -0.0411181211974
399265000 0.349774832541 -0.039489043121
399282500 0.350174823575 -0.0408756825055
399300000 0.349831688535 -0.0395725223463
399317500 0.350294508877 -0.0402591481924
399335000 0.350778226043 -0.0395145605305
399352500 0.349923109554 -0.0398791045588
399370000 0.350802979681 -0.0383412248163
399387500 0.350511770327 -0.0386715451784
399405000 0.349808626913 -0.0379335684267
399422500 0.350821993499 -0.0382526576917
399440000 0.349759342025 -0.0375493598714
399457500 0.350004782676 -0.0374511859551
399475000 0.350483991417 -0.0372011871144
399492500 0.350445357272 -0.0369770968274
399510000 0.350262745971 -0.0366541228732
399527500 0.350624893127 -0.0365112575437
399545000 0.350773912055 -0.0364576605084
399562500 0.35082705198 -0.0360718400871
399580000 0.350453285463 -0.0353238895947
399597500 0.350504524639 -0.0346309460689
399615000 0.349554022873 -0.0342759203075
399632500 0.350740718678 -0.0344438752393
399650000 0.350436573132 -0.0345156915218
399667500 0.350782208484 -0.0335532152537
399685000 0.350897180268 -0.0344623085929
399702500 0.350192240383 -0.0330927016956
399720000 0.350403893147 -0.0334276202423
399737500 0.351449713468 -0.0295580276104
399755000 0.350796383781 -0.0331832427169
399772500 0.350581812667 -0.0318651872968
399790000 0.351117706558 -0.0323434706418
399807500 0.351056088889 -0.0314112334242
399825000 0.351349819252 -0.0310114396435
399842500 0.350690222305 -0.0307649691803
399860000 0.351256153266 -0.031171761079
399877500 0.351001378874 -0.0307708935421
399895000 0.350981064481 -0.0303786819998
399912500 0.351354122499 -0.029591703788
399930000 0.351477410441 -0.0293416930787
399947500 0.351142535878 -0.0292063381145
399965000 0.351101713565 -0.0290248152253
399982500 0.351289848964 -0.0285724353346
400000000 0.352119070973 -0.0289289863381
