! Calibrated averaged scanner-service zoom
# Hz S RI R 50
470000000 0.751591319531 0.118902031031
470010500 0.752365954623 0.118226469058
470021000 0.751191289574 0.119493419721
470031500 0.751561212181 0.119183633984
470042000 0.751591991343 0.119515734198
470052500 0.750385924842 0.119838112521
470063000 0.750623730904 0.119660757683
470073500 0.752313727262 0.118893396032
470084000 0.751962147341 0.119299444749
470094500 0.752335868198 0.1183742818
470105000 0.750818120498 0.119781745109
470115500 0.752061600939 0.119554474945
470126000 0.750258266004 0.12015701598
470136500 0.752228412882 0.118110292778
470147000 0.75302278787 0.117653931512
470157500 0.752858923266 0.12007339942
470168000 0.752265719996 0.120378512009
470178500 0.75177680622 0.119718628822
470189000 0.751346766462 0.119816100429
470199500 0.751992212033 0.117489038983
470210000 0.754651675269 0.118178063499
470220500 0.748973151349 0.127648899579
470231000 0.750284370472 0.122129296985
470241500 0.752831807723 0.116738383461
470252000 0.752794299935 0.118248305781
470262500 0.750624649026 0.121404481234
470273000 0.74978857344 0.119654138593
470283500 0.751806911174 0.123217999949
470294000 0.748160879304 0.118220670904
470304500 0.752257465907 0.119949897125
470315000 0.755252906152 0.120433399756
470325500 0.752614875226 0.114448419185
470336000 0.760513935415 0.119358496968
470346500 0.748245634556 0.122273179605
470357000 0.75163108373 0.123193647758
470367500 0.75111541563 0.120927522723
470378000 0.752320594948 0.117011084069
470388500 0.753382411177 0.119005306776
470399000 0.755453536241 0.121953208557
470409500 0.75473985148 0.120849565164
470420000 0.74828745055 0.120756983868
470430500 0.757994633296 0.118161116331
470441000 0.746772698583 0.12113820572
470451500 0.747660620773 0.116593284094
470462000 0.756056037904 0.116312785313
470472500 0.748647409167 0.123412748019
470483000 0.747916151499 0.120087440723
470493500 0.755084878615 0.11488448532
470504000 0.754614856929 0.124158876489
470514500 0.751693869389 0.118816737902
470525000 0.755409134918 0.124646486216
470535500 0.759288629905 0.123272753459
470546000 0.756519118428 0.12016882387
470556500 0.754109399285 0.118468607974
470567000 0.755475525476 0.117938747655
470577500 0.758826932687 0.117972693725
470588000 0.755972843439 0.119568055323
470598500 0.744943053756 0.119389457368
470609000 0.755251468939 0.121455629818
470619500 0.752155746159 0.120471450842
470630000 0.751249422042 0.124742278537
470640500 0.753147592351 0.119577241806
470651000 0.756271004215 0.123572406998
470661500 0.754680240745 0.116007667159
470672000 0.749634199734 0.115650153261
470682500 0.75391465266 0.122556612264
470693000 0.750566923493 0.122768303195
470703500 0.752209216099 0.121628988902
470714000 0.7530594415 0.120084445151
470724500 0.750846027555 0.116849978932
470735000 0.753575458107 0.120830825481
470745500 0.752045986916 0.120153520791
470756000 0.753968943012 0.11828870865
470766500 0.751894912106 0.118096431134
470777000 0.747886000456 0.119622403498
470787500 0.751664366529 0.119520318922
470798000 0.753863949797 0.119444705634
470808500 0.754930409687 0.122226128379
470819000 0.752167721676 0.121575419124
470829500 0.753872092838 0.120767325656
470840000 0.755259274257 0.121477868678
470850500 0.753451309776 0.119348410428
470861000 0.755777511258 0.120833446693
470871500 0.752935078303 0.121465739384
470882000 0.753092498823 0.120087489882
470892500 0.75407162104 0.120223824553
470903000 0.754530727342 0.120462385472
470913500 0.753798792659 0.120756004813
470924000 0.754023293044 0.12036255049
470934500 0.753731778219 0.120816668729
470945000 0.753846641038 0.120874793092
470955500 0.754690266072 0.121584838833
470966000 0.753494536912 0.1211639015
470976500 0.754786704874 0.121992546041
470987000 0.753492952294 0.121514654234
470997500 0.752998493687 0.119945710034
471008000 0.754190708304 0.121087248083
471018500 0.754186316052 0.120055955367
471029000 0.75415865214 0.120735333722
471039500 0.753707194547 0.121232241808
471050000 0.753073523361 0.122227987182
471060500 0.754235174435 0.121571782067
471071000 0.753060617346 0.120986292591
471081500 0.753554279919 0.121143296054
471092000 0.753150753333 0.120375745464
471102500 0.754164595549 0.120755544148
471113000 0.753763006827 0.120233381904
471123500 0.75377598776 0.120599381188
471134000 0.754013277934 0.120644636269
471144500 0.753535911836 0.121253021176
471155000 0.753679456338 0.121402783375
471165500 0.754831559054 0.120902138694
471176000 0.753434615396 0.121164471501
471186500 0.753655468702 0.121622244283
471197000 0.754512050696 0.121633321078
471207500 0.755132106315 0.120978602362
471218000 0.755496791202 0.12094738196
471228500 0.754951017448 0.122202705848
471239000 0.744212973937 0.135041924282
471249500 0.753183203235 0.122266528548
471260000 0.753079449263 0.12132366964
471270500 0.754184305077 0.121847285538
471281000 0.75471626512 0.121223615963
471291500 0.756053236599 0.121302518542
471302000 0.755818010281 0.120557359482
471312500 0.755459642257 0.121150204502
471323000 0.755240385029 0.121460401713
471333500 0.755014999937 0.121359409989
471344000 0.755201313122 0.121519528627
471354500 0.755887193958 0.121573989009
471365000 0.755491628004 0.121850952725
471375500 0.754422405846 0.12216691895
471386000 0.755036067416 0.121318116845
471396500 0.75503412744 0.121498105006
471407000 0.755031260119 0.121081309278
471417500 0.755669280567 0.121874142608
471428000 0.755831153375 0.122462566996
471438500 0.755132976066 0.12178169896
471449000 0.755748096307 0.121053905013
471459500 0.755329010044 0.121376519889
471470000 0.756100872184 0.121108767808
471480500 0.755800140995 0.121165870429
471491000 0.756343643241 0.121108138848
471501500 0.756011735495 0.121914719777
471512000 0.756684493388 0.121454690604
471522500 0.755882168286 0.12168132924
471533000 0.756080007001 0.121621197197
471543500 0.755772159031 0.122252186386
471554000 0.75563093602 0.121500303372
471564500 0.755354642903 0.122045530058
471575000 0.755971975322 0.121879663591
471585500 0.756121218292 0.121706122023
471596000 0.756880426319 0.121484577625
471606500 0.756303987475 0.121379688618
471617000 0.75615181833 0.121638386145
471627500 0.755463056408 0.121248370782
471638000 0.75574859075 0.121656898756
471648500 0.755431330241 0.121653419541
471659000 0.755786397674 0.121791076084
471669500 0.7556698443 0.121999318028
471680000 0.755529824104 0.121561126652
471690500 0.756431047924 0.121805474849
471701000 0.756277223679 0.121586375666
471711500 0.756333965639 0.121401477233
471722000 0.754962227363 0.12201729264
471732500 0.756024914814 0.122438253187
471743000 0.756046267531 0.122504482517
471753500 0.755720927765 0.122470234798
471764000 0.756095108198 0.122925620826
471774500 0.755999819822 0.121894192703
471785000 0.75663519642 0.121661741521
471795500 0.756600444397 0.121991873607
471806000 0.756516054404 0.121914219974
471816500 0.756221132859 0.121979883154
471827000 0.757461638004 0.121883237365
471837500 0.760054842402 0.12102148453
471848000 0.75755856312 0.121688034001
471858500 0.757650703489 0.121180187053
471869000 0.756844770848 0.122220438725
471879500 0.756947227671 0.121293587402
471890000 0.757440225321 0.122249500584
471900500 0.756822668502 0.121901874598
471911000 0.757502336147 0.122171766707
471921500 0.757999955149 0.121984437415
471932000 0.757983719277 0.122479048097
471942500 0.75915062461 0.122909472024
471953000 0.758141289311 0.121996990865
471963500 0.757325669577 0.121200881015
471974000 0.7573313452 0.122309944299
471984500 0.757311020639 0.122613598947
471995000 0.757291286939 0.122470510865
472005500 0.757943779223 0.122720395304
472016000 0.757618278976 0.123049737529
472026500 0.757610290876 0.122752882724
472037000 0.757789365908 0.123130124378
472047500 0.756310222874 0.123337782593
472058000 0.756171482223 0.123150455503
472068500 0.757274263061 0.123118777381
472079000 0.757304154979 0.123076386407
472089500 0.757261013401 0.121894110897
472100000 0.757282582675 0.123738352156
472110500 0.757510195092 0.123299657391
472121000 0.757583854325 0.122680852294
472131500 0.757718227716 0.122448644998
472142000 0.757306711393 0.122789691329
472152500 0.756963537132 0.122567211815
472163000 0.7564234116 0.122715801264
472173500 0.756732044728 0.123035693406
472184000 0.757153984974 0.123023894835
472194500 0.757662288731 0.123015510537
472205000 0.757625425651 0.12262849501
472215500 0.758069227918 0.122444318203
472226000 0.7588410609 0.12293438289
472236500 0.757887223711 0.122165978806
472247000 0.757439330558 0.12244155335
472257500 0.75789439309 0.122422241364
472268000 0.758387545711 0.122533924233
472278500 0.758673595964 0.122709235804
472289000 0.758589030687 0.122666294897
472299500 0.758258758527 0.123138075958
472310000 0.758861281736 0.123287582342
472320500 0.758442822441 0.122652779459
472331000 0.758581236411 0.122831002634
472341500 0.759219798425 0.122192850675
472352000 0.759185640751 0.12323394786
472362500 0.758415380835 0.122515546553
472373000 0.758796326438 0.122007700736
472383500 0.758615952537 0.122314505284
472394000 0.757817606857 0.122717904838
472404500 0.758582330938 0.122257245185
472415000 0.758974266672 0.123188787437
472425500 0.758247293727 0.121954250961
472436000 0.759210528831 0.122118538451
472446500 0.759077544296 0.122736426027
472457000 0.759034482536 0.123021294112
472467500 0.759095688615 0.122249805392
472478000 0.760207812617 0.122576361186
472488500 0.759133596779 0.122824277318
472499000 0.759134181478 0.124214498434
472509500 0.759311010116 0.124017048806
472520000 0.759104903906 0.123882541868
472530500 0.759066436792 0.122762491553
472541000 0.76137783769 0.124553654537
472551500 0.75905309672 0.122723545894
472562000 0.760077432307 0.122643204513
472572500 0.758952386479 0.122587396117
472583000 0.758619164744 0.122728159724
472593500 0.757310567646 0.122195022026
472604000 0.758920535806 0.122860763702
472614500 0.759870965741 0.123122691441
472625000 0.758876581153 0.123494472557
472635500 0.760023122141 0.122506399568
472646000 0.7604482298 0.123207426298
472656500 0.759988783625 0.122925082294
472667000 0.759569114729 0.124105106624
472677500 0.759962015716 0.123704907643
472688000 0.75972207906 0.124331188957
472698500 0.759861992543 0.123829599809
472709000 0.759969379705 0.122689592915
472719500 0.759960415798 0.122949455466
472730000 0.759651818838 0.123293649926
472740500 0.759665482098 0.123758270861
472751000 0.760235033108 0.123208823893
472761500 0.76019579776 0.123284190967
472772000 0.76066109939 0.123391221915
472782500 0.760701532334 0.123224157047
472793000 0.760318947389 0.123374259271
472803500 0.760374101046 0.123201925597
472814000 0.760869455226 0.123427707636
472824500 0.760235243453 0.123775593005
472835000 0.760954275546 0.124156397502
472845500 0.760458519864 0.124149942773
472856000 0.760684225223 0.124761124651
472866500 0.760554887236 0.12404470909
472877000 0.760739668536 0.123738310542
472887500 0.761040329177 0.124287934913
472898000 0.760593064251 0.124502484499
472908500 0.761091782564 0.123986615069
472919000 0.761264061959 0.123818550726
472929500 0.761403849986 0.123270971549
472940000 0.761758839797 0.123304668589
472950500 0.760912213397 0.123466950279
472961000 0.761744666053 0.123139589845
472971500 0.761503107177 0.123517538708
472982000 0.761008574231 0.123217866308
472992500 0.760944365902 0.123680993462
473003000 0.760665512506 0.1232410496
473013500 0.761850223503 0.124345741148
473024000 0.761757179094 0.124201108935
473034500 0.762124891011 0.123317381401
473045000 0.761342392373 0.126472085657
473055500 0.762783882715 0.123930345283
473066000 0.762229845867 0.123302789808
473076500 0.760992633696 0.124724245227
473087000 0.761505694405 0.124013545064
473097500 0.762047593887 0.124275135986
473108000 0.762184979487 0.124133924769
473118500 0.762002514533 0.123965352682
473129000 0.761805220914 0.123753559955
473139500 0.761812050425 0.124178914343
473150000 0.762062546181 0.123809319018
473160500 0.761986129042 0.123130735888
473171000 0.761417827166 0.122895277208
473181500 0.76187462014 0.123721987661
473192000 0.762084246111 0.12341246948
473202500 0.762578356303 0.123811574228
473213000 0.762150530798 0.12355329563
473223500 0.761942237906 0.122945255219
473234000 0.761881012777 0.124064893155
473244500 0.763042305472 0.123130173264
473255000 0.762767093232 0.123711089502
473265500 0.762861061485 0.123870821768
473276000 0.762476629511 0.123555885847
473286500 0.761739992964 0.123457469981
473297000 0.762058943434 0.123301020192
473307500 0.761971653266 0.123130417034
473318000 0.762835892671 0.12271680963
473328500 0.761941798528 0.123497990303
473339000 0.762430054989 0.123647563709
473349500 0.762565673051 0.123831658845
473360000 0.762413901361 0.124274809511
473370500 0.763405294641 0.122831302324
473381000 0.763386367002 0.122823093509
473391500 0.763158923578 0.124066795416
473402000 0.762855355822 0.123811667061
473412500 0.763160898205 0.123468587713
473423000 0.762550711503 0.123749016413
473433500 0.762777417521 0.123031144644
473444000 0.762188703965 0.124356261882
473454500 0.762294996018 0.12385372317
473465000 0.762512577523 0.123168450033
473475500 0.762631781652 0.124597585284
473486000 0.763367107934 0.124388413382
473496500 0.764181912277 0.124136923098
473507000 0.763216969969 0.123981402967
473517500 0.763531250202 0.122920519885
473528000 0.763206908196 0.123598060815
473538500 0.762907840024 0.123811703281
473549000 0.76196836268 0.123778844433
473559500 0.765052152677 0.12383665519
473570000 0.763748766324 0.123267125571
473580500 0.762785747777 0.123530367217
473591000 0.76256202144 0.123357124276
473601500 0.763485494471 0.124159169623
473612000 0.763391139403 0.124303966873
473622500 0.763321682808 0.123662272375
473633000 0.76300733046 0.124006373771
473643500 0.762613789589 0.123799593741
473654000 0.763511048558 0.123437627465
473664500 0.764309706106 0.123413895703
473675000 0.764806171412 0.123723284486
473685500 0.763208785507 0.122852426888
473696000 0.763443853109 0.123491423279
473706500 0.763506753767 0.123461557738
473717000 0.764412938799 0.1237860521
473727500 0.76362005097 0.124068796738
473738000 0.763452761027 0.124221476124
473748500 0.764551094666 0.123212321074
473759000 0.76401972278 0.123620119978
473769500 0.763594047507 0.12405651671
473780000 0.764209716677 0.123788424946
473790500 0.764506626005 0.123931151239
473801000 0.764112762306 0.124146419554
473811500 0.764671965739 0.123759957863
473822000 0.764871735044 0.124080114277
473832500 0.764012257283 0.123788503001
473843000 0.764794893372 0.123767481063
473853500 0.764506717514 0.123887886959
473864000 0.764755472776 0.12347152885
473874500 0.765028055057 0.122535056603
473885000 0.764767541866 0.123552410124
473895500 0.764911751903 0.123599474388
473906000 0.765264819366 0.123420142453
473916500 0.765785275698 0.124326545489
473927000 0.766112604127 0.122946764012
473937500 0.767540400199 0.121373157017
473948000 0.767769477758 0.120996793016
473958500 0.767019766478 0.121919960633
473969000 0.765668512265 0.122674997986
473979500 0.765243014218 0.123495162294
473990000 0.764899358754 0.123393292034
474000500 0.765476657375 0.123382227314
474011000 0.765407370046 0.124083098902
474021500 0.766138978123 0.123968174119
474032000 0.765960427781 0.124124450826
474042500 0.765849712423 0.12400268286
474053000 0.765461281443 0.123879840692
474063500 0.765255292742 0.123686626881
474074000 0.765644726515 0.123287071402
474084500 0.766483357712 0.124118564175
474095000 0.765953518997 0.124930135793
474105500 0.766329823202 0.123997239584
474116000 0.765308856725 0.123340548649
474126500 0.765371664503 0.123519865959
474137000 0.765700041544 0.12372514178
474147500 0.765699758165 0.123435580143
474158000 0.766892949644 0.124670332889
474168500 0.766464829551 0.124300316285
474179000 0.766353673632 0.122995390637
474189500 0.766350521678 0.124374602309
474200000 0.766040166945 0.123427772927
474210500 0.766558787404 0.123295033141
474221000 0.766508660973 0.12441743541
474231500 0.764704953162 0.123783539868
474242000 0.765911050458 0.123513195642
474252500 0.766310814552 0.123645041684
474263000 0.766829423019 0.124177678584
474273500 0.765995853268 0.123893005131
474284000 0.766767723292 0.123009297579
474294500 0.766549808745 0.123299277485
474305000 0.767076914035 0.124245103544
474315500 0.762445871585 0.126823060928
474326000 0.766814647576 0.123863119966
474336500 0.767571883257 0.124014244121
474347000 0.76649318567 0.124226908347
474357500 0.7672927126 0.123237191181
474368000 0.767285688428 0.124135064573
474378500 0.766108246134 0.122225775917
474389000 0.767213395418 0.122634194161
474399500 0.768560622597 0.123878774716
474410000 0.767866290802 0.123699415058
474420500 0.76820301941 0.122396450618
474431000 0.768986359566 0.12505792328
474441500 0.76954788125 0.124166314492
474452000 0.766466611914 0.127325164551
474462500 0.766909723618 0.121188790561
474473000 0.768573452323 0.123987379172
474483500 0.764573302575 0.124608356998
474494000 0.775482490306 0.136573181195
474504500 0.767328620535 0.118999785138
474515000 0.767351527198 0.125206545901
474525500 0.76776659156 0.123941297449
474536000 0.767078235408 0.123853633495
474546500 0.76948698309 0.122019454716
474557000 0.765506405202 0.122861670246
474567500 0.76746320511 0.121658709995
474578000 0.767883116775 0.122363116524
474588500 0.768798313403 0.123787920686
474599000 0.769384294947 0.123486812598
474609500 0.768885730668 0.124977607592
474620000 0.768493928122 0.12409919358
474630500 0.768679686419 0.124379108306
474641000 0.767960213492 0.124391283512
474651500 0.768097083928 0.12421448101
474662000 0.767259437494 0.122495891586
474672500 0.768677814766 0.125415075169
474683000 0.768558488649 0.123780108417
474693500 0.767529187822 0.123539587791
474704000 0.76828392018 0.124023054965
474714500 0.768523762033 0.122271405972
474725000 0.767978158094 0.123622354026
474735500 0.768793481753 0.122758752985
474746000 0.768475340868 0.122567545972
474756500 0.769122684866 0.122848042019
474767000 0.768267993344 0.123477224494
474777500 0.767799018622 0.123015052903
474788000 0.767795834061 0.122953572436
474798500 0.768227723167 0.122695813053
474809000 0.76908591652 0.123369362887
474819500 0.76918920475 0.123222110045
474830000 0.770290619925 0.124263162822
474840500 0.768775053532 0.12365690451
474851000 0.768940148505 0.123472942927
474861500 0.769058238924 0.123166859426
474872000 0.768496133387 0.123360740067
474882500 0.768570784495 0.123238297785
474893000 0.768231817622 0.123953011708
474903500 0.768651323112 0.123810523541
474914000 0.769208828368 0.123223978351
474924500 0.768256448946 0.123243126739
474935000 0.768989696651 0.123035965023
474945500 0.769340339139 0.124401124119
474956000 0.769075507184 0.125374763283
474966500 0.769405950443 0.124204842422
474977000 0.768588321206 0.123524608525
474987500 0.770288410122 0.120052355129
474998000 0.769819096471 0.123519349005
475008500 0.769743183603 0.123536258393
475019000 0.76963151778 0.123274099162
475029500 0.770474932136 0.124969441591
475040000 0.769474332718 0.122941358828
475050500 0.770357655165 0.123089191633
475061000 0.769074902794 0.122768707134
475071500 0.76963181645 0.123176854792
475082000 0.769434627168 0.123320476837
475092500 0.770066024773 0.124409825274
475103000 0.769595081281 0.123862246646
475113500 0.76999766904 0.123318985653
475124000 0.769982421978 0.123529584435
475134500 0.770301986269 0.123779692597
475145000 0.770271045732 0.123163123606
475155500 0.770088268681 0.124141384454
475166000 0.771328028261 0.123875332971
475176500 0.770723199523 0.123099483471
475187000 0.770218233179 0.123543386238
475197500 0.77071972001 0.123131227429
475208000 0.770702203361 0.123290514446
475218500 0.771390287707 0.12338160123
475229000 0.771048925947 0.124148311824
475239500 0.770566227757 0.123469458404
475250000 0.771790815656 0.122960164557
475260500 0.770784080813 0.122954928082
475271000 0.770685589617 0.12251882649
475281500 0.771002387066 0.123687905654
475292000 0.77051360049 0.122416914161
475302500 0.770595358021 0.123155210886
475313000 0.771045502203 0.123170404274
475323500 0.771306122802 0.123224178569
475334000 0.770779900861 0.123227370682
475344500 0.770923643814 0.122839125361
475355000 0.771034596198 0.122953693
475365500 0.771471302114 0.123665281236
475376000 0.771571297754 0.122975086854
475386500 0.770996765061 0.122954112533
475397000 0.771465838294 0.122367309105
475407500 0.771503933868 0.122792386643
475418000 0.770902047869 0.122905122414
475428500 0.770759635449 0.123637295223
475439000 0.770214075351 0.123136602344
475449500 0.771379528446 0.123205703844
475460000 0.770380711555 0.123073229027
475470500 0.77081587952 0.123506376702
475481000 0.770779580071 0.122974986471
475491500 0.771281631462 0.123530770005
475502000 0.771638122824 0.123106587024
475512500 0.771155176328 0.123638170451
475523000 0.771356218125 0.122896411214
475533500 0.770817581765 0.123008044859
475544000 0.771113931463 0.123657967611
475554500 0.770856542709 0.123349638806
475565000 0.771436190284 0.123366215484
475575500 0.771375804936 0.123197171624
475586000 0.771863131099 0.123828767473
475596500 0.772098848745 0.12306722106
475607000 0.772723107527 0.122859802695
475617500 0.772573574519 0.122533434949
475628000 0.77265605477 0.122894674918
475638500 0.772033776286 0.121757780005
475649000 0.771753310995 0.122447037412
475659500 0.772461022808 0.123082649844
475670000 0.773144603466 0.124473819284
475680500 0.772426985079 0.123031232444
475691000 0.771675067158 0.12365122714
475701500 0.772269037276 0.124283473485
475712000 0.773144595415 0.123223093794
475722500 0.772262669586 0.12231270636
475733000 0.77234732709 0.123016409748
475743500 0.772355538088 0.1230707105
475754000 0.773286222987 0.122853461841
475764500 0.77176445922 0.123408285648
475775000 0.771184273833 0.123604877891
475785500 0.771370988788 0.122992039616
475796000 0.772329551505 0.123098355886
475806500 0.773162830166 0.123329332053
475817000 0.773756913328 0.122854113738
475827500 0.773158735542 0.123314594782
475838000 0.773019920413 0.122964223509
475848500 0.7736175445 0.123521849247
475859000 0.773304329016 0.123562362209
475869500 0.773826466835 0.123417189339
475880000 0.772463586033 0.123317432375
475890500 0.772890877597 0.12353279756
475901000 0.772679847134 0.12327625472
475911500 0.773177793034 0.123043176162
475922000 0.773301512648 0.123473803228
475932500 0.773377960906 0.122646857248
475943000 0.773588108734 0.122814272098
475953500 0.773590314844 0.122892480543
475964000 0.773958823422 0.123042476004
475974500 0.773993779706 0.123079197729
475985000 0.773734520448 0.122524044327
475995500 0.773786226566 0.122327482955
476006000 0.774141817726 0.122963249282
476016500 0.774108988283 0.123528784208
476027000 0.774169523775 0.123158350929
476037500 0.773930916981 0.123997828832
476048000 0.774165424199 0.123227588636
476058500 0.773774184817 0.122467201042
476069000 0.773762394842 0.123617670724
476079500 0.773731608554 0.122456177655
476090000 0.774040578915 0.122346137985
476100500 0.7740401047 0.121907359396
476111000 0.773741549798 0.121884843578
476121500 0.77405209341 0.121909833588
476132000 0.773946590583 0.121494278185
476142500 0.774296696171 0.121821165495
476153000 0.775571482831 0.122437511268
476163500 0.774249298983 0.122265256436
476174000 0.774226306571 0.12259667339
476184500 0.774410938585 0.122800188538
476195000 0.77493208585 0.12291362845
476205500 0.77485468454 0.12327665685
476216000 0.77417322136 0.122927262753
476226500 0.77430585418 0.121588505298
476237000 0.774748802549 0.122257669107
476247500 0.77433818649 0.121857365579
476258000 0.774655258659 0.122241832255
476268500 0.77422277031 0.122128132251
476279000 0.774564869303 0.121845892541
476289500 0.774082141488 0.122291257355
476300000 0.774065141812 0.12177455638
476310500 0.774782200933 0.12272982606
476321000 0.774459560183 0.122466835645
476331500 0.774527190382 0.122464276149
476342000 0.774983072653 0.122937635863
476352500 0.774616694417 0.122373829172
476363000 0.774769881856 0.122729020672
476373500 0.77438262474 0.12234608238
476384000 0.774151662543 0.122625658579
476394500 0.774577938589 0.122967553573
476405000 0.77425397709 0.122721078849
476415500 0.775190070476 0.122365919195
476426000 0.775365570351 0.12112301799
476436500 0.774675149236 0.122699769119
476447000 0.775199807603 0.12193064461
476457500 0.775869401878 0.122416425406
476468000 0.775331431168 0.122230752159
476478500 0.776455432956 0.122814984272
476489000 0.775494601852 0.122495537897
476499500 0.775715806178 0.122135092145
476510000 0.775127232737 0.121178844121
476520500 0.775484226184 0.12215308392
476531000 0.775804239735 0.122369911527
476541500 0.776239057058 0.122587948303
476552000 0.775424254148 0.122375280353
476562500 0.775589359274 0.12286591355
476573000 0.775927436087 0.122791312876
476583500 0.775925029328 0.122848398214
476594000 0.77637949227 0.12338874561
476604500 0.775995967829 0.122030162727
476615000 0.775840526176 0.122394057624
476625500 0.775656010769 0.123680894163
476636000 0.776435088163 0.126280848493
476646500 0.757136476457 0.127825986531
476657000 0.764212926266 0.132816297514
476667500 0.780316008867 0.125050252155
476678000 0.773243135112 0.125159802088
476688500 0.771923440447 0.125411822731
476699000 0.775211424373 0.1243461109
476709500 0.776272094704 0.12296608123
476720000 0.777722493473 0.122999525792
476730500 0.776539267521 0.122248718999
476741000 0.777224693832 0.122590929261
476751500 0.776575270144 0.122393019362
476762000 0.776918668579 0.122156464025
476772500 0.776434435584 0.121124671986
476783000 0.776474260872 0.122527796643
476793500 0.776276574788 0.122143393954
476804000 0.776285459781 0.12187598727
476814500 0.77638591998 0.122085880142
476825000 0.776728434204 0.122076734906
476835500 0.776677539163 0.122448008447
476846000 0.776753047599 0.121117737717
476856500 0.777191417546 0.121916534981
476867000 0.777665287722 0.122275512257
476877500 0.777874648332 0.122169499404
476888000 0.777480811656 0.12131213124
476898500 0.777563163209 0.120747741232
476909000 0.777063753977 0.122409961075
476919500 0.778158766977 0.12213195951
476930000 0.77742954077 0.121316453019
476940500 0.778150244921 0.121941831777
476951000 0.777557922327 0.12263403668
476961500 0.778156910521 0.12152489095
476972000 0.777056864724 0.121906693182
476982500 0.778274610067 0.122981679512
476993000 0.776865659855 0.122541085383
477003500 0.776618325307 0.122134956939
477014000 0.776911611685 0.121923094673
477024500 0.777727711956 0.122978105043
477035000 0.777711158001 0.12214767125
477045500 0.777641970779 0.122103147426
477056000 0.77758852056 0.122871576264
477066500 0.777712584543 0.122357165227
477077000 0.77764831864 0.121692273262
477087500 0.778503752236 0.122277350964
477098000 0.777894070469 0.122114125932
477108500 0.778716091594 0.121869272358
477119000 0.778794390979 0.122176565654
477129500 0.778127638164 0.121998641481
477140000 0.778032560382 0.121392243101
477150500 0.777685424108 0.121720672053
477161000 0.777602619147 0.122033446601
477171500 0.777650151662 0.121977599321
477182000 0.778050072489 0.12212369558
477192500 0.777157931127 0.122163708834
477203000 0.777382127139 0.122060319959
477213500 0.778214659976 0.122129960548
477224000 0.779301136185 0.121186545922
477234500 0.7793220864 0.121488901414
477245000 0.778685482543 0.120782147469
477255500 0.778652381502 0.121227208229
477266000 0.77892585679 0.121217643822
477276500 0.779172067029 0.121160354956
477287000 0.779192250309 0.121209535659
477297500 0.778998801059 0.121179956945
477308000 0.778837436241 0.122122362875
477318500 0.779573418841 0.121961092169
477329000 0.778853570174 0.121443475583
477339500 0.778668074352 0.121334763967
477350000 0.778728401179 0.120932359915
477360500 0.779258391881 0.121056208825
477371000 0.779202044983 0.121345003304
477381500 0.778720223626 0.121427221999
477392000 0.780221065474 0.122997762421
477402500 0.775724205384 0.123124841972
477413000 0.780267349517 0.122351069753
477423500 0.779379050868 0.121335464925
477434000 0.778299349057 0.121493783772
477444500 0.778397351831 0.121390041106
477455000 0.779921332649 0.122174755506
477465500 0.780480105886 0.120931407359
477476000 0.778971362755 0.120044174171
477486500 0.779969812061 0.121769132164
477497000 0.779280904352 0.120462710655
477507500 0.779381701985 0.119762694516
477518000 0.778713131829 0.121963250084
477528500 0.779833802267 0.121828343314
477539000 0.778912012936 0.120479222252
477549500 0.779330661225 0.120892231875
477560000 0.780200523716 0.12328323671
477570500 0.778432585338 0.123169415376
477581000 0.781116221025 0.121476129536
477591500 0.780115730642 0.123261986951
477602000 0.780755043435 0.120567607728
477612500 0.77830028616 0.122462184743
477623000 0.780352919265 0.12075605134
477633500 0.779546835464 0.119693980109
477644000 0.779715468564 0.120835491452
477654500 0.78081212981 0.122113500522
477665000 0.778983651808 0.121409231925
477675500 0.779604845308 0.121622802818
477686000 0.778868993262 0.121404028825
477696500 0.78042055948 0.121446037513
477707000 0.780569959646 0.120550630043
477717500 0.778817787384 0.12216281633
477728000 0.780573278935 0.121834503526
477738500 0.780659911368 0.12034538464
477749000 0.779240248866 0.121803814681
477759500 0.778873375673 0.119869205657
477770000 0.781996339553 0.120151754595
477780500 0.780100919395 0.12125421056
477791000 0.781500119964 0.121570680557
477801500 0.782233932447 0.120514141659
477812000 0.780426060678 0.121495439135
477822500 0.782125461572 0.121914608484
477833000 0.782893932192 0.120487655651
477843500 0.781097253741 0.121209687254
477854000 0.782535746158 0.119171898203
477864500 0.781156288195 0.120791240077
477875000 0.781030700298 0.119067171917
477885500 0.779817394118 0.122227532481
477896000 0.780682995632 0.119596838675
477906500 0.781884639222 0.11993610921
477917000 0.781897285902 0.120478118706
477927500 0.780844910778 0.121242536042
477938000 0.780704633875 0.120924874065
477948500 0.778962213621 0.120109081734
477959000 0.779649843394 0.120610772533
477969500 0.779864134888 0.121120006402
477980000 0.780696385944 0.1207652887
477990500 0.781359160054 0.121644818437
478001000 0.780597820593 0.119583693631
478011500 0.781237536878 0.120834034563
478022000 0.78203021503 0.119990957159
478032500 0.781918253933 0.121199082553
478043000 0.783893711999 0.119424826968
478053500 0.782352820523 0.121184954044
478064000 0.787622173585 0.116460865206
478074500 0.781952493966 0.119775069674
478085000 0.780157636007 0.122666545432
478095500 0.782836985006 0.1206394195
478106000 0.77570059694 0.118663851887
478116500 0.783499909922 0.119803502541
478127000 0.784122438973 0.119288113846
478137500 0.780908247179 0.12164242987
478148000 0.781443362182 0.119735637015
478158500 0.781856890363 0.120853677823
478169000 0.783500626365 0.119874255519
478179500 0.782914153441 0.120559522647
478190000 0.782569854494 0.120231759584
478200500 0.782763896724 0.118328761269
478211000 0.781763342309 0.117530776825
478221500 0.782261052162 0.119408106094
478232000 0.782393757084 0.119786296245
478242500 0.778554295739 0.120813333694
478253000 0.782554195384 0.119562777936
478263500 0.770420869844 0.113292060779
478274000 0.781463853116 0.121233230317
478284500 0.783762638794 0.119069380296
478295000 0.778233331405 0.120768406071
478305500 0.782749701951 0.12070417363
478316000 0.784931089914 0.123147873371
478326500 0.772236363256 0.122862244206
478337000 0.775841844673 0.118776640899
478347500 0.780881501991 0.122144556447
478358000 0.784684497787 0.119323246993
478368500 0.777812771169 0.114689761185
478379000 0.786468928513 0.132114341814
478389500 0.781327056376 0.139395373709
478400000 0.781412509664 0.116273195053
478410500 0.785335726999 0.116419643179
478421000 0.809810046844 0.12386334804
478431500 0.777778574921 0.113374519402
478442000 0.775107101282 0.119604505135
478452500 0.799054202421 0.105514837016
478463000 0.779998086464 0.101258788163
478473500 0.783920765109 0.124830082231
478484000 0.781539925451 0.129002262471
478494500 0.796926332065 0.129897022852
478505000 0.784683702252 0.1057197792
478515500 0.79126962206 0.119910825019
478526000 0.775941957584 0.112512446631
478536500 0.802842488284 0.127454638371
478547000 0.774915159347 0.12341186133
478557500 0.78494490161 0.114076288018
478568000 0.770149527718 0.108392191968
478578500 0.777214412456 0.105529600025
478589000 0.787736817402 0.119325377782
478599500 0.804049454054 0.132586314411
478610000 0.779414935467 0.108449937795
478620500 0.766062885105 0.0980674642529
478631000 0.788416328038 0.12033372777
478641500 0.785713879345 0.122877910609
478652000 0.783509269247 0.114205818115
478662500 0.782458960715 0.116441781988
478673000 0.774560831481 0.123971943314
478683500 0.78150798048 0.117851643006
478694000 0.77770655415 0.123762647081
478704500 0.780799918169 0.126483548751
478715000 0.783473368759 0.115424096647
478725500 0.778359005517 0.130842246078
478736000 0.781184160481 0.105690400745
478746500 0.784305289612 0.120805710708
478757000 0.788655858799 0.118593337102
478767500 0.78088297382 0.114813426364
478778000 0.786389271025 0.117095770332
478788500 0.784752242857 0.118322844721
478799000 0.784780450623 0.120311112048
478809500 0.78630146601 0.12207976622
478820000 0.784176586042 0.118395805123
478830500 0.783478220366 0.115077726718
478841000 0.78194548826 0.116779548306
478851500 0.783873850048 0.119099947952
478862000 0.783550953604 0.12065199137
478872500 0.781715493436 0.124865751098
478883000 0.784230662499 0.11846450341
478893500 0.786023143146 0.119633946365
478904000 0.783648643678 0.118376136248
478914500 0.785739004668 0.118995102716
478925000 0.78448672639 0.118108878819
478935500 0.785206985635 0.117896670475
478946000 0.784031421964 0.118766596266
478956500 0.784661353436 0.119468173607
478967000 0.784861697247 0.120381750125
478977500 0.78621650461 0.11943144212
478988000 0.785080866947 0.119271108054
478998500 0.784921007191 0.119457281244
479009000 0.784919846587 0.119284170152
479019500 0.785969964379 0.118875769665
479030000 0.785089857813 0.118253655125
479040500 0.784967330056 0.11861111826
479051000 0.785041331898 0.119017516668
479061500 0.785970660796 0.118886052194
479072000 0.785500042488 0.119148093525
479082500 0.786601922138 0.11849396386
479093000 0.785200183153 0.119316098043
479103500 0.785809967326 0.117262281212
479114000 0.786000496009 0.118892627926
479124500 0.786452446639 0.118400649458
479135000 0.78424114327 0.118777215597
479145500 0.784541843827 0.117229396083
479156000 0.785640802217 0.117059879089
479166500 0.785748065422 0.120155627406
479177000 0.786840523241 0.118842258019
479187500 0.786346615029 0.118414693494
479198000 0.789292213964 0.118883702954
479208500 0.787510107261 0.118699260913
479219000 0.785048672955 0.117780596266
479229500 0.786396176513 0.11826461493
479240000 0.785689780963 0.121251118863
479250500 0.787242710407 0.121339577614
479261000 0.786581495778 0.118796159472
479271500 0.785081569351 0.118749063924
479282000 0.786410161817 0.119109304637
479292500 0.786222198708 0.118124923209
479303000 0.787602832988 0.118676883979
479313500 0.786891235193 0.118820908024
479324000 0.787777620572 0.117990932816
479334500 0.786426639078 0.118612869746
479345000 0.78611371169 0.116896741365
479355500 0.787036896102 0.11881862291
479366000 0.785770554663 0.117436792565
479376500 0.78786041371 0.118248195454
479387000 0.786688941518 0.118276382208
479397500 0.785751179325 0.117974083987
479408000 0.787888245909 0.116950963058
479418500 0.786107702369 0.117727572101
479429000 0.787441346822 0.118869161656
479439500 0.78696820814 0.115620469785
479450000 0.786579470591 0.116656737164
479460500 0.78744984587 0.118546820476
479471000 0.786741273564 0.117617412017
479481500 0.787395771552 0.118454367867
479492000 0.787125571854 0.115441813601
479502500 0.786829208159 0.117266070875
479513000 0.786569835955 0.118123607491
479523500 0.787575249491 0.117380329413
479534000 0.787756366643 0.118150469564
479544500 0.786580809172 0.117850324536
479555000 0.786609867357 0.118070893189
479565500 0.787375577962 0.118215470535
479576000 0.786142590645 0.118661305489
479586500 0.787463263196 0.11875722381
479597000 0.787175347801 0.118899728342
479607500 0.787293130713 0.117950573644
479618000 0.786702768756 0.118336902423
479628500 0.787667919202 0.117059620261
479639000 0.788481756558 0.117203094405
479649500 0.787380988124 0.118712511547
479660000 0.786473505575 0.118036669547
479670500 0.786758832206 0.118653849224
479681000 0.787513194578 0.118595768282
479691500 0.786980793027 0.118609713732
479702000 0.787541632459 0.118348160584
479712500 0.788135131746 0.118141077873
479723000 0.787689618479 0.118629081315
479733500 0.787568806496 0.11712380621
479744000 0.788107127095 0.117233776455
479754500 0.789219546483 0.117828762192
479765000 0.787804200293 0.117279665352
479775500 0.787444863617 0.117898363728
479786000 0.787570959863 0.118059180761
479796500 0.788749006718 0.117884480308
479807000 0.7883591944 0.117188562547
479817500 0.78853368855 0.117179930773
479828000 0.787667444735 0.117171683372
479838500 0.788201810612 0.116229600364
479849000 0.788296361147 0.117200611625
479859500 0.787557985971 0.116740087421
479870000 0.788319136456 0.117682183011
479880500 0.788688485435 0.117469618934
479891000 0.78870609616 0.116411272194
479901500 0.788035898014 0.116143389862
479912000 0.788446134504 0.115753569638
479922500 0.78846647149 0.114923788118
479933000 0.787668353792 0.115713619958
479943500 0.788694987973 0.116881845022
479954000 0.789836373216 0.119030519742
479964500 0.788815091795 0.117798638999
479975000 0.789418925056 0.116435178297
479985500 0.787619630505 0.117212796563
479996000 0.788256603248 0.117439397938
480006500 0.787853633088 0.11713865295
480017000 0.787966640163 0.117225176244
480027500 0.788358874953 0.117075791932
480038000 0.789175259936 0.116750209639
480048500 0.788831776028 0.116724305835
480059000 0.788864753392 0.117102084966
480069500 0.787892868835 0.116856543398
480080000 0.788014220467 0.11715061401
480090500 0.78824881387 0.117171445823
480101000 0.789032649732 0.116265628935
480111500 0.788480893597 0.116847302426
480122000 0.788692033655 0.116915289338
480132500 0.788644927027 0.116268440478
480143000 0.78925546111 0.116149454774
480153500 0.789851912698 0.116819299134
480164000 0.789507172543 0.117245504101
480174500 0.788119584318 0.116435241984
480185000 0.789221870144 0.11715860623
480195500 0.790189338342 0.116736842631
480206000 0.789418429521 0.11653666181
480216500 0.789584727058 0.114909772356
480227000 0.789064976215 0.117026055382
480237500 0.788970618109 0.115329398663
480248000 0.789518757037 0.116956780294
480258500 0.789415148726 0.116410893387
480269000 0.786521704851 0.112135759946
480279500 0.789916660157 0.116087394874
480290000 0.790147709835 0.116981933053
480300500 0.789133303696 0.116941118839
480311000 0.790087725013 0.116571326929
480321500 0.790465741782 0.116696654619
480332000 0.790644277613 0.116044331513
480342500 0.789408557631 0.116078463872
480353000 0.789324432346 0.116518633505
480363500 0.789810006892 0.11673435923
480374000 0.790340598123 0.117081956431
480384500 0.790712180623 0.117091084418
480395000 0.790620052223 0.117831530965
480405500 0.789513481542 0.116273479976
480416000 0.790200021305 0.116391923725
480426500 0.789962135467 0.117314558758
480437000 0.789907907206 0.116875518526
480447500 0.790187502971 0.116886256316
480458000 0.79001764078 0.117100785502
480468500 0.789935688056 0.116784726597
480479000 0.79028784228 0.116575750587
480489500 0.790119404552 0.116006570834
480500000 0.791216414733 0.116022229934
480510500 0.790786629605 0.116442501311
480521000 0.791476926321 0.116297208613
480531500 0.79040865255 0.11625886381
480542000 0.790624992962 0.116082420523
480552500 0.790170522004 0.115643455719
480563000 0.790463504004 0.116800145708
480573500 0.789715282739 0.115972686894
480584000 0.790528326305 0.116585328157
480594500 0.791919439876 0.117379966134
480605000 0.790438199474 0.116576118185
480615500 0.790093226589 0.116485929549
480626000 0.79031301799 0.115914125534
480636500 0.790829695935 0.115972771032
480647000 0.79111706544 0.114809330598
480657500 0.791345233856 0.116213670891
480668000 0.791560487158 0.117340856625
480678500 0.791425110759 0.115284761163
480689000 0.792259724629 0.115734867917
480699500 0.792493690063 0.116123093629
480710000 0.792765628222 0.116334342072
480720500 0.791056797049 0.117421137184
480731000 0.79173457007 0.116236083966
480741500 0.791462146436 0.117082085687
480752000 0.790866456131 0.116760057908
480762500 0.790342843234 0.115883859657
480773000 0.7900305671 0.115873853883
480783500 0.790337573356 0.115899391431
480794000 0.791144529268 0.11615156912
480804500 0.791007467792 0.115576720213
480815000 0.792262240885 0.11501810847
480825500 0.791879916865 0.114731099522
480836000 0.79127017472 0.115752274633
480846500 0.790480997226 0.116551844952
480857000 0.790631181511 0.116232762931
480867500 0.790679333783 0.115836081134
480878000 0.7909068408 0.117507974509
480888500 0.791037863797 0.11503304582
480899000 0.791775153522 0.115153577467
480909500 0.791079551686 0.116006048377
480920000 0.79174795337 0.116025009986
480930500 0.791455296013 0.11532866502
480941000 0.791343930642 0.1151666315
480951500 0.790859023005 0.115511691903
480962000 0.791770421869 0.115461257791
480972500 0.79021143498 0.116692006367
480983000 0.788763533734 0.118124432005
480993500 0.787484577012 0.118895639938
481004000 0.785100876272 0.121968642496
481014500 0.790466396977 0.115631732261
481025000 0.791617701532 0.114745154242
481035500 0.79174483465 0.114840222294
481046000 0.793275279247 0.114996637433
481056500 0.793191211949 0.115140762778
481067000 0.792380996021 0.115564366751
481077500 0.792572219719 0.116099253648
481088000 0.792252807402 0.115381445015
481098500 0.79259646171 0.115322808424
481109000 0.792811570747 0.115936830778
481119500 0.79200983464 0.115873320088
481130000 0.792437763118 0.11584381621
481140500 0.792620037449 0.115057464085
481151000 0.791419952888 0.11601807741
481161500 0.792608178225 0.113753488955
481172000 0.793513212661 0.114431670309
481182500 0.793844123716 0.114952356762
481193000 0.793752720945 0.113697338424
481203500 0.793108011692 0.114346701445
481214000 0.794328379104 0.113745008425
481224500 0.794154804095 0.113786168958
481235000 0.794000502186 0.115023032089
481245500 0.794429444222 0.116075926198
481256000 0.793918759261 0.117375986136
481266500 0.794798596636 0.114633272234
481277000 0.794749758329 0.114615544507
481287500 0.792637208531 0.114405980424
481298000 0.797443940749 0.112660188548
481308500 0.793170255223 0.114260338279
481319000 0.794113517354 0.114507449068
481329500 0.794654037639 0.114120485364
481340000 0.793902742357 0.113585196106
481350500 0.793314564126 0.113135745488
481361000 0.793785950591 0.114551426558
481371500 0.793356887532 0.114973468878
481382000 0.794386931139 0.11368700757
481392500 0.79427953037 0.113721296014
481403000 0.795097295673 0.114400487103
481413500 0.793814105334 0.115609091622
481424000 0.7938215559 0.114950903824
481434500 0.793883153669 0.114091571227
481445000 0.792081346674 0.114461412326
481455500 0.794675389505 0.113709105816
481466000 0.795093457952 0.113665541743
481476500 0.79512407253 0.115031830155
481487000 0.796292417356 0.114713851473
481497500 0.794638499701 0.115016957104
481508000 0.794977826927 0.112103308902
481518500 0.794919926009 0.112952247104
481529000 0.795382076772 0.114434495876
481539500 0.793991067709 0.11393048434
481550000 0.794597312842 0.115769578763
481560500 0.793630311342 0.114331722103
481571000 0.792823728795 0.114685184907
481581500 0.794850788278 0.114048183731
481592000 0.79403219891 0.113927002328
481602500 0.795556125459 0.113842108415
481613000 0.793760473505 0.11374970007
481623500 0.794526917056 0.112845893814
481634000 0.795355762262 0.113623695643
481644500 0.793546442453 0.113623349444
481655000 0.794060440665 0.114964026087
481665500 0.794775469776 0.113732818311
481676000 0.794697696659 0.114725573697
481686500 0.794313627544 0.114666056972
481697000 0.793064934123 0.112311426245
481707500 0.79251599261 0.113829903889
481718000 0.794570661483 0.113389867051
481728500 0.792740571077 0.111919488968
481739000 0.794536760235 0.11532927587
481749500 0.796892329205 0.112821514028
481760000 0.794396429094 0.112416774199
481770500 0.796103309454 0.111919548399
481781000 0.799139591824 0.115986842546
481791500 0.798748083709 0.113162871306
481802000 0.797373746453 0.11392516762
481812500 0.797344862921 0.113087080836
481823000 0.795177087259 0.11329773857
481833500 0.795484323455 0.11304059755
481844000 0.794944515732 0.112295876433
481854500 0.795725696184 0.113628740375
481865000 0.7948561273 0.113201969858
481875500 0.794895458323 0.114126643917
481886000 0.793980555002 0.114458038956
481896500 0.794605686256 0.114241842154
481907000 0.794419036683 0.113511398357
481917500 0.794294385017 0.115151000316
481928000 0.795556642966 0.113121447035
481938500 0.797403622054 0.112768708816
481949000 0.795434422264 0.113938045617
481959500 0.793826229928 0.113189922923
481970000 0.790516540745 0.115176995175
481980500 0.792691514681 0.114235729117
481991000 0.794177425805 0.113663937654
482001500 0.795490709065 0.112244804998
482012000 0.795813340287 0.113325685553
482022500 0.797375054419 0.111526326652
482033000 0.795547247821 0.113121109101
482043500 0.796810947641 0.11404380725
482054000 0.795931372966 0.113849865755
482064500 0.795515704479 0.11230229761
482075000 0.794287995961 0.112019837787
482085500 0.794238962377 0.11216676629
482096000 0.793755102198 0.109842165368
482106500 0.795032263506 0.11388405463
482117000 0.797213576619 0.11387190639
482127500 0.795642771247 0.11428348526
482138000 0.797367702855 0.114831593476
482148500 0.798650697089 0.109339530839
482159000 0.797494937551 0.115772649164
482169500 0.790610499157 0.119114904667
482180000 0.793361815769 0.112700214236
482190500 0.798844195249 0.116598253161
482201000 0.799119201482 0.113565272149
482211500 0.796375625413 0.111181651694
482222000 0.801334942286 0.111970880476
482232500 0.79377669737 0.103133260419
482243000 0.795002715041 0.117365708073
482253500 0.800036630597 0.112481672488
482264000 0.801375984273 0.112904720325
482274500 0.794088980792 0.111270373766
482285000 0.793137139735 0.119586256584
482295500 0.799162996219 0.126660921869
482306000 0.804670828125 0.114900756941
482316500 0.792196846697 0.108781632435
482327000 0.796731022327 0.10779058063
482337500 0.800220492509 0.106585359497
482348000 0.800718181703 0.11653523219
482358500 0.80483413793 0.113851701372
482369000 0.790889393985 0.102112121684
482379500 0.798738172089 0.115336922372
482390000 0.792339607366 0.110721574904
482400500 0.789759376968 0.111298002613
482411000 0.801375628715 0.11548410232
482421500 0.794140602405 0.10770826941
482432000 0.810798162905 0.0879830106878
482442500 0.806604643759 0.107873302298
482453000 0.793032523307 0.106899526051
482463500 0.789485345853 0.111511460302
482474000 0.804134457145 0.120561046104
482484500 0.777385754591 0.115952008285
482495000 0.792250100042 0.116836688215
482505500 0.789414937999 0.112189402796
482516000 0.805905484322 0.0915688580847
482526500 0.803600212733 0.0991270974902
482537000 0.792064679545 0.103582778748
482547500 0.799654149615 0.110489517099
482558000 0.800528471416 0.107662181234
482568500 0.809890726707 0.117667741759
482579000 0.804386354704 0.113824411438
482589500 0.79932867499 0.115505727281
482600000 0.787704010922 0.119512106663
482610500 0.799031368909 0.105711783142
482621000 0.810152921691 0.110985100963
482631500 0.793934890699 0.109698404357
482642000 0.794566595126 0.119749167929
482652500 0.792993571392 0.114301126442
482663000 0.799377069239 0.108280423459
482673500 0.794114021635 0.114409222855
482684000 0.821878313696 0.115886223643
482694500 0.793008638027 0.117614586078
482705000 0.793922106228 0.108297929451
482715500 0.799814568182 0.108106496367
482726000 0.80326778712 0.106994713899
482736500 0.807221686179 0.108763721573
482747000 0.797552525584 0.101053360746
482757500 0.797613967294 0.114877734643
482768000 0.798743252781 0.113044535031
482778500 0.79674281966 0.110486543299
482789000 0.800308574276 0.104251620379
482799500 0.796517509412 0.109675199061
482810000 0.79604453488 0.106128138044
482820500 0.806754105766 0.107280262377
482831000 0.797922642933 0.110378180681
482841500 0.79873856695 0.109924074039
482852000 0.799946521946 0.110109262823
482862500 0.794540001075 0.113812604547
482873000 0.803767640402 0.114779634418
482883500 0.798795523152 0.107898641622
482894000 0.79784316625 0.109951942845
482904500 0.798412147049 0.110707923035
482915000 0.798566580219 0.112200753031
482925500 0.798630683078 0.110620435422
482936000 0.798473852272 0.111323415215
482946500 0.797738316765 0.111862835176
482957000 0.798065500121 0.110935718326
482967500 0.799985237728 0.110077436311
482978000 0.798352936656 0.111196510804
482988500 0.797441566506 0.109317612057
482999000 0.800556266091 0.110371444797
483009500 0.796771727533 0.108187237577
483020000 0.801493329633 0.110385052836
483030500 0.796677633455 0.109047064319
483041000 0.798739070401 0.110541167699
483051500 0.799689021369 0.110331042197
483062000 0.800767294447 0.112009795112
483072500 0.799820882335 0.108591581268
483083000 0.800781298201 0.111225677222
483093500 0.799453069088 0.109015370007
483104000 0.798438956594 0.10978426043
483114500 0.799923355814 0.111328709416
483125000 0.795769376011 0.113079279651
483135500 0.798024259233 0.110818705627
483146000 0.800805987992 0.107389449292
483156500 0.798513110728 0.110170162548
483167000 0.797809292001 0.109541166375
483177500 0.798902227359 0.10861786096
483188000 0.797908369968 0.108619360166
483198500 0.797929262577 0.107514274018
483209000 0.799988024859 0.111240073432
483219500 0.797834336575 0.109786867054
483230000 0.798502879983 0.108382532066
483240500 0.798132008419 0.111629827473
483251000 0.797638268658 0.11050127969
483261500 0.797596453051 0.107867188317
483272000 0.800278441987 0.10752350627
483282500 0.798947928511 0.108685432358
483293000 0.799391106338 0.106375290787
483303500 0.797443033544 0.111601345512
483314000 0.798592938234 0.106569115387
483324500 0.799183396433 0.108132681149
483335000 0.799525150701 0.109464273639
483345500 0.798818500084 0.111875914999
483356000 0.800091704513 0.108367186775
483366500 0.800950635405 0.110869035875
483377000 0.796677157215 0.107697056859
483387500 0.801422711472 0.109549198417
483398000 0.79954120653 0.109910751229
483408500 0.799659582236 0.1104019237
483419000 0.799854984467 0.107965193643
483429500 0.80026096541 0.107854128916
483440000 0.800564110204 0.106783465094
483450500 0.800453223536 0.109888880034
483461000 0.800269914387 0.109498678101
483471500 0.800667988938 0.108236748868
483482000 0.798656931282 0.11134859924
483492500 0.801720437654 0.108264966352
483503000 0.80169002037 0.110308461409
483513500 0.799966160239 0.110409420477
483524000 0.798766148796 0.108975392484
483534500 0.799860904521 0.109111778313
483545000 0.799271374761 0.109073026448
483555500 0.799539029646 0.107732305369
483566000 0.799900949094 0.10904762178
483576500 0.800331938878 0.107614462751
483587000 0.800207713584 0.108236742083
483597500 0.799559479167 0.108449252643
483608000 0.800320447821 0.108002809929
483618500 0.800361290272 0.10788834364
483629000 0.80019970163 0.108155544651
483639500 0.800150908121 0.107975861776
483650000 0.800460018907 0.108650335189
483660500 0.799635317511 0.108189790538
483671000 0.799065023139 0.107742438726
483681500 0.800392706705 0.107038247585
483692000 0.80017009991 0.106955077046
483702500 0.800456911379 0.105931988799
483713000 0.79994692171 0.106710423654
483723500 0.800133300197 0.106589306464
483734000 0.800112627433 0.10644958783
483744500 0.800421789258 0.107225592888
483755000 0.800785928684 0.106650648571
483765500 0.800183268301 0.106828771771
483776000 0.800396509187 0.107029395226
483786500 0.800812397616 0.106515518003
483797000 0.800786912253 0.106682599419
483807500 0.800749958408 0.106414201546
483818000 0.80080791957 0.106367509886
483828500 0.800998467453 0.105969357213
483839000 0.800712944683 0.105836117578
483849500 0.799702083627 0.105745306201
483860000 0.799728772655 0.105328125516
483870500 0.799177888212 0.105367761403
483881000 0.799219117748 0.104778406659
483891500 0.800219354837 0.10531498161
483902000 0.800334963661 0.106365434684
483912500 0.800166242357 0.105866078329
483923000 0.801314013284 0.105480114555
483933500 0.800353161082 0.105800739546
483944000 0.801086710898 0.106504278118
483954500 0.800872178592 0.106689994491
483965000 0.800182437903 0.105929251694
483975500 0.799841753384 0.106012143721
483986000 0.800694694063 0.10473491292
483996500 0.800809571664 0.105806942174
484007000 0.800838587202 0.106234694008
484017500 0.801860296319 0.105475675538
484028000 0.80028635007 0.105949398988
484038500 0.799807689219 0.107190076633
484049000 0.800981787472 0.106381331694
484059500 0.800537771496 0.105733454573
484070000 0.800032008221 0.105990974804
484080500 0.799711933033 0.105345704656
484091000 0.799243115472 0.105249211523
484101500 0.800477556786 0.105029217443
484112000 0.800662220226 0.105956353522
484122500 0.799359424808 0.10655412229
484133000 0.799466668656 0.105657932331
484143500 0.799733284031 0.105852166445
484154000 0.800392871411 0.105967267523
484164500 0.799752620252 0.106155309322
484175000 0.800505152595 0.10622112279
484185500 0.800147302111 0.106223526237
484196000 0.800422706676 0.105648782266
484206500 0.800809006557 0.105670763287
484217000 0.801508815196 0.105540671291
484227500 0.801840283455 0.1054523862
484238000 0.801785064001 0.105479766856
484248500 0.802989933266 0.105428490187
484259000 0.801891032186 0.105249400396
484269500 0.801618350424 0.105342986993
484280000 0.801306562131 0.105308715331
484290500 0.801079911719 0.105432773679
484301000 0.800463703076 0.105805640343
484311500 0.800753119733 0.105498499052
484322000 0.800602319727 0.104632421503
484332500 0.800885920183 0.105668855956
484343000 0.802093194387 0.106112127221
484353500 0.801451040535 0.105316799822
484364000 0.801240755024 0.105019500733
484374500 0.801114575102 0.105290195423
484385000 0.801056960191 0.105013231739
484395500 0.800387092722 0.10532253863
484406000 0.800805259692 0.105773009725
484416500 0.800510301391 0.105580563997
484427000 0.801383097253 0.10522500281
484437500 0.80094675794 0.104856539018
484448000 0.801452851924 0.104650116071
484458500 0.80092831515 0.10432132903
484469000 0.800425514439 0.104242682578
484479500 0.800258501658 0.104808952437
484490000 0.800706064142 0.104949458535
484500500 0.801163898892 0.104737281149
484511000 0.800881713957 0.104509674028
484521500 0.801709314417 0.105228153216
484532000 0.801356143537 0.104624837299
484542500 0.801784997956 0.105095194974
484553000 0.801974368464 0.103921623144
484563500 0.801174274134 0.103907028114
484574000 0.802134431797 0.104185758344
484584500 0.801023602256 0.104282532593
484595000 0.800960756067 0.104505762429
484605500 0.801639756856 0.106011363109
484616000 0.800703616273 0.107059044905
484626500 0.801465993921 0.104359315951
484637000 0.800903412738 0.104173022724
484647500 0.801331009409 0.103973746487
484658000 0.80197483196 0.104181460942
484668500 0.801506877842 0.10475787024
484679000 0.803206602122 0.103872543025
484689500 0.802146439581 0.10438566573
484700000 0.801178576227 0.104175491835
484710500 0.801131437539 0.104754922142
484721000 0.800992801831 0.104139470571
484731500 0.801063699203 0.104316976319
484742000 0.80162511052 0.104778863034
484752500 0.801738711123 0.103459477716
484763000 0.800847449279 0.104666764573
484773500 0.801545591965 0.10373600518
484784000 0.801292062115 0.104233052147
484794500 0.801332195753 0.103454850198
484805000 0.801178149918 0.103312777808
484815500 0.801162257666 0.103438840148
484826000 0.801298839686 0.103707293831
484836500 0.801105505888 0.10375946419
484847000 0.802017730423 0.102147956997
484857500 0.800285893485 0.103394182206
484868000 0.80000535997 0.104075930421
484878500 0.799759703926 0.104173412235
484889000 0.800523200402 0.104132655307
484899500 0.80117854138 0.103363370016
484910000 0.802198788284 0.104262586686
484920500 0.801313767719 0.104099849385
484931000 0.801330472404 0.104772804951
484941500 0.801509896347 0.103965421798
484952000 0.80166089609 0.103940131418
484962500 0.801158950238 0.104734044454
484973000 0.800010848266 0.104353514574
484983500 0.799132159052 0.103991141131
484994000 0.799438901823 0.103973950611
485004500 0.799937857721 0.103721420192
485015000 0.801040341306 0.103080439437
485025500 0.801256013101 0.103389637743
485036000 0.802440660863 0.103254127875
485046500 0.802286566861 0.103569775127
485057000 0.802237073091 0.103837411971
485067500 0.802262377727 0.103577478606
485078000 0.801431919541 0.103228965698
485088500 0.800979329516 0.103074005768
485099000 0.800774343625 0.102773543828
485109500 0.800686574026 0.103120310735
485120000 0.799896940748 0.103406504617
485130500 0.80186074557 0.103972617604
485141000 0.801852657776 0.103304439537
485151500 0.801193690926 0.10339807889
485162000 0.800883843529 0.102371739095
485172500 0.801435410441 0.103143147325
485183000 0.801552776119 0.103021013037
485193500 0.801534854112 0.103746786586
485204000 0.801904109408 0.103720333811
485214500 0.802160057806 0.103641339654
485225000 0.801732298716 0.103193877019
485235500 0.80159701627 0.103319933596
485246000 0.801611795905 0.102404674549
485256500 0.801503914603 0.102969529477
485267000 0.801388653337 0.102573902468
485277500 0.801797940382 0.102460659247
485288000 0.801898960598 0.103004373168
485298500 0.801875713448 0.102519520858
485309000 0.802008655542 0.103089760057
485319500 0.801857561414 0.103483153143
485330000 0.802394379693 0.103075406396
485340500 0.802474762613 0.102311568945
485351000 0.802468067628 0.10285370104
485361500 0.801607497923 0.102760539717
485372000 0.802090882509 0.102863723835
485382500 0.801577139025 0.102704658291
485393000 0.801973975562 0.102436188353
485403500 0.802173003416 0.102514789316
485414000 0.802317683664 0.10321246759
485424500 0.803483498575 0.103041437941
485435000 0.801253812749 0.102489749564
485445500 0.801454846182 0.104056861496
485456000 0.803021995707 0.104129341431
485466500 0.800627912357 0.105793558037
485477000 0.800774367088 0.100285786749
485487500 0.80289652968 0.103705242428
485498000 0.802363447697 0.104260354885
485508500 0.800881521125 0.102566496324
485519000 0.801593812187 0.101248195678
485529500 0.802722070706 0.103033625699
485540000 0.805124024994 0.103584752594
485550500 0.803011698334 0.100096575025
485561000 0.799881331124 0.0989462986928
485571500 0.805719871664 0.106480817043
485582000 0.802118154453 0.102061734147
485592500 0.801181399242 0.0999569377061
485603000 0.803636308766 0.103642600746
485613500 0.807912055407 0.104321372532
485624000 0.803109684907 0.107748922461
485634500 0.80292362763 0.100650920885
485645000 0.797505993709 0.0988935385051
485655500 0.798081631909 0.104654861566
485666000 0.796573728184 0.102558557823
485676500 0.80346318167 0.101588405961
485687000 0.80262526188 0.103614752352
485697500 0.807697202923 0.10028703978
485708000 0.806315182131 0.103888854415
485718500 0.806496155092 0.099853156751
485729000 0.803881485572 0.0996796701446
485739500 0.800610908884 0.10729115888
485750000 0.801206294965 0.100976701653
485760500 0.808498018556 0.102201944999
485771000 0.805517114428 0.101268119017
485781500 0.803789824735 0.104018253339
485792000 0.80604346618 0.101510451445
485802500 0.803584320155 0.103482702102
485813000 0.80387207455 0.103167991513
485823500 0.806713680592 0.103177463111
485834000 0.809637095419 0.101997220698
485844500 0.809537162761 0.104365589345
485855000 0.805375885662 0.10096587399
485865500 0.806116414973 0.104541363359
485876000 0.803070454302 0.103985857658
485886500 0.8088818091 0.098614559394
485897000 0.807316508233 0.103488647218
485907500 0.806177812769 0.103968127325
485918000 0.80600134717 0.102521465072
485928500 0.806034402087 0.102654713131
485939000 0.804778693063 0.102886275272
485949500 0.805558792573 0.102610543715
485960000 0.805016972797 0.101498791566
485970500 0.805359844492 0.101649071451
485981000 0.805387770933 0.102694172579
485991500 0.806511624866 0.102783502577
486002000 0.809514979909 0.101454579999
486012500 0.806328702881 0.102462683829
486023000 0.806945132924 0.102967723855
486033500 0.804108544167 0.100600329136
486044000 0.806955904641 0.101540542387
486054500 0.806568233079 0.10042828069
486065000 0.808985035314 0.097828121431
486075500 0.80669735451 0.117939203188
486086000 0.796254016598 0.097054215211
486096500 0.80657776914 0.101843223575
486107000 0.806432960686 0.0966642876577
486117500 0.80212551928 0.0957954463552
486128000 0.801338755417 0.101922586194
486138500 0.807058620377 0.0998857431588
486149000 0.816222681194 0.1039322497
486159500 0.807848545329 0.0993860017789
486170000 0.800059484248 0.104411955468
486180500 0.812062813177 0.105497067202
486191000 0.802708239243 0.0957331537833
486201500 0.796794549087 0.101587922709
486212000 0.806626465643 0.101813114362
486222500 0.811151460498 0.0992362082257
486233000 0.800297303796 0.0981961774236
486243500 0.80280226441 0.117600546759
486254000 0.796555175115 0.104128123778
486264500 0.79359062758 0.106797332299
486275000 0.815269177714 0.092355576089
486285500 0.810984516348 0.098605682698
486296000 0.792796757427 0.104463728011
486306500 0.806228150315 0.0997672572659
486317000 0.779820509417 0.0950077429491
486327500 0.818576101091 0.114077190019
486338000 0.806776265985 0.100916947326
486348500 0.801711755472 0.107613649701
486359000 0.810676880328 0.0794807696384
486369500 0.812907330347 0.102279723273
486380000 0.84750471414 0.114866917672
486390500 0.821199505345 0.0926130989346
486401000 0.808662568065 0.0955922055914
486411500 0.821312231779 0.0835270811723
486422000 0.803914918692 0.101459938888
486432500 0.793182198942 0.108123275309
486443000 0.795741069214 0.151419696218
486453500 0.79938164839 0.12262436539
486464000 0.78992755158 0.123245332296
486474500 0.823722309078 0.0738625536816
486485000 0.802631529463 0.0923013123321
486495500 0.804967345924 0.0915379329129
486506000 0.804763108286 0.0993746861195
486516500 0.806514442079 0.0723589655559
486527000 0.810983467245 0.0987344697063
486537500 0.800325557659 0.0721541286783
486548000 0.767059875985 0.0880755651028
486558500 0.783735794359 0.0884234908918
486569000 0.787054401046 0.0785606256796
486579500 0.789629449648 0.0971548351329
486590000 0.826530828803 0.12437929749
486600500 0.809676787907 0.0982078292904
486611000 0.795119457719 0.10324227685
486621500 0.802351553143 0.107233876929
486632000 0.819861232293 0.119234242706
486642500 0.802333540622 0.0950930890139
486653000 0.817837325994 0.102949820915
486663500 0.813251471451 0.0900822499372
486674000 0.807439604049 0.104617829129
486684500 0.793902590759 0.0981438140393
486695000 0.811554108446 0.100134369234
486705500 0.795768455376 0.100364611024
486716000 0.796104769753 0.105942723983
486726500 0.812685839479 0.105048448601
486737000 0.80924250217 0.0961033197112
486747500 0.80597990873 0.0981584546929
486758000 0.810352020925 0.0963513064421
486768500 0.812720706463 0.0936577876447
486779000 0.818725351941 0.0958755188167
486789500 0.807961013396 0.0995135555663
486800000 0.808498980359 0.0984480051348
486810500 0.807406688835 0.0978553997379
486821000 0.814332030316 0.111337245759
486831500 0.810600323358 0.0964318905947
486842000 0.810423691829 0.099733615715
486852500 0.814308698891 0.0918731275719
486863000 0.806957755314 0.0987575001295
486873500 0.813635789107 0.0952603481876
486884000 0.81452834996 0.107894591995
486894500 0.809969290096 0.0997521360271
486905000 0.810941402901 0.102908657479
486915500 0.809676012812 0.0988509109593
486926000 0.810006811301 0.0982261771344
486936500 0.805996063766 0.101089724834
486947000 0.80993231918 0.0982704812069
486957500 0.812360773451 0.0988639217367
486968000 0.808980815924 0.0981255258491
486978500 0.810006217957 0.0995461500197
486989000 0.810249518769 0.0988272435346
486999500 0.810224124825 0.0983693898471
487010000 0.810704311287 0.0985672222938
487020500 0.811165095826 0.0977511445692
487031000 0.81078278152 0.0988509306989
487041500 0.810894526849 0.0991178892752
487052000 0.811330112202 0.0988398654108
487062500 0.811000145839 0.099240522769
487073000 0.811473186358 0.0978615683295
487083500 0.812442082284 0.100072891542
487094000 0.810399252281 0.0962217235836
487104500 0.813121111723 0.0989993261577
487115000 0.809742306039 0.0965990040611
487125500 0.814310461212 0.0957373728436
487136000 0.810241241811 0.0970250883695
487146500 0.810648524577 0.0950205048689
487157000 0.811576938995 0.0990863265709
487167500 0.810577143847 0.0986644411164
487178000 0.810304785518 0.0975027107612
487188500 0.810727794488 0.0984617027559
487199000 0.812068736897 0.0966426924256
487209500 0.812639318096 0.0990980259227
487220000 0.8099449784 0.0990805769636
487230500 0.8091708629 0.0970269368952
487241000 0.808647458988 0.0945456947437
487251500 0.810907482354 0.0980841888353
487262000 0.810532000459 0.09590852009
487272500 0.807578695929 0.10244450895
487283000 0.810622691928 0.100150771722
487293500 0.810266539079 0.0980152619026
487304000 0.813090248913 0.10071995653
487314500 0.808642326975 0.0974355661722
487325000 0.808710943104 0.0991635863541
487335500 0.811637679043 0.0961334577881
487346000 0.813728288593 0.0960970897887
487356500 0.809773551794 0.0970087090441
487367000 0.808331583544 0.0978208384383
487377500 0.811920102699 0.0998219908315
487388000 0.812677365273 0.0986593380478
487398500 0.812520518721 0.0960658833453
487409000 0.811717101925 0.0952707838195
487419500 0.809769030647 0.0922276350316
487430000 0.810488248177 0.0963299543042
487440500 0.813524935713 0.0962997556134
487451000 0.81352382305 0.0959959680979
487461500 0.811180776808 0.0961547943378
487472000 0.814684455518 0.0982503130543
487482500 0.81791550215 0.0898790746574
487493000 0.81828444354 0.157368738074
487503500 0.816022566236 0.0976031392131
487514000 0.812714391405 0.0994288264325
487524500 0.809933282406 0.0986129922454
487535000 0.812206241727 0.0971081510155
487545500 0.811867787227 0.0959178173077
487556000 0.811987332849 0.0967128515773
487566500 0.811574681719 0.0965130919717
487577000 0.812412468419 0.0963662132321
487587500 0.811281692765 0.0956630775843
487598000 0.81181257443 0.0960748677717
487608500 0.811893082315 0.0962818551305
487619000 0.811360398678 0.0964050341263
487629500 0.811809465839 0.0958159487221
487640000 0.811562434084 0.0959211028891
487650500 0.812226334182 0.0961526338606
487661000 0.812030450124 0.0960157522491
487671500 0.812811087458 0.0959870383115
487682000 0.811479568622 0.0960237754664
487692500 0.812590772521 0.0949597108025
487703000 0.81160923052 0.0956983521074
487713500 0.812428014547 0.0960535515565
487724000 0.811146044947 0.0955535404598
487734500 0.811856231823 0.0950997137892
487745000 0.812099358436 0.0954944587065
487755500 0.811034929425 0.0952284815023
487766000 0.811918090726 0.0954808042758
487776500 0.811429814619 0.096128220527
487787000 0.811932982656 0.0959492412039
487797500 0.812614915669 0.0957592421164
487808000 0.812456670391 0.0958802603286
487818500 0.812713354516 0.0953304626129
487829000 0.811605152592 0.0953542326876
487839500 0.81208693639 0.094948529816
487850000 0.811667834835 0.0940534172914
487860500 0.810960523517 0.0949523787842
487871000 0.812354200685 0.0950916258177
487881500 0.81158077583 0.0951156397702
487892000 0.811889342493 0.0956271816323
487902500 0.812749987466 0.0951979565366
487913000 0.812007013147 0.0958111021378
487923500 0.812431062128 0.0943828391187
487934000 0.812386011729 0.0952197087179
487944500 0.812194669226 0.0955507470473
487955000 0.812010396964 0.0954611532439
487965500 0.812262176314 0.0952943789792
487976000 0.811974284466 0.0951649463623
487986500 0.812127105417 0.0953566766601
487997000 0.811751603434 0.0957198912392
488007500 0.811144520327 0.0953874081295
488018000 0.811770188836 0.0956462271138
488028500 0.811074775912 0.096050571319
488039000 0.811776078653 0.0953185683357
488049500 0.811644843233 0.0951893415773
488060000 0.811893517846 0.095299013799
488070500 0.811758757651 0.0954186096316
488081000 0.812187198969 0.0957811097376
488091500 0.812022774595 0.0953669531396
488102000 0.81196554189 0.0950210967149
488112500 0.811726880578 0.0956786951056
488123000 0.812201494946 0.0951731151291
488133500 0.812165679476 0.0951314144298
488144000 0.811759360868 0.0951091004893
488154500 0.811949094785 0.0952145064733
488165000 0.811231544592 0.0959755695474
488175500 0.810914722172 0.0955778202855
488186000 0.811498780055 0.0950634504083
488196500 0.812280393398 0.0956554520301
488207000 0.812632642623 0.0948702978726
488217500 0.812172458424 0.0951034500845
488228000 0.811725250902 0.094698131228
488238500 0.812038323047 0.0947483727159
488249000 0.811104000115 0.0952929714393
488259500 0.811779207531 0.0952104143428
488270000 0.811707118015 0.0947269287258
488280500 0.811984154083 0.0947989252261
488291000 0.812219636594 0.094629734675
488301500 0.812141440731 0.0947580324291
488312000 0.812827920213 0.0939954640232
488322500 0.813464616474 0.0949992758134
488333000 0.812913040735 0.094275437478
488343500 0.812088711458 0.094264489451
488354000 0.812501387492 0.0943883950129
488364500 0.812371954729 0.0946035550989
488375000 0.812220885574 0.0944712914777
488385500 0.812335721492 0.0948938125119
488396000 0.813065925872 0.0947168804623
488406500 0.812568612354 0.0945283239414
488417000 0.81212669681 0.0946917436903
488427500 0.812535121398 0.0941152880371
488438000 0.812511615816 0.093985767864
488448500 0.812535662325 0.0940436285108
488459000 0.812574387087 0.0938292889584
488469500 0.812566117784 0.094417882382
488480000 0.812401244135 0.0942235151142
488490500 0.81237422945 0.0940900310673
488501000 0.812103288461 0.0941728338549
488511500 0.811965234664 0.0944934221455
488522000 0.812512480723 0.0948252456674
488532500 0.811541407002 0.0950856981317
488543000 0.812178687304 0.0942323950939
488553500 0.812229732068 0.0939408574727
488564000 0.81281217502 0.0944515260175
488574500 0.812160229443 0.0947667695994
488585000 0.813020513619 0.0943196780821
488595500 0.812678851695 0.0943021981526
488606000 0.812687151312 0.0937756456581
488616500 0.812956551805 0.0938008196514
488627000 0.813004339049 0.09378035555
488637500 0.812769769978 0.0940688636619
488648000 0.81328774766 0.0937374506643
488658500 0.812485548495 0.0933501682832
488669000 0.813061846077 0.093629670575
488679500 0.812609378211 0.0940507623214
488690000 0.813203240059 0.0949566993019
488700500 0.812321203471 0.0937150608714
488711000 0.81211234951 0.0937185539807
488721500 0.812273925016 0.0941553406048
488732000 0.812469481406 0.0933191274037
488742500 0.812751848695 0.0935126976054
488753000 0.8130301566 0.0927673625837
488763500 0.812706298559 0.0932470760722
488774000 0.812477168463 0.0928381991633
488784500 0.812963044095 0.0931715037073
488795000 0.812218761076 0.0932282334395
488805500 0.812178996534 0.0938132883402
488816000 0.813660898468 0.093349553638
488826500 0.81316555556 0.0941941315445
488837000 0.812616108329 0.093553328681
488847500 0.812342386425 0.0936379689285
488858000 0.812201656618 0.0935690947525
488868500 0.812722113409 0.0936533032443
488879000 0.812604983547 0.0934445338193
488889500 0.812375416441 0.0935358528553
488900000 0.812922567399 0.0943047925035
488910500 0.812289028481 0.0937390894958
488921000 0.812100170984 0.0932271551062
488931500 0.811985607592 0.0937106869282
488942000 0.81250112047 0.093463403986
488952500 0.809813697934 0.0930762037041
488963000 0.812212035652 0.0943405040483
488973500 0.812407507809 0.093867636848
488984000 0.812315512124 0.093776903045
488994500 0.812537051209 0.0941153067009
489005000 0.812413012396 0.0937209303624
489015500 0.811920081382 0.0935353842031
489026000 0.81312810874 0.0929725057413
489036500 0.813560668339 0.0934017243057
489047000 0.813211280443 0.0929381906016
489057500 0.812493259063 0.0936690599835
489068000 0.812367081802 0.0934221467981
489078500 0.812339963644 0.093205109249
489089000 0.812237499921 0.0935313575344
489099500 0.812530229391 0.0940146519444
489110000 0.812200094122 0.0933886650707
489120500 0.8122571474 0.0933299071504
489131000 0.812247229607 0.0934292131964
489141500 0.811838112938 0.0936252930445
489152000 0.811836293527 0.0935098699417
489162500 0.812654216171 0.093402691208
489173000 0.812348819042 0.093883645845
489183500 0.812567424522 0.0937007986511
489194000 0.812279849815 0.093725649648
489204500 0.812649131131 0.0935077639049
489215000 0.812227055844 0.0939407587042
489225500 0.812497077471 0.0933962145676
489236000 0.812504690398 0.0942824755707
489246500 0.812753292027 0.0941091093735
489257000 0.812687883016 0.0932270207363
489267500 0.813143981186 0.0930276053143
489278000 0.812154926125 0.0923904878766
489288500 0.812219156296 0.0929380482266
489299000 0.81147409719 0.0931870606927
489309500 0.812445944706 0.0936681226592
489320000 0.811836000365 0.0945843837134
489330500 0.812362139586 0.0946384013834
489341000 0.812233839822 0.0939915731771
489351500 0.812432674489 0.094057109561
489362000 0.812293167338 0.0928270347901
489372500 0.81061774423 0.092372074227
489383000 0.812601540689 0.0926933258351
489393500 0.81252446253 0.0932010041644
489404000 0.812343130673 0.0921781510893
489414500 0.811897277562 0.0925729910742
489425000 0.812428765462 0.0923422793815
489435500 0.812202001408 0.0911706300716
489446000 0.812777331823 0.0925118736616
489456500 0.813239863458 0.0932895503394
489467000 0.813206136429 0.0925688795292
489477500 0.813647521767 0.093044894003
489488000 0.813300045544 0.0917716822796
489498500 0.812053661295 0.0928841362292
489509000 0.813540087102 0.0920145636923
489519500 0.813420496813 0.0917772354278
489530000 0.814257554933 0.0928837917782
489540500 0.813153164127 0.0915950125828
489551000 0.81254769603 0.0917723410227
489561500 0.810266776004 0.0905945444458
489572000 0.812387561981 0.0911192786787
489582500 0.813330002106 0.0908961986401
489593000 0.813556977969 0.0929271432701
489603500 0.812262128592 0.0932318407091
489614000 0.812754394666 0.0925931715745
489624500 0.811950965482 0.0919624883777
489635000 0.81226103743 0.0899463656158
489645500 0.813512365315 0.0917876966414
489656000 0.821621485423 0.103216465241
489666500 0.813858591135 0.0927114930684
489677000 0.81303535537 0.0925525285171
489687500 0.811571738454 0.0903526808063
489698000 0.813803300003 0.0940552129594
489708500 0.811782354076 0.0952658114531
489719000 0.812244682749 0.0909594852988
489729500 0.811891378653 0.0920619222682
489740000 0.81137456161 0.0938161023312
489750500 0.812152886516 0.0906261683955
489761000 0.811964329023 0.0912961503959
489771500 0.812082773101 0.0906592360736
489782000 0.814424821731 0.0906154021922
489792500 0.810167305078 0.0934185822723
489803000 0.812352538374 0.0915320832311
489813500 0.812483564549 0.0920709995973
489824000 0.810663025904 0.0928195110433
489834500 0.812172466725 0.0909462370727
489845000 0.812301377251 0.091434763086
489855500 0.812104602205 0.0918021940727
489866000 0.811997674507 0.0929892110128
489876500 0.813327639738 0.0897798242622
489887000 0.81122953689 0.091536856377
489897500 0.813750686516 0.0920989682736
489908000 0.812489946766 0.09234099317
489918500 0.811482564958 0.0925496981699
489929000 0.8127895294 0.0919087814531
489939500 0.81339161261 0.0916702310709
489950000 0.812645447073 0.0913625636369
489960500 0.813260096294 0.0933053442909
489971000 0.812874283039 0.0930158317423
489981500 0.813246295517 0.0914580594872
489992000 0.812258770407 0.0911556902869
490002500 0.812905387814 0.0914670082967
490013000 0.812277085428 0.0917210204084
490023500 0.812074027788 0.0921674442947
490034000 0.812343020649 0.0917745452769
490044500 0.812399058123 0.0909255731603
490055000 0.812817878144 0.0906876766387
490065500 0.812725807538 0.090516079275
490076000 0.813136829684 0.0901331135745
490086500 0.81320296018 0.0907893994666
490097000 0.813119647355 0.0901486188951
490107500 0.813347944793 0.090795393393
490118000 0.812870725873 0.0907398153079
490128500 0.812625137627 0.0907855354396
490139000 0.812766047562 0.0913652737857
490149500 0.812696949045 0.0908419480475
490160000 0.81410228461 0.0913976382862
490170500 0.813263184079 0.090858161838
490181000 0.813017549636 0.0914957182126
490191500 0.813495905703 0.0909862564826
490202000 0.813519268734 0.0915592211091
490212500 0.812762457384 0.0907611361577
490223000 0.812274576778 0.0900800539653
490233500 0.813898067987 0.0919885674291
490244000 0.815486517821 0.0908192215859
490254500 0.812976184818 0.0912436049072
490265000 0.814058019593 0.0918726195926
490275500 0.811906121659 0.0894683212427
490286000 0.814236284799 0.0924129410989
490296500 0.813667689518 0.0896201001071
490307000 0.814464797374 0.0911793129872
490317500 0.810315571985 0.0881953368506
490328000 0.811583618025 0.089603681257
490338500 0.81277342614 0.0864023835101
490349000 0.816230558376 0.0936908693864
490359500 0.815799754346 0.0910384143279
490370000 0.81865012908 0.0914676344859
490380500 0.811280080361 0.0883652217123
490391000 0.812117180336 0.0746538690735
490401500 0.823184618551 0.101610435252
490412000 0.812955574877 0.0838055148416
490422500 0.828227114048 0.0958544834824
490433000 0.819274867068 0.104954423704
490443500 0.81929790989 0.081893337027
490454000 0.811540952051 0.0729545842894
490464500 0.809538399199 0.103115691222
490475000 0.815118754272 0.0875504558663
490485500 0.812032888045 0.0899866560417
490496000 0.813934237461 0.0916603818018
490506500 0.795696203759 0.107139758851
490517000 0.800834596661 0.0867944930865
490527500 0.824746468215 0.0805354790157
490538000 0.814973583814 0.0938074658462
490548500 0.832353885681 0.117138184718
490559000 0.810599635103 0.0876979168068
490569500 0.802317313323 0.102304943199
490580000 0.821141528528 0.0854020630404
490590500 0.808887390023 0.086100592686
490601000 0.812715378419 0.0955401644914
490611500 0.813224890316 0.0894816072721
490622000 0.808257995925 0.0872879557358
490632500 0.807370184163 0.0854170730396
490643000 0.807368923946 0.0906847183913
490653500 0.81320174463 0.0899408968046
490664000 0.811346928392 0.0856244759925
490674500 0.814236624112 0.0874407483124
490685000 0.813567749876 0.0903883003869
490695500 0.813800920289 0.0901347014074
490706000 0.812738423702 0.0888681008638
490716500 0.811408437408 0.0894401166874
490727000 0.808645262018 0.0900376931592
490737500 0.806413083775 0.085932078589
490748000 0.809898661937 0.0887014712535
490758500 0.811188228961 0.0897901385305
490769000 0.813586956232 0.0898141903509
490779500 0.813361670947 0.0895478672257
490790000 0.813257345482 0.0892525418733
490800500 0.813207146282 0.0885858218074
490811000 0.814165973843 0.0891908216826
490821500 0.812882878537 0.0896356721852
490832000 0.813526188288 0.0891851009172
490842500 0.813482962922 0.088394917751
490853000 0.814226572178 0.0887914092637
490863500 0.81391980346 0.0898838824413
490874000 0.812998318841 0.088784047636
490884500 0.813653692639 0.0891376803997
490895000 0.81321825918 0.0893013289658
490905500 0.813538717894 0.0881581374496
490916000 0.8124956547 0.089243443846
490926500 0.813751909649 0.0882462571348
490937000 0.813548453218 0.0893797610002
490947500 0.814390381531 0.0894358231543
490958000 0.813596982262 0.0889067660804
490968500 0.813738264974 0.0884782967228
490979000 0.813371574416 0.0885094295151
490989500 0.813382565044 0.0887091243461
491000000 0.813620439099 0.0889096340853
491010500 0.812848751455 0.088906508937
491021000 0.813590177571 0.0884915835742
491031500 0.812152466273 0.0867637833003
491042000 0.813040911161 0.0877017367101
491052500 0.813819460671 0.0871268439517
491063000 0.813609869439 0.0880602965499
491073500 0.813050356871 0.0885116586074
491084000 0.812397085738 0.087328375297
491094500 0.814248526564 0.0877819788007
491105000 0.810205480108 0.0923460466663
491115500 0.812622627251 0.0881342749921
491126000 0.813983251568 0.0890004803587
491136500 0.812417565161 0.0900425415631
491147000 0.813519940077 0.0887159959973
491157500 0.813441154235 0.0890078365709
491168000 0.813823805716 0.0893867466393
491178500 0.812341039684 0.0871670525171
491189000 0.814019100121 0.0890727985392
491199500 0.813353416618 0.0881698662941
491210000 0.813106365669 0.0877455238884
491220500 0.812353384295 0.0892351928446
491231000 0.812160239035 0.0874675614267
491241500 0.812502661018 0.0884215705269
491252000 0.813266621202 0.08891480337
491262500 0.814314908407 0.0891198347596
491273000 0.812273240367 0.0882528233956
491283500 0.813122493274 0.0882426851642
491294000 0.81251281497 0.0875311145026
491304500 0.813571850537 0.0876711903101
491315000 0.812769911568 0.0864733620054
491325500 0.811786576974 0.089349187053
491336000 0.812558262534 0.0860615673893
491346500 0.811464504766 0.0894818423486
491357000 0.81355161738 0.0870439833882
491367500 0.814459002088 0.0877156814553
491378000 0.812250344303 0.088666303918
491388500 0.811017634741 0.0879425445207
491399000 0.811930176906 0.0859546460469
491409500 0.813483137245 0.0854349985376
491420000 0.812934911858 0.0867316767067
491430500 0.814141658476 0.0864107405352
491441000 0.813958884052 0.0886051959396
491451500 0.811853316522 0.0875086430167
491462000 0.81281286124 0.0894991625605
491472500 0.813915672452 0.088487257885
491483000 0.813043599677 0.0868762916977
491493500 0.812927714842 0.0877491389394
491504000 0.814418645294 0.0866188772017
491514500 0.81418416626 0.0871745911771
491525000 0.812839726685 0.0890569344745
491535500 0.812470179116 0.0879423077758
491546000 0.812995319479 0.0877316828287
491556500 0.813040058837 0.0877930547931
491567000 0.814041834261 0.087613200789
491577500 0.812723704654 0.0878179338638
491588000 0.813919080641 0.087221572619
491598500 0.813899903214 0.0868703341171
491609000 0.813381765464 0.0872466555414
491619500 0.813555393595 0.0872589467047
491630000 0.813550507427 0.0872796135891
491640500 0.81314765128 0.0870879730515
491651000 0.813115218945 0.087298954341
491661500 0.812920023043 0.0877936565767
491672000 0.813440609771 0.0875534895479
491682500 0.81360485725 0.0866473402308
491693000 0.8124142482 0.0872414803692
491703500 0.81332287557 0.0872919260763
491714000 0.813947854999 0.0872522189529
491724500 0.812802257925 0.0876128244346
491735000 0.813057206962 0.0876672170767
491745500 0.812681435902 0.0842432919318
491756000 0.813508132273 0.0871120615164
491766500 0.813408129219 0.0873355826109
491777000 0.813220359157 0.0874871557378
491787500 0.813178776993 0.0871658328564
491798000 0.81415244731 0.0866058434772
491808500 0.813667879112 0.0867638244416
491819000 0.813427283546 0.0866160937966
491829500 0.81344227486 0.0866468501794
491840000 0.813372156449 0.0869605167058
491850500 0.813607626299 0.0876254059599
491861000 0.81345260355 0.0872818713197
491871500 0.814180167079 0.0871540671125
491882000 0.814172284957 0.0870890718075
491892500 0.813376028379 0.0866293564152
491903000 0.813897964598 0.0863019946839
491913500 0.813934111232 0.0869808351915
491924000 0.813891988431 0.0863630593241
491934500 0.813798581504 0.0869964819795
491945000 0.812740158062 0.0869672503093
491955500 0.813274134175 0.0866196665802
491966000 0.813025890006 0.0871637388982
491976500 0.812727920677 0.0869860189915
491987000 0.812820241154 0.0862215018097
491997500 0.81446728855 0.0868605575088
492008000 0.814286644443 0.0870473968974
492018500 0.814112433718 0.0870424315297
492029000 0.81395948554 0.0864410473084
492039500 0.813968719416 0.0871314776069
492050000 0.813423159248 0.0875758441352
492060500 0.812860237007 0.0877147032943
492071000 0.813756195616 0.0876497816803
492081500 0.81328919187 0.0871630815763
492092000 0.813350912323 0.0868218363322
492102500 0.813322707624 0.0868860363751
492113000 0.813486213624 0.0858340344922
492123500 0.812544881013 0.0869517330259
492134000 0.81277053943 0.0866676178778
492144500 0.813686054922 0.0865826940757
492155000 0.814119473584 0.0860744084651
492165500 0.814084081557 0.0859998649961
492176000 0.814415025799 0.086110348422
492186500 0.814069293402 0.0857097021628
492197000 0.81324774161 0.0860488227422
492207500 0.813721113828 0.086304977719
492218000 0.81263809605 0.0858923543747
492228500 0.813290361632 0.0862723277198
492239000 0.813510017729 0.0861415137325
492249500 0.812746076111 0.0858882803148
492260000 0.813187866391 0.0863004325309
492270500 0.813005455636 0.0861253876111
492281000 0.813205385145 0.086542304358
492291500 0.813386098313 0.0857523801617
492302000 0.813159735128 0.0858029922892
492312500 0.812775850469 0.0852657521344
492323000 0.812800727442 0.08484859304
492333500 0.812974518278 0.085634102919
492344000 0.81246390935 0.08540674839
492354500 0.813520719212 0.0859294722334
492365000 0.813191250646 0.0854779299107
492375500 0.813325211633 0.0857638665972
492386000 0.81393928095 0.0847714158587
492396500 0.814004055999 0.0851830655712
492407000 0.814006460968 0.086247362547
492417500 0.813705863134 0.0858378579906
492428000 0.813312361608 0.0860744789169
492438500 0.813480104593 0.0864612141648
492449000 0.814287440876 0.0867327327258
492459500 0.814203179948 0.0856892689975
492470000 0.814088415039 0.0857210880505
492480500 0.813711821989 0.0855901900834
492491000 0.814089652499 0.0853096281291
492501500 0.814141331389 0.0856710522746
492512000 0.81472576526 0.0854402585018
492522500 0.813879187671 0.0857379250871
492533000 0.813277679821 0.0854796871654
492543500 0.8135399151 0.085899168319
492554000 0.813694035143 0.0858056396456
492564500 0.813687938271 0.0858786692136
492575000 0.813928390776 0.0863162537257
492585500 0.813309265841 0.0863212142172
492596000 0.812034564722 0.0850954561933
492606500 0.811627462317 0.0857944241276
492617000 0.812891564584 0.0851154661097
492627500 0.813680155615 0.0854302082694
492638000 0.813595751257 0.0854687197672
492648500 0.813458440713 0.0854147959375
492659000 0.812996376392 0.0863247492424
492669500 0.813443101124 0.0859078471176
492680000 0.813318282763 0.0851940107642
492690500 0.812780130733 0.0856752396134
492701000 0.813380797309 0.0860607131721
492711500 0.813139040834 0.0861431731523
492722000 0.812994369484 0.0862498531172
492732500 0.812726932168 0.0864151294616
492743000 0.813621907225 0.0848098682309
492753500 0.812757998498 0.0856072188521
492764000 0.812659856337 0.0849239832158
492774500 0.813545014353 0.0843662954828
492785000 0.813330626319 0.084404779855
492795500 0.813868475683 0.0848921621483
492806000 0.814250485346 0.0842856533921
492816500 0.813401684815 0.0852523170422
492827000 0.812864211525 0.0853354015888
492837500 0.812440367315 0.0854524547477
492848000 0.812852332298 0.0859170689769
492858500 0.813001704896 0.0857607807249
492869000 0.813568650899 0.085967501727
492879500 0.813646641436 0.0862972373272
492890000 0.814020800592 0.0858731502985
492900500 0.813509634396 0.0856600165791
492911000 0.813654585071 0.0847060093365
492921500 0.813904358841 0.0858829597145
492932000 0.813522341968 0.0858231839602
492942500 0.813726476487 0.0854566954587
492953000 0.813136993958 0.0855810841588
492963500 0.813814466746 0.0854510044924
492974000 0.813432025127 0.0863290050535
492984500 0.813320579059 0.0851632890236
492995000 0.813608358886 0.0848300535689
493005500 0.813768072858 0.0854979592274
493016000 0.813354113031 0.0856147674923
493026500 0.81334692048 0.084761505822
493037000 0.8132459551 0.0842633137479
493047500 0.813457210487 0.085413499586
493058000 0.813272343886 0.085452637133
493068500 0.813377885335 0.0844759218692
493079000 0.813474459546 0.0849905913706
493089500 0.814214282111 0.084922875687
493100000 0.814179216598 0.0848601715512
493110500 0.813185151662 0.0850220094203
493121000 0.813978153646 0.0853771150979
493131500 0.813365160319 0.0849642007953
493142000 0.812916904241 0.0851028722973
493152500 0.814333123789 0.0841771183153
493163000 0.813928502 0.085151077681
493173500 0.814145349352 0.0849718038577
493184000 0.81364147962 0.0861656716689
493194500 0.813543831064 0.084749887892
493205000 0.81341590983 0.0850800760901
493215500 0.813724151413 0.0843510399972
493226000 0.813619728784 0.0847212885811
493236500 0.815064250323 0.0846245327252
493247000 0.813710155906 0.0846850752552
493257500 0.812917831724 0.0842160707534
493268000 0.812562383537 0.0841251726322
493278500 0.813127456878 0.0841472751377
493289000 0.813380980875 0.0848418040967
493299500 0.813389652891 0.0847504881287
493310000 0.813128552065 0.0848454989902
493320500 0.813514005109 0.0845325721502
493331000 0.812976927399 0.0844258139957
493341500 0.812718830323 0.083687098315
493352000 0.811794924488 0.0843676459454
493362500 0.812476435903 0.0840578353145
493373000 0.812819012171 0.0846887668685
493383500 0.813392473167 0.0850307676624
493394000 0.813291067424 0.0847275136879
493404500 0.813161388708 0.0846581034996
493415000 0.813697581661 0.0846011857822
493425500 0.813556755305 0.085090406626
493436000 0.813286188458 0.0846091941969
493446500 0.812283834232 0.0845334434201
493457000 0.813679551715 0.0827814768118
493467500 0.812790087072 0.0841761004438
493478000 0.812885341735 0.0837765020196
493488500 0.812688618774 0.0850139444047
493499000 0.8127152458 0.0853191242
493509500 0.813204990002 0.0849996924936
493520000 0.814003837175 0.0828110838527
493530500 0.813269930386 0.0825333292164
493541000 0.813172292656 0.083325251692
493551500 0.813446567063 0.0859696092582
493562000 0.814620867655 0.0846031800561
493572500 0.810981746193 0.0850544362654
493583000 0.812445678591 0.0849757848908
493593500 0.810881926471 0.0849537316973
493604000 0.811922832562 0.0834970721688
493614500 0.813377310562 0.0836671361747
493625000 0.813200650549 0.0848970817074
493635500 0.813017876652 0.0852760985784
493646000 0.81624787728 0.0867266843096
493656500 0.813078991084 0.0829163698586
493667000 0.813551375798 0.0854735960245
493677500 0.813703745895 0.0850010489257
493688000 0.811885550569 0.0848182544061
493698500 0.811303420432 0.0821173092695
493709000 0.813344742746 0.0839332047745
493719500 0.813687432825 0.0849782988888
493730000 0.813405612895 0.0850186368014
493740500 0.812968165905 0.0848817228148
493751000 0.812043381082 0.0855772777642
493761500 0.813547891016 0.08447709527
493772000 0.811935000217 0.0833325403107
493782500 0.811212910254 0.0825813728829
493793000 0.811598073969 0.0848677992943
493803500 0.811201704757 0.0823786015092
493814000 0.812728041855 0.0827358360392
493824500 0.812988463439 0.083756959016
493835000 0.813884105465 0.0852447326986
493845500 0.8128723178 0.0851738952351
493856000 0.812482311265 0.0840437411962
493866500 0.81322268063 0.0841901731182
493877000 0.815284358012 0.0837939007303
493887500 0.813918898155 0.0834094389315
493898000 0.813630824293 0.0849689640423
493908500 0.812341831141 0.0849666919696
493919000 0.811647233672 0.084973814931
493929500 0.814070813189 0.0846681041965
493940000 0.812967485447 0.0853218468452
493950500 0.812244088408 0.084732572088
493961000 0.812543505 0.0859142828074
493971500 0.815517615047 0.0846455198727
493982000 0.819448373332 0.0862747407953
493992500 0.816630753349 0.0864076839859
494003000 0.817856383671 0.0879583450011
494013500 0.814038414982 0.0843478613639
494024000 0.813314074696 0.0835147603774
494034500 0.813156977224 0.0843708121112
494045000 0.812048248177 0.0839201401046
494055500 0.812357334834 0.0833552632128
494066000 0.813885553136 0.0837208077216
494076500 0.814161436974 0.0850199311862
494087000 0.814852612042 0.086493520403
494097500 0.812051155218 0.0866588643044
494108000 0.812901032595 0.0853323460423
494118500 0.817217341877 0.0897806086122
494129000 0.813506566303 0.0852101312763
494139500 0.813503370939 0.0840752359071
494150000 0.810562034006 0.0849041332495
494160500 0.810598161338 0.0794360510193
494171000 0.815359278653 0.0833531013044
494181500 0.810109264906 0.0874029148634
494192000 0.807039378381 0.0891612885586
494202500 0.824819597005 0.0808724402511
494213000 0.812440144708 0.0789706009297
494223500 0.810945085952 0.0828653514134
494234000 0.812747000295 0.085413997258
494244500 0.807500298804 0.0889262552969
494255000 0.819943342291 0.0805796535088
494265500 0.801609648987 0.0753321369077
494276000 0.813246395608 0.074309694665
494286500 0.807627155775 0.101899200746
494297000 0.817259981119 0.0791660735201
494307500 0.814230936039 0.0920294351801
494318000 0.812513583904 0.0846965741514
494328500 0.805519703527 0.0890068685088
494339000 0.826351785194 0.0849499308369
494349500 0.810512761803 0.0733028105214
494360000 0.815692190989 0.0811490016218
494370500 0.813965722159 0.0885302122957
494381000 0.831018501915 0.0775818150384
494391500 0.818340115666 0.0862539327211
494402000 0.83617879595 0.0715888833039
494412500 0.823277733312 0.0744939063571
494423000 0.806709095157 0.0780774236814
494433500 0.807141299594 0.076757249483
494444000 0.816858593704 0.0800661180963
494454500 0.811198717093 0.0846310145677
494465000 0.81614871996 0.0866048595386
494475500 0.812818579909 0.0904916727877
494486000 0.809460930223 0.0698460634016
494496500 0.815341226132 0.0902032278831
494507000 0.812667602864 0.0926784709655
494517500 0.821692714227 0.0860063798642
494528000 0.807477944274 0.0809542213778
494538500 0.801432661711 0.0823988527531
494549000 0.808433071826 0.0738239238191
494559500 0.812788013351 0.0794539989929
494570000 0.814989948085 0.0900892763884
494580500 0.819620126391 0.0765077840382
494591000 0.808201311471 0.0844419258795
494601500 0.815174475895 0.0678108849453
494612000 0.811781934443 0.0751224052356
494622500 0.811913563156 0.0936015474711
494633000 0.819373169518 0.0873227372469
494643500 0.817268775607 0.0861604308789
494654000 0.810516588351 0.0773589947331
494664500 0.812178073189 0.0933234346226
494675000 0.818488615384 0.0863338132137
494685500 0.813375004837 0.0787411502342
494696000 0.81103370562 0.0830928176954
494706500 0.814533942285 0.0952007998232
494717000 0.815792238501 0.0756583490967
494727500 0.803084153078 0.0934930553495
494738000 0.809323571015 0.0673054773337
494748500 0.810214277671 0.0900534712115
494759000 0.811670040966 0.0838799760648
494769500 0.818929484031 0.0876524871603
494780000 0.81501107498 0.0854654127624
494790500 0.816098317278 0.0863651973898
494801000 0.813931523485 0.085799577978
494811500 0.814617473412 0.0778398805225
494822000 0.81159031443 0.0805619499637
494832500 0.814331798216 0.0772104995426
494843000 0.813072851053 0.0834575014269
494853500 0.811478904689 0.084698398669
494864000 0.816378996582 0.078687655443
494874500 0.81247167645 0.0842203531377
494885000 0.812307965324 0.0848558459982
494895500 0.812629490185 0.0839004865267
494906000 0.812015095439 0.0824626985669
494916500 0.81513619925 0.0849922668414
494927000 0.813309881511 0.0839401667859
494937500 0.811361635687 0.0829010174284
494948000 0.81544373373 0.0822295887735
494958500 0.816110466397 0.0835790425721
494969000 0.812783032458 0.0839431581734
494979500 0.81388035417 0.0840565896893
494990000 0.814089666619 0.083057927547
495000500 0.814448465556 0.0832709604231
495011000 0.814646295639 0.0839921127779
495021500 0.814252964252 0.0843935864763
495032000 0.81545565206 0.0836941082388
495042500 0.813883340604 0.0836223719947
495053000 0.814324581171 0.0848523165224
495063500 0.814417380957 0.0842120856559
495074000 0.815065816619 0.0839274120876
495084500 0.816124503051 0.0836800156716
495095000 0.814195343929 0.0823672623473
495105500 0.814299530245 0.0824679151148
495116000 0.815926419032 0.0840852684913
495126500 0.815191901757 0.0825818038701
495137000 0.815262875266 0.0857125476488
495147500 0.815506507129 0.0834918180534
495158000 0.814575097687 0.0843856154268
495168500 0.815538773374 0.0833136895737
495179000 0.81432683222 0.084144725503
495189500 0.813677332097 0.0827209479325
495200000 0.815745414248 0.0817738969628
495210500 0.816739355768 0.0822296792224
495221000 0.81573653675 0.0835420938925
495231500 0.813193647517 0.0844908643484
495242000 0.814174967785 0.0836013849643
495252500 0.812104949485 0.0843815261311
495263000 0.814723041106 0.0835341463923
495273500 0.813265381869 0.0847516216813
495284000 0.816262678224 0.0842396541908
495294500 0.814286026011 0.0830035212649
495305000 0.815196413074 0.0843798261369
495315500 0.814491735095 0.0864270415428
495326000 0.814705649325 0.0833997911924
495336500 0.812987792889 0.0834460991054
495347000 0.815859504473 0.0855257072506
495357500 0.814772669214 0.0833413064193
495368000 0.814211419591 0.086263440852
495378500 0.81649892872 0.0848484207544
495389000 0.812749059027 0.0846389948392
495399500 0.815507007681 0.0865726407603
495410000 0.814915661032 0.0836461030201
495420500 0.815343533152 0.082734423026
495431000 0.816068499381 0.0825586010301
495441500 0.816115733302 0.0831817120663
495452000 0.81405172788 0.0819398483512
495462500 0.815026922461 0.0836983139865
495473000 0.814175367643 0.0833482003553
495483500 0.816162357178 0.0841394612554
495494000 0.816492203973 0.0824030778088
495504500 0.814543482404 0.0843163568855
495515000 0.814800874314 0.0840922980327
495525500 0.814503216087 0.0849098192881
495536000 0.815324366858 0.0838500755157
495546500 0.814710000452 0.0838061431599
495557000 0.815061730878 0.0837856708846
495567500 0.814786916625 0.0839061847941
495578000 0.814757495978 0.0841128217925
495588500 0.815218632457 0.0835493055456
495599000 0.815275858954 0.0833821261519
495609500 0.815433056662 0.0843807948434
495620000 0.81504953965 0.0837520748893
495630500 0.815204775001 0.0838496874305
495641000 0.815299351428 0.0844435503489
495651500 0.814857803002 0.0842364667297
495662000 0.815099287492 0.0838127801654
495672500 0.814741261875 0.0836701482342
495683000 0.815073216535 0.0828776860754
495693500 0.815305880235 0.0840384908397
495704000 0.816039696688 0.0841741638772
495714500 0.816252488427 0.0839102839981
495725000 0.816064646926 0.0831455734501
495735500 0.815976034064 0.0830555602591
495746000 0.815763322397 0.0827630831928
495756500 0.815478316549 0.0830483275325
495767000 0.815191476762 0.0836508622097
495777500 0.81547732451 0.0836428115296
495788000 0.81464288149 0.0839751864215
495798500 0.815762561072 0.0834680533497
495809000 0.814505397486 0.0839413869787
495819500 0.815634509254 0.083247282681
495830000 0.815755410179 0.0830300878371
495840500 0.815024047949 0.0830165551075
495851000 0.815706093131 0.0835666276162
495861500 0.815274612166 0.0836183152058
495872000 0.815237943135 0.0846324776699
495882500 0.815132979847 0.0848678036723
495893000 0.816323712092 0.0844305137816
495903500 0.815349991596 0.0841285242399
495914000 0.814797778487 0.083200051061
495924500 0.814608135125 0.0833250876526
495935000 0.815846092602 0.0829985191676
495945500 0.815750988236 0.0829088442079
495956000 0.815695270366 0.0832926352293
495966500 0.815457643359 0.0840078626158
495977000 0.815463802782 0.0838570108152
495987500 0.815316970456 0.0834408336935
495998000 0.815021293287 0.0838214108632
496008500 0.815738455667 0.0833139128912
496019000 0.815106923281 0.082982326298
496029500 0.814933098376 0.0828183871581
496040000 0.8158794509 0.0838565457921
496050500 0.815574978315 0.0830632150387
496061000 0.816351996612 0.0833917196085
496071500 0.81578070662 0.0837653515366
496082000 0.816432121685 0.0838513034638
496092500 0.814900503077 0.0838726310827
496103000 0.816193570782 0.0836694483963
496113500 0.816428469063 0.0837377527676
496124000 0.815866390922 0.0838199238455
496134500 0.815789588631 0.083888421347
496145000 0.815717712926 0.0838095543061
496155500 0.8161639668 0.0839587880088
496166000 0.81466386171 0.0830228453659
496176500 0.815784152233 0.0840205141941
496187000 0.815684204959 0.0838855840795
496197500 0.816167626532 0.0835526628693
496208000 0.817820136804 0.0825433746135
496218500 0.815838594953 0.0838434045257
496229000 0.815586009096 0.0834981387769
496239500 0.816003023145 0.0833046316285
496250000 0.81627697658 0.0837342617191
496260500 0.816850259092 0.0833138566423
496271000 0.816409144783 0.0834289434825
496281500 0.816384972287 0.0832181553256
496292000 0.815937827999 0.0839498963441
496302500 0.815794582824 0.0834299362173
496313000 0.815681200272 0.0832218050576
496323500 0.815486805103 0.0847906586604
496334000 0.816313025968 0.0841478760591
496344500 0.816686845953 0.0841758203034
496355000 0.81657718703 0.0836678093714
496365500 0.816430152952 0.083122321759
496376000 0.816152723388 0.0831782212643
496386500 0.817077345967 0.0832191340922
496397000 0.818815594322 0.0824665592555
496407500 0.818672317144 0.082382547333
496418000 0.817545996356 0.0829664929092
496428500 0.816257501373 0.083155982512
496439000 0.81656979715 0.083608017757
496449500 0.815995490473 0.0832510316103
496460000 0.81596987029 0.0833055185076
496470500 0.816509476719 0.0831691674022
496481000 0.816430250631 0.0837662772919
496491500 0.815627669548 0.0834012755854
496502000 0.816065630005 0.0831167223976
496512500 0.815750824049 0.0828210450277
496523000 0.816234709214 0.0829219496896
496533500 0.816271742737 0.08287439122
496544000 0.816707167599 0.0826946452228
496554500 0.816776649305 0.0824865596779
496565000 0.817745368883 0.0834207581387
496575500 0.816495551568 0.08317341825
496586000 0.81699255043 0.0832445687276
496596500 0.816181975106 0.0830489296494
496607000 0.815954128035 0.0834164790919
496617500 0.816692056311 0.0832632814428
496628000 0.816559662005 0.083446457366
496638500 0.816608832377 0.0843345658308
496649000 0.816832448071 0.0840281962554
496659500 0.817208749004 0.0828711409962
496670000 0.816449298265 0.0830479968509
496680500 0.816868830195 0.083417613342
496691000 0.815931884032 0.0829986601533
496701500 0.816203979625 0.0832156330288
496712000 0.816553010085 0.0832538052741
496722500 0.815976674521 0.0832005524944
496733000 0.816266674136 0.0831351649523
496743500 0.817213414853 0.0833772765176
496754000 0.816324660317 0.0839258041889
496764500 0.815205122072 0.0837679026552
496775000 0.816795072307 0.0847317779174
496785500 0.816269206842 0.0843548910214
496796000 0.81607230406 0.0842542120957
496806500 0.816882430262 0.0830837225388
496817000 0.817213205744 0.083465594014
496827500 0.816678126373 0.0820159544696
496838000 0.816482689024 0.0821773897094
496848500 0.817035668838 0.0826941245343
496859000 0.816674813451 0.0820124664146
496869500 0.81661282111 0.0823168760218
496880000 0.816864251976 0.0821364768079
496890500 0.816243479553 0.0819719319255
496901000 0.816465462964 0.0819951463276
496911500 0.817007993472 0.0824655020761
496922000 0.817211989838 0.0828040008279
496932500 0.817407259258 0.0823665717823
496943000 0.816780537922 0.0831041229698
496953500 0.817190778843 0.0827672156398
496964000 0.817397637123 0.0833793636766
496974500 0.817058056785 0.0830088830838
496985000 0.817424501036 0.0829463864449
496995500 0.816940218124 0.0834621718516
497006000 0.817592767597 0.0829771840421
497016500 0.817298782684 0.0829319749339
497027000 0.817449187679 0.0829379831776
497037500 0.816331769719 0.0829417083826
497048000 0.820629467315 0.0851916195173
497058500 0.816728007338 0.0824539432542
497069000 0.817075922256 0.0829606441254
497079500 0.817210262772 0.0822424440261
497090000 0.818113736358 0.0823415614105
497100500 0.818222707576 0.082514589665
497111000 0.817866994146 0.0832769727396
497121500 0.817889927421 0.0830528628742
497132000 0.8180118616 0.0828126036833
497142500 0.81779679142 0.0820322139912
497153000 0.817642051282 0.0817865141539
497163500 0.817168697997 0.0828461803593
497174000 0.817389640777 0.0833298802493
497184500 0.817257255305 0.0834464728783
497195000 0.817640071692 0.08247068653
497205500 0.818189202345 0.0822647524657
497216000 0.817945859007 0.082118734833
497226500 0.818145064371 0.0820198075641
497237000 0.814304796033 0.0850981846165
497247500 0.817559935444 0.0814728230449
497258000 0.819484128685 0.0823517979202
497268500 0.817907791607 0.0823598203339
497279000 0.817768672508 0.0825259524532
497289500 0.817677806397 0.0827183178386
497300000 0.817850360931 0.082351213867
497310500 0.817740452509 0.0828106469473
497321000 0.818291197572 0.0828520422815
497331500 0.81770770445 0.0821949755489
497342000 0.81784548525 0.0827688084688
497352500 0.817065094014 0.0822896196397
497363000 0.817734815627 0.0821781019399
497373500 0.817751928194 0.0823295499608
497384000 0.817942801424 0.0825068531611
497394500 0.8183699282 0.083038405021
497405000 0.817736319343 0.0830910765102
497415500 0.817800268723 0.0827110689868
497426000 0.818242324424 0.0824905026843
497436500 0.818617751459 0.0821308800253
497447000 0.818433162208 0.0830783985126
497457500 0.81839893781 0.0825587287381
497468000 0.817491430191 0.082899344319
497478500 0.81792581478 0.0824506247172
497489000 0.817530682587 0.0822863686503
497499500 0.817780129544 0.0823156161509
497510000 0.81784191283 0.0826194112407
497520500 0.818650355668 0.0827080018581
497531000 0.818672968394 0.0820140781903
497541500 0.81824143995 0.0826296989062
497552000 0.818753031281 0.0824441540574
497562500 0.817471061165 0.0833961177
497573000 0.817499062291 0.0824493513349
497583500 0.818077282592 0.082898016718
497594000 0.817823807593 0.0827365259027
497604500 0.817965469241 0.082675083557
497615000 0.818655344183 0.0825621046875
497625500 0.818610546429 0.0827997037398
497636000 0.818134142776 0.0829160184423
497646500 0.818397796213 0.082616278887
497657000 0.81854294183 0.0828150058596
497667500 0.818723901383 0.082554574172
497678000 0.819153877907 0.0825551098674
497688500 0.818298027675 0.0829531507758
497699000 0.818799451174 0.0824975195993
497709500 0.818390801779 0.082210442843
497720000 0.818227375417 0.0820193957244
497730500 0.817954454636 0.0821646762444
497741000 0.817695466156 0.0818783304902
497751500 0.818597347818 0.082538687867
497762000 0.818372363548 0.0821987758859
497772500 0.818300687791 0.0826553821854
497783000 0.818269355542 0.0825208363748
497793500 0.817803777702 0.0822644908573
497804000 0.818043815553 0.0828316662432
497814500 0.818156045575 0.0822923002472
497825000 0.81795974534 0.0818320642643
497835500 0.81847799525 0.082206545457
497846000 0.818529497858 0.0815277797103
497856500 0.818529788036 0.0819204054518
497867000 0.818463908954 0.0825994603795
497877500 0.818289034276 0.0822153426787
497888000 0.819292192623 0.0819938857305
497898500 0.818992884015 0.0823736273399
497909000 0.818955068347 0.0817830044037
497919500 0.818563622659 0.0817092582003
497930000 0.818890072641 0.0816458848472
497940500 0.818659392812 0.0818169038545
497951000 0.819162706748 0.081937964201
497961500 0.819371955029 0.0817913924131
497972000 0.819334791616 0.081697948908
497982500 0.819226559487 0.0818756446836
497993000 0.818712600277 0.0816649115552
498003500 0.81874167731 0.081624716576
498014000 0.818696982542 0.0821208187575
498024500 0.818464579726 0.0815472908761
498035000 0.819994764696 0.0811857331556
498045500 0.819087149003 0.0816049440594
498056000 0.81902788756 0.082175435306
498066500 0.818995378746 0.0828639549334
498077000 0.818228739175 0.0823777025167
498087500 0.81881263087 0.0824566257993
498098000 0.818675675501 0.0822861652303
498108500 0.818477279241 0.0819423337952
498119000 0.819041720568 0.0825171241774
498129500 0.819278689678 0.0821677637078
498140000 0.81878389464 0.0819559518311
498150500 0.818316069239 0.082019002923
498161000 0.819319165341 0.08176313647
498171500 0.818743415484 0.0817258837292
498182000 0.819303205505 0.0820134684018
498192500 0.818628937214 0.0823460240848
498203000 0.818564517005 0.082639368065
498213500 0.819089392378 0.0825781202194
498224000 0.818411672166 0.082010261
498234500 0.818782741824 0.0819032669216
498245000 0.81926864427 0.0813842401582
498255500 0.819028927049 0.0813756001529
498266000 0.819257458502 0.0814954809389
498276500 0.818081599463 0.0810179742954
498287000 0.817523365795 0.0794827900552
498297500 0.819763218908 0.078865604874
498308000 0.817803826703 0.0839719077541
498318500 0.818150394082 0.0943201125078
498329000 0.820608344086 0.0922055818422
498339500 0.81610018609 0.0948932660679
498350000 0.818392742296 0.0848200829571
498360500 0.81906557348 0.0825883533776
498371000 0.818703248571 0.0827232569385
498381500 0.818956038663 0.0813940002458
498392000 0.819592404186 0.0815872586178
498402500 0.819245467434 0.0819155094592
498413000 0.819991739785 0.0825681454518
498423500 0.819178315262 0.0832189090145
498434000 0.817546734951 0.0812773630362
498444500 0.818778445528 0.0826159341118
498455000 0.819447237291 0.0811019144842
498465500 0.818724431244 0.0815794757128
498476000 0.820230006688 0.079826121562
498486500 0.818887650292 0.0814568258072
498497000 0.819590667629 0.0805312407624
498507500 0.823116312096 0.0806080830168
498518000 0.822491772392 0.0816569418957
498528500 0.821820252119 0.0807341024421
498539000 0.818953487078 0.0801282523896
498549500 0.819614343828 0.0813806265405
498560000 0.818402750547 0.0818684572211
498570500 0.816189300978 0.0801730784787
498581000 0.821700144079 0.0817348337073
498591500 0.820945451802 0.0809084285572
498602000 0.818806008778 0.0834796423832
498612500 0.818851681262 0.0818391879115
498623000 0.822087570084 0.0862426843425
498633500 0.818641814461 0.0804350006935
498644000 0.818831905376 0.0795793091943
498654500 0.817218472426 0.082653533835
498665000 0.819844611136 0.0831367209175
498675500 0.821376565377 0.0810883028488
498686000 0.818319368542 0.0809057732671
498696500 0.821523367666 0.0860772952797
498707000 0.821997543604 0.0819048963155
498717500 0.820833912671 0.0811262705351
498728000 0.821885824052 0.0814773158363
498738500 0.819733045798 0.082471262156
498749000 0.823461076169 0.0826804963874
498759500 0.819302587355 0.0815121616904
498770000 0.820423278571 0.0796818568706
498780500 0.819866701936 0.086206865131
498791000 0.819870379463 0.08498413443
498801500 0.81854730777 0.0830933678509
498812000 0.818134296718 0.080572873168
498822500 0.819893532323 0.0811530500873
498833000 0.818637565817 0.0823233949551
498843500 0.818277066092 0.0812734801313
498854000 0.820142215858 0.0813022351579
498864500 0.820114949004 0.0814212242412
498875000 0.821832657708 0.0825412395415
498885500 0.818273688291 0.0795798607528
498896000 0.820512169597 0.0823510898719
498906500 0.819924750534 0.0813775253091
498917000 0.820737213877 0.081310933802
498927500 0.820333831767 0.0810358043009
498938000 0.820775054548 0.0815828695729
498948500 0.820166061639 0.0822325681855
498959000 0.819893195895 0.0809824548145
498969500 0.819901876906 0.0812522664567
498980000 0.821208313149 0.0803029304017
498990500 0.820963281774 0.0822855323217
499001000 0.821007956833 0.0820061848935
499011500 0.821930452473 0.0803156886883
499022000 0.822069072521 0.0815631490534
499032500 0.823457524557 0.08130793914
499043000 0.820454164803 0.0811923943199
499053500 0.820466424416 0.0789605497662
499064000 0.821460454687 0.0817287993533
499074500 0.820744281044 0.0821367595877
499085000 0.822712929696 0.0823713117023
499095500 0.8225367173 0.0822302539501
499106000 0.819987050208 0.0821579329199
499116500 0.823006170539 0.0877528740618
499127000 0.819655284054 0.0834534055517
499137500 0.821903956733 0.0804868485366
499148000 0.821963539243 0.0809791304494
499158500 0.82023417028 0.0834421545253
499169000 0.819895298472 0.0825299905765
499179500 0.820594184637 0.0776225423546
499190000 0.828910545535 0.0733376457986
499200500 0.822341995855 0.0851920837627
499211000 0.815968939245 0.0816217086923
499221500 0.811955200188 0.0753633449067
499232000 0.810612286464 0.0855836438968
499242500 0.817176459803 0.076296347108
499253000 0.82043854056 0.0856417621996
499263500 0.813760341683 0.0859495213995
499274000 0.82762825397 0.0771585342323
499284500 0.822286180706 0.073696321892
499295000 0.833355863902 0.0829999589772
499305500 0.822474842747 0.0767369437539
499316000 0.818596433883 0.0742619281631
499326500 0.831383083631 0.0774923538959
499337000 0.828954959991 0.0630827974437
499347500 0.820665958144 0.0616565375449
499358000 0.822323012907 0.0982485339292
499368500 0.828018260123 0.0787418637166
499379000 0.816166091801 0.0866425730998
499389500 0.81730968867 0.079340928012
499400000 0.815957431086 0.0866027902451
499410500 0.82903212162 0.0708560558103
499421000 0.826688463623 0.0864529836977
499431500 0.818641169859 0.0855419311631
499442000 0.828359661702 0.0826357069155
499452500 0.814601159654 0.0871546618903
499463000 0.82216725453 0.0769996063011
499473500 0.815667566174 0.079412115877
499484000 0.830913014133 0.0850421119797
499494500 0.816396735179 0.0665994573651
499505000 0.804652058091 0.0840083820443
499515500 0.818943848556 0.0805419193348
499526000 0.823717113379 0.0880865499681
499536500 0.822943153845 0.0808846465895
499547000 0.821559990572 0.0890951691827
499557500 0.829962605801 0.0788256592481
499568000 0.815506450714 0.0658136338401
499578500 0.822620574541 0.0940138388533
499589000 0.827738157652 0.0763649230919
499599500 0.806144400232 0.074324464938
499610000 0.821696003418 0.0818324667305
499620500 0.825460187349 0.087325033046
499631000 0.821564330071 0.0828741828334
499641500 0.822921153434 0.0778253422808
499652000 0.813187604554 0.0879888817701
499662500 0.824700703146 0.0906596669493
499673000 0.814250062263 0.0724075793754
499683500 0.824959964936 0.0896809733985
499694000 0.821598892547 0.0790679802381
499704500 0.813522180407 0.0845095227838
499715000 0.822646148669 0.0712167605393
499725500 0.821110223645 0.0865475310408
499736000 0.816918938865 0.0818538078793
499746500 0.825239213782 0.0745631537286
499757000 0.813858097585 0.0879570876078
499767500 0.811995066538 0.0732700938082
499778000 0.816809755467 0.0842244751849
499788500 0.817789382724 0.0827290865458
499799000 0.821378789839 0.0825940248964
499809500 0.821122889383 0.0826167328113
499820000 0.824233603279 0.0799558113022
499830500 0.819814427061 0.0760111287473
499841000 0.81713513409 0.0814434985969
499851500 0.824913679848 0.0815294620106
499862000 0.822778731272 0.0812811244413
499872500 0.821638618088 0.080623983099
499883000 0.820888902394 0.0769889931949
499893500 0.822453845969 0.0801117452303
499904000 0.820511090951 0.0799132954929
499914500 0.822013435477 0.0810440348865
499925000 0.82149908813 0.0793843950443
499935500 0.822744633289 0.078857357389
499946000 0.822823998664 0.0804621733697
499956500 0.821600260285 0.0794806519361
499967000 0.822416577718 0.0797209215379
499977500 0.821891463613 0.0796295437518
499988000 0.821760907376 0.079875846477
499998500 0.821941049367 0.0806476752132
500009000 0.821047845924 0.0801481842757
500019500 0.821309331943 0.080298823611
500030000 0.821969464792 0.0803304747052
500040500 0.822002930113 0.0801122133941
500051000 0.821906063921 0.0807314115085
500061500 0.82264781218 0.080597551086
500072000 0.822654956652 0.0804946522635
500082500 0.823933381159 0.0814731831679
500093000 0.822553835149 0.0795611572015
500103500 0.822632159526 0.0799286750028
500114000 0.822177212796 0.0790487808145
500124500 0.823495311582 0.08040406661
500135000 0.821936836678 0.0804022462933
500145500 0.822591838008 0.0806993098292
500156000 0.822714834051 0.0794506697664
500166500 0.823629856136 0.0807882178418
500177000 0.821969897595 0.0801540871261
500187500 0.821785889981 0.0809557640636
500198000 0.821735105293 0.0811979875714
500208500 0.822166857124 0.0816334237799
500219000 0.821368183753 0.0795156217783
500229500 0.823090915867 0.077760346157
500240000 0.82315950345 0.0788413307037
500250500 0.821068910717 0.0797835504594
500261000 0.821769324245 0.0803034310471
500271500 0.823085771468 0.0818917197023
500282000 0.822472347167 0.080048460374
500292500 0.820723000705 0.0804024244407
500303000 0.82332463647 0.0793163251531
500313500 0.820489519954 0.0808346119637
500324000 0.823367466098 0.0797677761353
500334500 0.823109848215 0.0816221057512
500345000 0.823730600464 0.0824629933065
500355500 0.822555597772 0.0779355002299
500366000 0.823578332092 0.0787072149937
500376500 0.823880935766 0.0796249426063
500387000 0.822717133995 0.0798611668246
500397500 0.822162763397 0.0775221932684
500408000 0.821356465762 0.0783180448573
500418500 0.823616315825 0.0792610655673
500429000 0.821662544328 0.0810537884173
500439500 0.822964479864 0.0795145258223
500450000 0.822515765597 0.0783428863969
500460500 0.820938970875 0.0786688297234
500471000 0.823369310374 0.0790928386821
500481500 0.822467052602 0.0784386921118
500492000 0.821611242765 0.0804024813677
500502500 0.822545359141 0.0796994476886
500513000 0.822780472903 0.0799654241717
500523500 0.823204331644 0.0805245306725
500534000 0.823636597729 0.0810895398619
500544500 0.822839149536 0.0798461934014
500555000 0.823167558841 0.0795848014145
500565500 0.822702098399 0.0802089645947
500576000 0.822378246324 0.0795458661084
500586500 0.823261815142 0.0793450572786
500597000 0.822233741002 0.0798184694784
500607500 0.82265133689 0.0796717726126
500618000 0.822804786931 0.0790600605844
500628500 0.823679767258 0.0796954627322
500639000 0.823106214969 0.0798955206046
500649500 0.823173476755 0.080152636687
500660000 0.823553218158 0.0795539091857
500670500 0.822452379602 0.0794054958396
500681000 0.822555640457 0.0789964082375
500691500 0.822169827767 0.0789917484631
500702000 0.822804902378 0.0797629865625
500712500 0.822781282517 0.0800030249152
500723000 0.824000310873 0.0799003716927
500733500 0.823761236912 0.0794371305218
500744000 0.824499658059 0.0795609785899
500754500 0.823296422817 0.0795820005222
500765000 0.823288894297 0.0789781148509
500775500 0.823115045209 0.078562627294
500786000 0.82301798301 0.0792609788423
500796500 0.82271554843 0.0791343824476
500807000 0.823298415361 0.0786124799092
500817500 0.824131364115 0.0797065315483
500828000 0.823454133191 0.0793168132247
500838500 0.823781385802 0.0796116802047
500849000 0.822947578817 0.0792153869008
500859500 0.823596664371 0.0793344962209
500870000 0.823592502847 0.0790840785907
500880500 0.823487458044 0.0799100252238
500891000 0.823746186543 0.0797179833466
500901500 0.823936579801 0.0793112258885
500912000 0.823958766261 0.079421814897
500922500 0.823996906211 0.079149019782
500933000 0.823539055197 0.0785550210959
500943500 0.823358142726 0.0784087193789
500954000 0.824137789939 0.0793403609435
500964500 0.823085043317 0.0795501108121
500975000 0.824388445807 0.0791731665484
500985500 0.823779855345 0.0787118467675
500996000 0.824083765738 0.0788086615587
501006500 0.823141724057 0.07878422041
501017000 0.823698561229 0.0793563091754
501027500 0.823651116035 0.0781971453261
501038000 0.823863663206 0.0802453525055
501048500 0.824424755601 0.079559489354
501059000 0.824394343187 0.0793247979031
501069500 0.823513030308 0.0794365763405
501080000 0.823006378593 0.0784555695068
501090500 0.822429663197 0.0788772577766
501101000 0.823572502057 0.0794798025356
501111500 0.824617216659 0.0790193387497
501122000 0.82461205295 0.0789858170227
501132500 0.823738410608 0.0794670942745
501143000 0.823698453067 0.0789666959135
501153500 0.824566457991 0.0790978006255
501164000 0.824524693239 0.079254079091
501174500 0.82473921557 0.0791023730749
501185000 0.824782269501 0.0788949439164
501195500 0.824437129681 0.0792144891691
501206000 0.824115185392 0.0785909724341
501216500 0.82467788109 0.0794093453367
501227000 0.823575444505 0.0789913390119
501237500 0.823529060095 0.0789062061671
501248000 0.824226804524 0.0791614374572
501258500 0.824818593802 0.0788714055088
501269000 0.823777620759 0.0790231643306
501279500 0.824949899802 0.0794812717162
501290000 0.825425662934 0.078347357152
501300500 0.824905653823 0.0782950725486
501311000 0.824078338731 0.0787865401839
501321500 0.824312053373 0.0782680150069
501332000 0.824208783404 0.0785123111855
501342500 0.823484250453 0.0785064261223
501353000 0.824086405878 0.07913705664
501363500 0.824559353799 0.0787003608272
501374000 0.825743225789 0.0784767389828
501384500 0.824903077969 0.0784990322759
501395000 0.825931229722 0.0786918667819
501405500 0.824771229608 0.0779049592394
501416000 0.824839652253 0.0786995306362
501426500 0.82456918186 0.0771117508919
501437000 0.823873636752 0.0778686589461
501447500 0.823805189785 0.0776339935083
501458000 0.825232788554 0.0784843195367
501468500 0.823551398366 0.0787248768234
501479000 0.824893444873 0.0786083218819
501489500 0.82508498811 0.0785537401164
501500000 0.824780949109 0.0792068853835
501510500 0.82497377527 0.0785509326087
501521000 0.824962845062 0.0787033315156
501531500 0.824845546627 0.0788201448718
501542000 0.825373657772 0.0790760752156
501552500 0.825435677064 0.0787806392786
501563000 0.825744330037 0.0786320649293
501573500 0.825550453484 0.078581763679
501584000 0.825640131799 0.0784233835049
501594500 0.824386270271 0.0784982956247
501605000 0.824901269881 0.0783825588072
501615500 0.824930596536 0.0774882053152
501626000 0.824434367337 0.0785082669409
501636500 0.824515882082 0.0784855349608
501647000 0.825002543126 0.0777513488207
501657500 0.82424021314 0.0777085431211
501668000 0.824897733395 0.078611869924
501678500 0.824665558407 0.079718569671
501689000 0.82481393884 0.0807129294614
501699500 0.825251323861 0.0808413948619
501710000 0.825338874624 0.080106003804
501720500 0.825535178951 0.0804116924929
501731000 0.824822209061 0.0787326396208
501741500 0.825296101163 0.0779288407736
501752000 0.825318834953 0.0785056400841
501762500 0.82499956524 0.0784439369513
501773000 0.825511990312 0.078288532234
501783500 0.825123633742 0.0784222083562
501794000 0.825826572543 0.0774143150427
501804500 0.825192619953 0.0777364664382
501815000 0.825403305741 0.0780582766302
501825500 0.825830046233 0.078397013725
501836000 0.826692976455 0.0787461489145
501846500 0.82593291149 0.0789517623504
501857000 0.826243397171 0.0777604346263
501867500 0.825713302306 0.0782600645153
501878000 0.826033447773 0.0776699812878
501888500 0.824715577363 0.0781995825351
501899000 0.825394695873 0.0775399397217
501909500 0.82426396968 0.0784055463852
501920000 0.824790018776 0.0777933430244
501930500 0.825099191804 0.07844417325
501941000 0.826038379766 0.0780230821918
501951500 0.826258930213 0.0781414112688
501962000 0.826331816753 0.077901019491
501972500 0.82536913412 0.0780418723273
501983000 0.825478372814 0.0779569160331
501993500 0.825650315653 0.0782203251254
502004000 0.82531180662 0.0775438957911
502014500 0.826074692588 0.0779814360187
502025000 0.825463908934 0.0778032994084
502035500 0.824327161751 0.0785082530499
502046000 0.825495791601 0.0788111941886
502056500 0.826467253053 0.0782164310119
502067000 0.826584930138 0.0777261174639
502077500 0.826277763018 0.077634037794
502088000 0.825979438094 0.077574881097
502098500 0.825699889088 0.0772736381881
502109000 0.825850547378 0.0774162976562
502119500 0.825735449727 0.076800304499
502130000 0.825862149551 0.0782327533213
502140500 0.826408626713 0.0775573373361
502151000 0.824890366578 0.077281513147
502161500 0.825227713989 0.0774086412671
502172000 0.825184184574 0.0771908714668
502182500 0.82523614274 0.0778934151911
502193000 0.825426226319 0.0772269101435
502203500 0.826520334884 0.0776197167344
502214000 0.826523636878 0.0773557792712
502224500 0.826772939132 0.077155426852
502235000 0.826834263635 0.0777842146116
502245500 0.826265989786 0.0779133041823
502256000 0.826444886799 0.0775159635367
502266500 0.825972526247 0.0780118420703
502277000 0.826311126017 0.077563217631
502287500 0.825331020596 0.0772661699259
502298000 0.824207837557 0.0784916704946
502308500 0.826063556293 0.0778144838723
502319000 0.82624334741 0.0771669061372
502329500 0.826368836811 0.0775151522542
502340000 0.826646768739 0.0781587203649
502350500 0.826298309639 0.0776126306434
502361000 0.826651853039 0.0775781248252
502371500 0.826803670142 0.0776112831104
502382000 0.826240382283 0.0783202992573
502392500 0.826072343051 0.0774852777647
502403000 0.826145442176 0.0767391495215
502413500 0.82599084035 0.076690034781
502424000 0.825885102493 0.0775786895687
502434500 0.826428014758 0.0777708572771
502445000 0.826214611812 0.0778783791587
502455500 0.82624322123 0.0774500589198
502466000 0.825999463544 0.0775103380071
502476500 0.826041893528 0.0767555616616
502487000 0.826636664743 0.0767290864946
502497500 0.826610311896 0.076729782648
502508000 0.826172881525 0.077055944197
502518500 0.825795096405 0.076551745927
502529000 0.825974930434 0.0771928798578
502539500 0.825850262044 0.0772998860469
502550000 0.826105339045 0.077667041928
502560500 0.82616935711 0.077200310266
502571000 0.826022401303 0.0769569269081
502581500 0.826080357639 0.0773428394344
502592000 0.825993314958 0.0761526423759
502602500 0.82606476025 0.0769179158358
502613000 0.826126566885 0.0769598514783
502623500 0.826114492699 0.0770155202295
502634000 0.827491876523 0.0763790669224
502644500 0.826952128815 0.0766491160907
502655000 0.825915718994 0.0757646269186
502665500 0.826397520075 0.0758664098848
502676000 0.826449661693 0.076003943627
502686500 0.827463309074 0.0767835805364
502697000 0.826733120415 0.0762181968212
502707500 0.827325430197 0.0763041215574
502718000 0.827374182831 0.0769841684762
502728500 0.826782856788 0.0770187342916
502739000 0.82676967786 0.0771500312463
502749500 0.826976042986 0.0764808279494
502760000 0.826268232108 0.0765737313252
502770500 0.826859962354 0.076191605184
502781000 0.827439220766 0.07706107896
502791500 0.827527115338 0.0761769217737
502802000 0.827152792192 0.0760662667384
502812500 0.826499181314 0.0764416505551
502823000 0.826936758983 0.076928464614
502833500 0.827524011373 0.0769099780204
502844000 0.827807998214 0.0763169563528
502854500 0.827678604864 0.0763020188198
502865000 0.826983184748 0.075880822214
502875500 0.827086510558 0.0766813654383
502886000 0.82771994127 0.0761954339335
502896500 0.827276903135 0.0765882026472
502907000 0.827107633953 0.0764517100545
502917500 0.827254207041 0.0766071185878
502928000 0.827198567476 0.0762722466723
502938500 0.827455292126 0.0753742219514
502949000 0.827448016448 0.0765500729582
502959500 0.827704384775 0.0764257616365
502970000 0.828348454988 0.0758353366808
502980500 0.8277874512 0.0753872844728
502991000 0.828000128229 0.0754697461078
503001500 0.82876479943 0.0754181274528
503012000 0.827955598519 0.0753379585856
503022500 0.827942877398 0.0757320747402
503033000 0.828102782698 0.0753118745364
503043500 0.827574407803 0.0744132865848
503054000 0.827808384128 0.0763276098913
503064500 0.827360527324 0.0756177831563
503075000 0.82821060619 0.0768296401975
503085500 0.827800398296 0.0757887809184
503096000 0.828408037373 0.0753730496681
503106500 0.827617725568 0.074475708842
503117000 0.827849482755 0.0757415360647
503127500 0.828606507473 0.0738541438252
503138000 0.826533711314 0.0751671540298
503148500 0.82721708552 0.0765578903483
503159000 0.827347292348 0.0757123230084
503169500 0.830179515171 0.0774547262391
503180000 0.827507545455 0.0758495639144
503190500 0.827363010633 0.0744875200691
503201000 0.827539615916 0.0760853871677
503211500 0.82679510628 0.0776295759313
503222000 0.825826102863 0.0813672059805
503232500 0.828060526326 0.0748276860296
503243000 0.831897372885 0.0772907725056
503253500 0.826398292267 0.0744193619199
503264000 0.829509542349 0.0809822091832
503274500 0.827786225466 0.0725768280403
503285000 0.826817156327 0.0723483909387
503295500 0.834365278312 0.0693481323898
503306000 0.832759437694 0.0739416031539
503316500 0.830165598561 0.0670196246944
503327000 0.827858159765 0.0705169834566
503337500 0.829488390775 0.0758023557822
503348000 0.823936949992 0.0699530207871
503358500 0.824031328534 0.0747712164789
503369000 0.828491868149 0.0687163941702
503379500 0.829191593923 0.0695326086821
503390000 0.830464130249 0.07809942613
503400500 0.826850794245 0.0747624826243
503411000 0.834268045784 0.0724191071354
503421500 0.829220749879 0.0829870470384
503432000 0.822397502685 0.0645294229317
503442500 0.826261904307 0.0814937881021
503453000 0.829146479774 0.0708928374762
503463500 0.828054701145 0.0720587303179
503474000 0.829585893475 0.0793980375962
503484500 0.824251114496 0.0780363767816
503495000 0.825568789684 0.0817512535837
503505500 0.833854673899 0.0695137918235
503516000 0.823728847376 0.0747885170367
503526500 0.825900664308 0.0720094705974
503537000 0.829335725225 0.0675912874518
503547500 0.832087758104 0.0796544779657
503558000 0.826219636627 0.0728610547967
503568500 0.825194697275 0.0738769169775
503579000 0.830381401952 0.0745618860533
503589500 0.824634683702 0.0783884352674
503600000 0.825511179938 0.0824217838002
503610500 0.834109578442 0.0716399994514
503621000 0.825951242252 0.0746492790697
503631500 0.833253275978 0.0713489035208
503642000 0.828428974848 0.0782748317959
503652500 0.823696711132 0.0735019305498
503663000 0.83036856866 0.0797575156253
503673500 0.829471429431 0.07031003556
503684000 0.833114310936 0.0706279888883
503694500 0.82673098581 0.0762509445861
503705000 0.822552878526 0.075276603589
503715500 0.827873667788 0.0774135817539
503726000 0.825730876581 0.0780445410393
503736500 0.82095384372 0.0846086288226
503747000 0.830114730758 0.075252847209
503757500 0.826318686633 0.0749871777053
503768000 0.825275224757 0.0730837812918
503778500 0.832406046303 0.075316208411
503789000 0.828653213084 0.0734696226581
503799500 0.829561177029 0.0743658695884
503810000 0.830059580233 0.0771636030089
503820500 0.829313140222 0.0745972394156
503831000 0.826732201732 0.0738944374271
503841500 0.828262857284 0.0744873048137
503852000 0.829103010691 0.0748064838692
503862500 0.828332066338 0.0744927756689
503873000 0.827734691449 0.0745508118863
503883500 0.828372092485 0.0742671018235
503894000 0.828299248677 0.0742515962643
503904500 0.831071068857 0.0743307344976
503915000 0.829414815742 0.0746731772375
503925500 0.829225032971 0.0743138257873
503936000 0.8291838849 0.0732710179266
503946500 0.828274868968 0.0743065568031
503957000 0.828679225394 0.0747000164786
503967500 0.828682843079 0.0745909535592
503978000 0.828942256071 0.0743254913308
503988500 0.828021874997 0.0734289749135
503999000 0.828375716721 0.0740067378415
504009500 0.829318943559 0.0742162407369
504020000 0.829287058995 0.0736054434432
504030500 0.82926564615 0.0745169871847
504041000 0.829678200467 0.0744645344019
504051500 0.829355193613 0.0747255938651
504062000 0.828740844832 0.0748101192779
504072500 0.828584426907 0.0744607828519
504083000 0.828943258424 0.0742207681406
504093500 0.82934750174 0.0741842379454
504104000 0.82868438673 0.0738248896462
504114500 0.828688247838 0.0734105928444
504125000 0.828933271224 0.0735073979495
504135500 0.830306530537 0.0736566490827
504146000 0.829014096561 0.0742227552341
504156500 0.829413526585 0.0743673075689
504167000 0.828981557908 0.0743844011229
504177500 0.8290323318 0.0732958019066
504188000 0.828957789254 0.0736860150995
504198500 0.828611074197 0.0738812134568
504209000 0.829090241339 0.0735261631088
504219500 0.829297127812 0.0743902007113
504230000 0.829488625692 0.0751953092564
504240500 0.829205465932 0.0746366997755
504251000 0.829204989696 0.0745457334865
504261500 0.828460309033 0.0745325306953
504272000 0.829146282062 0.0746232909454
504282500 0.829637278153 0.0732917424098
504293000 0.829676453942 0.0738747746801
504303500 0.828847156469 0.0732219788874
504314000 0.829459051283 0.0737262739773
504324500 0.829399504575 0.07392468778
504335000 0.828402847489 0.07349487544
504345500 0.82926695438 0.0737747863261
504356000 0.829217675136 0.0730884503969
504366500 0.828847031059 0.0734543443911
504377000 0.830013045745 0.073771454958
504387500 0.830144583415 0.0736577203509
504398000 0.830100438133 0.0738474439746
504408500 0.83003806955 0.0736086788768
504419000 0.830468059041 0.0737742775927
504429500 0.829852091846 0.0739536395183
504440000 0.82958990747 0.07407497569
504450500 0.829456746611 0.0740704954601
504461000 0.829610540746 0.0738086964213
504471500 0.829737612152 0.0735316650965
504482000 0.830098483637 0.0735858983239
504492500 0.828621602364 0.074589746802
504503000 0.82699163 0.0750180444746
504513500 0.825174748911 0.0747325476904
504524000 0.828035974105 0.0739807612127
504534500 0.830005432429 0.0725212425779
504545000 0.83009852607 0.0729230664394
504555500 0.83034076513 0.0729614164259
504566000 0.829617599947 0.0727812191894
504576500 0.829493043766 0.0725239077717
504587000 0.829942049879 0.0732134532627
504597500 0.829870552845 0.0728041057581
504608000 0.829695624796 0.0732848962593
504618500 0.829914041234 0.073267916842
504629000 0.829759226767 0.0734500182633
504639500 0.829447854049 0.0736356037153
504650000 0.829708668102 0.0731395235885
504660500 0.829393532682 0.0732334573507
504671000 0.828984730315 0.0729175751868
504681500 0.829131916401 0.0720996498892
504692000 0.829205944009 0.0733152554604
504702500 0.828666980425 0.0725935963904
504713000 0.829991311885 0.0731425256898
504723500 0.830547313034 0.073068917688
504734000 0.830337701557 0.0731952788359
504744500 0.830585873446 0.0731725279357
504755000 0.829589826292 0.0731189577319
504765500 0.829096529017 0.073224427003
504776000 0.829388459568 0.072575764269
504786500 0.830061035539 0.0729987899725
504797000 0.8304550634 0.0725787731934
504807500 0.829638258139 0.0724238924371
504818000 0.829644445767 0.0725275826268
504828500 0.830089160254 0.0730778637499
504839000 0.829461783777 0.072842264068
504849500 0.830204131239 0.0726548539638
504860000 0.829966771709 0.0731224969485
504870500 0.829791640941 0.072508199528
504881000 0.829856903688 0.072015237882
504891500 0.829572489042 0.0730946887122
504902000 0.829744097 0.0729431868522
504912500 0.829410209364 0.0727727835615
504923000 0.829552030828 0.0726312732208
504933500 0.829947921848 0.072574381077
504944000 0.829627175296 0.0729108338364
504954500 0.829453813978 0.0728596479012
504965000 0.829417589545 0.0729841697666
504975500 0.829894777852 0.0725621662297
504986000 0.830043393524 0.0726003808577
504996500 0.829711955116 0.0727062687187
505007000 0.829919015386 0.0722911005696
505017500 0.830336391706 0.0725771274102
505028000 0.83107395659 0.0719157529353
505038500 0.830378012446 0.0725035113596
505049000 0.830061034314 0.0723642839391
505059500 0.830163480727 0.0719849466458
505070000 0.830316561844 0.07306860863
505080500 0.830135695817 0.0730709141239
505091000 0.831062959919 0.073832646459
505101500 0.83081725529 0.0722172198278
505112000 0.830206321689 0.0714701956767
505122500 0.830508856152 0.0724838140401
505133000 0.830522469768 0.0729832125687
505143500 0.830242678751 0.073088046244
505154000 0.830117049085 0.072640838769
505164500 0.820086892931 0.078405102264
505175000 0.829955121346 0.0723104658534
505185500 0.829739431682 0.0726965221933
505196000 0.829279160169 0.0727591704785
505206500 0.829416815292 0.0725511251016
505217000 0.829972272923 0.0731734541258
505227500 0.829664044047 0.0730047518716
505238000 0.830277495331 0.0723315928357
505248500 0.830509143614 0.0719177221206
505259000 0.830018549825 0.0722794249776
505269500 0.830520046529 0.0721728225956
505280000 0.830553587951 0.0723750002097
505290500 0.830684112995 0.0730697157378
505301000 0.829616374809 0.0724653907061
505311500 0.830407985773 0.0724518461322
505322000 0.830527753132 0.0721252231594
505332500 0.830138992972 0.0724027792362
505343000 0.830207264659 0.0721579129034
505353500 0.829884456276 0.0718874715345
505364000 0.830553391862 0.0720719601365
505374500 0.829330227414 0.0709802179364
505385000 0.830069916071 0.0715319679034
505395500 0.830712278002 0.0717377082726
505406000 0.830510793347 0.0714880732903
505416500 0.831139032512 0.0718405051718
505427000 0.831138032678 0.0727630695609
505437500 0.830801807416 0.0721898856099
505448000 0.830450086233 0.0726323786141
505458500 0.830479879566 0.0720173607749
505469000 0.831523838362 0.0718063413059
505479500 0.830662903671 0.0718277370588
505490000 0.830981944119 0.0722790040381
505500500 0.830484153986 0.0721205638088
505511000 0.83097868875 0.0709028678197
505521500 0.830006148544 0.0710144834801
505532000 0.828424831031 0.071051611571
505542500 0.827800030549 0.0717680826383
505553000 0.828037809248 0.0721977452858
505563500 0.829722197558 0.0711056375456
505574000 0.830974475645 0.0718018935578
505584500 0.831051133731 0.0713331298195
505595000 0.830456437145 0.0720110540749
505605500 0.830946419948 0.0710757559883
505616000 0.830656911871 0.0709958070409
505626500 0.830906015349 0.0703212202698
505637000 0.830372443322 0.070338048229
505647500 0.83084756935 0.0712165531649
505658000 0.829850862773 0.0724137805402
505668500 0.830706913997 0.0714133641171
505679000 0.830479798438 0.0719134543523
505689500 0.830245694955 0.07158844556
505700000 0.831153267524 0.071547790651
505710500 0.831168501719 0.0716245975853
505721000 0.831516805681 0.0714102275229
505731500 0.830881342205 0.0712028871371
505742000 0.830413006716 0.070554663704
505752500 0.830604387167 0.0715261810668
505763000 0.830200156892 0.0721228286641
505773500 0.830042839079 0.0723467904998
505784000 0.830335612755 0.072017141691
505794500 0.830321187591 0.0709925979271
505805000 0.830674741042 0.0709733949219
505815500 0.830360440469 0.0712742780291
505826000 0.829698640738 0.0715419008029
505836500 0.829796453108 0.0715652985699
505847000 0.830306862084 0.0719746679133
505857500 0.830337250657 0.0716755231332
505868000 0.830058613764 0.0714877973557
505878500 0.830368738393 0.0714222719596
505889000 0.830492165039 0.0710949194103
505899500 0.831212448086 0.0716225313221
505910000 0.830998543413 0.0721008783099
505920500 0.830663717852 0.0724951331286
505931000 0.831071169235 0.071868539191
505941500 0.831254081522 0.0718685308083
505952000 0.831186646517 0.072275756753
505962500 0.831036137079 0.0719320148548
505973000 0.83131212837 0.0713838188988
505983500 0.831180506523 0.0711557515119
505994000 0.830660946491 0.0706820264125
506004500 0.83163650234 0.0706293919623
506015000 0.831363948095 0.0710281339968
506025500 0.831733743652 0.070933043193
506036000 0.831990914333 0.070769178979
506046500 0.832045111372 0.0711506289432
506057000 0.831824824 0.0703505036646
506067500 0.831715634619 0.0704890965657
506078000 0.83196654586 0.07075896733
506088500 0.831251175653 0.0710234819727
506099000 0.832206718771 0.0714992993322
506109500 0.831645271698 0.0713935704974
506120000 0.831546018179 0.0715579683872
506130500 0.831442562365 0.0714602574401
506141000 0.831647599803 0.0711325499511
506151500 0.831645441501 0.0710066561006
506162000 0.832089905852 0.0706021157493
506172500 0.832129201638 0.0709308386286
506183000 0.831665786002 0.0703299273973
506193500 0.832078911703 0.0710943013161
506204000 0.831795535387 0.070176553789
506214500 0.831476400156 0.0705770350742
506225000 0.832518461885 0.0710320348434
506235500 0.832020837878 0.0709411357571
506246000 0.832000642984 0.070432821313
506256500 0.831945801994 0.0703993589088
506267000 0.832044927703 0.0704419894207
506277500 0.831419084478 0.0707207345804
506288000 0.832164621117 0.071111533229
506298500 0.83187187363 0.0699968124625
506309000 0.831702264354 0.0707415118388
506319500 0.831503226801 0.0707545716416
506330000 0.830963684336 0.070582858073
506340500 0.831584601371 0.070607281842
506351000 0.830594096692 0.0706977315267
506361500 0.831174510037 0.0706881827245
506372000 0.831753863804 0.0701199236962
506382500 0.83151252836 0.0697766300416
506393000 0.831916766613 0.0699607823521
506403500 0.832123251862 0.0702717682486
506414000 0.831957940977 0.0704997311922
506424500 0.83136533539 0.0703132872334
506435000 0.830927399784 0.0699483616838
506445500 0.82521793902 0.0744305055647
506456000 0.831555014753 0.0705545094858
506466500 0.831871592937 0.0705628831434
506477000 0.832292791711 0.0701606220381
506487500 0.831568430384 0.0700738929467
506498000 0.831680181789 0.0699431500395
506508500 0.832041525913 0.0702473306894
506519000 0.828633865768 0.0703025854184
506529500 0.832292810235 0.0703304314825
506540000 0.831878146388 0.0695901085277
506550500 0.831799755475 0.070041034993
506561000 0.831627228857 0.070631770289
506571500 0.83163029057 0.0705116844631
506582000 0.831810575486 0.0706660952834
506592500 0.832105215262 0.0704286623887
506603000 0.831473616687 0.0708825153234
506613500 0.83218825223 0.0702657095303
506624000 0.831542744731 0.0704882964743
506634500 0.831351217937 0.0705479575444
506645000 0.83101843699 0.07099896164
506655500 0.831822988788 0.0706061239044
506666000 0.832245554009 0.0703532141786
506676500 0.83224322628 0.0704893913651
506687000 0.832116509694 0.0706722053047
506697500 0.832344797139 0.0705542320118
506708000 0.832660718766 0.0698578438679
506718500 0.832615174759 0.0696201588864
506729000 0.832972903822 0.0706102111053
506739500 0.832752571355 0.0695055476888
506750000 0.832462636313 0.0698930181616
506760500 0.832350275105 0.070173958147
506771000 0.832237228381 0.0704926274047
506781500 0.832744731233 0.070030201713
506792000 0.832293411775 0.0703315812956
506802500 0.832304839977 0.0703903402023
506813000 0.832377395602 0.0703337693237
506823500 0.831944126651 0.0701758488865
506834000 0.832498350835 0.0703629873122
506844500 0.832201415844 0.0700421593612
506855000 0.831905997182 0.0697499099255
506865500 0.831993428103 0.070055400309
506876000 0.831904962908 0.0701494424834
506886500 0.8324302711 0.0703337327688
506897000 0.83226054292 0.0697982195158
506907500 0.832199326141 0.0701734193416
506918000 0.832408788642 0.0700520955712
506928500 0.831786127509 0.0697534597229
506939000 0.832575142972 0.0691826298592
506949500 0.832863486165 0.0695278093276
506960000 0.832427374664 0.068883994578
506970500 0.831965065423 0.0689651885672
506981000 0.832442324617 0.0684267010166
506991500 0.832168503189 0.0689238776343
507002000 0.827993004573 0.069156230983
507012500 0.832183629598 0.0695594125549
507023000 0.832439246297 0.0691712440149
507033500 0.833202059663 0.0692718505777
507044000 0.833650081859 0.0693765771577
507054500 0.833135733111 0.069672206751
507065000 0.833513589759 0.0698386255853
507075500 0.833170655728 0.0695608246319
507086000 0.832864143745 0.0694483384696
507096500 0.832204950038 0.0690403888742
507107000 0.832786509556 0.0690879076787
507117500 0.831331911264 0.0686378383231
507128000 0.830122005831 0.0693030560848
507138500 0.832145998798 0.0695591898018
507149000 0.831975559834 0.0708418568539
507159500 0.832581411516 0.0688126697278
507170000 0.831401274783 0.0687387537509
507180500 0.832503971322 0.0694627128941
507191000 0.832281695314 0.0675562346614
507201500 0.830825791696 0.0686104078274
507212000 0.830781661713 0.0700963692747
507222500 0.83112058186 0.0693469317989
507233000 0.832551506715 0.0679802537953
507243500 0.830078023909 0.0742567034654
507254000 0.831186856023 0.0684466262271
507264500 0.831300090848 0.0688679406333
507275000 0.835468491049 0.0720838234683
507285500 0.831912962061 0.0687086415367
507296000 0.834484650912 0.0683843728048
507306500 0.833477437943 0.0676335178428
507317000 0.835099064873 0.0664060428984
507327500 0.832112656627 0.0687824369635
507338000 0.829865023402 0.069955559232
507348500 0.834055058756 0.0653556088157
507359000 0.82981234075 0.0646388481941
507369500 0.831653852252 0.0677443665847
507380000 0.834307707292 0.0660724208402
507390500 0.834155365735 0.0663572488624
507401000 0.832113366727 0.0698135554786
507411500 0.835386405013 0.0739795885423
507422000 0.830194455479 0.0735385854466
507432500 0.836251639697 0.0691897822982
507443000 0.828467041171 0.0723153861394
507453500 0.833587135354 0.0641590927353
507464000 0.833082766268 0.0683024015823
507474500 0.829731672799 0.0678426410145
507485000 0.831077359761 0.0659655667287
507495500 0.833606478179 0.0727323377122
507506000 0.82930888465 0.0712301761316
507516500 0.834544741789 0.0696583118485
507527000 0.831375213335 0.0694773306073
507537500 0.831188882091 0.0678518135475
507548000 0.832518143946 0.0638114395408
507558500 0.831892606015 0.0718410476354
507569000 0.833288751649 0.0690546724611
507579500 0.832004053229 0.066522532467
507590000 0.829012586329 0.0688372239419
507600500 0.834423969883 0.0678818590216
507611000 0.835629720172 0.0742566182287
507621500 0.830380305985 0.0685475208538
507632000 0.831138229972 0.0697096467153
507642500 0.832871967398 0.0692256937881
507653000 0.829788518987 0.0679358825205
507663500 0.83460529637 0.0711040922319
507674000 0.831760975868 0.0705843455211
507684500 0.829533878773 0.0708301254047
507695000 0.832671784977 0.0688503360136
507705500 0.830924313869 0.0646901249606
507716000 0.835104696339 0.0662224469739
507726500 0.832573880603 0.0684970666828
507737000 0.832539982668 0.0685205666051
507747500 0.832670773686 0.0689153792224
507758000 0.833619546879 0.0687966681469
507768500 0.830533222251 0.0686922850395
507779000 0.83353165899 0.0678980839761
507789500 0.834022703345 0.067975061701
507800000 0.832902538646 0.0682868703037
507810500 0.835770334629 0.0648861912859
507821000 0.833477870039 0.0679568933009
507831500 0.833324405675 0.0697010568589
507842000 0.832479786521 0.069055714089
507852500 0.833797095797 0.0678941045781
507863000 0.833895628234 0.0676489837734
507873500 0.833696750345 0.0671426607093
507884000 0.832775049666 0.0659577931135
507894500 0.833595728066 0.0685610500404
507905000 0.834007969823 0.0700435875359
507915500 0.835928954463 0.0685263852688
507926000 0.836037396541 0.0679329527946
507936500 0.834424425623 0.0681106690478
507947000 0.834156982365 0.0677095981604
507957500 0.833575320733 0.0671017789629
507968000 0.83290073037 0.0682615574942
507978500 0.833483555473 0.0688366645626
507989000 0.833836581294 0.069416250637
507999500 0.834014815139 0.0696013435266
508010000 0.833477271239 0.0689351507755
508020500 0.832907909008 0.0683649662494
508031000 0.8331755061 0.0684172462542
508041500 0.83340451122 0.0687811078184
508052000 0.833531525725 0.0686995387184
508062500 0.832365421369 0.0684663624027
508073000 0.833157327759 0.0680787577223
508083500 0.833301745505 0.0685171082244
508094000 0.833371127659 0.0687798039867
508104500 0.832817390339 0.0686883347131
508115000 0.832472526925 0.0677261186306
508125500 0.834186166726 0.0686974779947
508136000 0.834140377001 0.0677446983531
508146500 0.833681075348 0.0670375145278
508157000 0.833318623633 0.0677519215832
508167500 0.833569706274 0.0685343562279
508178000 0.834203566232 0.0674885224934
508188500 0.834480375967 0.0673987286636
508199000 0.834167103377 0.0689737498374
508209500 0.8352061064 0.0669336031961
508220000 0.835742384106 0.0669447931018
508230500 0.835040293799 0.0667953958765
508241000 0.833809595288 0.0667592639217
508251500 0.835250620292 0.0681980006284
508262000 0.833869454134 0.069612177103
508272500 0.834902561607 0.0665222269413
508283000 0.834983239779 0.0690217306223
508293500 0.833438560561 0.0690968848517
508304000 0.833214133034 0.0683262882043
508314500 0.832412179804 0.0677670630534
508325000 0.832987224409 0.067116095226
508335500 0.833666895964 0.0673424363194
508346000 0.834109671264 0.0674907783849
508356500 0.834378743885 0.0668685526153
508367000 0.834277005647 0.0680407303228
508377500 0.83642029445 0.0692614408053
508388000 0.835384437186 0.0692927326887
508398500 0.834158722109 0.0690861266188
508409000 0.83467097597 0.0691999870374
508419500 0.83420449337 0.0676574201827
508430000 0.834275771193 0.0678264935394
508440500 0.834520905778 0.0695440429366
508451000 0.834541245943 0.06761239933
508461500 0.83472561316 0.0667703735366
508472000 0.834743690091 0.0678056921954
508482500 0.834021765043 0.0672497985736
508493000 0.834788940905 0.0681340443714
508503500 0.833493499687 0.0682921803624
508514000 0.833515591127 0.0677297857616
508524500 0.832725359837 0.0682045736434
508535000 0.833708340799 0.0679340228122
508545500 0.833679674554 0.06801896701
508556000 0.834071015708 0.0686967136678
508566500 0.83398598549 0.0678803873071
508577000 0.833673003573 0.0682519968756
508587500 0.83408898728 0.0678795188618
508598000 0.833922036909 0.0681720170482
508608500 0.833581015046 0.0685858066865
508619000 0.833853451677 0.0679061776351
508629500 0.833837449655 0.0675912306452
508640000 0.834472611078 0.0679468672268
508650500 0.833576790637 0.0680383962005
508661000 0.834112205163 0.0676047821128
508671500 0.83310426133 0.0672256730427
508682000 0.833575795789 0.0670530486485
508692500 0.834362410984 0.0675258043381
508703000 0.833840343051 0.0670156630641
508713500 0.833615400491 0.0674559318019
508724000 0.833947176444 0.0677517911518
508734500 0.833473605418 0.0677167742481
508745000 0.833719078322 0.0679537444151
508755500 0.834069653316 0.0677415762431
508766000 0.833906065947 0.0675492156757
508776500 0.834718476025 0.0682826212961
508787000 0.834221181922 0.0677877414246
508797500 0.834582972402 0.067539674484
508808000 0.835066653909 0.067452765595
508818500 0.834402586519 0.0673482071432
508829000 0.834464101823 0.0678050688894
508839500 0.834603857157 0.0677592735154
508850000 0.834885473192 0.0672840676547
508860500 0.834451148942 0.0674959403069
508871000 0.834945317023 0.0670041372301
508881500 0.834616957726 0.0677843198599
508892000 0.834526544904 0.0683170818347
508902500 0.834296259795 0.0669557622105
508913000 0.833592014006 0.0676367351096
508923500 0.834587774909 0.0677046351284
508934000 0.8347922601 0.0669990887365
508944500 0.83444330472 0.0674536266578
508955000 0.834922847515 0.0676347734963
508965500 0.834669989615 0.0680555952213
508976000 0.834139697423 0.0682209001902
508986500 0.834464071366 0.0676989462727
508997000 0.834784914882 0.0681668091612
509007500 0.834459488322 0.0676539364676
509018000 0.834872135812 0.0685420850777
509028500 0.834792767544 0.0676489690851
509039000 0.834033622072 0.0678704161951
509049500 0.834709473495 0.0674644114595
509060000 0.834247985325 0.0675314496201
509070500 0.834349997991 0.067711557389
509081000 0.835456686452 0.0675325837355
509091500 0.835168904425 0.0676545959975
509102000 0.834617030677 0.0675118678139
509112500 0.834708999592 0.0677410111074
509123000 0.835254508629 0.0674388898342
509133500 0.835585031044 0.0678146946943
509144000 0.819624982778 0.0682654479936
509154500 0.835956882 0.06751269082
509165000 0.839042382167 0.0837903586362
509175500 0.836689566567 0.0708091962978
509186000 0.835361514466 0.0693061725629
509196500 0.834774394344 0.0673957282297
509207000 0.834500819602 0.0671857865241
509217500 0.834663318724 0.0672035800714
509228000 0.83474679097 0.0667794956932
509238500 0.834846592236 0.0675595789706
509249000 0.834749987147 0.0674052713345
509259500 0.83546012012 0.0671214604596
509270000 0.834919363477 0.0671857796786
509280500 0.834593874649 0.0670745819532
509291000 0.834552650726 0.0672278933144
509301500 0.835588410137 0.0670143660097
509312000 0.835375616328 0.066876690413
509322500 0.835231542119 0.0675864765016
509333000 0.835517769507 0.0671456910487
509343500 0.835442413955 0.0671894158002
509354000 0.835120896057 0.066692278507
509364500 0.835216128981 0.0662842722333
509375000 0.834921928456 0.0657174114576
509385500 0.835349106471 0.0669569305057
509396000 0.835373570987 0.0669426871154
509406500 0.835306721644 0.0672008819116
509417000 0.835234913549 0.0668198630263
509427500 0.834775165372 0.066468041715
509438000 0.834915872244 0.0669628617778
509448500 0.834824666865 0.0670124464958
509459000 0.834930858698 0.0669573265297
509469500 0.835026137597 0.0669320911382
509480000 0.835469754268 0.0668954035056
509490500 0.834913583758 0.0671724994257
509501000 0.834927351712 0.0663044670665
509511500 0.835509454753 0.0658151285451
509522000 0.835647607672 0.0665694256155
509532500 0.835283402778 0.0668697321849
509543000 0.835160211895 0.0669747293871
509553500 0.835751145603 0.0667829878863
509564000 0.834921095112 0.0675735846306
509574500 0.83561191813 0.0665877966368
509585000 0.835088209944 0.0670740976487
509595500 0.835490281273 0.0666991053958
509606000 0.83597606649 0.0660866914661
509616500 0.835859917536 0.0665712006887
509627000 0.835663481071 0.0664720779674
509637500 0.835641829601 0.0668483090442
509648000 0.835841547458 0.0667509878761
509658500 0.83591760485 0.0670891177033
509669000 0.836385718595 0.0671662911089
509679500 0.836245595827 0.0674688324489
509690000 0.836187452721 0.0680650243101
509700500 0.83622488896 0.0669612742359
509711000 0.835359906217 0.0674212594717
509721500 0.835821531957 0.0672374037778
509732000 0.835210801052 0.0673542594356
509742500 0.835267907828 0.0673608068461
509753000 0.835481765969 0.0671388865752
509763500 0.836271942015 0.067329084234
509774000 0.834444653368 0.0663533400166
509784500 0.835556846886 0.0662222859979
509795000 0.835968679299 0.0672955289926
509805500 0.836316967613 0.0660987605509
509816000 0.835750464379 0.0665137401011
509826500 0.835610134599 0.0666800054281
509837000 0.835450596519 0.0671458071969
509847500 0.835297939465 0.0676542677546
509858000 0.835913432692 0.0681499254022
509868500 0.835226184387 0.0681969086845
509879000 0.834652716798 0.0660363169064
509889500 0.834503475288 0.0666629884898
509900000 0.834787435832 0.0668070467447
509910500 0.834847882348 0.0668826949478
509921000 0.835191014829 0.0670694622495
509931500 0.835855894148 0.0674174117602
509942000 0.836210690498 0.0661695569745
509952500 0.836124304616 0.0659805862851
509963000 0.835712932326 0.0662475286879
509973500 0.836214042875 0.0659400558876
509984000 0.83528611116 0.0654938243102
509994500 0.834328180284 0.0669102370222
510005000 0.835271679594 0.0662883048616
510015500 0.836453785481 0.0664168393079
510026000 0.836290637711 0.0659959562324
510036500 0.83583326174 0.0662309687535
510047000 0.836183190056 0.0667378409788
510057500 0.835765054485 0.0664519030535
510068000 0.835804642127 0.0664966274232
510078500 0.836416314122 0.0664511543984
510089000 0.835850703126 0.0659334506284
510099500 0.836035904129 0.066351387234
510110000 0.835583191618 0.0664407268664
510120500 0.835520544134 0.0660806232574
510131000 0.836174965074 0.0665832544229
510141500 0.836091374423 0.0665262361838
510152000 0.836314196025 0.0663628925234
510162500 0.836100892574 0.0661516645552
510173000 0.836619509474 0.0663990718318
510183500 0.835827827364 0.066280313966
510194000 0.835586614896 0.0661519748316
510204500 0.835369415842 0.066536171458
510215000 0.835529468197 0.0662747433343
510225500 0.836264162419 0.0663531971255
510236000 0.836301906661 0.0666045635772
510246500 0.83614628294 0.0668236065131
510257000 0.835869442107 0.0661429474609
510267500 0.836274039238 0.0662607295651
510278000 0.835973791569 0.0664914537997
510288500 0.835482563283 0.0660099177708
510299000 0.835776935895 0.0661735836536
510309500 0.835673456661 0.066431724082
510320000 0.836081042309 0.0663893269841
510330500 0.836048353074 0.0659090065754
510341000 0.836050512666 0.0667159932646
510351500 0.83592111244 0.0663409838431
510362000 0.835801209537 0.0661659730049
510372500 0.83605033324 0.0666784944591
510383000 0.835898727775 0.0662303253214
510393500 0.836521703073 0.0662459140592
510404000 0.835746733158 0.066651261757
510414500 0.836804241227 0.0664738264676
510425000 0.836647377801 0.066064798695
510435500 0.837255444899 0.0658537627486
510446000 0.836450362179 0.0666668778717
510456500 0.83624440294 0.066157411673
510467000 0.836256454335 0.0666552277921
510477500 0.835715719315 0.0657284057362
510488000 0.836783900173 0.0656804257836
510498500 0.836183228408 0.0665956267298
510509000 0.835429491664 0.0663668480827
510519500 0.835879132054 0.0669609200957
510530000 0.836146657959 0.0663545368987
510540500 0.836817055516 0.0667452226685
510551000 0.837129187486 0.0665464969216
510561500 0.837076528262 0.066476280069
510572000 0.837361625478 0.0658969367283
510582500 0.837078796644 0.0661532003415
510593000 0.837035024282 0.0657941239274
510603500 0.836844383771 0.0663226956555
510614000 0.83650471953 0.0665525005776
510624500 0.836269005204 0.0667002190174
510635000 0.836173853832 0.0669254393866
510645500 0.836439144631 0.066026673558
510656000 0.836827881637 0.0667189736593
510666500 0.836701411624 0.0660897928433
510677000 0.836528536799 0.0664203367164
510687500 0.837354350699 0.0669266989815
510698000 0.837597691118 0.0667555994269
510708500 0.837298536153 0.0665468318036
510719000 0.837410660144 0.06595672421
510729500 0.836673640314 0.0660532642024
510740000 0.836728949944 0.0660334799307
510750500 0.835668691842 0.0661297861148
510761000 0.836501031418 0.0659740052173
510771500 0.836629784339 0.0656315533014
510782000 0.837154300821 0.0659410114081
510792500 0.836856503309 0.066133053888
510803000 0.83740176511 0.0667311152068
510813500 0.837365676687 0.0659510097707
510824000 0.836013989439 0.0661037660491
510834500 0.835970621262 0.0654220660965
510845000 0.836943687431 0.0659146706456
510855500 0.836571897078 0.0652929438562
510866000 0.83683398018 0.0657762940792
510876500 0.836979640568 0.0656325683997
510887000 0.836759547609 0.0659852429129
510897500 0.836994956217 0.0657238530402
510908000 0.837090206245 0.0660222302955
510918500 0.83727203494 0.0649650349239
510929000 0.837392406121 0.0651936033629
510939500 0.837048728792 0.064894853225
510950000 0.836878604565 0.0660354427923
510960500 0.836109314953 0.0671262818245
510971000 0.836988290904 0.0654072935307
510981500 0.837387221175 0.0648564188044
510992000 0.83742066204 0.0655974227501
511002500 0.83749540917 0.0653962800713
511013000 0.837499179585 0.0654600624156
511023500 0.837461711644 0.0647220098472
511034000 0.836875383447 0.0638109876046
511044500 0.837288262719 0.0655459660344
511055000 0.837009011471 0.065888046507
511065500 0.836894849822 0.0669635550112
511076000 0.837111904731 0.0665408617758
511086500 0.837748433973 0.0667834634686
511097000 0.837456878701 0.065983334095
511107500 0.837097165307 0.0667541005561
511118000 0.836520697733 0.0659455489595
511128500 0.836568717732 0.0659717503426
511139000 0.837142018565 0.065278581046
511149500 0.837236222339 0.0648504046207
511160000 0.837948824986 0.0650678417668
511170500 0.838003309435 0.0652908694316
511181000 0.838025670953 0.065836761443
511191500 0.838006589617 0.0670542225288
511202000 0.838924901122 0.0684239968193
511212500 0.838251455169 0.0681692248611
511223000 0.837848231341 0.0674968446788
511233500 0.837307625005 0.0656648858577
511244000 0.837692567871 0.0657600433349
511254500 0.837648305898 0.0652668152428
511265000 0.837465865431 0.0648192002124
511275500 0.837371487243 0.0650259989704
511286000 0.837874788888 0.065259539022
511296500 0.837661937086 0.0654724988653
511307000 0.83806620103 0.0656230994531
511317500 0.837575883157 0.0654607318689
511328000 0.837766535046 0.0653804104604
511338500 0.837374343194 0.0655209992637
511349000 0.836979278048 0.0659768605742
511359500 0.836810406093 0.0651345359675
511370000 0.837448574335 0.0657847457113
511380500 0.837953926132 0.0654846815194
511391000 0.837926905036 0.0660974079623
511401500 0.837427877329 0.0655845334502
511412000 0.837179265585 0.0663628534994
511422500 0.837348756215 0.0654384303669
511433000 0.837796578542 0.0654657170553
511443500 0.838737751631 0.0650730051875
511454000 0.837646194766 0.0640250744924
511464500 0.837816856425 0.066097511328
511475000 0.839492856135 0.0658539748024
511485500 0.837644421335 0.0640448651953
511496000 0.838112018895 0.0648562755161
511506500 0.837919182318 0.0649938709009
511517000 0.837904396408 0.0645354892438
511527500 0.837912773263 0.065506753856
511538000 0.83823162213 0.0649092817444
511548500 0.837830284306 0.0650266970519
511559000 0.837169279156 0.0657082828322
511569500 0.838035252884 0.0648049316242
511580000 0.839740863687 0.063333399647
511590500 0.83922176789 0.0656723139603
511601000 0.838153172177 0.06508019436
511611500 0.838250693264 0.0641998193753
511622000 0.838409633267 0.06582559723
511632500 0.838142607297 0.0667932359815
511643000 0.838807492807 0.0649935282772
511653500 0.83774790668 0.0648312732298
511664000 0.838092114043 0.0656620242795
511674500 0.837919048262 0.0634460912061
511685000 0.837701370056 0.0653782212876
511695500 0.838537549574 0.0651133965402
511706000 0.837241939704 0.065474909654
511716500 0.838217181217 0.0645201379423
511727000 0.838368271448 0.0641996496355
511737500 0.837617971521 0.065237431392
511748000 0.838121767486 0.065170948253
511758500 0.83851513363 0.065623561398
511769000 0.838698540562 0.0649497970554
511779500 0.8378744158 0.0652847785377
511790000 0.838403493049 0.0650529995266
511800500 0.83907873046 0.0639880377166
511811000 0.839383583034 0.0646856029475
511821500 0.838494109596 0.0660444793927
511832000 0.838119612964 0.0661331682357
511842500 0.837827739511 0.0650690853343
511853000 0.838790630114 0.0647658007866
511863500 0.837744813676 0.0629056760631
511874000 0.838910681895 0.0639013996524
511884500 0.838691456803 0.0640694021377
511895000 0.838529679516 0.0647541409325
511905500 0.838366807652 0.0646744762837
511916000 0.838550399191 0.0650695081635
511926500 0.838752515138 0.0651429412068
511937000 0.838460030284 0.065256300794
511947500 0.838215107062 0.0649526042807
511958000 0.839220953856 0.0644550563843
511968500 0.838649926479 0.06437110853
511979000 0.838347980888 0.0652571405037
511989500 0.838611259074 0.0652526629068
512000000 0.838198288696 0.0640280742852
