! Calibrated averaged scanner-service zoom
# Hz S RI R 50
222000000 0.65247961788 -0.510526485006
222003000 0.652658117873 -0.510961435088
222006000 0.652799726787 -0.51064655648
222009000 0.652522189852 -0.510956364727
222012000 0.652380265856 -0.510659395605
222015000 0.65250511958 -0.510946687077
222018000 0.652481876224 -0.510608857811
222021000 0.652456572223 -0.510708560491
222024000 0.652224930239 -0.510612922191
222027000 0.652397157404 -0.510406411136
222030000 0.652388450804 -0.510532520456
222033000 0.65237463546 -0.510511829056
222036000 0.652331586345 -0.510535800055
222039000 0.652377341447 -0.51047363746
222042000 0.652428006277 -0.510337532778
222045000 0.652218957071 -0.510288535627
222048000 0.652233372917 -0.51061231491
222051000 0.652493435606 -0.510471059245
222054000 0.652497549243 -0.510674743901
222057000 0.65252159311 -0.510518528779
222060000 0.652263777856 -0.510811220682
222063000 0.652470102814 -0.510549435247
222066000 0.652396511521 -0.510747831003
222069000 0.652435067312 -0.510365324507
222072000 0.652418271621 -0.51085814095
222075000 0.65253788059 -0.510682043658
222078000 0.652337757394 -0.510750733375
222081000 0.652328066603 -0.510366826274
222084000 0.652140656389 -0.5106562496
222087000 0.652258291664 -0.510604847167
222090000 0.652343916741 -0.510614549836
222093000 0.652229324819 -0.510368358876
222096000 0.652137074674 -0.510859899568
222099000 0.652056173532 -0.510495334532
222102000 0.652354435608 -0.510707113678
222105000 0.652241436155 -0.510495373335
222108000 0.652423415904 -0.510796399278
222111000 0.652295964563 -0.510663563925
222114000 0.652320001944 -0.510748935494
222117000 0.652332634721 -0.51056233529
222120000 0.65242693595 -0.510592511355
222123000 0.652469406784 -0.51085860406
222126000 0.652800123902 -0.510663078384
222129000 0.652672876923 -0.510591843809
222132000 0.652609782256 -0.510340790539
222135000 0.652401231828 -0.510876475109
222138000 0.652447775585 -0.510483112851
222141000 0.652616598829 -0.510908359528
222144000 0.652441623395 -0.510545833228
222147000 0.652391938806 -0.510914498418
222150000 0.652431510612 -0.510688696882
222153000 0.652536581795 -0.510878303612
222156000 0.652318825116 -0.51063576883
222159000 0.652347106973 -0.510831581404
222162000 0.652410493859 -0.510608406258
222165000 0.652548177739 -0.510843955407
222168000 0.652431121577 -0.510592470264
222171000 0.652294164736 -0.510671688572
222174000 0.652139203566 -0.510490851345
222177000 0.652356848211 -0.510470799005
222180000 0.652193026173 -0.51032908644
222183000 0.652243049749 -0.510629842021
222186000 0.652037471202 -0.510502198256
222189000 0.652320020176 -0.510730031848
222192000 0.652248902985 -0.510575071568
222195000 0.652384229168 -0.510586823558
222198000 0.652258599419 -0.510718045523
222201000 0.652332051684 -0.51065128209
222204000 0.652225908784 -0.510631844916
222207000 0.652463966491 -0.510457804595
222210000 0.652129683013 -0.510898416499
222213000 0.652415697498 -0.510579370272
222216000 0.652308163992 -0.510629189743
222219000 0.652274757731 -0.510379781257
222222000 0.652296764805 -0.510841485191
222225000 0.652349463368 -0.51046313567
222228000 0.652477005986 -0.510753295275
222231000 0.652324006997 -0.510498981998
222234000 0.652197300013 -0.510767983461
222237000 0.652204741339 -0.510517896353
222240000 0.65231420177 -0.510770726231
222243000 0.652307875067 -0.510582257245
222246000 0.652213938848 -0.510791606186
222249000 0.652183265708 -0.510763727084
222252000 0.652368650722 -0.510793823696
222255000 0.65242952092 -0.510585885095
222258000 0.652239736738 -0.510865876392
222261000 0.652174333038 -0.510796687319
222264000 0.652164660725 -0.510811836225
222267000 0.652103537548 -0.510685984649
222270000 0.652363189056 -0.51072806634
222273000 0.652026976257 -0.510947634153
222276000 0.652343221188 -0.51083961236
222279000 0.652291906635 -0.510949959008
222282000 0.652338238272 -0.510753188243
222285000 0.652083259185 -0.510873845803
222288000 0.65253830582 -0.510862886977
222291000 0.652486290916 -0.511022413654
222294000 0.65241622064 -0.510643586405
222297000 0.652292896571 -0.510982305176
222300000 0.65255247653 -0.510788608422
222303000 0.65237314415 -0.51079815267
222306000 0.652627126361 -0.510958698072
222309000 0.65243371543 -0.510785335073
222312000 0.652428210995 -0.511020636838
222315000 0.652301962666 -0.510836254843
222318000 0.65250828858 -0.510931591742
222321000 0.652460769315 -0.510631628171
222324000 0.652289257688 -0.510799221762
222327000 0.652258275308 -0.510817163043
222330000 0.6523262526 -0.510801546904
222333000 0.65240619264 -0.510729417071
222336000 0.65246697695 -0.510871125265
222339000 0.652271001998 -0.510911999158
222342000 0.652409266992 -0.510959232717
222345000 0.652343697129 -0.510871933651
222348000 0.652512779521 -0.510837422016
222351000 0.652329963208 -0.510892651045
222354000 0.652574851452 -0.511042513317
222357000 0.652547590436 -0.511020488286
222360000 0.652416179629 -0.510954435482
222363000 0.652505317132 -0.511127406675
222366000 0.652580999615 -0.510987558549
222369000 0.652597423608 -0.511107162467
222372000 0.652497769046 -0.511019169614
222375000 0.652416932365 -0.511167185562
222378000 0.652320117566 -0.510811554341
222381000 0.652665672718 -0.511228000334
222384000 0.652483809033 -0.510919156138
222387000 0.652307683598 -0.511097378159
222390000 0.652390840688 -0.510808737037
222393000 0.65235963604 -0.511214139772
222396000 0.652620084754 -0.51080365553
222399000 0.652521811733 -0.51125524795
222402000 0.65262266274 -0.510988815834
222405000 0.652417999717 -0.51106376801
222408000 0.652583652025 -0.510977369328
222411000 0.652464261736 -0.511143103753
222414000 0.652367529174 -0.511207665126
222417000 0.652647686996 -0.511155534286
222420000 0.652568884581 -0.510934214832
222423000 0.652538966861 -0.511040346833
222426000 0.652589661298 -0.51130964577
222429000 0.65245973543 -0.511262093632
222432000 0.652455375108 -0.511087790446
222435000 0.652459685455 -0.511072579745
222438000 0.652542657826 -0.511217549483
222441000 0.652613142723 -0.511159810781
222444000 0.652508275723 -0.511259230497
222447000 0.652595379059 -0.511033936348
222450000 0.652471541405 -0.511268747787
222453000 0.652460236228 -0.511153276165
222456000 0.652383337627 -0.511250618277
222459000 0.652542166589 -0.511058919406
222462000 0.652416542206 -0.511366787214
222465000 0.651987786219 -0.511342721496
222468000 0.652463319999 -0.511281155196
222471000 0.652537804453 -0.511029654789
222474000 0.652356494416 -0.511196848678
222477000 0.652856943056 -0.511543798801
222480000 0.65252193544 -0.511309626638
222483000 0.652481267674 -0.511117461485
222486000 0.652312358219 -0.511362165279
222489000 0.652185608875 -0.511306755887
222492000 0.652484140543 -0.511251189239
222495000 0.652234438495 -0.511116098343
222498000 0.652381778962 -0.511140102218
222501000 0.652190522165 -0.511347901389
222504000 0.652284434127 -0.511255419683
222507000 0.652105966163 -0.511211912252
222510000 0.652075645445 -0.511257195638
222513000 0.652202860742 -0.511413555767
222516000 0.652330959607 -0.511306178002
222519000 0.652269161281 -0.51140127001
222522000 0.652301351459 -0.511377979985
222525000 0.652169694112 -0.511421218498
222528000 0.652451198431 -0.511381429076
222531000 0.652325359495 -0.511412813701
222534000 0.652313130092 -0.511131196114
222537000 0.652120429774 -0.511453204798
222540000 0.652310350325 -0.511371248532
222543000 0.652356048818 -0.511411665646
222546000 0.652523486118 -0.511141278139
222549000 0.65228721809 -0.51131298973
222552000 0.652326669264 -0.511279730892
222555000 0.652394933261 -0.51134642753
222558000 0.652435107416 -0.51116996388
222561000 0.65248660669 -0.511273466385
222564000 0.652328817746 -0.511394283947
222567000 0.65238490857 -0.511533225029
222570000 0.65225590263 -0.511304216983
222573000 0.652344318252 -0.511385500858
222576000 0.652289905313 -0.511475320657
222579000 0.652355572161 -0.511404618516
222582000 0.652353734663 -0.51146602768
222585000 0.652509520387 -0.511489926032
222588000 0.652224193505 -0.511629805719
222591000 0.65231597269 -0.511645376536
222594000 0.652334966757 -0.511618213747
222597000 0.652474793884 -0.511420651503
222600000 0.652280500384 -0.511628511018
222603000 0.652222404309 -0.511599862541
222606000 0.652176046746 -0.511678655948
222609000 0.652164354144 -0.511570406889
222612000 0.652481396293 -0.511443234256
222615000 0.652133305229 -0.511762240603
222618000 0.652243914383 -0.511699725269
222621000 0.652181386441 -0.51172915553
222624000 0.652357176351 -0.511284056074
222627000 0.652290817848 -0.511749762444
222630000 0.652365485633 -0.511714799236
222633000 0.652463244596 -0.511770862719
222636000 0.652464340932 -0.511430915247
222639000 0.652527240995 -0.511687679615
222642000 0.65251697537 -0.511508048196
222645000 0.652575110409 -0.51181856505
222648000 0.652626607816 -0.511431947107
222651000 0.652609898886 -0.511638636266
222654000 0.652345188782 -0.511572648096
222657000 0.652506080125 -0.511982070021
222660000 0.652504630462 -0.511598664013
222663000 0.652388539331 -0.511765768999
222666000 0.652152192713 -0.511746130155
222669000 0.652095332663 -0.511784615203
222672000 0.6523844055 -0.511747424002
222675000 0.652258205264 -0.511737946448
222678000 0.652178135538 -0.511788656963
222681000 0.652485053637 -0.511885281098
222684000 0.652321904015 -0.511881276797
222687000 0.652549252364 -0.511641606445
222690000 0.652339680791 -0.511818299608
222693000 0.652298138711 -0.511586785652
222696000 0.652246673649 -0.511883144079
222699000 0.652609092232 -0.511554488925
222702000 0.652367143182 -0.511972743653
222705000 0.652415601722 -0.511716389879
222708000 0.652319551432 -0.511824074944
222711000 0.652413012159 -0.511605341916
222714000 0.652357462948 -0.511845003294
222717000 0.652208165044 -0.511749094233
222720000 0.652385321137 -0.511917719944
222723000 0.652336246295 -0.511741738276
222726000 0.652254373642 -0.511941223944
222729000 0.652272123385 -0.511778104889
222732000 0.652425138469 -0.512009442609
222735000 0.65232231565 -0.511881585898
222738000 0.652260812736 -0.511863339991
222741000 0.651957160113 -0.511830847318
222744000 0.65219136157 -0.511971098754
222747000 0.652240707874 -0.511959514318
222750000 0.652317222377 -0.511790214247
222753000 0.651950781113 -0.51203209772
222756000 0.652083433783 -0.512052848163
222759000 0.652164926037 -0.511788798349
222762000 0.652178844373 -0.511551391506
222765000 0.652060724506 -0.511985139853
222768000 0.652184720049 -0.511936592216
222771000 0.652268920152 -0.511863459493
222774000 0.652384835469 -0.511746588179
222777000 0.652287320835 -0.512182012564
222780000 0.652462858476 -0.511930875485
222783000 0.652258107655 -0.512054656716
222786000 0.652597065719 -0.511691466388
222789000 0.652311909436 -0.512181725958
222792000 0.652242542693 -0.511843410377
222795000 0.652227038237 -0.512250308759
222798000 0.652618861568 -0.512007975369
222801000 0.652182856983 -0.512077912522
222804000 0.652088667154 -0.512029657509
222807000 0.652372833076 -0.512108728244
222810000 0.652265597513 -0.512011831979
222813000 0.652140944911 -0.512057841956
222816000 0.652056583643 -0.512147372215
222819000 0.652092871779 -0.512143183566
222822000 0.652156460498 -0.512115583249
222825000 0.65234382865 -0.51196533033
222828000 0.652075273093 -0.512217264811
222831000 0.652371494716 -0.512295231435
222834000 0.652224362192 -0.512120182494
222837000 0.652205091486 -0.511938415049
222840000 0.652111754837 -0.512377701141
222843000 0.652381203683 -0.512250032906
222846000 0.650691045932 -0.511663568907
222849000 0.652290653749 -0.512001748039
222852000 0.652112951053 -0.512357247061
222855000 0.652170849936 -0.512045065568
222858000 0.651404851649 -0.512277324016
222861000 0.652287951766 -0.512057906868
222864000 0.652172753179 -0.512377674483
222867000 0.652108457633 -0.512191992808
222870000 0.652092420699 -0.512317955077
222873000 0.652156769006 -0.512111062078
222876000 0.652095359519 -0.51235928236
222879000 0.652145429217 -0.512030335927
222882000 0.652150971757 -0.512464574012
222885000 0.652442826176 -0.512084633728
222888000 0.65231938019 -0.512258746253
222891000 0.652288803949 -0.512282134008
222894000 0.652361993389 -0.512400018118
222897000 0.652238021049 -0.512357732538
222900000 0.652327205925 -0.512203482498
222903000 0.652056455819 -0.512434807431
222906000 0.65226047692 -0.512340157648
222909000 0.652388008329 -0.512255278115
222912000 0.652372691773 -0.512361198399
222915000 0.652052681146 -0.512567590872
222918000 0.652187732529 -0.512500323382
222921000 0.652266448912 -0.512387454298
222924000 0.652235394077 -0.512361336294
222927000 0.652247315185 -0.512524943726
222930000 0.652082435804 -0.512578122222
222933000 0.652302166053 -0.512643953967
222936000 0.652260214904 -0.512522149725
222939000 0.651926031633 -0.512552378093
222942000 0.651977397416 -0.512651817829
222945000 0.652253951561 -0.51255917841
222948000 0.652239975468 -0.512567102213
222951000 0.652114616408 -0.512505091307
222954000 0.652098145352 -0.51263754965
222957000 0.652348777238 -0.512449973066
222960000 0.652242924202 -0.512334320687
222963000 0.652279379511 -0.512274469879
222966000 0.651754304649 -0.512346631628
222969000 0.652359589554 -0.512527761672
222972000 0.652403974559 -0.512204381899
222975000 0.652264558486 -0.51220019233
222978000 0.652265249092 -0.512829579497
222981000 0.652305789989 -0.51247727808
222984000 0.652404556324 -0.512406569034
222987000 0.652218683165 -0.512227664554
222990000 0.652019447536 -0.51255406024
222993000 0.652275693904 -0.512472976411
222996000 0.652369284372 -0.512308542017
222999000 0.652475152225 -0.51245453613
223002000 0.651981227199 -0.512539469593
223005000 0.652175756884 -0.512463972368
223008000 0.652406594739 -0.512429496491
223011000 0.652258530999 -0.512441927398
223014000 0.652059629747 -0.512444072807
223017000 0.652275133948 -0.512516702619
223020000 0.652592393376 -0.512436765033
223023000 0.652322627693 -0.512442643228
223026000 0.65226541014 -0.512523526257
223029000 0.652268700101 -0.512651227897
223032000 0.652406038086 -0.512656203925
223035000 0.652554186134 -0.51246493755
223038000 0.652273328466 -0.512353002364
223041000 0.651956595506 -0.512696650936
223044000 0.652287036873 -0.512690276962
223047000 0.652359688629 -0.512436082897
223050000 0.652360654654 -0.51254661733
223053000 0.652124816278 -0.512736840066
223056000 0.652280223201 -0.512581990535
223059000 0.652307777062 -0.512549251064
223062000 0.652357308738 -0.512625473406
223065000 0.652208670888 -0.512846635377
223068000 0.652076871771 -0.51279057658
223071000 0.652538973681 -0.512698246444
223074000 0.652251305701 -0.512678057455
223077000 0.652204511186 -0.512824684833
223080000 0.652112400023 -0.512723731671
223083000 0.652345347751 -0.512552637573
223086000 0.652307894692 -0.512697030065
223089000 0.652240060847 -0.512532563535
223092000 0.652167731453 -0.512555784746
223095000 0.652328976099 -0.512621449201
223098000 0.652380090033 -0.512449009341
223101000 0.652169303736 -0.512480556368
223104000 0.652047687814 -0.512500585949
223107000 0.652423922946 -0.512543749546
223110000 0.652479659689 -0.512430227458
223113000 0.652336473182 -0.512408343011
223116000 0.652120013243 -0.512771709228
223119000 0.652450199032 -0.512707799818
223122000 0.652582324208 -0.512743871658
223125000 0.652416803691 -0.51272552937
223128000 0.652269745229 -0.512988236267
223131000 0.652443438251 -0.512809810771
223134000 0.652560722641 -0.512702603717
223137000 0.652407220534 -0.512848864246
223140000 0.652234658323 -0.513146896301
223143000 0.652247511755 -0.512904054097
223146000 0.652409148114 -0.512828812955
223149000 0.65231992765 -0.51280253875
223152000 0.652166378016 -0.513023706507
223155000 0.651399345718 -0.513207563499
223158000 0.652261432005 -0.51302110839
223161000 0.652243753927 -0.513102809386
223164000 0.652120559873 -0.513068531815
223167000 0.651607948418 -0.513265151192
223170000 0.652436737312 -0.513061117318
223173000 0.652354717653 -0.512907800756
223176000 0.652368652748 -0.51291762013
223179000 0.652129000481 -0.513104088981
223182000 0.652511627015 -0.513069581212
223185000 0.652394057165 -0.512924056771
223188000 0.652269899207 -0.512833445311
223191000 0.652206537275 -0.51312396379
223194000 0.652448546595 -0.51298928957
223197000 0.652529509644 -0.512869591198
223200000 0.652201059887 -0.512844515254
223203000 0.652313830704 -0.513078257001
223206000 0.652310509546 -0.513149883484
223209000 0.652377874956 -0.513065529266
223212000 0.652413436181 -0.512905209078
223215000 0.652185433602 -0.513152964923
223218000 0.652327856204 -0.513026357719
223221000 0.652443177621 -0.513074842436
223224000 0.652638203773 -0.512942986886
223227000 0.6520671079 -0.513146739267
223230000 0.652330736623 -0.513089007052
223233000 0.652326645802 -0.513160082833
223236000 0.65245464802 -0.512909045869
223239000 0.652412466738 -0.513070212302
223242000 0.652382996041 -0.512967288627
223245000 0.652278348116 -0.513220621478
223248000 0.652554714004 -0.513030685647
223251000 0.652409539123 -0.513032327053
223254000 0.652374050155 -0.513076484249
223257000 0.652597811914 -0.513266060117
223260000 0.6525372044 -0.513091723426
223263000 0.652668912881 -0.513163629239
223266000 0.652410076125 -0.513020641281
223269000 0.652385758871 -0.513079510045
223272000 0.65258987592 -0.513202858006
223275000 0.652821246065 -0.512962102958
223278000 0.652299170632 -0.513265083023
223281000 0.652537070804 -0.513176446593
223284000 0.652482472846 -0.513311209626
223287000 0.652741658825 -0.513201456394
223290000 0.652251858257 -0.51338872345
223293000 0.65253008724 -0.51330980083
223296000 0.65239787164 -0.513537071864
223299000 0.652457750341 -0.513220027893
223302000 0.652313807939 -0.513638614609
223305000 0.652431846615 -0.513449532385
223308000 0.652241091662 -0.513577331662
223311000 0.652482233864 -0.513324505001
223314000 0.652500079449 -0.513586178909
223317000 0.652459658552 -0.51337648142
223320000 0.652328496007 -0.513493554379
223323000 0.652591171249 -0.513421028808
223326000 0.652500915568 -0.513515358289
223329000 0.652342107023 -0.51342897761
223332000 0.652499060664 -0.513609256672
223335000 0.652609318039 -0.513356232446
223338000 0.652555586009 -0.513488483021
223341000 0.652298771769 -0.513394781063
223344000 0.652493310301 -0.51375827675
223347000 0.652616798588 -0.513636297491
223350000 0.652659196673 -0.513516779295
223353000 0.652396696637 -0.513752748892
223356000 0.652532717026 -0.513813625485
223359000 0.652679430399 -0.513745213059
223362000 0.652666277394 -0.513486500733
223365000 0.652534474753 -0.51376035338
223368000 0.652687416787 -0.513826786787
223371000 0.652604525088 -0.513818170255
223374000 0.652856276297 -0.513708726037
223377000 0.65246823888 -0.513885571159
223380000 0.652454122185 -0.513685611465
223383000 0.652387272692 -0.513769769803
223386000 0.65258358377 -0.513555922385
223389000 0.652409983796 -0.513811807893
223392000 0.652341476479 -0.513670761009
223395000 0.652329580212 -0.513844289626
223398000 0.6525756264 -0.513719582658
223401000 0.652468700124 -0.513785783657
223404000 0.652418676705 -0.513789273982
223407000 0.652296640407 -0.513863376403
223410000 0.652487077988 -0.513719773736
223413000 0.652524718622 -0.513772263075
223416000 0.652274424792 -0.513861829544
223419000 0.652426659985 -0.514113320548
223422000 0.652615964507 -0.513966569182
223425000 0.65270001855 -0.513659102377
223428000 0.652255903308 -0.514024958387
223431000 0.652459977402 -0.514079317996
223434000 0.652621582731 -0.513939746684
223437000 0.652696097523 -0.513933389407
223440000 0.652409026935 -0.514143220577
223443000 0.652512135643 -0.514141781206
223446000 0.652602886773 -0.514019025803
223449000 0.652667974811 -0.513966205452
223452000 0.652434858501 -0.514322168264
223455000 0.652614278384 -0.514085465127
223458000 0.652461486928 -0.51423118113
223461000 0.65268888079 -0.514220694427
223464000 0.652531466518 -0.514317435943
223467000 0.652574711723 -0.514187001656
223470000 0.652506285624 -0.514489733561
223473000 0.652710485581 -0.514257370434
223476000 0.652517438179 -0.51447692626
223479000 0.652587200999 -0.514254443689
223482000 0.652609011201 -0.514593764346
223485000 0.652531551182 -0.514417400284
223488000 0.65245439865 -0.51430543942
223491000 0.652341679647 -0.514286030353
223494000 0.652637230247 -0.514505866107
223497000 0.652621389243 -0.514343380007
223500000 0.652594400317 -0.514154122417
223503000 0.652515339761 -0.514285231821
223506000 0.652530181702 -0.514516224864
223509000 0.652587444854 -0.514443623071
223512000 0.652664714578 -0.51442135112
223515000 0.652567817528 -0.51447219568
223518000 0.652502746275 -0.514645798058
223521000 0.652616093713 -0.514430547725
223524000 0.652651711074 -0.514449108855
223527000 0.652372378689 -0.514440187756
223530000 0.652405275342 -0.514548445743
223533000 0.652524507876 -0.514551042774
223536000 0.652549962036 -0.51452633649
223539000 0.652481468435 -0.514426852097
223542000 0.652478846666 -0.514663460009
223545000 0.652370696615 -0.514488547721
223548000 0.652651055591 -0.514397415379
223551000 0.652593792129 -0.514419193438
223554000 0.65240738975 -0.514509105022
223557000 0.652465523062 -0.514547467338
223560000 0.652578208702 -0.51441340678
223563000 0.652483155568 -0.514395926807
223566000 0.652222673184 -0.514521600652
223569000 0.652510273949 -0.51457802079
223572000 0.652465532102 -0.514525475714
223575000 0.652406967803 -0.514383889058
223578000 0.652387355235 -0.514444506874
223581000 0.652269871554 -0.514708575308
223584000 0.652625137063 -0.514729582161
223587000 0.652502631123 -0.514605314248
223590000 0.652280611287 -0.51450142818
223593000 0.652406448747 -0.514717065883
223596000 0.652553873366 -0.514608521659
223599000 0.652463000788 -0.514647174346
223602000 0.652342278334 -0.514687503146
223605000 0.652305407678 -0.514791533187
223608000 0.652354590286 -0.514782084702
223611000 0.652666408837 -0.514845087308
223614000 0.652624315464 -0.514832325064
223617000 0.652443805502 -0.514924169664
223620000 0.652572932626 -0.514842191218
223623000 0.652660880666 -0.514705079667
223626000 0.652836879696 -0.514890385609
223629000 0.652514325517 -0.514902281233
223632000 0.652507120927 -0.515026992575
223635000 0.65287400647 -0.514970844383
223638000 0.652583806583 -0.514884435667
223641000 0.652644713599 -0.514926643222
223644000 0.652495275106 -0.515006741041
223647000 0.652719311434 -0.514960798874
223650000 0.652581618776 -0.515080417991
223653000 0.652567163029 -0.514977193036
223656000 0.652436554852 -0.515133037078
223659000 0.652421450577 -0.514953454144
223662000 0.65249774143 -0.515195512158
223665000 0.65234519027 -0.514975067661
223668000 0.65241230915 -0.515148746789
223671000 0.652753692486 -0.515097322329
223674000 0.652495214243 -0.515090899298
223677000 0.65223871281 -0.515082665071
223680000 0.652246225465 -0.515182255904
223683000 0.652475361866 -0.515110706425
223686000 0.652842925378 -0.514895685851
223689000 0.65253043523 -0.515131597036
223692000 0.652297025875 -0.515296571046
223695000 0.652477974487 -0.515097747029
223698000 0.652659718504 -0.514872005627
223701000 0.652522332455 -0.51513584355
223704000 0.652498191429 -0.515221711259
223707000 0.652393325517 -0.515016863924
223710000 0.652527057235 -0.515085779259
223713000 0.652495815038 -0.515089224138
223716000 0.652466830389 -0.515116322804
223719000 0.652407255049 -0.515336072155
223722000 0.652654150549 -0.51517197927
223725000 0.65268397178 -0.515211800703
223728000 0.652637812054 -0.515194355633
223731000 0.652522109151 -0.515361867352
223734000 0.652626563605 -0.515285794393
223737000 0.65243379409 -0.515313938842
223740000 0.65254635462 -0.515323179015
223743000 0.652393106981 -0.515432299385
223746000 0.652648468703 -0.515331598921
223749000 0.652620510282 -0.515356309954
223752000 0.652464535684 -0.515401948664
223755000 0.652262336767 -0.51548961472
223758000 0.652571711829 -0.51557198137
223761000 0.652711008808 -0.515498150447
223764000 0.652670839235 -0.515481808078
223767000 0.65235158076 -0.515625160526
223770000 0.652633081269 -0.515509179782
223773000 0.652700442567 -0.515328528494
223776000 0.652494668221 -0.515479141525
223779000 0.652394253291 -0.515402345635
223782000 0.652473610318 -0.515374867852
223785000 0.652716558493 -0.515295662782
223788000 0.652590663106 -0.515173942693
223791000 0.652401168183 -0.515305787066
223794000 0.652405696692 -0.51526310617
223797000 0.65263558803 -0.515283501505
223800000 0.652486623039 -0.515394725437
223803000 0.652645338448 -0.515246525338
223806000 0.652301097332 -0.515490271964
223809000 0.652205950579 -0.515310943606
223812000 0.652529886234 -0.515432595701
223815000 0.652870005438 -0.515339138311
223818000 0.65251512658 -0.515316627218
223821000 0.65219920037 -0.5155029749
223824000 0.652588744177 -0.515502344073
223827000 0.652642751619 -0.515509766856
223830000 0.652739196281 -0.515374841164
223833000 0.652168770531 -0.515548803884
223836000 0.652685786597 -0.515544637556
223839000 0.652686910094 -0.515661093397
223842000 0.653023882098 -0.515393052621
223845000 0.652236791633 -0.515839468969
223848000 0.652771806594 -0.515724217124
223851000 0.65265599301 -0.515648745311
223854000 0.652783525787 -0.515413458752
223857000 0.652300267381 -0.515856567278
223860000 0.652645426028 -0.515764893253
223863000 0.652776628435 -0.515814466138
223866000 0.652849008804 -0.515625864315
223869000 0.652426030433 -0.515795505514
223872000 0.652518299876 -0.515653477861
223875000 0.652883068658 -0.515833187774
223878000 0.652906046515 -0.515637038464
223881000 0.652516537991 -0.515965761424
223884000 0.652575282464 -0.515801289218
223887000 0.652737207674 -0.515882573219
223890000 0.652842062236 -0.515885244171
223893000 0.652891547194 -0.515705416714
223896000 0.652539813769 -0.515883994539
223899000 0.652885116107 -0.515868264467
223902000 0.652910044853 -0.515737547014
223905000 0.652923556775 -0.515613046377
223908000 0.652464275267 -0.515890455828
223911000 0.652944755196 -0.515884288147
223914000 0.652938163126 -0.515857347766
223917000 0.653301234545 -0.515638889256
223920000 0.652706185674 -0.516074757579
223923000 0.652954998299 -0.516013755927
223926000 0.653108433907 -0.515979769637
223929000 0.653341384153 -0.515720575341
223932000 0.652800345088 -0.51623841726
223935000 0.653170433399 -0.516117789403
223938000 0.653227930867 -0.516236052161
223941000 0.653210472513 -0.516004684349
223944000 0.652699611689 -0.516280560481
223947000 0.652780172287 -0.516146833746
223950000 0.65293131859 -0.516161387108
223953000 0.653064641396 -0.515958544657
223956000 0.65265026135 -0.516188835056
223959000 0.652773420947 -0.516168735718
223962000 0.653005778696 -0.516233605056
223965000 0.652929642477 -0.516149664115
223968000 0.652883110933 -0.516319849013
223971000 0.652430507176 -0.516232323112
223974000 0.653061940225 -0.516247872676
223977000 0.65294852171 -0.516198496197
223980000 0.653177749114 -0.516095103736
223983000 0.652471031059 -0.516341572208
223986000 0.652991247414 -0.516325565794
223989000 0.65294025476 -0.516321296022
223992000 0.653327761974 -0.516005549539
223995000 0.652622263334 -0.516373152075
223998000 0.653018345781 -0.516233610011
224001000 0.652857871947 -0.516242141939
224004000 0.653357714043 -0.51610689942
224007000 0.652647115554 -0.516467084332
224010000 0.653060424723 -0.516309347097
224013000 0.653128285347 -0.516367629548
224016000 0.653326663022 -0.516285510569
224019000 0.652781480985 -0.516456159598
224022000 0.652938482263 -0.516240869515
224025000 0.653149256078 -0.516398112494
224028000 0.653339625874 -0.516275097962
224031000 0.652714775977 -0.516464540761
224034000 0.652737170688 -0.51641232501
224037000 0.653047338203 -0.516547823211
224040000 0.653349820766 -0.516371248045
224043000 0.652950918828 -0.516557557522
224046000 0.652749337346 -0.516430103148
224049000 0.653135388692 -0.516480683703
224052000 0.653199332757 -0.516492035357
224055000 0.653243348713 -0.516276577672
224058000 0.652741311039 -0.51658890324
224061000 0.653124910138 -0.51646549214
224064000 0.653123535492 -0.516464840978
224067000 0.65365856909 -0.516407924332
224070000 0.652698073999 -0.516686203005
224073000 0.653146145996 -0.516588027171
224076000 0.653108911804 -0.516650720081
224079000 0.653285248203 -0.516276204806
224082000 0.652763479133 -0.516895070813
224085000 0.652944360433 -0.516636543846
224088000 0.653205749235 -0.516787251458
224091000 0.653324401365 -0.516629250573
224094000 0.652760231999 -0.5169951864
224097000 0.652850754097 -0.516900535585
224100000 0.653172707736 -0.517004022363
224103000 0.652948402743 -0.516963262748
224106000 0.653277980013 -0.516944338564
224109000 0.653126923157 -0.517050670642
224112000 0.652861852169 -0.517031285242
224115000 0.653101951805 -0.517047997447
224118000 0.653008172783 -0.516899355548
224121000 0.653020530621 -0.516983914985
224124000 0.65283361107 -0.517191131557
224127000 0.652889787222 -0.517144202167
224130000 0.652791724096 -0.516999926082
224133000 0.652864952851 -0.517033569433
224136000 0.652533933581 -0.516943316164
224139000 0.652806569805 -0.517049164478
224142000 0.652756603016 -0.517079971202
224145000 0.652920396738 -0.517087647302
224148000 0.652740864803 -0.517063844552
224151000 0.653084737543 -0.517121251389
224154000 0.653027028957 -0.517067132724
224157000 0.65313111908 -0.517148671932
224160000 0.653131625023 -0.517103494909
224163000 0.653037852447 -0.517165608516
224166000 0.653191124575 -0.517335014813
224169000 0.653439222114 -0.5172709591
224172000 0.653197504207 -0.517267184998
224175000 0.653009606471 -0.517285314248
224178000 0.652915384094 -0.517314928922
224181000 0.653062659213 -0.517255219963
224184000 0.652887259229 -0.517262942043
224187000 0.652804698999 -0.517454116828
224190000 0.652805736688 -0.517467005925
224193000 0.653000382206 -0.517427577341
224196000 0.652904192477 -0.517418422924
224199000 0.652681811466 -0.517533851378
224202000 0.652898719141 -0.517354694948
224205000 0.652749671433 -0.51737438885
224208000 0.652869969408 -0.517567450771
224211000 0.652826878585 -0.517502226387
224214000 0.653073493954 -0.517452571271
224217000 0.652847827012 -0.517586680979
224220000 0.652851058905 -0.517544057863
224223000 0.652690226609 -0.517482894669
224226000 0.652980369998 -0.51746577926
224229000 0.652767307864 -0.517537193417
224232000 0.653458061718 -0.517316960552
224235000 0.654930909354 -0.513331063321
224238000 0.652988899135 -0.517531380823
224241000 0.654232049064 -0.519508933102
224244000 0.653234214344 -0.51766886528
224247000 0.646751826387 -0.514043690926
224250000 0.652988625582 -0.517690983993
224253000 0.66308702145 -0.519189944685
224256000 0.653453685848 -0.518278180534
224259000 0.652960776965 -0.517928476059
224262000 0.653171699383 -0.517933795394
224265000 0.653065088742 -0.518001553845
224268000 0.653133313941 -0.517961119761
224271000 0.65299554709 -0.517905862041
224274000 0.652937871239 -0.518052153287
224277000 0.652912808623 -0.517952570537
224280000 0.653009106451 -0.517973594576
224283000 0.653029283167 -0.517944126584
224286000 0.652754085454 -0.518144638281
224289000 0.653110033403 -0.51818892257
224292000 0.652986346666 -0.518244440049
224295000 0.653213843695 -0.518275807513
224298000 0.652815589743 -0.518224281753
224301000 0.653024974327 -0.518180487034
224304000 0.652830601194 -0.518303350445
224307000 0.652927615126 -0.518484981896
224310000 0.652883127427 -0.518647765008
224313000 0.653034437148 -0.518394806137
224316000 0.65303197745 -0.51842397439
224319000 0.653152383662 -0.518352804043
224322000 0.652895451639 -0.51833349146
224325000 0.652936485076 -0.518078548813
224328000 0.652771725685 -0.518271207867
224331000 0.653132092979 -0.518031650138
224334000 0.653123351465 -0.518171351356
224337000 0.652903859279 -0.51806539516
224340000 0.652975842459 -0.518098859142
224343000 0.653104868598 -0.518052889115
224346000 0.652939844182 -0.518092929702
224349000 0.652885961544 -0.518070032644
224352000 0.652806045465 -0.518250490732
224355000 0.652803209799 -0.518225580144
224358000 0.652812517153 -0.51811363662
224361000 0.652604558134 -0.518314478564
224364000 0.652853417042 -0.518253695437
224367000 0.652864926148 -0.518395429658
224370000 0.652825650509 -0.518378830501
224373000 0.652705072038 -0.518522284101
224376000 0.652901345678 -0.518335088901
224379000 0.652655237854 -0.518495096133
224382000 0.652892794783 -0.518497473667
224385000 0.652736302784 -0.518561180975
224388000 0.652800183129 -0.518468722431
224391000 0.652840682823 -0.518700378281
224394000 0.652904844927 -0.51872849155
224397000 0.652764454343 -0.51871431343
224400000 0.652792637513 -0.518703802773
224403000 0.65299410901 -0.518849798382
224406000 0.653303775202 -0.518931304589
224409000 0.652852231881 -0.518843552774
224412000 0.652879724931 -0.518901962433
224415000 0.653071568274 -0.518964351521
224418000 0.653175942434 -0.518827663017
224421000 0.652879411942 -0.51886688785
224424000 0.652994123773 -0.518812573154
224427000 0.653257544808 -0.518873620359
224430000 0.653326694007 -0.518821862269
224433000 0.652848928081 -0.518876673949
224436000 0.652880921598 -0.51896544293
224439000 0.652908512278 -0.518841480834
224442000 0.653358367997 -0.518985009168
224445000 0.652909925314 -0.519140653332
224448000 0.652809482173 -0.518981119524
224451000 0.65299328133 -0.5190293435
224454000 0.653099956162 -0.51901310424
224457000 0.652813400222 -0.519102206559
224460000 0.652927246734 -0.518968542117
224463000 0.653001428192 -0.519186488163
224466000 0.653027027539 -0.519105014716
224469000 0.65307533215 -0.519144585181
224472000 0.65311426308 -0.519009729193
224475000 0.652949502 -0.519196575087
224478000 0.653261958202 -0.519396923962
224481000 0.653399549701 -0.519190788414
224484000 0.653070087594 -0.519231679894
224487000 0.6529824945 -0.519281935996
224490000 0.653214829623 -0.51945305854
224493000 0.653348302797 -0.519371046334
224496000 0.653087961604 -0.519339771415
224499000 0.652976417086 -0.519317069603
224502000 0.653024655182 -0.51931928608
224505000 0.653226307829 -0.519195672053
224508000 0.652809984164 -0.519528938723
224511000 0.652859331614 -0.519406510754
224514000 0.653187966016 -0.519529872479
224517000 0.653164583266 -0.51947520339
224520000 0.652858127819 -0.519604487954
224523000 0.652885237509 -0.519427557886
224526000 0.652811464535 -0.519518579105
224529000 0.653244893003 -0.519462343318
224532000 0.65291856546 -0.519565561462
224535000 0.653097509226 -0.519544889257
224538000 0.65303618983 -0.519543154503
224541000 0.653159916636 -0.519433633027
224544000 0.653130003233 -0.519601735501
224547000 0.653176678734 -0.519626477787
224550000 0.653107626951 -0.51972556164
224553000 0.653232603816 -0.519798597215
224556000 0.653334500468 -0.519631907195
224559000 0.653118804252 -0.519746634306
224562000 0.653233555077 -0.519824444033
224565000 0.653410923221 -0.519883483217
224568000 0.653454772203 -0.519795587606
224571000 0.653172683183 -0.519913917534
224574000 0.652972009483 -0.520094815911
224577000 0.653194983221 -0.519900737547
224580000 0.653503022932 -0.519809625954
224583000 0.652971344177 -0.519855391822
224586000 0.652845909434 -0.51989225205
224589000 0.653110835721 -0.519808280118
224592000 0.653278921325 -0.519736427921
224595000 0.653119145927 -0.52005389412
224598000 0.652990411169 -0.519747325011
224601000 0.653033889664 -0.519829846043
224604000 0.653117366676 -0.519952833169
224607000 0.653091131647 -0.519989544682
224610000 0.653116194293 -0.519891729234
224613000 0.653238877303 -0.520012092591
224616000 0.653355317445 -0.520118821693
224619000 0.65321424443 -0.52010594171
224622000 0.653386613359 -0.520105510868
224625000 0.653270527416 -0.520270425543
224628000 0.653317033628 -0.520196159233
224631000 0.653350612828 -0.520008162178
224634000 0.65321193099 -0.52023724978
224637000 0.653001774038 -0.52018080832
224640000 0.653137064434 -0.520156305718
224643000 0.653494128968 -0.520139950314
224646000 0.653181581036 -0.520217902511
224649000 0.653094881014 -0.520150699386
224652000 0.653329335823 -0.520197471229
224655000 0.6533585252 -0.52013631388
224658000 0.652838376018 -0.520290930807
224661000 0.652937751224 -0.520317527273
224664000 0.653161638236 -0.520394133774
224667000 0.653531724857 -0.520341377228
224670000 0.652989322689 -0.520289440314
224673000 0.653104253962 -0.520372049889
224676000 0.653128693449 -0.520384210473
224679000 0.653335871703 -0.520573006953
224682000 0.653071721437 -0.520614050379
224685000 0.653244889257 -0.520564659971
224688000 0.65310958741 -0.520518597265
224691000 0.653437563459 -0.520694197889
224694000 0.653347472562 -0.520792548105
224697000 0.653161371271 -0.520663828473
224700000 0.653186551706 -0.520724421764
224703000 0.653472896834 -0.520896242926
224706000 0.653384205212 -0.520715902616
224709000 0.653357794629 -0.520946835941
224712000 0.653333293141 -0.520980140325
224715000 0.653346333504 -0.520958723371
224718000 0.653583984748 -0.521232495128
224721000 0.653438268783 -0.521168663033
224724000 0.653241263467 -0.521018811104
224727000 0.653535584528 -0.521090920235
224730000 0.653693291885 -0.521334664098
224733000 0.653483122753 -0.521214499703
224736000 0.653233593804 -0.521129089341
224739000 0.653322091786 -0.521317764211
224742000 0.653910118469 -0.521328675009
224745000 0.653409173473 -0.521327038329
224748000 0.653410844406 -0.521236861927
224751000 0.653210442094 -0.521022370529
224754000 0.653587915738 -0.521228388237
224757000 0.653471939358 -0.521276055668
224760000 0.653385316935 -0.52132552431
224763000 0.653188407735 -0.521284648978
224766000 0.653454908269 -0.521247694476
224769000 0.653530730697 -0.521405435054
224772000 0.65343891408 -0.521123352531
224775000 0.653215445795 -0.521295585773
224778000 0.65344998879 -0.521438106329
224781000 0.653490984007 -0.521337184853
224784000 0.653198896695 -0.521323033606
224787000 0.653170750334 -0.521392136794
224790000 0.653663739533 -0.521513852631
224793000 0.653520702269 -0.521510854123
224796000 0.653144879344 -0.521610837287
224799000 0.653242639266 -0.521524373635
224802000 0.653278129641 -0.521743536678
224805000 0.653794407821 -0.521676399705
224808000 0.653462501611 -0.521744019623
224811000 0.65332063791 -0.521714141427
224814000 0.653372962779 -0.521805902433
224817000 0.653735248375 -0.521942721864
224820000 0.653391351074 -0.521863699313
224823000 0.653424278979 -0.521881226314
224826000 0.65355641975 -0.522017859874
224829000 0.653662991412 -0.521698464975
224832000 0.653694627708 -0.521932769577
224835000 0.653454748754 -0.521842378485
224838000 0.65341886838 -0.522079999895
224841000 0.6535011169 -0.521944964705
224844000 0.653589210881 -0.521957210718
224847000 0.653369944386 -0.521811560617
224850000 0.653239019141 -0.521731030847
224853000 0.653524454305 -0.52191267707
224856000 0.653328859749 -0.521898206517
224859000 0.653435206817 -0.521790031658
224862000 0.653271489532 -0.521892546299
224865000 0.653445345447 -0.521954595961
224868000 0.653372413933 -0.522008073338
224871000 0.653383616627 -0.522056013657
224874000 0.653310232526 -0.522081924469
224877000 0.653424254084 -0.522166523511
224880000 0.653897088439 -0.522320444316
224883000 0.653422185644 -0.522284209312
224886000 0.653409619052 -0.522349164826
224889000 0.65354874672 -0.522333335729
224892000 0.653690786076 -0.522504474221
224895000 0.653438391987 -0.522371738435
224898000 0.653406565143 -0.522444629226
224901000 0.653406223343 -0.522420365036
224904000 0.653570507432 -0.522434354075
224907000 0.653527468029 -0.522479487422
224910000 0.653413389967 -0.522399844147
224913000 0.653217659482 -0.522603477556
224916000 0.653635707078 -0.522484156356
224919000 0.653481553969 -0.522402695847
224922000 0.653273894913 -0.522449325515
224925000 0.653319438357 -0.522699024872
224928000 0.653359411176 -0.522726738275
224931000 0.653489640635 -0.522805627886
224934000 0.65339538506 -0.52268623759
224937000 0.653273497668 -0.522753343259
224940000 0.653511226332 -0.52275613091
224943000 0.653387915555 -0.522693132061
224946000 0.653354060243 -0.522785763129
224949000 0.653280194411 -0.522878127352
224952000 0.653472351622 -0.522828749891
224955000 0.653701634961 -0.523006931129
224958000 0.653116419814 -0.522838607019
224961000 0.653192571366 -0.522814693274
224964000 0.653530625723 -0.522929705526
224967000 0.653678323724 -0.523031850788
224970000 0.653358501495 -0.522999834565
224973000 0.653218371228 -0.522913449872
224976000 0.653258644784 -0.522951618985
224979000 0.653402500956 -0.522982920293
224982000 0.653307481238 -0.523011385287
224985000 0.653221939632 -0.522985386212
224988000 0.653403230485 -0.523030048268
224991000 0.653538018273 -0.523103119008
224994000 0.653562130224 -0.523117782321
224997000 0.653426045849 -0.523097499821
225000000 0.653326568644 -0.523039710974
