! Calibrated averaged scanner-service zoom
# Hz S RI R 50
159810000 0.846045062494 -0.328487269311
159811755 0.84619679248 -0.328508283279
159813510 0.846098188421 -0.328427140192
159815265 0.846006381732 -0.328442169832
159817020 0.846234909002 -0.328662354901
159818775 0.846149274868 -0.328725815715
159820530 0.846197432089 -0.32856284541
159822285 0.846314021077 -0.328666297103
159824040 0.846118899891 -0.328585529912
159825795 0.846255014988 -0.32871060158
159827550 0.846265472935 -0.328505467232
159829305 0.846206359693 -0.328626642428
159831060 0.846284041919 -0.328769703376
159832815 0.84613865977 -0.328832358379
159834570 0.846427717759 -0.328771238194
159836325 0.846220406116 -0.328774817658
159838080 0.846094599682 -0.328855824222
159839835 0.846269829365 -0.329080311076
159841590 0.846063147845 -0.328661709457
159843345 0.846194598162 -0.328768984148
159845100 0.846123566704 -0.328930338678
159846855 0.846280321407 -0.328992590796
159848610 0.84595626752 -0.328960591848
159850365 0.846514950008 -0.329182199658
159852120 0.846068575134 -0.329050775869
159853875 0.846188213841 -0.328960927532
159855630 0.846359131521 -0.32905129566
159857385 0.846072612474 -0.328813003807
159859140 0.846342482715 -0.329118822632
159860895 0.846279740657 -0.329015712225
159862650 0.846323330421 -0.329273375019
159864405 0.846139047985 -0.329080498896
159866160 0.846184095265 -0.3292768673
159867915 0.84641902116 -0.329416275997
159869670 0.846309233782 -0.329296994827
159871425 0.846351382187 -0.329282702245
159873180 0.846269697962 -0.329197654913
159874935 0.846336166481 -0.329268070303
159876690 0.84635025737 -0.32940955778
159878445 0.846574764603 -0.329281073225
159880200 0.846308487193 -0.3292579357
159881955 0.846438826983 -0.329463942038
159883710 0.846538526825 -0.32932381025
159885465 0.846454344441 -0.329461203938
159887220 0.846147972814 -0.329105233558
159888975 0.846669730354 -0.329468339173
159890730 0.846547817672 -0.329672008836
159892485 0.846391968921 -0.329464755083
159894240 0.846207239855 -0.329468502807
159895995 0.846513092975 -0.329618518348
159897750 0.846328826652 -0.329678913738
159899505 0.846326220524 -0.329235551729
159901260 0.847340261414 -0.330082788524
159903015 0.846218621517 -0.329630720518
159904770 0.846288698199 -0.329569745016
159906525 0.84632796593 -0.329842764103
159908280 0.846367110509 -0.329667557798
159910035 0.846243803509 -0.329734003857
159911790 0.84633940633 -0.329717490484
159913545 0.846343355758 -0.32971080105
159915300 0.846364442953 -0.329674558877
159917055 0.846453654279 -0.329723216858
159918810 0.846281456223 -0.329731143604
159920565 0.846374579895 -0.32991083286
159922320 0.846353667762 -0.329850788013
159924075 0.846631357932 -0.329903817552
159925830 0.846525065627 -0.32994351693
159927585 0.846258050662 -0.329987100451
159929340 0.846445177848 -0.32986706958
159931095 0.846284659222 -0.329828685169
159932850 0.846553095955 -0.329989120132
159934605 0.846377050944 -0.330065957353
159936360 0.846244418105 -0.330064335558
159938115 0.846271796524 -0.329893142428
159939870 0.846310283106 -0.330201672409
159941625 0.846334405314 -0.330101153273
159943380 0.846584689345 -0.330120244793
159945135 0.846536423606 -0.330077588491
159946890 0.846434817953 -0.330209210733
159948645 0.846560427044 -0.330251346976
159950400 0.846501040426 -0.330122411235
159952155 0.846384460277 -0.330186537754
159953910 0.846507334976 -0.330212695639
159955665 0.846575578959 -0.330322837176
159957420 0.846533939995 -0.33002052508
159959175 0.846551570002 -0.330165434365
159960930 0.846499607935 -0.330314502883
159962685 0.846751103475 -0.330401843748
159964440 0.846595193321 -0.330553639741
159966195 0.846619013568 -0.330245970494
159967950 0.846559569613 -0.330438670098
159969705 0.846598570561 -0.330435576406
159971460 0.846591976462 -0.330534083951
159973215 0.846596208373 -0.330398763188
159974970 0.846564768339 -0.330533805636
159976725 0.846576773087 -0.330520480089
159978480 0.846663944598 -0.330653545298
159980235 0.846659067037 -0.330617157081
159981990 0.846570952196 -0.330617162631
159983745 0.846362587356 -0.330617696155
159985500 0.846584980984 -0.330719922669
159987255 0.846641505397 -0.33071741276
159989010 0.846508478874 -0.330665225136
159990765 0.846585607576 -0.330780612108
159992520 0.846571201866 -0.330885015018
159994275 0.846616755299 -0.330815546376
159996030 0.846638894329 -0.330967808175
159997785 0.846520064253 -0.330918394417
159999540 0.842321598724 -0.328843553931
160001295 0.846365606522 -0.33084044154
160003050 0.846498741111 -0.331013272004
160004805 0.846622863225 -0.330930354876
160006560 0.846645469813 -0.330987969771
160008315 0.846532856861 -0.330856617893
160010070 0.846663409389 -0.330958009692
160011825 0.846579478983 -0.331041618725
160013580 0.846727720869 -0.331121644607
160015335 0.846535376626 -0.331193867122
160017090 0.846564999277 -0.33100144093
160018845 0.846410578208 -0.331105913185
160020600 0.846678687064 -0.331054187503
160022355 0.846507896139 -0.331150025679
160024110 0.846530307654 -0.33112681848
160025865 0.846594679518 -0.331270837478
160027620 0.846710738111 -0.331307086357
160029375 0.846707401039 -0.331224035986
160031130 0.846766961318 -0.331277765928
160032885 0.846613678265 -0.331190265401
160034640 0.846758254306 -0.331326986471
160036395 0.846605097278 -0.331272602701
160038150 0.846776975665 -0.331286375167
160039905 0.846902631623 -0.331447470587
160041660 0.846750672241 -0.331528260357
160043415 0.846722115421 -0.331574495739
160045170 0.846732172942 -0.331518940871
160046925 0.846589042515 -0.33149923494
160048680 0.846876897036 -0.331553074125
160050435 0.846594100603 -0.331364917312
160052190 0.846785706595 -0.33162025167
160053945 0.846891633981 -0.331590071203
160055700 0.846727638131 -0.331568475824
160057455 0.846926423298 -0.331741700931
160059210 0.846804733376 -0.331642778971
160060965 0.846935553195 -0.331587703097
160062720 0.846979748076 -0.331614772461
160064475 0.846860192239 -0.331690468052
160066230 0.846737102285 -0.33184773525
160067985 0.847035829638 -0.331801458321
160069740 0.846917200873 -0.331715535442
160071495 0.846438620702 -0.331696960483
160073250 0.846823007121 -0.331785898498
160075005 0.84672395151 -0.331672418802
160076760 0.846550416449 -0.331877073963
160078515 0.846571225813 -0.331777252968
160080270 0.846678813261 -0.331923075855
160082025 0.846787062977 -0.331877684446
160083780 0.846693300297 -0.331973608926
160085535 0.846657898379 -0.332015588777
160087290 0.846781570996 -0.33180424105
160089045 0.846733340369 -0.332013807681
160090800 0.846683705956 -0.331915864066
160092555 0.846720625335 -0.332076490903
160094310 0.846768607768 -0.331961630093
160096065 0.846672330495 -0.332040643878
160097820 0.846864480848 -0.331921660654
160099575 0.846802925175 -0.33214330758
160101330 0.846702272978 -0.332085249615
160103085 0.846676281812 -0.332103435109
160104840 0.846673998511 -0.332049761961
160106595 0.84665167616 -0.332168155562
160108350 0.846866160603 -0.33220853626
160110105 0.846957667372 -0.332223258112
160111860 0.846820344565 -0.332160999195
160113615 0.846561263253 -0.332340558318
160115370 0.846982854791 -0.332306455267
160117125 0.84682531696 -0.332455783214
160118880 0.846902451744 -0.332336089285
160120635 0.846889628752 -0.332438058832
160122390 0.847014804551 -0.332458130164
160124145 0.847217194881 -0.332664013025
160125900 0.846821629824 -0.332455236959
160127655 0.846947488568 -0.332565656249
160129410 0.847021180939 -0.332587058582
160131165 0.846952770046 -0.332673676803
160132920 0.846985274887 -0.332571787703
160134675 0.846762809301 -0.332635578276
160136430 0.846792647834 -0.332762849708
160138185 0.84698543477 -0.332700437804
160139940 0.847053876138 -0.332784100913
160141695 0.847176403463 -0.332851511214
160143450 0.8470779481 -0.332883941228
160145205 0.847133285592 -0.332939287094
160146960 0.847044830636 -0.332835523528
160148715 0.847042224452 -0.332744759945
160150470 0.847017697192 -0.332756850492
160152225 0.847003229316 -0.332792712063
160153980 0.846887353374 -0.332905173567
160155735 0.847051712381 -0.332783447112
160157490 0.8467674365 -0.332883244684
160159245 0.846871642364 -0.333003190439
160161000 0.846948249933 -0.33293809129
160162755 0.846877884388 -0.333085580307
160164510 0.847078422409 -0.332803122654
160166265 0.846752679706 -0.332834802798
160168020 0.846882379467 -0.332810851084
160169775 0.84695448176 -0.333025238162
160171530 0.846935633859 -0.332858464139
160173285 0.846740003108 -0.332841277885
160175040 0.846867395182 -0.333137616246
160176795 0.847089206338 -0.333136821381
160178550 0.84695542145 -0.333119837267
160180305 0.846852560873 -0.332927032874
160182060 0.84687848543 -0.333142993531
160183815 0.846927789405 -0.333173199468
160185570 0.846943650668 -0.333073057735
160187325 0.847019742018 -0.333120761836
160189080 0.846846129983 -0.333144724418
160190835 0.84674526409 -0.333101447359
160192590 0.846976189657 -0.333189931335
160194345 0.846676376201 -0.333291553321
160196100 0.846915032633 -0.333398104637
160197855 0.846991742149 -0.333206057649
160199610 0.846941529203 -0.333220700595
160201365 0.847112038834 -0.333268629789
160203120 0.846914885349 -0.333340878392
160204875 0.847164227359 -0.333387607235
160206630 0.847094524196 -0.333449194382
160208385 0.846928730879 -0.333421616738
160210140 0.847134451908 -0.333465860728
160211895 0.84715106682 -0.333572104146
160213650 0.847078460907 -0.333527457549
160215405 0.847055394359 -0.333510529598
160217160 0.84692579375 -0.333526216168
160218915 0.847056504039 -0.333594860125
160220670 0.847303173824 -0.333695728712
160222425 0.847213283736 -0.333572449397
160224180 0.847147599923 -0.333702280687
160225935 0.846979969776 -0.333790585727
160227690 0.847301570652 -0.33404533194
160229445 0.84750063607 -0.333894639992
160231200 0.847105638224 -0.333851250272
160232955 0.847200830317 -0.333851530062
160234710 0.847124523471 -0.333891846774
160236465 0.847328625294 -0.333816142483
160238220 0.847262170885 -0.333749707696
160239975 0.8471665087 -0.333937717713
160241730 0.847308276796 -0.333856724022
160243485 0.847264205914 -0.333888753858
160245240 0.847195754823 -0.333872096049
160246995 0.846879410022 -0.33396144026
160248750 0.847187274695 -0.333871285847
160250505 0.847237797787 -0.333882014003
160252260 0.847132551277 -0.333824783095
160254015 0.84715289876 -0.333954679719
160255770 0.847073207622 -0.333937064238
160257525 0.847324033915 -0.333974448652
160259280 0.847139410405 -0.333906674714
160261035 0.846968470679 -0.33391865492
160262790 0.847165308341 -0.333995048225
160264545 0.847000228977 -0.334031213748
160266300 0.84704142918 -0.334002314193
160268055 0.846984164205 -0.334000784677
160269810 0.84691555113 -0.334164058496
160271565 0.846982504547 -0.334156539601
160273320 0.847146298179 -0.334057551236
160275075 0.846935034591 -0.334187947068
160276830 0.846883817494 -0.334170996021
160278585 0.846864594897 -0.334199235923
160280340 0.8483322903 -0.334513221128
160282095 0.846767577323 -0.334190280838
160283850 0.846745788919 -0.334415750303
160285605 0.846794527663 -0.334388573932
160287360 0.847561555209 -0.334684635832
160289115 0.846685653417 -0.334313416105
160290870 0.846832673971 -0.334423815401
160292625 0.846869809824 -0.334247020286
160294380 0.846887688965 -0.334560532351
160296135 0.846980435832 -0.334385207662
160297890 0.847079293673 -0.334412526162
160299645 0.846877016078 -0.334508123627
160301400 0.847045490099 -0.334493241341
160303155 0.847204332593 -0.334454406702
160304910 0.847045939365 -0.334499413405
160306665 0.847226091407 -0.334608823857
160308420 0.847282284571 -0.334696489204
160310175 0.847168541546 -0.334396961115
160311930 0.847094178185 -0.334454364947
160313685 0.847178033487 -0.334602146984
160315440 0.847370139273 -0.334811474339
160317195 0.847540751393 -0.334643113481
160318950 0.847503262571 -0.334549368639
160320705 0.847399300387 -0.335331442472
160322460 0.846809818146 -0.335234013084
160324215 0.846990618944 -0.334536111914
160325970 0.847349137158 -0.334484359045
160327725 0.847306947027 -0.334707330737
160329480 0.846966356003 -0.334884329204
160331235 0.846296090998 -0.335138279236
160332990 0.847126950487 -0.335116710452
160334745 0.847359420162 -0.334682916407
160336500 0.847461520017 -0.334880608851
160338255 0.8473285241 -0.334759534581
160340010 0.847404532974 -0.334828811645
160341765 0.847343178178 -0.33473229808
160343520 0.847312410232 -0.334848535483
160345275 0.84732428584 -0.334922991121
160347030 0.847432496838 -0.334985446414
160348785 0.847360933722 -0.334965295639
160350540 0.847394887507 -0.335090438012
160352295 0.847545095982 -0.335159071054
160354050 0.847461835907 -0.33507100219
160355805 0.847625817907 -0.335090010115
160357560 0.847322911828 -0.335073466506
160359315 0.847463415979 -0.335217762922
160361070 0.847485424616 -0.335495930478
160362825 0.84752706948 -0.335295506017
160364580 0.847297904996 -0.335386602001
160366335 0.847602427152 -0.335271078668
160368090 0.847329865528 -0.335467879958
160369845 0.847637362381 -0.335415773616
160371600 0.847362351297 -0.335474251213
160373355 0.847667053123 -0.335418699149
160375110 0.847432004149 -0.335539532054
160376865 0.847607748519 -0.335556657269
160378620 0.847614345091 -0.335483085442
160380375 0.847544349398 -0.335567396392
160382130 0.847562622375 -0.335746416232
160383885 0.847616141085 -0.335511910718
160385640 0.847577516582 -0.335532327928
160387395 0.847662289376 -0.335490011806
160389150 0.847696365901 -0.335619390807
160390905 0.84750242898 -0.335661298523
160392660 0.847603650433 -0.335727017627
160394415 0.84766794978 -0.33566475105
160396170 0.847612600297 -0.335748784715
160397925 0.847613223928 -0.335670813831
160399680 0.847716274265 -0.335821532393
160401435 0.847515037607 -0.335642928169
160403190 0.847511231762 -0.335827950645
160404945 0.84765430759 -0.335987490855
160406700 0.847781555451 -0.335924708877
160408455 0.847524077706 -0.335739966664
160410210 0.847772653637 -0.335833145387
160411965 0.847560719486 -0.335925521403
160413720 0.847667935839 -0.335880301046
160415475 0.84742993684 -0.335763541045
160417230 0.847363376324 -0.335840806802
160418985 0.8475604021 -0.335908192388
160420740 0.847699856175 -0.336016794466
160422495 0.84749227294 -0.33593546932
160424250 0.847676425401 -0.335938823174
160426005 0.847584461932 -0.33613258093
160427760 0.847480968619 -0.335969602989
160429515 0.847632088943 -0.336009752837
160431270 0.847871520932 -0.335941870034
160433025 0.847588528543 -0.336223147771
160434780 0.847554147345 -0.336219129319
160436535 0.847530489667 -0.3362711668
160438290 0.847172538439 -0.336369543767
160440045 0.847350019154 -0.336426804776
160441800 0.847188424985 -0.336375420519
160443555 0.847421807873 -0.336459673309
160445310 0.847479040906 -0.336383008741
160447065 0.847317080456 -0.336581370158
160448820 0.847087437121 -0.336673239522
160450575 0.847341681612 -0.336856663373
160452330 0.847192022383 -0.336724363293
160454085 0.84709359206 -0.336871045508
160455840 0.847039655018 -0.336853953938
160457595 0.847107255945 -0.337140572831
160459350 0.84719848898 -0.336885609228
160461105 0.847166341643 -0.336948910133
160462860 0.847327980904 -0.336947519025
160464615 0.847002815272 -0.336898414772
160466370 0.847110164774 -0.336856652601
160468125 0.847266594491 -0.336795820172
160469880 0.847146573787 -0.336872965961
160471635 0.847409344658 -0.3367784458
160473390 0.847276852194 -0.336805311799
160475145 0.847419775131 -0.336724312954
160476900 0.847292718221 -0.336672788332
160478655 0.847477625105 -0.336630602173
160480410 0.847537433326 -0.336829904252
160482165 0.847268200058 -0.33682494065
160483920 0.847483952727 -0.336745979598
160485675 0.847499171311 -0.336747476883
160487430 0.847604563138 -0.336650947995
160489185 0.84754140854 -0.336619095029
160490940 0.847565454576 -0.336542507413
160492695 0.847427044076 -0.336754298358
160494450 0.847805055086 -0.336846515435
160496205 0.847540660971 -0.336669365802
160497960 0.847732779799 -0.336834502219
160499715 0.847650500104 -0.33685270173
160501470 0.847635434926 -0.336732600921
160503225 0.847577042135 -0.336712916902
160504980 0.847575673844 -0.336906747335
160506735 0.847548555235 -0.336929505255
160508490 0.847557339589 -0.336801537869
160510245 0.8475014774 -0.336876316235
160512000 0.847503204191 -0.336970563733
160513755 0.847634147237 -0.336889858342
160515510 0.847523556439 -0.336947159449
160517265 0.847723104743 -0.337037818875
160519020 0.847670664917 -0.336956804979
160520775 0.847761026304 -0.337029103751
160522530 0.847561768278 -0.337008543871
160524285 0.847658636254 -0.337119835888
160526040 0.847798983739 -0.337063172854
160527795 0.847656207777 -0.336989031058
160529550 0.847728434668 -0.337113706894
160531305 0.847910597978 -0.337063805905
160533060 0.847931054902 -0.337148506417
160534815 0.847785927825 -0.337339987145
160536570 0.84785690774 -0.337119503705
160538325 0.847845303484 -0.33733426787
160540080 0.847790976186 -0.337221780456
160541835 0.848109411456 -0.337186304867
160543590 0.847768465317 -0.33715850011
160545345 0.848056352436 -0.337493803845
160547100 0.84779080493 -0.337305175928
160548855 0.847853407567 -0.337265925825
160550610 0.845088881327 -0.337130918896
160552365 0.847859317025 -0.337528392504
160554120 0.847865436521 -0.337356701315
160555875 0.847952321621 -0.337448034467
160557630 0.847885715831 -0.337644617056
160559385 0.848144139367 -0.337453783822
160561140 0.848160373118 -0.337587951824
160562895 0.847885265287 -0.3376290429
160564650 0.848183232165 -0.337691713172
160566405 0.848063041399 -0.337794333442
160568160 0.848188721884 -0.337684701114
160569915 0.848323894994 -0.337594119065
160571670 0.848178463715 -0.33790512241
160573425 0.848125328677 -0.337750711572
160575180 0.848010358667 -0.337802571632
160576935 0.84794380549 -0.337643325312
160578690 0.848148198201 -0.337927428848
160580445 0.848187783578 -0.337832975821
160582200 0.848215657366 -0.337868204534
160583955 0.848169543346 -0.337811338123
160585710 0.848237873815 -0.338415818769
160587465 0.848145253094 -0.337961570722
160589220 0.848280112771 -0.337975571345
160590975 0.848057105829 -0.337954861148
160592730 0.848378328088 -0.337922532582
160594485 0.848198139838 -0.337940294899
160596240 0.848162729778 -0.338232900844
160597995 0.848179981001 -0.337916396524
160599750 0.848263389284 -0.337881981349
160601505 0.848053554129 -0.338053030113
160603260 0.848035509819 -0.337884620597
160605015 0.848061929191 -0.337751793363
160606770 0.847932002054 -0.337486373937
160608525 0.847872901019 -0.33726522861
160610280 0.847692861823 -0.337106310627
160612035 0.847489391417 -0.336897759034
160613790 0.847421183676 -0.336643470115
160615545 0.847268099647 -0.336604949931
160617300 0.847197375275 -0.336303224654
160619055 0.84719942933 -0.33607015147
160620810 0.846845895139 -0.335790098943
160622565 0.84700959804 -0.335701895652
160624320 0.846781121728 -0.335430487009
160626075 0.846673761199 -0.335276607528
160627830 0.846779271919 -0.335217885115
160629585 0.84644962966 -0.334678570629
160631340 0.84628431403 -0.334870160173
160633095 0.846652439478 -0.335392521527
160634850 0.846700149893 -0.335541939596
160636605 0.846812574503 -0.335645312508
160638360 0.84692379265 -0.336089512258
160640115 0.847059201081 -0.336267314489
160641870 0.847601653836 -0.336433833933
160643625 0.847708541706 -0.336875428582
160645380 0.847296291435 -0.336983701662
160647135 0.847524265675 -0.337332656508
160648890 0.847495402646 -0.337624049683
160650645 0.847808463619 -0.337647923513
160652400 0.847861223369 -0.338080853374
160654155 0.847961441327 -0.338226582673
160655910 0.847935866196 -0.338541495494
160657665 0.848301060172 -0.338731365643
160659420 0.848309117823 -0.339020620511
160661175 0.848230889689 -0.338899302816
160662930 0.84815634283 -0.338996483562
160664685 0.848221362928 -0.33901464333
160666440 0.848337024398 -0.339113520871
160668195 0.848137379878 -0.338847590659
160669950 0.848191917562 -0.339037742714
160671705 0.848302352302 -0.339034453105
160673460 0.848248289279 -0.338853885669
160675215 0.848157757068 -0.339047874638
160676970 0.848336171209 -0.33916914247
160678725 0.848290820545 -0.339223410852
160680480 0.848829612722 -0.339060907875
160682235 0.848199929172 -0.339193709698
160683990 0.848341196739 -0.339169774476
160685745 0.84833376714 -0.33911108337
160687500 0.848454805798 -0.339131444559
160689255 0.848382142587 -0.339382434111
160691010 0.848549223514 -0.339284391995
160692765 0.848340334914 -0.339122102027
160694520 0.848269562686 -0.339349428115
160696275 0.848406109703 -0.339559267592
160698030 0.848610280272 -0.339425372765
160699785 0.848543315971 -0.339363101187
160701540 0.848308822464 -0.339252021496
160703295 0.848352209307 -0.339475556895
160705050 0.848702507488 -0.339727918761
160706805 0.848572309279 -0.339566984352
160708560 0.848414818629 -0.339516265855
160710315 0.848335505263 -0.339619332045
160712070 0.848661666698 -0.339668994727
160713825 0.848517667821 -0.339592840514
160715580 0.848662077471 -0.339679434445
160717335 0.848534171967 -0.339795703918
160719090 0.848675873198 -0.339656479972
160720845 0.848835170855 -0.339752043601
160722600 0.848536108921 -0.339843508951
160724355 0.848317763461 -0.33977773278
160726110 0.848463430461 -0.339861879479
160727865 0.848349642659 -0.339875519838
160729620 0.84829873617 -0.339770463615
160731375 0.848356934134 -0.339785415982
160733130 0.848317735362 -0.339947501001
160734885 0.848310741208 -0.339873704928
160736640 0.848312753979 -0.339864878647
160738395 0.848115856845 -0.339928675474
160740150 0.848471318101 -0.339907281114
160741905 0.848175455111 -0.339866068038
160743660 0.848340262046 -0.339910680491
160745415 0.848119051934 -0.339980946854
160747170 0.848312071736 -0.340015337636
160748925 0.848446760463 -0.340117436654
160750680 0.848390785038 -0.339931388841
160752435 0.848429426019 -0.340127802964
160754190 0.848702076618 -0.340050222129
160755945 0.848502416425 -0.34011910941
160757700 0.848604670733 -0.340187384486
160759455 0.848488231331 -0.34020478958
160761210 0.848581100705 -0.340421254418
160762965 0.848622591114 -0.340236283892
160764720 0.848670287286 -0.340287361429
160766475 0.848626486246 -0.340386778953
160768230 0.848714981046 -0.34045957617
160769985 0.849018952808 -0.340314246747
160771740 0.84890052755 -0.34046006169
160773495 0.848741719617 -0.340431262366
160775250 0.848713587375 -0.340447863189
160777005 0.848744333464 -0.340567579501
160778760 0.84889444794 -0.340662950953
160780515 0.848823407937 -0.340578391907
160782270 0.84880554051 -0.340721343624
160784025 0.848649231667 -0.340725292104
160785780 0.848483688296 -0.340744848224
160787535 0.848773131447 -0.34049872298
160789290 0.848557579279 -0.340670976826
160791045 0.848545649374 -0.340768601314
160792800 0.848786133943 -0.340690621616
160794555 0.848609727556 -0.340806666163
160796310 0.848449946202 -0.340686597912
160798065 0.848441085438 -0.340838764211
160799820 0.848327372937 -0.340826589476
160801575 0.848473335161 -0.340858202076
160803330 0.848365959707 -0.340810823888
160805085 0.84820635568 -0.340953438747
160806840 0.848602613958 -0.340931012885
160808595 0.84836617984 -0.340905845618
160810350 0.848325671098 -0.340931958507
160812105 0.848099410552 -0.340865092044
160813860 0.848479081457 -0.341010357171
160815615 0.848287566091 -0.340980037571
160817370 0.848345990257 -0.340843646129
160819125 0.848242526148 -0.341058198727
160820880 0.848486389953 -0.341127901283
160822635 0.848200233519 -0.341012694464
160824390 0.848256164486 -0.340851037792
160826145 0.848095389599 -0.341217895511
160827900 0.848184462913 -0.341332418108
160829655 0.848396107639 -0.341141322618
160831410 0.848297146023 -0.341127483771
160833165 0.847880312733 -0.341191628113
160834920 0.847995161334 -0.341441419791
160836675 0.847964846904 -0.341691143127
160838430 0.847433149977 -0.341689222601
160840185 0.847299586642 -0.341724686188
160841940 0.847206557736 -0.342074017439
160843695 0.847076781092 -0.342104594108
160845450 0.846977896209 -0.342282577416
160847205 0.846709383565 -0.342435228283
160848960 0.846470761444 -0.342692184952
160850715 0.846374336336 -0.342842319157
160852470 0.846393098047 -0.342968272336
160854225 0.84596890278 -0.34305004907
160855980 0.845779243049 -0.343242775341
160857735 0.845695154354 -0.343461588393
160859490 0.845434555054 -0.343633240852
160861245 0.845244682115 -0.343457783538
160863000 0.845520010926 -0.343393869984
160864755 0.846014489774 -0.343417305003
160866510 0.846241036162 -0.343284613282
160868265 0.846241164317 -0.343041597845
160870020 0.846508245451 -0.343134746471
160871775 0.847289466527 -0.343129819362
160873530 0.845530859848 -0.344759066856
160875285 0.84680180062 -0.34254182651
160877040 0.846730730656 -0.342710178006
160878795 0.847574494938 -0.342661539851
160880550 0.847638731189 -0.342369888144
160882305 0.84782364164 -0.34249115535
160884060 0.848177951673 -0.34248670404
160885815 0.848195250728 -0.342195095879
160887570 0.848267705773 -0.342110881661
160889325 0.848712205718 -0.342164701199
160891080 0.848734427822 -0.342156183982
160892835 0.848627866441 -0.342101231154
160894590 0.848569752292 -0.34219590858
160896345 0.848725463105 -0.342350278035
160898100 0.848669108528 -0.342224299065
160899855 0.848322763464 -0.342144226637
160901610 0.848630807223 -0.34226191491
160903365 0.848731271608 -0.342430924907
160905120 0.848922359261 -0.342350646372
160906875 0.848671377692 -0.342288647938
160908630 0.848708561807 -0.342370495347
160910385 0.848547776766 -0.342515783906
160912140 0.848714550395 -0.342340437466
160913895 0.848767214059 -0.342402639695
160915650 0.848845063513 -0.342497267735
160917405 0.848685500677 -0.342413676857
160919160 0.848723926571 -0.342421162041
160920915 0.848852460392 -0.342366188913
160922670 0.848631481349 -0.342432227984
160924425 0.848563314671 -0.342054256966
160926180 0.848695133314 -0.342364008777
160927935 0.84845240679 -0.342237301987
160929690 0.848654153124 -0.342610718267
160931445 0.848587582739 -0.342446941235
160933200 0.848583467805 -0.342491820106
160934955 0.848905717378 -0.342716257524
160936710 0.848733401978 -0.342682640048
160938465 0.848580646616 -0.342584589459
160940220 0.848857156566 -0.342763952262
160941975 0.84857226977 -0.342660108012
160943730 0.848606510051 -0.342656898636
160945485 0.848782437004 -0.342807909684
160947240 0.848754814975 -0.342749765371
160948995 0.848381870741 -0.342777610675
160950750 0.848505601178 -0.342702698998
160952505 0.848711855282 -0.342797189239
160954260 0.848715461901 -0.342697963932
160956015 0.848625870292 -0.342803866013
160957770 0.848512598947 -0.342692631837
160959525 0.848628615229 -0.34286921063
160961280 0.848447595801 -0.342764740405
160963035 0.848699219394 -0.34271927736
160964790 0.848557833835 -0.3428237353
160966545 0.848535550665 -0.342888092417
160968300 0.84859248687 -0.342922715931
160970055 0.84864533619 -0.342792246958
160971810 0.848539214716 -0.342831554893
160973565 0.848708472173 -0.342833644603
160975320 0.848414478116 -0.342783968108
160977075 0.84865462324 -0.342905900984
160978830 0.848595062097 -0.342841199845
160980585 0.848621515835 -0.343051534801
160982340 0.848359496847 -0.34294379806
160984095 0.848607148202 -0.343025686121
160985850 0.848646499564 -0.343030208593
160987605 0.848420349238 -0.343057577143
160989360 0.848728013692 -0.343119456303
160991115 0.848790773995 -0.343261865183
160992870 0.848614689831 -0.343220354289
160994625 0.848387451174 -0.343161988306
160996380 0.848568835675 -0.343351556112
160998135 0.848552439417 -0.343354076167
160999890 0.848304225071 -0.343310659356
161001645 0.84850665072 -0.343385595757
161003400 0.848301570173 -0.343449195752
161005155 0.848436382647 -0.343337121127
161006910 0.848407440928 -0.343401605378
161008665 0.848319066734 -0.343496392351
161010420 0.848468463126 -0.343536668507
161012175 0.848511130296 -0.343506098719
161013930 0.848490301504 -0.343598010311
161015685 0.848495691737 -0.343460170099
161017440 0.848933008501 -0.344133285342
161019195 0.848552388753 -0.343677518487
161020950 0.848624675706 -0.343639264539
161022705 0.848467103036 -0.343725081407
161024460 0.848483494172 -0.343787945929
161026215 0.84851973789 -0.343615288227
161027970 0.848438567773 -0.343652925766
161029725 0.848479540805 -0.343664459742
161031480 0.848617624339 -0.343723022875
161033235 0.848548031299 -0.343733171045
161034990 0.84844498856 -0.343651180892
161036745 0.848493073124 -0.343810434391
161038500 0.848422853229 -0.34371606427
161040255 0.848382074735 -0.343904407049
161042010 0.848664852652 -0.34387968769
161043765 0.848516314544 -0.343886919825
161045520 0.848786404747 -0.343978439967
161047275 0.848641842423 -0.343975282609
161049030 0.848613077119 -0.343994582456
161050785 0.848700436784 -0.344081174168
161052540 0.848512863841 -0.344049420892
161054295 0.848581748201 -0.344022234581
161056050 0.848610070221 -0.343850885442
161057805 0.848551611723 -0.344196803401
161059560 0.848571674819 -0.344120052951
161061315 0.848967317231 -0.344971479971
161063070 0.848468083741 -0.344032777326
161064825 0.848621407304 -0.344144900442
161066580 0.848702894649 -0.344238035404
161068335 0.848751617999 -0.344234104038
161070090 0.84849637992 -0.344184178895
161071845 0.848623838154 -0.344294431448
161073600 0.848559757873 -0.344308123406
161075355 0.848693054185 -0.344240233961
161077110 0.848472177692 -0.344222400352
161078865 0.848553233132 -0.344252821518
161080620 0.848462252812 -0.344364864703
161082375 0.848601755737 -0.344366857139
161084130 0.848552125803 -0.344322531474
161085885 0.848619140537 -0.344370731086
161087640 0.848781979613 -0.344482617811
161089395 0.848704886508 -0.344442890101
161091150 0.848536952167 -0.344399836673
161092905 0.848552449736 -0.344455588601
161094660 0.848588583384 -0.344393838953
161096415 0.848619765291 -0.344475130133
161098170 0.848741196765 -0.344451072241
161099925 0.848474915406 -0.344375876771
161101680 0.848632390968 -0.344593345725
161103435 0.848793454801 -0.344474814176
161105190 0.848497484224 -0.344462392318
161106945 0.848544864464 -0.344447559022
161108700 0.848665251976 -0.344579204512
161110455 0.848603221496 -0.344575548594
161112210 0.848935294903 -0.344626057144
161113965 0.848502106664 -0.34463301295
161115720 0.848782288107 -0.344632506059
161117475 0.848614003052 -0.344660562219
161119230 0.848525904354 -0.344577294248
161120985 0.848631737921 -0.34455843527
161122740 0.848737557338 -0.344659208765
161124495 0.848570173393 -0.344703491695
161126250 0.84894975744 -0.344927722986
161128005 0.848466639913 -0.344756329631
161129760 0.848740753076 -0.344819319642
161131515 0.848380376908 -0.34486805631
161133270 0.848705619298 -0.344692884557
161135025 0.848706025201 -0.344891811358
161136780 0.848731723874 -0.344881732884
161138535 0.848472243129 -0.345100452254
161140290 0.848787814808 -0.344884573084
161142045 0.848705455049 -0.344907885048
161143800 0.848560179249 -0.344942272425
161145555 0.848530393988 -0.345092398254
161147310 0.848579062663 -0.344937020534
161149065 0.848561340552 -0.344950291791
161150820 0.84872950543 -0.345083470691
161152575 0.848424790877 -0.345164009206
161154330 0.848707910068 -0.345203994991
161156085 0.848769186363 -0.345134496367
161157840 0.84860066927 -0.345160748487
161159595 0.848722527329 -0.345153122948
161161350 0.848285456562 -0.344648560749
161163105 0.848736312868 -0.345203959291
161164860 0.848594951782 -0.345110959176
161166615 0.848987268121 -0.345435053799
161168370 0.848828740774 -0.345429412811
161170125 0.848823303986 -0.345409929794
161171880 0.848843191701 -0.34530924456
161173635 0.848872579063 -0.345394277921
161175390 0.848702120224 -0.345511075374
161177145 0.84886162957 -0.34535904771
161178900 0.84873949756 -0.345477197486
161180655 0.848686956426 -0.34549006559
161182410 0.848940285651 -0.345636861386
161184165 0.848914959181 -0.345531209183
161185920 0.848875687385 -0.345770042913
161187675 0.848211674143 -0.34579181064
161189430 0.848288827414 -0.345522797563
161191185 0.848842879458 -0.345594976961
161192940 0.848847775111 -0.345568073618
161194695 0.848798419345 -0.345668066724
161196450 0.84872353687 -0.345840549442
161198205 0.848773380144 -0.345671822301
161199960 0.849073109736 -0.345839514171
161201715 0.848785082874 -0.345782016836
161203470 0.848841036194 -0.345820478957
161205225 0.848669935543 -0.345849323872
161206980 0.848936848538 -0.345916073581
161208735 0.848725134839 -0.345829405702
161210490 0.84880633198 -0.345886091836
161212245 0.848721646725 -0.3459833757
161214000 0.848891964991 -0.345909313906
161215755 0.848872929185 -0.345858135367
161217510 0.848711020027 -0.345871214822
161219265 0.848833959504 -0.345832782694
161221020 0.848613541228 -0.345950075342
161222775 0.848907886132 -0.345810647005
161224530 0.848643671134 -0.34585119254
161226285 0.848760675998 -0.34584702367
161228040 0.848632779418 -0.34592089142
161229795 0.84870321311 -0.345821714063
161231550 0.848561259015 -0.345943750683
161233305 0.84849711979 -0.345721953572
161235060 0.848639017954 -0.34583122281
161236815 0.848661682739 -0.346113096991
161238570 0.848769585414 -0.345959212495
161240325 0.848595938711 -0.345875966876
161242080 0.848632663276 -0.345967020008
161243835 0.848580827156 -0.346058188862
161245590 0.848950538276 -0.34617694049
161247345 0.848592632641 -0.345997432553
161249100 0.848754639582 -0.34620968855
161250855 0.848573424841 -0.346378287601
161252610 0.848960352199 -0.346423160553
161254365 0.848625560157 -0.346323339053
161256120 0.848892117973 -0.346337376531
161257875 0.848733221813 -0.346525775827
161259630 0.848912659206 -0.346480823169
161261385 0.848903139644 -0.346448280813
161263140 0.848787019435 -0.346510999618
161264895 0.84891047616 -0.346614322823
161266650 0.84887840252 -0.34643683829
161268405 0.848776772419 -0.346618876672
161270160 0.849006566895 -0.346532021088
161271915 0.848836913071 -0.346604242008
161273670 0.848969130307 -0.346627691337
161275425 0.8490652104 -0.346663796645
161277180 0.848780018061 -0.346625965874
161278935 0.848752559412 -0.346850405571
161280690 0.849049657627 -0.346755715482
161282445 0.849077926143 -0.346733865625
161284200 0.848902948398 -0.3467649919
161285955 0.849068405377 -0.346795624602
161287710 0.848910508591 -0.34673938678
161289465 0.849184557725 -0.346891998946
161291220 0.848913151784 -0.346774634826
161292975 0.848784953157 -0.346869362399
161294730 0.848888591625 -0.34700284885
161296485 0.849074022912 -0.346873317305
161298240 0.848804066102 -0.346840982051
161299995 0.848947097524 -0.346772691423
161301750 0.848815834743 -0.346966594439
161303505 0.849268661867 -0.347065427909
161305260 0.848971178172 -0.346899192635
161307015 0.848987636305 -0.347141457848
161308770 0.848743008048 -0.347111674991
161310525 0.849053424127 -0.347048161383
161312280 0.84889639851 -0.346979097013
161314035 0.848780281514 -0.347049090945
161315790 0.848873473867 -0.347176470672
161317545 0.849091227924 -0.347150452319
161319300 0.848956230357 -0.347175926614
161321055 0.848712944674 -0.347168897286
161322810 0.848879585768 -0.347273456468
161324565 0.848850242437 -0.347211202616
161326320 0.849016136409 -0.347188608823
161328075 0.848768410197 -0.347284859494
161329830 0.848822554239 -0.347364644541
161331585 0.848845904961 -0.347338009319
161333340 0.848931988565 -0.347409939771
161335095 0.848834473348 -0.347366854479
161336850 0.848774824258 -0.347370504323
161338605 0.848881656855 -0.347621823777
161340360 0.849126496731 -0.347643081389
161342115 0.848897327929 -0.347460674218
161343870 0.848857001455 -0.347628627194
161345625 0.848788623278 -0.347655588722
161347380 0.849153599445 -0.347643377249
161349135 0.848829287199 -0.347689093867
161350890 0.848923325255 -0.347693683791
161352645 0.848900017079 -0.347827776216
161354400 0.849013434852 -0.347813457529
161356155 0.848743763328 -0.347673293953
161357910 0.848828910663 -0.347728185593
161359665 0.848919028577 -0.347984659578
161361420 0.849135946494 -0.347852477792
161363175 0.848959209147 -0.347879895824
161364930 0.849034462264 -0.347871914668
161366685 0.848777162717 -0.347990639483
161368440 0.849181419997 -0.348026309194
161370195 0.849008775319 -0.347967934734
161371950 0.84899242301 -0.347780409769
161373705 0.848992952702 -0.348091337813
161375460 0.849011300967 -0.348092155174
161377215 0.849182022011 -0.348046094146
161378970 0.848887351335 -0.347951838371
161380725 0.849172232285 -0.34808447472
161382480 0.848948804052 -0.348168073922
161384235 0.849100990752 -0.348078608932
161385990 0.848990144036 -0.348005118283
161387745 0.84903085354 -0.348137704361
161389500 0.848864297925 -0.348158185545
161391255 0.848988626989 -0.348198459971
161393010 0.849021830292 -0.348252465782
161394765 0.849203439691 -0.348052410248
161396520 0.848960350998 -0.348241564065
161398275 0.848808170153 -0.34820867176
161400030 0.849016270923 -0.348335708264
161401785 0.848965813004 -0.348145241472
161403540 0.849024022096 -0.348351551993
161405295 0.848776263939 -0.348247633359
161407050 0.849073146252 -0.348317702606
161408805 0.848992307877 -0.34833739525
161410560 0.849100931499 -0.348274460558
161412315 0.84874177917 -0.34834054555
161414070 0.848929323648 -0.348401140583
161415825 0.848472177298 -0.348168818059
161417580 0.849288898532 -0.348531524913
161419335 0.848944127469 -0.348359564126
161421090 0.849032414744 -0.348492842493
161422845 0.84906556448 -0.348519957017
161424600 0.84905036769 -0.34855494905
161426355 0.84888478352 -0.348533163223
161428110 0.849163788123 -0.348469157532
161429865 0.848983965549 -0.348639119655
161431620 0.848906016524 -0.34844987326
161433375 0.849050241212 -0.348574325821
161435130 0.84904648885 -0.348591612695
161436885 0.849053144404 -0.348598799949
161438640 0.849208050437 -0.348553728715
161440395 0.849071696132 -0.348762640878
161442150 0.848993126954 -0.348709546824
161443905 0.849221076627 -0.348744778734
161445660 0.849186702685 -0.348730838901
161447415 0.849211667224 -0.348944052564
161449170 0.849229202975 -0.34894071033
161450925 0.849214143908 -0.349071758192
161452680 0.849335484767 -0.34896187752
161454435 0.849218117211 -0.348882022997
161456190 0.84899320628 -0.348919050393
161457945 0.849433575473 -0.349258058073
161459700 0.849318767998 -0.349034071567
161461455 0.849696455046 -0.349182311257
161463210 0.849309446448 -0.349173155648
161464965 0.849373397857 -0.349217281911
161466720 0.84913011685 -0.349274214725
161468475 0.849388230327 -0.349317193559
161470230 0.849366385892 -0.349296923214
161471985 0.849451855609 -0.349247457499
161473740 0.849518972571 -0.349320858532
161475495 0.849480506753 -0.349255519948
161477250 0.848897998067 -0.349116989828
161479005 0.849168461259 -0.34938418016
161480760 0.849254876885 -0.349281642216
161482515 0.849227707425 -0.349225221193
161484270 0.84892640041 -0.349386600974
161486025 0.848918228072 -0.34934127319
161487780 0.848988586971 -0.349279056218
161489535 0.849131354243 -0.349349707916
161491290 0.8491650842 -0.349386379068
161493045 0.84864397389 -0.349508692593
161494800 0.849224454706 -0.349614124414
161496555 0.848995212826 -0.349353395838
161498310 0.849003138724 -0.349598118813
161500065 0.849029071681 -0.349589558564
161501820 0.849030404424 -0.349551112847
161503575 0.849152652668 -0.349598882521
161505330 0.848989839318 -0.349624162009
161507085 0.848827819996 -0.34950514883
161508840 0.849017966733 -0.349725254511
161510595 0.849012004075 -0.349853302362
161512350 0.849124772907 -0.349715754618
161514105 0.84888173325 -0.349784952048
161515860 0.84923838295 -0.349885222831
161517615 0.849065463302 -0.349831504349
161519370 0.84917597297 -0.349665196654
161521125 0.848941628074 -0.349853969506
161522880 0.848977855053 -0.349963353601
161524635 0.849053857297 -0.34989218821
161526390 0.849200842249 -0.349876219657
161528145 0.849047690876 -0.350046503489
161529900 0.848896574757 -0.350052557426
161531655 0.849108659397 -0.350106784003
161533410 0.849186585054 -0.350029705221
161535165 0.849091418863 -0.350044896353
161536920 0.84910291814 -0.350229065452
161538675 0.848997688302 -0.350033942408
161540430 0.849233812161 -0.350017745374
161542185 0.848974048492 -0.350273040731
161543940 0.848360896713 -0.350811997084
161545695 0.849055574582 -0.350334368558
161547450 0.849016035043 -0.350197414519
161549205 0.849169090184 -0.350162549932
161550960 0.848848364884 -0.350281160807
161552715 0.849056820056 -0.350417641753
161554470 0.849153783187 -0.350311586682
161556225 0.84900034727 -0.350260840046
161557980 0.848873777494 -0.350293765847
161559735 0.848932143433 -0.350326523612
161561490 0.848959091989 -0.350320453733
161563245 0.849037897935 -0.350274576914
161565000 0.848723729212 -0.350319509197
