! Calibrated averaged scanner-service zoom
# Hz S RI R 50
470000000 0.6847817716 -0.221088186815
470010500 0.685085331554 -0.221352545892
470021000 0.685779446147 -0.221202985028
470031500 0.685638669771 -0.221738307237
470042000 0.685460437137 -0.22143120227
470052500 0.685757342913 -0.221067095127
470063000 0.686121392691 -0.221206137583
470073500 0.685692865163 -0.221491688081
470084000 0.685261606041 -0.221202740574
470094500 0.684814031433 -0.221032511238
470105000 0.684872910372 -0.22110189016
470115500 0.684647166272 -0.222152899858
470126000 0.684953328441 -0.220790999502
470136500 0.685231413615 -0.221374361329
470147000 0.685602011578 -0.221517972674
470157500 0.685910055582 -0.22276219123
470168000 0.684941935597 -0.222201421353
470178500 0.684964242298 -0.221451464076
470189000 0.685935136193 -0.220663975366
470199500 0.685509831178 -0.221578714308
470210000 0.686604970152 -0.222882923694
470220500 0.686399852051 -0.222302307574
470231000 0.685686351562 -0.221873046608
470241500 0.686072415679 -0.22092613043
470252000 0.685969697448 -0.222483965962
470262500 0.688340869108 -0.222265800328
470273000 0.687135537717 -0.22136583861
470283500 0.685257149327 -0.223154457426
470294000 0.686202603444 -0.221246429311
470304500 0.685024084686 -0.222076470333
470315000 0.684819711482 -0.22214960433
470325500 0.685031618966 -0.223095477736
470336000 0.685088843991 -0.222639717854
470346500 0.686029779219 -0.222382786497
470357000 0.68581852321 -0.222469179738
470367500 0.685004136473 -0.221586672083
470378000 0.686667865279 -0.223444475212
470388500 0.684183098383 -0.222030325187
470399000 0.685068063883 -0.221466560623
470409500 0.68572242056 -0.222142983584
470420000 0.684666181922 -0.221532948351
470430500 0.686381156198 -0.222492149679
470441000 0.685358470645 -0.222389087041
470451500 0.685507036744 -0.221915080624
470462000 0.68718166531 -0.222491116074
470472500 0.6857144389 -0.222103042079
470483000 0.686120471847 -0.221722670305
470493500 0.686006303327 -0.222097385987
470504000 0.685569178389 -0.222358265784
470514500 0.685382412867 -0.223191735332
470525000 0.684550484358 -0.222378033385
470535500 0.68579183003 -0.222913701316
470546000 0.685644032454 -0.22298723674
470556500 0.684410136166 -0.223206804378
470567000 0.685069867925 -0.22230342292
470577500 0.685591459225 -0.222862182599
470588000 0.6854013203 -0.222911074811
470598500 0.686717593516 -0.223684442954
470609000 0.685491539915 -0.223050469219
470619500 0.685933862623 -0.222769183918
470630000 0.685967576609 -0.222141755283
470640500 0.685085142457 -0.223445127943
470651000 0.685841541051 -0.222929561256
470661500 0.685401620497 -0.222712829661
470672000 0.685458049586 -0.222971270909
470682500 0.68545168952 -0.223225065462
470693000 0.685385733494 -0.222149581963
470703500 0.685556916005 -0.223030895663
470714000 0.68548020333 -0.223510336418
470724500 0.685162888246 -0.223578405248
470735000 0.685395534476 -0.223043363498
470745500 0.685164670931 -0.223034118933
470756000 0.685599091306 -0.222513392774
470766500 0.685951885917 -0.222283925114
470777000 0.685330583626 -0.223394815964
470787500 0.685081691674 -0.223352887885
470798000 0.685236086177 -0.223137145809
470808500 0.685962469504 -0.222853811103
470819000 0.685645557031 -0.222988847127
470829500 0.68537650055 -0.223091616644
470840000 0.685113500109 -0.223018009343
470850500 0.685168180689 -0.22324958857
470861000 0.686336384606 -0.223271424639
470871500 0.685714526546 -0.223667845466
470882000 0.68600407713 -0.223317265971
470892500 0.686293320442 -0.222956829707
470903000 0.686521262628 -0.223316264932
470913500 0.686118722869 -0.22352927128
470924000 0.686123314901 -0.223070913877
470934500 0.686387124307 -0.223676135635
470945000 0.686143517533 -0.223693811195
470955500 0.686090644352 -0.222958855424
470966000 0.685814232453 -0.223194431205
470976500 0.686060350728 -0.223342182703
470987000 0.685310367851 -0.224223280333
470997500 0.685828874922 -0.22399630194
471008000 0.685598777387 -0.224193034541
471018500 0.685752161178 -0.224092403069
471029000 0.685857259825 -0.223874181503
471039500 0.685899859261 -0.223993227137
471050000 0.685654407199 -0.224124257335
471060500 0.685623340906 -0.224229742919
471071000 0.685786524486 -0.22415132319
471081500 0.68619410724 -0.223583177091
471092000 0.686340817571 -0.224066245593
471102500 0.686305406086 -0.223924650062
471113000 0.686263898162 -0.224510450764
471123500 0.686473280936 -0.224475513816
471134000 0.686612962008 -0.224624257043
471144500 0.68619991075 -0.225050648665
471155000 0.686464130373 -0.225098762297
471165500 0.685596697719 -0.225099605322
471176000 0.686180386514 -0.225049905012
471186500 0.685975156311 -0.224696073503
471197000 0.686035165337 -0.225447084577
471207500 0.686024671333 -0.225636650868
471218000 0.686345110031 -0.22507625647
471228500 0.685666317315 -0.224638865381
471239000 0.685498569943 -0.218670475798
471249500 0.686021927888 -0.22324831791
471260000 0.686079174054 -0.223996618541
471270500 0.686507651279 -0.224304422924
471281000 0.685507728157 -0.224405774934
471291500 0.685948509818 -0.224796210068
471302000 0.685361860989 -0.225784965103
471312500 0.686420549729 -0.225276110724
471323000 0.685712542105 -0.225264424705
471333500 0.685758880697 -0.224733548536
471344000 0.685429826052 -0.225073200405
471354500 0.685720937842 -0.224496879649
471365000 0.685993491231 -0.224133151278
471375500 0.686889755602 -0.224258554943
471386000 0.68610202335 -0.224399822327
471396500 0.68613566287 -0.224459685188
471407000 0.685765446443 -0.225160924386
471417500 0.685411813286 -0.22558641013
471428000 0.685542112194 -0.225609809275
471438500 0.68507659365 -0.225816180112
471449000 0.684805999468 -0.226190066732
471459500 0.685666774544 -0.226146372794
471470000 0.685226382497 -0.225297547147
471480500 0.685521869062 -0.22549805345
471491000 0.685418388253 -0.225449834465
471501500 0.686167983994 -0.225063942247
471512000 0.686111096274 -0.225519065688
471522500 0.685859600464 -0.226189236157
471533000 0.685213982723 -0.22615535891
471543500 0.685763951441 -0.226154776719
471554000 0.685614590457 -0.22587633875
471564500 0.685315717775 -0.225868127796
471575000 0.685415274376 -0.226276530541
471585500 0.685220115652 -0.226199409256
471596000 0.68555542152 -0.225546361445
471606500 0.68554479813 -0.225360532231
471617000 0.686175558234 -0.226230754513
471627500 0.685969925956 -0.225474620185
471638000 0.685918008071 -0.225281600444
471648500 0.685680078314 -0.225203879062
471659000 0.686226786844 -0.225368240954
471669500 0.686204225011 -0.225615474039
471680000 0.68616271771 -0.225734539353
471690500 0.685791525641 -0.225888220875
471701000 0.685837349295 -0.226050647885
471711500 0.686082887423 -0.226195359404
471722000 0.685741832678 -0.226150440399
471732500 0.685752215888 -0.225956514183
471743000 0.686180241131 -0.225815190827
471753500 0.686005795075 -0.225289135005
471764000 0.686649781471 -0.224733997514
471774500 0.686190815484 -0.225233082899
471785000 0.685790378182 -0.225736177766
471795500 0.68587982733 -0.226253768986
471806000 0.68585714276 -0.226560621602
471816500 0.684802322175 -0.226117885845
471827000 0.685371557372 -0.2259654074
471837500 0.687367383912 -0.226327281726
471848000 0.685276749341 -0.226703602404
471858500 0.686202255807 -0.22618323268
471869000 0.685832320705 -0.226343561211
471879500 0.685524297998 -0.22626478132
471890000 0.685661696072 -0.226500541916
471900500 0.686049685789 -0.226595626958
471911000 0.685985440537 -0.227067228856
471921500 0.686858179188 -0.22685826598
471932000 0.687331589101 -0.227097356808
471942500 0.686809945713 -0.227070860243
471953000 0.686556472698 -0.227062281698
471963500 0.685885383015 -0.227238075112
471974000 0.685736937463 -0.227307352111
471984500 0.684786289501 -0.226563317339
471995000 0.685176688161 -0.227139945518
472005500 0.684649317526 -0.226774763976
472016000 0.684960579655 -0.227293780968
472026500 0.685627561503 -0.226841692648
472037000 0.685612233871 -0.227543169059
472047500 0.685149706468 -0.227690458556
472058000 0.686350479843 -0.227545448385
472068500 0.686008058765 -0.227317185934
472079000 0.686164113617 -0.22729875363
472089500 0.685540383432 -0.227060536368
472100000 0.68427177067 -0.226629573388
472110500 0.686202050465 -0.227243316038
472121000 0.685446780656 -0.227255804608
472131500 0.685986020706 -0.227256752539
472142000 0.685694940339 -0.227245659918
472152500 0.685370328559 -0.226712610889
472163000 0.685033876269 -0.226361123394
472173500 0.6852195991 -0.225963504021
472184000 0.685816687613 -0.226687921411
472194500 0.686758389336 -0.227336072366
472205000 0.6847455271 -0.227217788974
472215500 0.685286041578 -0.227000959381
472226000 0.68455017921 -0.227078441475
472236500 0.684701049972 -0.226943155363
472247000 0.685432899863 -0.226357315824
472257500 0.685485317188 -0.226643331326
472268000 0.685330286208 -0.227254790699
472278500 0.685411066387 -0.227360040652
472289000 0.685702993693 -0.227270540274
472299500 0.685819848518 -0.226804680414
472310000 0.685710879979 -0.227136134348
472320500 0.685715761681 -0.227080498593
472331000 0.685043565003 -0.227030237833
472341500 0.685554065507 -0.227116366043
472352000 0.685430660137 -0.227526110077
472362500 0.685683602697 -0.227613879473
472373000 0.685438749223 -0.227784897657
472383500 0.685055568336 -0.22754488936
472394000 0.685252928488 -0.227754341442
472404500 0.6851637445 -0.227926674244
472415000 0.685239769956 -0.227317948762
472425500 0.686015512049 -0.227527623421
472436000 0.685989098038 -0.226598957425
472446500 0.686051109582 -0.227417455745
472457000 0.685819614224 -0.22752005631
472467500 0.68546940597 -0.227724250976
472478000 0.685530224652 -0.227938797563
472488500 0.685502830634 -0.22767587227
472499000 0.685994125237 -0.228213332143
472509500 0.68613832934 -0.228669498593
472520000 0.686207870734 -0.228218579298
472530500 0.685672548508 -0.227773972964
472541000 0.686360544811 -0.227331301013
472551500 0.686068099589 -0.227478031077
472562000 0.686110579266 -0.226766724766
472572500 0.685776325716 -0.22701662975
472583000 0.685687864239 -0.227224583297
472593500 0.686354519198 -0.22679296381
472604000 0.684993472275 -0.227748427395
472614500 0.6855826997 -0.227845993615
472625000 0.685574920787 -0.228291834806
472635500 0.68593866222 -0.227977781984
472646000 0.685831759532 -0.228325431715
472656500 0.68617876309 -0.228026377608
472667000 0.685878680748 -0.228308298703
472677500 0.686032246971 -0.228536636564
472688000 0.685635024457 -0.22898988937
472698500 0.685665376678 -0.229052685269
472709000 0.685634766624 -0.228981324733
472719500 0.685438270821 -0.228894613541
472730000 0.685436123631 -0.228665572825
472740500 0.686154087389 -0.228679962703
472751000 0.686294310901 -0.228842575922
472761500 0.685590098504 -0.228560153004
472772000 0.68567082733 -0.228558542022
472782500 0.685534111479 -0.228788521132
472793000 0.685709694429 -0.228708007739
472803500 0.685452547355 -0.228310190546
472814000 0.685496085988 -0.228264444866
472824500 0.685865845359 -0.228680899614
472835000 0.685551940747 -0.228547526535
472845500 0.685024383084 -0.228664389436
472856000 0.685362496725 -0.229442593577
472866500 0.68556479102 -0.228517352193
472877000 0.685723000171 -0.229152453192
472887500 0.685932787882 -0.228943066034
472898000 0.685444360585 -0.228549155591
472908500 0.685544212655 -0.228656450982
472919000 0.685397561419 -0.22940200351
472929500 0.685118844271 -0.229448574232
472940000 0.684978186089 -0.229360796295
472950500 0.685321302689 -0.229274268793
472961000 0.68486523614 -0.229480899223
472971500 0.685247165839 -0.229275290866
472982000 0.685355646204 -0.230042449943
472992500 0.685236551577 -0.229662126428
473003000 0.684908337789 -0.22938409767
473013500 0.685185198206 -0.229329122116
473024000 0.684965415362 -0.228881757861
473034500 0.684707593795 -0.228771290211
473045000 0.685527514621 -0.228810274295
473055500 0.686252182054 -0.228852909487
473066000 0.68489038724 -0.228424322146
473076500 0.685783565469 -0.229575596847
473087000 0.68524609778 -0.228867964695
473097500 0.685340172864 -0.229118538146
473108000 0.6854512096 -0.229368581869
473118500 0.685353365311 -0.229085075806
473129000 0.685279355095 -0.229437203928
473139500 0.685633653187 -0.22998380801
473150000 0.684884781913 -0.229896332759
473160500 0.685160809728 -0.229690784509
473171000 0.68444857566 -0.229221427572
473181500 0.685028518234 -0.229586897319
473192000 0.684936734326 -0.229544117733
473202500 0.685670114625 -0.229951822252
473213000 0.684675018936 -0.22974859561
473223500 0.685075902985 -0.229500666876
473234000 0.685183369515 -0.228727044852
473244500 0.685402237534 -0.229391502245
473255000 0.685063938294 -0.229109527193
473265500 0.68457850672 -0.229240344843
473276000 0.685468152767 -0.228883518622
473286500 0.685070040214 -0.229353177312
473297000 0.685183209341 -0.229792368534
473307500 0.685391019008 -0.229369308567
473318000 0.685542969195 -0.229262604653
473328500 0.685629410472 -0.229909277545
473339000 0.684858530016 -0.229789223448
473349500 0.684870978704 -0.229676837972
473360000 0.684503905041 -0.228622313825
473370500 0.685197307802 -0.228467790107
473381000 0.685373762406 -0.228712960154
473391500 0.68534832791 -0.229564556208
473402000 0.685270083017 -0.230528667677
473412500 0.685563421192 -0.230244887529
473423000 0.685876303731 -0.230481487548
473433500 0.685925775709 -0.230163488715
473444000 0.686128668161 -0.230383893629
473454500 0.686245198276 -0.229989974936
473465000 0.686328173227 -0.229640785693
473475500 0.68578854544 -0.229784465171
473486000 0.685145764219 -0.229594269914
473496500 0.684990329056 -0.230105259622
473507000 0.686031673805 -0.230274531966
473517500 0.686340945907 -0.230968965194
473528000 0.685989049835 -0.230758725394
473538500 0.685218543914 -0.230834982729
473549000 0.685799750497 -0.230915212463
473559500 0.685581269542 -0.230797485314
473570000 0.685785351799 -0.230662571224
473580500 0.685256518244 -0.230857288855
473591000 0.686270739876 -0.230998071882
473601500 0.685142120129 -0.230628042043
473612000 0.685434351361 -0.230458459119
473622500 0.685441600191 -0.231503672552
473633000 0.685661107962 -0.231196525142
473643500 0.685504428588 -0.231748644126
473654000 0.684390070337 -0.230927559705
473664500 0.684592968964 -0.23152304639
473675000 0.684878598713 -0.230195382469
473685500 0.685399321914 -0.230459783677
473696000 0.685104150313 -0.230968937539
473706500 0.685340048818 -0.230895113947
473717000 0.684516064868 -0.230985871148
473727500 0.685828587594 -0.23122441391
473738000 0.686017461515 -0.230702004804
473748500 0.685440982764 -0.23089745574
473759000 0.685535572957 -0.230853403542
473769500 0.685436912562 -0.231092784781
473780000 0.685143156125 -0.230906808098
473790500 0.685426902989 -0.230745801678
473801000 0.685524875303 -0.231148264636
473811500 0.685929759374 -0.230982945667
473822000 0.685683395949 -0.230921993646
473832500 0.685342275726 -0.231391656493
473843000 0.685042018311 -0.230883822018
473853500 0.685249302871 -0.230789592015
473864000 0.684798082085 -0.230980485147
473874500 0.684764689603 -0.230852816144
473885000 0.684646224863 -0.231022803715
473895500 0.685459350152 -0.231276539071
473906000 0.685459422468 -0.231964331279
473916500 0.685498913052 -0.231794372773
473927000 0.686047875907 -0.231518952538
473937500 0.686528481787 -0.231557937928
473948000 0.687555351459 -0.230975888588
473958500 0.686566451895 -0.230836388042
473969000 0.685496892879 -0.231095491043
473979500 0.68461945868 -0.231669138973
473990000 0.685823954863 -0.231377098172
474000500 0.685474928936 -0.231199330527
474011000 0.685437763697 -0.231048404158
474021500 0.685516182781 -0.231349138064
474032000 0.685650867295 -0.231929585484
474042500 0.685501079734 -0.23172568294
474053000 0.685162186212 -0.231480671258
474063500 0.685216622078 -0.231053160534
474074000 0.685369794083 -0.23202096312
474084500 0.685209449227 -0.231773909066
474095000 0.68561914929 -0.232003267243
474105500 0.686361166075 -0.231387984991
474116000 0.686554034363 -0.231223241937
474126500 0.686275965959 -0.231128580985
474137000 0.685388490197 -0.231211792471
474147500 0.685424038991 -0.23142743566
474158000 0.685611854122 -0.231809405182
474168500 0.685060543811 -0.232481681959
474179000 0.685873593448 -0.231942319813
474189500 0.685191463719 -0.232076986371
474200000 0.685778876665 -0.231889925829
474210500 0.68636063781 -0.231937603183
474221000 0.68569332134 -0.232036645419
474231500 0.685801118864 -0.232391609853
474242000 0.685491390632 -0.232096688092
474252500 0.685410540386 -0.23231044311
474263000 0.68536421904 -0.232403673053
474273500 0.686046888063 -0.232947239855
474284000 0.685990219087 -0.231533113129
474294500 0.684055535804 -0.233678244003
474305000 0.686229229971 -0.233635887986
474315500 0.684026839577 -0.229527006686
474326000 0.685854111137 -0.232431111658
474336500 0.684087664338 -0.231832542248
474347000 0.686378480969 -0.232779705605
474357500 0.684970578128 -0.233106487664
474368000 0.686155455943 -0.233096482164
474378500 0.685721492737 -0.230798388046
474389000 0.685937350939 -0.231632673178
474399500 0.685935660584 -0.231398735791
474410000 0.684995013928 -0.232674777205
474420500 0.686002507093 -0.231542880856
474431000 0.687241571223 -0.230002888439
474441500 0.685719369802 -0.233120550302
474452000 0.685642636247 -0.231352448894
474462500 0.685834357972 -0.232999784679
474473000 0.685326785896 -0.232355105092
474483500 0.686495109858 -0.232631817626
474494000 0.680735642573 -0.231393744697
474504500 0.686146446196 -0.234209189994
474515000 0.686318192412 -0.233061518813
474525500 0.686194543536 -0.234418696594
474536000 0.685563615332 -0.233973297258
474546500 0.685011161722 -0.231807409683
474557000 0.685587849598 -0.232889522552
474567500 0.684889638233 -0.232667634678
474578000 0.685024572057 -0.233964822381
474588500 0.686063032132 -0.233744928134
474599000 0.685609777624 -0.233609578857
474609500 0.685446085333 -0.233301170747
474620000 0.68555643987 -0.233852345226
474630500 0.686205955453 -0.23297117538
474641000 0.685855493007 -0.232262476222
474651500 0.68585522185 -0.233450364219
474662000 0.685920262902 -0.233573104487
474672500 0.685937219813 -0.234112666643
474683000 0.685368097422 -0.232612602864
474693500 0.685633362925 -0.23306445294
474704000 0.686305346882 -0.233605133337
474714500 0.686210428772 -0.232882186423
474725000 0.6866482754 -0.233335688031
474735500 0.686073547126 -0.233711081681
474746000 0.685926673169 -0.234297799333
474756500 0.686480057903 -0.233901479464
474767000 0.68599662195 -0.233542212126
474777500 0.684948877883 -0.233641509045
474788000 0.685480778068 -0.233210967316
474798500 0.685879786224 -0.233873496342
474809000 0.685927962665 -0.234125020023
474819500 0.685434643373 -0.234032622956
474830000 0.685389215642 -0.234039157535
474840500 0.685285856474 -0.234238038028
474851000 0.685368536263 -0.234219573899
474861500 0.685620974536 -0.23421194661
474872000 0.685508836315 -0.234574974112
474882500 0.685678968499 -0.234009934358
474893000 0.685466128559 -0.233677890567
474903500 0.685623227594 -0.234005247284
474914000 0.685406179318 -0.233352338308
474924500 0.685533714214 -0.234015708019
474935000 0.685151051847 -0.233960530816
474945500 0.685134446423 -0.233798050929
474956000 0.685377900168 -0.233696131096
474966500 0.685561778689 -0.233962791951
474977000 0.685277461127 -0.234670460048
474987500 0.686747176185 -0.235219089226
474998000 0.685914118212 -0.234315732104
475008500 0.686220370119 -0.234034413242
475019000 0.685558636449 -0.233372358771
475029500 0.686630464122 -0.234319747601
475040000 0.685532551475 -0.233207596402
475050500 0.685851096636 -0.233785366476
475061000 0.685748818159 -0.233621825169
475071500 0.685257540405 -0.234224991683
475082000 0.685411882231 -0.234882528395
475092500 0.685139557138 -0.234001314069
475103000 0.685093356319 -0.23432694789
475113500 0.685074086618 -0.234386356349
475124000 0.685088026726 -0.234675096941
475134500 0.684971824782 -0.234277497261
475145000 0.685251622131 -0.234680255484
475155500 0.685174492254 -0.233889287121
475166000 0.685058298962 -0.234548812319
475176500 0.685444529056 -0.234272545977
475187000 0.684752745164 -0.234837245431
475197500 0.685145694429 -0.234012328455
475208000 0.684594534965 -0.233934073258
475218500 0.685028683845 -0.233652584318
475229000 0.685406072858 -0.234644130179
475239500 0.685387230544 -0.234382762005
475250000 0.685050641666 -0.234839806837
475260500 0.685348959188 -0.234826681042
475271000 0.685403525612 -0.234052324991
475281500 0.685052934794 -0.233893736411
475292000 0.684632674456 -0.234044338801
475302500 0.684826519833 -0.234272080919
475313000 0.684447142652 -0.234556906583
475323500 0.685158931648 -0.234716665683
475334000 0.685192174936 -0.234773194574
475344500 0.685008656805 -0.23479907801
475355000 0.68549548971 -0.23479673404
475365500 0.68498221631 -0.234328603652
475376000 0.685507973307 -0.234748700023
475386500 0.685767793933 -0.23489950788
475397000 0.685913307638 -0.234899464897
475407500 0.685847201846 -0.234956312971
475418000 0.685655478795 -0.234944998981
475428500 0.685437106468 -0.234861478156
475439000 0.684977023286 -0.234268937185
475449500 0.684872255029 -0.234159837312
475460000 0.685371745137 -0.234166038297
475470500 0.685469362969 -0.234587126739
475481000 0.685513729118 -0.235002985132
475491500 0.684817217408 -0.235046345436
475502000 0.685090598297 -0.235743266106
475512500 0.685378795629 -0.235372287462
475523000 0.685203494106 -0.235386914206
475533500 0.685264761987 -0.235242973552
475544000 0.685448468024 -0.235643061848
475554500 0.685592088488 -0.235888115808
475565000 0.685100676219 -0.235426610698
475575500 0.685727526173 -0.235303768966
475586000 0.685239097409 -0.234959902275
475596500 0.685077554464 -0.234916779744
475607000 0.685500182862 -0.235309056602
475617500 0.68589041718 -0.235481982962
475628000 0.685563177515 -0.235634579753
475638500 0.685076363973 -0.235766628791
475649000 0.685401252039 -0.235905262451
475659500 0.684972862512 -0.235617790868
475670000 0.685143055798 -0.234122615451
475680500 0.685303992822 -0.234758468417
475691000 0.685490824044 -0.235390766222
475701500 0.685287852297 -0.235723357514
475712000 0.685410337841 -0.236003422816
475722500 0.685530898527 -0.235483251954
475733000 0.6851660707 -0.236041572314
475743500 0.684610503345 -0.235581961681
475754000 0.684593234764 -0.236174275057
475764500 0.684339824587 -0.2354026683
475775000 0.685063634057 -0.235423222925
475785500 0.685159510751 -0.235198144932
475796000 0.68485448832 -0.235319147281
475806500 0.685524257092 -0.23579722328
475817000 0.685170200231 -0.235742876843
475827500 0.68523644765 -0.235614789869
475838000 0.685454273573 -0.236373874757
475848500 0.685205651505 -0.236222888655
475859000 0.685118841367 -0.236068623706
475869500 0.685890084397 -0.237035855464
475880000 0.685429044021 -0.235696959941
475890500 0.68524990143 -0.235986318869
475901000 0.685149397443 -0.236078317482
475911500 0.68517963205 -0.236141780529
475922000 0.68598057633 -0.236127709172
475932500 0.685585219172 -0.235704185579
475943000 0.68501798639 -0.236254829018
475953500 0.684933291518 -0.236160838664
475964000 0.684830100914 -0.236249495576
475974500 0.685053387024 -0.23658136635
475985000 0.684825746029 -0.236521938938
475995500 0.685049423437 -0.23666686573
476006000 0.685007687903 -0.236470338767
476016500 0.684607512884 -0.236267883037
476027000 0.685245222752 -0.235997865801
476037500 0.685259250583 -0.236301975995
476048000 0.685598346463 -0.236165331748
476058500 0.685439867174 -0.236417157952
476069000 0.684881049814 -0.236050756225
476079500 0.68529344622 -0.236188546833
476090000 0.685626807332 -0.236271480708
476100500 0.685006957446 -0.235658253331
476111000 0.684979176036 -0.23592820052
476121500 0.685062167199 -0.235340372295
476132000 0.685892707079 -0.236320986097
476142500 0.685341187265 -0.236013708657
476153000 0.685799950842 -0.235854606964
476163500 0.68538760965 -0.235854783931
476174000 0.686020397691 -0.236490248832
476184500 0.685485057813 -0.236199276066
476195000 0.685662985592 -0.236376759869
476205500 0.685934988141 -0.236172633875
476216000 0.685592082166 -0.237160843229
476226500 0.686414678895 -0.236618964553
476237000 0.68595209134 -0.236613216359
476247500 0.686252045159 -0.236431791411
476258000 0.686014073012 -0.236691893817
476268500 0.68479027701 -0.236937008536
476279000 0.684293119889 -0.236905487485
476289500 0.68508164357 -0.237779135892
476300000 0.685203037725 -0.237538110368
476310500 0.68513835567 -0.237096201666
476321000 0.685067884539 -0.237246109984
476331500 0.684483704945 -0.237141098908
476342000 0.685057505475 -0.237153977947
476352500 0.68523302297 -0.237496196525
476363000 0.685608997968 -0.23724985083
476373500 0.685211732261 -0.237147031622
476384000 0.685010055766 -0.237886995018
476394500 0.684768430626 -0.237130643894
476405000 0.684910374404 -0.237335267696
476415500 0.685255013141 -0.237617344982
476426000 0.685720665684 -0.237092789195
476436500 0.685315590221 -0.23732643877
476447000 0.685787129778 -0.236652605113
476457500 0.685863307385 -0.236552713459
476468000 0.685233831433 -0.237221719796
476478500 0.685127216052 -0.237179686771
476489000 0.685403871928 -0.237387388551
476499500 0.685428068348 -0.237604181355
476510000 0.685440428261 -0.237607320059
476520500 0.684825505915 -0.237220343753
476531000 0.684829913379 -0.237208491856
476541500 0.684716012834 -0.236993774597
476552000 0.684979824965 -0.237362025341
476562500 0.684890689613 -0.237650517751
476573000 0.684962092401 -0.237539757084
476583500 0.68460137719 -0.238140337845
476594000 0.685238927698 -0.237678243707
476604500 0.685064705146 -0.237683847107
476615000 0.686104089087 -0.237952227678
476625500 0.68288720772 -0.237958453005
476636000 0.696849652252 -0.242983694363
476646500 0.676373239581 -0.236901346813
476657000 0.673129912718 -0.240868278791
476667500 0.683669051697 -0.237629864803
476678000 0.687073933857 -0.238368589873
476688500 0.686170116419 -0.23915972482
476699000 0.685518501092 -0.238293662385
476709500 0.685525309584 -0.237570541282
476720000 0.685123289513 -0.237531580376
476730500 0.685139694429 -0.237559860546
476741000 0.685404178503 -0.237522174652
476751500 0.685548818797 -0.237735911771
476762000 0.685179973558 -0.238384825028
476772500 0.685039973832 -0.238434255726
476783000 0.685086567677 -0.238393130682
476793500 0.685684270474 -0.238920969181
476804000 0.684984728173 -0.2382043266
476814500 0.684764968281 -0.237974249651
476825000 0.685005002792 -0.238162164568
476835500 0.685405565861 -0.238185553846
476846000 0.68538270792 -0.238062717344
476856500 0.685586563023 -0.23805403442
476867000 0.685584082267 -0.23840306689
476877500 0.686164311136 -0.238621132261
476888000 0.684967512898 -0.238564833877
476898500 0.685701497718 -0.237877223832
476909000 0.68542023836 -0.238432726546
476919500 0.68573853998 -0.238438135932
476930000 0.685715719608 -0.238269964426
476940500 0.685568880852 -0.239013761648
476951000 0.685298966418 -0.238924415094
476961500 0.685468003176 -0.238527213229
476972000 0.68584710604 -0.239041515678
476982500 0.68622505592 -0.238522888411
476993000 0.685904818501 -0.238493480799
477003500 0.685761332951 -0.238523423774
477014000 0.685424901502 -0.238883499312
477024500 0.685069135291 -0.239205712693
477035000 0.684942072317 -0.23873004136
477045500 0.684994606078 -0.238926992548
477056000 0.685311529399 -0.239378956338
477066500 0.685316993434 -0.238939778028
477077000 0.685095456058 -0.238300334993
477087500 0.685619855435 -0.238896390746
477098000 0.68534772445 -0.238974473777
477108500 0.68544245078 -0.239804800333
477119000 0.685279752427 -0.239672528052
477129500 0.685584161829 -0.23972939891
477140000 0.685499347775 -0.239597753404
477150500 0.684872969836 -0.239873953659
477161000 0.685253193011 -0.239067941909
477171500 0.685256733973 -0.239932241162
477182000 0.684641790973 -0.240217136656
477192500 0.684971642443 -0.240510615479
477203000 0.685174015081 -0.240739089029
477213500 0.685137937415 -0.240081860384
477224000 0.684827712948 -0.239862650807
477234500 0.684721012442 -0.239346938705
477245000 0.684829073476 -0.239170621158
477255500 0.685416887277 -0.239292661805
477266000 0.684906888546 -0.239190359026
477276500 0.685019001616 -0.239457083853
477287000 0.685136040948 -0.239680011256
477297500 0.684758732775 -0.239706073907
477308000 0.684811371796 -0.239196545328
477318500 0.684984760959 -0.240008802842
477329000 0.684818958055 -0.239731180071
477339500 0.684641321738 -0.239867838966
477350000 0.685175904969 -0.239746226407
477360500 0.685428405584 -0.239617810367
477371000 0.685418276073 -0.239519573344
477381500 0.685509500769 -0.239531577653
477392000 0.685378626897 -0.239876781987
477402500 0.68587224683 -0.240530633614
477413000 0.684959369127 -0.239169959875
477423500 0.685286389708 -0.240113843069
477434000 0.685496069489 -0.23996629583
477444500 0.68533059814 -0.239262043326
477455000 0.685567616441 -0.239326387938
477465500 0.685553281909 -0.238833177308
477476000 0.684972951221 -0.240356998566
477486500 0.685767129139 -0.240196981468
477497000 0.68453950655 -0.238834441639
477507500 0.685258103985 -0.240223607391
477518000 0.684272432314 -0.239750892743
477528500 0.68465097852 -0.239302220861
477539000 0.685655528875 -0.240259778495
477549500 0.685668157038 -0.240519360957
477560000 0.684406975695 -0.237974330357
477570500 0.68624698804 -0.240494286603
477581000 0.684437820675 -0.240316033641
477591500 0.684657099925 -0.238694681314
477602000 0.68483099345 -0.239698311925
477612500 0.685464260669 -0.239380689559
477623000 0.685615368315 -0.239629092161
477633500 0.685347521962 -0.24045652086
477644000 0.684163646768 -0.240557167368
477654500 0.684963727553 -0.240298072036
477665000 0.6845373584 -0.24101133782
477675500 0.684460306007 -0.240562330457
477686000 0.68552394176 -0.239287512918
477696500 0.683754609562 -0.2404982938
477707000 0.684492413923 -0.240982648736
477717500 0.685703129628 -0.240682778144
477728000 0.684264021911 -0.239208454274
477738500 0.685549519285 -0.23727975704
477749000 0.684011790674 -0.23972026383
477759500 0.685749810998 -0.240267418712
477770000 0.686397945025 -0.24070746995
477780500 0.686658208768 -0.240034087306
477791000 0.685477679395 -0.240639754863
477801500 0.684465267844 -0.240642822156
477812000 0.684687994052 -0.242093933517
477822500 0.68443604517 -0.241095145117
477833000 0.684837179094 -0.242582847028
477843500 0.685158652318 -0.241074699394
477854000 0.68387642277 -0.240809282918
477864500 0.683412189382 -0.24195082766
477875000 0.685083692977 -0.241920876436
477885500 0.684839451444 -0.24163347926
477896000 0.684640824697 -0.24177189893
477906500 0.685142516071 -0.240908745477
477917000 0.684736507934 -0.240658227584
477927500 0.684206769165 -0.240800618254
477938000 0.684282179115 -0.240757293908
477948500 0.685739934876 -0.240603612631
477959000 0.685371927434 -0.241697461637
477969500 0.683264514995 -0.240750302075
477980000 0.684257782745 -0.241931417772
477990500 0.68489950139 -0.241426901922
478001000 0.684562039048 -0.242110564841
478011500 0.685194981219 -0.241508145715
478022000 0.684647628418 -0.240778988835
478032500 0.685432799024 -0.240603624399
478043000 0.685397389433 -0.241018742282
478053500 0.684896964466 -0.24067183113
478064000 0.685556997882 -0.241309803817
478074500 0.685124675101 -0.24097141182
478085000 0.685694782353 -0.240184332836
478095500 0.683277357285 -0.240649945567
478106000 0.685563708297 -0.242758642711
478116500 0.683657653827 -0.241680879556
478127000 0.683686800032 -0.24214966412
478137500 0.684980615519 -0.242109857185
478148000 0.683947489111 -0.243694100908
478158500 0.686994657752 -0.242341837507
478169000 0.684055224589 -0.241581669739
478179500 0.68363631847 -0.238757745055
478190000 0.685587790836 -0.243190679841
478200500 0.684117068198 -0.242243132645
478211000 0.683732422952 -0.241706924496
478221500 0.679683205378 -0.240333280493
478232000 0.684281737976 -0.24255793116
478242500 0.688200204196 -0.242236587562
478253000 0.682807659747 -0.241451357095
478263500 0.684459873854 -0.231607418882
478274000 0.685125336695 -0.24693550247
478284500 0.683490220347 -0.240997051077
478295000 0.685119357925 -0.240674116795
478305500 0.671320846557 -0.249636977736
478316000 0.684891218827 -0.24766117045
478326500 0.678300796964 -0.240332546673
478337000 0.681029409146 -0.242601392
478347500 0.683071826418 -0.238954380955
478358000 0.687874295471 -0.224140871448
478368500 0.683365516532 -0.236926315076
478379000 0.684166312278 -0.230092504959
478389500 0.689616172865 -0.241112985155
478400000 0.680003761998 -0.255041730489
478410500 0.685902866451 -0.245158012904
478421000 0.681381767457 -0.244766247254
478431500 0.694653176692 -0.245817527525
478442000 0.684043900174 -0.228062016354
478452500 0.689177236761 -0.230908968488
478463000 0.691117903968 -0.247851750012
478473500 0.687635527343 -0.243835757326
478484000 0.682417918085 -0.253238072204
478494500 0.680339594379 -0.241612031876
478505000 0.678108029023 -0.227419926713
478515500 0.688743809205 -0.243310193375
478526000 0.676396299031 -0.252545326631
478536500 0.692498211657 -0.247692013151
478547000 0.68739245537 -0.239086685939
478557500 0.687693552266 -0.246683609292
478568000 0.674561365413 -0.262480731103
478578500 0.686617266981 -0.248462210646
478589000 0.680452021141 -0.244154450989
478599500 0.678622169967 -0.247638447762
478610000 0.671473951294 -0.24221964455
478620500 0.67863504252 -0.248767676553
478631000 0.687372168483 -0.238444451519
478641500 0.680784238616 -0.238010127491
478652000 0.686835283777 -0.243779324256
478662500 0.687515010124 -0.243868338005
478673000 0.68387010474 -0.249366235018
478683500 0.680078166926 -0.239428136201
478694000 0.695038495257 -0.243570704783
478704500 0.688595243718 -0.242036438034
478715000 0.690998098155 -0.246748557608
478725500 0.675938705291 -0.237558687534
478736000 0.680257378662 -0.240319067629
478746500 0.687002834248 -0.241484546963
478757000 0.682816772478 -0.238128024941
478767500 0.683999077652 -0.242097087581
478778000 0.685148507772 -0.242655934877
478788500 0.684646410599 -0.24596547474
478799000 0.685382460003 -0.243858174457
478809500 0.688688902913 -0.237183207795
478820000 0.684566363579 -0.243620241422
478830500 0.684067652897 -0.241950432835
478841000 0.692656332164 -0.244436592205
478851500 0.686197997148 -0.239406317128
478862000 0.68553783568 -0.243585501904
478872500 0.685622926607 -0.243917768493
478883000 0.687674199159 -0.241982398409
478893500 0.684800986599 -0.243187124412
478904000 0.685629921435 -0.246481621881
478914500 0.68211920714 -0.243733187215
478925000 0.684878454167 -0.244205290683
478935500 0.683570572678 -0.243784955463
478946000 0.685027223398 -0.244501313964
478956500 0.684975620368 -0.244509770346
478967000 0.68506732151 -0.24356994335
478977500 0.685228427731 -0.244227651036
478988000 0.684423562556 -0.243094130205
478998500 0.683961028955 -0.244097325116
479009000 0.684160829908 -0.243785649021
479019500 0.685211802745 -0.243242729811
479030000 0.684939370528 -0.244245184089
479040500 0.684513051117 -0.244064921312
479051000 0.684506011171 -0.243873009541
479061500 0.684937531531 -0.243435540585
479072000 0.684624383935 -0.244136932197
479082500 0.684328840276 -0.244636757187
479093000 0.684751425084 -0.243815983059
479103500 0.685042658442 -0.245005403917
479114000 0.684173149343 -0.244565309356
479124500 0.683961636603 -0.244281067525
479135000 0.6839747066 -0.244211947876
479145500 0.684764530901 -0.244322493565
479156000 0.684391889929 -0.245126600787
479166500 0.684226688344 -0.243990034941
479177000 0.68431657074 -0.244969678239
479187500 0.684307816425 -0.244307153933
479198000 0.683997775643 -0.245635677091
479208500 0.684234268887 -0.243709770985
479219000 0.685814635017 -0.245349909071
479229500 0.684941315712 -0.244977345485
479240000 0.68445004008 -0.244835516766
479250500 0.685039052478 -0.245077196826
479261000 0.685299338902 -0.244031428007
479271500 0.685518990219 -0.245341327275
479282000 0.685771645206 -0.245509149636
479292500 0.684740219739 -0.245695736339
479303000 0.683951572925 -0.245002210877
479313500 0.68419160976 -0.244262574931
479324000 0.683935244404 -0.245683010504
479334500 0.684151621211 -0.243830136094
479345000 0.684783187843 -0.243640495802
479355500 0.683792214036 -0.242921054169
479366000 0.684680684463 -0.243353441472
479376500 0.683394395208 -0.245410284365
479387000 0.683904969207 -0.244820341298
479397500 0.684197150871 -0.244684518543
479408000 0.685092916888 -0.245227042532
479418500 0.684143904118 -0.244899241674
479429000 0.683567065134 -0.244389991505
479439500 0.684180487796 -0.245626455777
479450000 0.683435972434 -0.244070046776
479460500 0.684928510853 -0.245036877307
479471000 0.684544807322 -0.245722532367
479481500 0.68392087832 -0.245882947758
479492000 0.684728607878 -0.244726485717
479502500 0.68397657447 -0.24455527965
479513000 0.684046667074 -0.245025204454
479523500 0.68397205654 -0.244877035103
479534000 0.684961184564 -0.245179073217
479544500 0.684372227454 -0.24516897037
479555000 0.684467212086 -0.246070660789
479565500 0.684513552071 -0.245163793582
479576000 0.683768443211 -0.246281711976
479586500 0.683956307235 -0.244876013933
479597000 0.683259897991 -0.245318989131
479607500 0.683393955387 -0.24534368131
479618000 0.684129153027 -0.245823764161
479628500 0.684246722978 -0.245725794796
479639000 0.684267558531 -0.245383263901
479649500 0.684095051519 -0.245900524334
479660000 0.684186474765 -0.246095725865
479670500 0.684201159525 -0.246448913811
479681000 0.684496781737 -0.246263187354
479691500 0.683917399468 -0.246556184123
479702000 0.683828732865 -0.246663242414
479712500 0.683755531693 -0.246194909689
479723000 0.684190193462 -0.246046066176
479733500 0.684215110997 -0.246319431057
479744000 0.684778249218 -0.246240871172
479754500 0.684621267324 -0.245825911814
479765000 0.684276005833 -0.245852850522
479775500 0.684582696028 -0.24608971883
479786000 0.684546650146 -0.2463661041
479796500 0.684517889036 -0.246081448147
479807000 0.684495075463 -0.24582760218
479817500 0.684651841614 -0.246190150886
479828000 0.684645795683 -0.246584492329
479838500 0.68493344456 -0.247112489601
479849000 0.684959497313 -0.247292377906
479859500 0.684219897385 -0.246907852697
479870000 0.683852983143 -0.246927261158
479880500 0.684490309838 -0.246449550223
479891000 0.684405821884 -0.246307612649
479901500 0.684389092593 -0.246064199543
479912000 0.683738944723 -0.246706865797
479922500 0.683973523862 -0.246716965643
479933000 0.683688036446 -0.247248631192
479943500 0.684570969602 -0.246432981857
479954000 0.685938414746 -0.245357478764
479964500 0.684084065496 -0.244506498662
479975000 0.684320483535 -0.245909188981
479985500 0.683025160528 -0.246678444702
479996000 0.683071050017 -0.246430770561
480006500 0.68350610859 -0.24646424009
480017000 0.684002100055 -0.246358083621
480027500 0.683952402659 -0.246632854021
480038000 0.683905626017 -0.246931733983
480048500 0.68433081002 -0.246938000549
480059000 0.683984989805 -0.246835551129
480069500 0.684200157854 -0.246236944001
480080000 0.684158498465 -0.246496916749
480090500 0.684234819293 -0.246782652162
480101000 0.684106428105 -0.2471737654
480111500 0.684211041549 -0.246329700017
480122000 0.684181289557 -0.247583608781
480132500 0.684706876543 -0.24683176815
480143000 0.684479807909 -0.247531075336
480153500 0.684843982591 -0.247651453104
480164000 0.684507712834 -0.247407295775
480174500 0.683896988061 -0.247124683418
480185000 0.683934703517 -0.247394682555
480195500 0.683244867311 -0.247335930134
480206000 0.683469660072 -0.247274500017
480216500 0.68359926556 -0.247549002041
480227000 0.684003926958 -0.247069367821
480237500 0.682744304798 -0.247331138191
480248000 0.683316838826 -0.247502865987
480258500 0.683161929122 -0.24818254921
480269000 0.685769108151 -0.244007930369
480279500 0.683121505652 -0.247921826483
480290000 0.683570596608 -0.247744893717
480300500 0.684248027529 -0.247550340275
480311000 0.683548282391 -0.247623119876
480321500 0.683214207918 -0.247344874784
480332000 0.683255903193 -0.247472046282
480342500 0.683328365111 -0.247700137514
480353000 0.68351447402 -0.247875078569
480363500 0.683561077462 -0.247604058877
480374000 0.683419049651 -0.247338722438
480384500 0.683200592831 -0.247466355926
480395000 0.683177936332 -0.247591113742
480405500 0.683531840273 -0.247440677368
480416000 0.683583724317 -0.247792641568
480426500 0.683793228788 -0.247998079799
480437000 0.684377085222 -0.247870740425
480447500 0.684301350756 -0.247759279977
480458000 0.683407093517 -0.248001009559
480468500 0.683434590122 -0.248081580075
480479000 0.682931038193 -0.247470770835
480489500 0.683573187551 -0.247545507602
480500000 0.683924946426 -0.24747115486
480510500 0.683735134015 -0.247237414589
480521000 0.683631244006 -0.247779406065
480531500 0.683547266732 -0.247407460307
480542000 0.683654694038 -0.248258736343
480552500 0.683650619716 -0.247798535555
480563000 0.683054297411 -0.248767279202
480573500 0.68298110706 -0.247912726343
480584000 0.683043311063 -0.247664152903
480594500 0.682941267848 -0.246885378453
480605000 0.683377182062 -0.24776053844
480615500 0.682661532088 -0.248498918406
480626000 0.683243971412 -0.248094590672
480636500 0.683196630616 -0.247965349701
480647000 0.68321659016 -0.248429759011
480657500 0.683226684913 -0.248404602705
480668000 0.683643009028 -0.248318145031
480678500 0.683315090502 -0.248294609169
480689000 0.683840015471 -0.247968196577
480699500 0.683656252341 -0.248778623986
480710000 0.683108979491 -0.248609560767
480720500 0.683509864366 -0.248755413517
480731000 0.683215489077 -0.249093414791
480741500 0.682650030219 -0.249137533871
480752000 0.683432737975 -0.249185055675
480762500 0.683446732621 -0.249607770003
480773000 0.683352574006 -0.248838271539
480783500 0.683012710665 -0.248640126811
480794000 0.683218574112 -0.248455316433
480804500 0.682489101282 -0.248980426145
480815000 0.683229078374 -0.248533767939
480825500 0.683620479983 -0.248710649647
480836000 0.683455169382 -0.248580200113
480846500 0.68360370796 -0.248615941513
480857000 0.683171627812 -0.248670359205
480867500 0.682693698895 -0.248907254379
480878000 0.683781322461 -0.248778279895
480888500 0.683242059434 -0.248808076727
480899000 0.683101123634 -0.248618026809
480909500 0.683390372011 -0.249092445997
480920000 0.682861804053 -0.249442311867
480930500 0.683061402188 -0.2491903182
480941000 0.682821440574 -0.249093383904
480951500 0.682942504631 -0.248882730545
480962000 0.682746481334 -0.248608361539
480972500 0.681800289909 -0.248900129065
480983000 0.681028897325 -0.248203027183
480993500 0.680401833353 -0.248933778423
481004000 0.677879473806 -0.248307924011
481014500 0.68273943263 -0.249548926503
481025000 0.683004828562 -0.250016303625
481035500 0.682664914678 -0.249471785717
481046000 0.682306263752 -0.249714784611
481056500 0.682288303147 -0.249675854812
481067000 0.682560734481 -0.249495002369
481077500 0.682507961306 -0.249275674524
481088000 0.682310486799 -0.249466276225
481098500 0.682720683108 -0.249439275394
481109000 0.682481053252 -0.249587872113
481119500 0.682790406399 -0.248619312378
481130000 0.682693969302 -0.249237829374
481140500 0.682955201863 -0.249615213167
481151000 0.682770555028 -0.249521465988
481161500 0.682610090553 -0.249255559576
481172000 0.681971218269 -0.248965915509
481182500 0.682244340993 -0.249177192079
481193000 0.682471484248 -0.249162339805
481203500 0.682509881793 -0.249578626417
481214000 0.682482778096 -0.249415887846
481224500 0.682068779427 -0.250171565088
481235000 0.682077868047 -0.250202537609
481245500 0.681916779841 -0.250721921473
481256000 0.682122850776 -0.251276404998
481266500 0.681792498854 -0.250673920843
481277000 0.68231911385 -0.249595249786
481287500 0.682323136671 -0.249278766867
481298000 0.687238266958 -0.250831031169
481308500 0.682916802297 -0.250423440522
481319000 0.682304317038 -0.250453669514
481329500 0.682665439283 -0.250275837608
481340000 0.682348718334 -0.25012233835
481350500 0.682122668429 -0.250447061573
481361000 0.68198321136 -0.250687850325
481371500 0.681602462047 -0.250341219299
481382000 0.68150416286 -0.250185004644
481392500 0.682832625056 -0.250157289488
481403000 0.682750295836 -0.24994122093
481413500 0.683202836711 -0.25033848852
481424000 0.683243550136 -0.250183994604
481434500 0.682661508458 -0.250222226367
481445000 0.682621866028 -0.250283582305
481455500 0.682878951642 -0.250616977832
481466000 0.682737952682 -0.250072378138
481476500 0.683069190908 -0.249928682657
481487000 0.682644926939 -0.250726690147
481497500 0.683042541127 -0.251179512717
481508000 0.682516167095 -0.251460800733
481518500 0.682833207875 -0.251119174018
481529000 0.683351250892 -0.25083908344
481539500 0.683694680829 -0.250706897681
481550000 0.683489429512 -0.2514229764
481560500 0.684073801175 -0.250903915576
481571000 0.682814388172 -0.250713198609
481581500 0.68297502654 -0.25074071248
481592000 0.682633537168 -0.250288777792
481602500 0.68284887962 -0.250194319715
481613000 0.683463944888 -0.250091286177
481623500 0.682624679933 -0.250635132041
481634000 0.68296220011 -0.2501564561
481644500 0.6822586891 -0.250833192064
481655000 0.682342421132 -0.2509261614
481665500 0.682704624983 -0.251297270005
481676000 0.68169623101 -0.250631240328
481686500 0.682106430001 -0.252030870009
481697000 0.682621102853 -0.252794561586
481707500 0.681397714952 -0.253281846856
481718000 0.682218944891 -0.25318736086
481728500 0.682136606538 -0.251882122585
481739000 0.682097039708 -0.250176361783
481749500 0.681520238399 -0.252510291738
481760000 0.681854809429 -0.252127001458
481770500 0.682659117513 -0.251433414744
481781000 0.682764178766 -0.249544998748
481791500 0.682364329941 -0.248865321947
481802000 0.682848883725 -0.248349182023
481812500 0.683346468961 -0.25139969309
481823000 0.682218430702 -0.251892757075
481833500 0.683667943051 -0.252296266882
481844000 0.682676773356 -0.251577310786
481854500 0.682015073133 -0.251634185435
481865000 0.682001149844 -0.251813619698
481875500 0.681915998353 -0.251671648474
481886000 0.681457240161 -0.251277680815
481896500 0.681818839836 -0.251084946503
481907000 0.681498178084 -0.251760645784
481917500 0.681815974296 -0.251927948839
481928000 0.682043700816 -0.251855494603
481938500 0.682246087267 -0.252087278729
481949000 0.682723784337 -0.252772067278
481959500 0.682996831736 -0.254949609825
481970000 0.682735453856 -0.255043683717
481980500 0.682230537152 -0.253859144128
481991000 0.682497085692 -0.252911664642
482001500 0.682652913145 -0.251588023588
482012000 0.681210602837 -0.251773812915
482022500 0.682506656055 -0.252145021143
482033000 0.682045279583 -0.252428450385
482043500 0.682383246116 -0.250933820585
482054000 0.680764525338 -0.251763049486
482064500 0.680497724838 -0.253109074387
482075000 0.680104807926 -0.250377646222
482085500 0.680850908903 -0.251939772784
482096000 0.681797891518 -0.251782645978
482106500 0.680405411468 -0.252091099373
482117000 0.682797998447 -0.253123838784
482127500 0.682568143286 -0.250665543445
482138000 0.682264526698 -0.252055557914
482148500 0.681918703291 -0.253018696382
482159000 0.682473230335 -0.251883873669
482169500 0.68066387194 -0.252948611214
482180000 0.684766627965 -0.253608267376
482190500 0.680582150553 -0.251827039264
482201000 0.682820288192 -0.254017616511
482211500 0.676661979468 -0.253789818445
482222000 0.682997975466 -0.251203976732
482232500 0.679723579533 -0.251898727627
482243000 0.683778518086 -0.251477852262
482253500 0.683906250375 -0.254090578991
482264000 0.688330684708 -0.253177379729
482274500 0.683024596921 -0.253134056561
482285000 0.682034519166 -0.253311964342
482295500 0.680944917597 -0.253892332021
482306000 0.675658773539 -0.253454067061
482316500 0.68071187894 -0.25020417642
482327000 0.674808952484 -0.254866385414
482337500 0.684756724725 -0.256761279356
482348000 0.679617124403 -0.249503443483
482358500 0.683896413203 -0.256421570295
482369000 0.680572528431 -0.256094418536
482379500 0.676260392836 -0.248064329735
482390000 0.678362304307 -0.254292938334
482400500 0.680172028724 -0.254096365543
482411000 0.679378587475 -0.25685771728
482421500 0.687677207525 -0.249943025494
482432000 0.679083500908 -0.247774775433
482442500 0.684759640137 -0.257311752095
482453000 0.674889307978 -0.247721114269
482463500 0.671335831438 -0.247900756651
482474000 0.686820033856 -0.253725720182
482484500 0.676851246298 -0.255726037474
482495000 0.685450564946 -0.259825357771
482505500 0.673779251749 -0.252207879932
482516000 0.679832790022 -0.248230560095
482526500 0.677274609758 -0.254469796393
482537000 0.680484446251 -0.254945092864
482547500 0.690038260753 -0.255406106568
482558000 0.686520237259 -0.261702491058
482568500 0.680231985154 -0.258763970793
482579000 0.676491350868 -0.256163475347
482589500 0.677586694738 -0.261182590712
482600000 0.681013232309 -0.256480406188
482610500 0.677951038799 -0.248759619009
482621000 0.677491679592 -0.255347261248
482631500 0.680779459337 -0.245004042701
482642000 0.692611645863 -0.25169623593
482652500 0.677572247524 -0.260024542455
482663000 0.681465672065 -0.25763014336
482673500 0.684998583884 -0.255905245952
482684000 0.684626423702 -0.256818422028
482694500 0.670296942746 -0.259230193331
482705000 0.682286929679 -0.25287179316
482715500 0.684050637093 -0.250460032635
482726000 0.684619307988 -0.255939485673
482736500 0.678230848973 -0.254150425413
482747000 0.683151806849 -0.252058851056
482757500 0.681635070628 -0.255618644214
482768000 0.682308666647 -0.25311785579
482778500 0.680984116278 -0.252795301763
482789000 0.680908201496 -0.252162753783
482799500 0.687514778504 -0.254424919788
482810000 0.680643939758 -0.253322009422
482820500 0.680353262684 -0.250601870066
482831000 0.681608293833 -0.254468547877
482841500 0.681003095482 -0.256211602118
482852000 0.682556061084 -0.253787341504
482862500 0.678730337556 -0.252985881213
482873000 0.683229398451 -0.252968255755
482883500 0.678433195668 -0.249873083222
482894000 0.682196836286 -0.253761855705
482904500 0.681685266531 -0.254855882826
482915000 0.680750634994 -0.253672232902
482925500 0.680879652593 -0.252719373672
482936000 0.67980854474 -0.254286905196
482946500 0.678803763958 -0.254848428605
482957000 0.679201719664 -0.255871015173
482967500 0.679261439178 -0.253904208439
482978000 0.679410313706 -0.253523920643
482988500 0.679352083574 -0.254673259824
482999000 0.679802952105 -0.254142551522
483009500 0.681286312611 -0.252606916136
483020000 0.680433703672 -0.253967303886
483030500 0.681301432047 -0.254891785815
483041000 0.682367155299 -0.253915929029
483051500 0.680573868351 -0.254012406881
483062000 0.6802065955 -0.253749497862
483072500 0.681759136659 -0.253656486049
483083000 0.679946698335 -0.253873101141
483093500 0.680035834188 -0.254641631541
483104000 0.68027708473 -0.253835146783
483114500 0.680238698469 -0.25394429824
483125000 0.679078665283 -0.253240661473
483135500 0.680413258633 -0.253965878805
483146000 0.680820967482 -0.254688300467
483156500 0.680453233627 -0.254267506291
483167000 0.678088437801 -0.255670215071
483177500 0.679242569132 -0.253088834847
483188000 0.680522061399 -0.254016606609
483198500 0.678675678059 -0.25487977451
483209000 0.680540611835 -0.255240753576
483219500 0.682593260956 -0.255735673368
483230000 0.677827170284 -0.253780452699
483240500 0.68139594543 -0.255245802523
483251000 0.68134923944 -0.25643987166
483261500 0.679172945493 -0.254114199222
483272000 0.681432902657 -0.254546850387
483282500 0.679924171469 -0.255058876772
483293000 0.679142438086 -0.254363289178
483303500 0.679066973776 -0.254275525155
483314000 0.679781232756 -0.253664662932
483324500 0.679285962516 -0.253697773739
483335000 0.679490002917 -0.252929254062
483345500 0.678642371333 -0.254540007095
483356000 0.678974139702 -0.255760336054
483366500 0.678725730607 -0.253450861427
483377000 0.679197778531 -0.257675668657
483387500 0.678054693015 -0.256390869714
483398000 0.68047150081 -0.254677863985
483408500 0.678724830356 -0.255835778835
483419000 0.679505111708 -0.255377310112
483429500 0.679310797392 -0.255539842725
483440000 0.679242166306 -0.254277766203
483450500 0.679813646056 -0.254214946608
483461000 0.679269697991 -0.254858223096
483471500 0.680778274396 -0.254752753532
483482000 0.679603978435 -0.25480164744
483492500 0.679645026248 -0.255312748038
483503000 0.679140322496 -0.254924418939
483513500 0.67976228151 -0.255261123124
483524000 0.680098427581 -0.253901984701
483534500 0.680163945962 -0.254502677115
483545000 0.679602374655 -0.254789380533
483555500 0.679939559589 -0.255349609327
483566000 0.679407192872 -0.255487645522
483576500 0.679009133604 -0.255341586785
483587000 0.679478808376 -0.255137228003
483597500 0.678846374767 -0.255535420424
483608000 0.678645683205 -0.255930621189
483618500 0.67911583531 -0.255568154262
483629000 0.679896631987 -0.255418773924
483639500 0.679691897453 -0.255784276533
483650000 0.679850688456 -0.255843949689
483660500 0.68034533968 -0.256069703315
483671000 0.680536939201 -0.255353675807
483681500 0.679962083206 -0.25548356898
483692000 0.679722599252 -0.25551232477
483702500 0.679183668593 -0.255925455047
483713000 0.679378845307 -0.255478792286
483723500 0.679170839355 -0.255298915286
483734000 0.679286063155 -0.255725261618
483744500 0.678942174071 -0.255855321798
483755000 0.678751729956 -0.256407227175
483765500 0.678294942254 -0.255994036076
483776000 0.678516830773 -0.256169664013
483786500 0.678692534752 -0.256371741492
483797000 0.679166410965 -0.255728489889
483807500 0.678498501882 -0.255541083704
483818000 0.679329141853 -0.255646662617
483828500 0.678814531894 -0.2558358429
483839000 0.678960853294 -0.256347421676
483849500 0.679656187819 -0.25592481945
483860000 0.679217735017 -0.255071682076
483870500 0.679600660607 -0.255725862024
483881000 0.681088564288 -0.25769306737
483891500 0.678658151868 -0.255452451054
483902000 0.678861963267 -0.255799310098
483912500 0.678043093271 -0.255747722103
483923000 0.678596544414 -0.256217082535
483933500 0.678453809105 -0.256319498845
483944000 0.678317163678 -0.256237381229
483954500 0.677976001292 -0.25632094427
483965000 0.678141302775 -0.256839752017
483975500 0.678466718626 -0.257301194468
483986000 0.678421143799 -0.257002952997
483996500 0.678327951351 -0.256810891201
484007000 0.677911240295 -0.256818442301
484017500 0.678395925631 -0.256343241742
484028000 0.678204058457 -0.255894305907
484038500 0.678331667154 -0.255551189846
484049000 0.677681976958 -0.255736996153
484059500 0.678090369945 -0.256495166649
484070000 0.677761110906 -0.25602298299
484080500 0.678121116954 -0.256325891307
484091000 0.678292957604 -0.256288320378
484101500 0.678330128443 -0.255992098314
484112000 0.678489873765 -0.256303560573
484122500 0.677902493731 -0.255438873068
484133000 0.677670280998 -0.255729743183
484143500 0.677600140457 -0.256096817261
484154000 0.677949180773 -0.255259347078
484164500 0.67772932383 -0.255898232636
484175000 0.677813684699 -0.256677178361
484185500 0.677839573049 -0.2563374696
484196000 0.677905416828 -0.25601429877
484206500 0.678200802243 -0.255634078408
484217000 0.678383847982 -0.255765903263
484227500 0.677946374129 -0.256016030258
484238000 0.678214344001 -0.25638540265
484248500 0.677403990039 -0.256472571299
484259000 0.67795232129 -0.255880237472
484269500 0.677406041189 -0.255937848965
484280000 0.677983026301 -0.256289975139
484290500 0.678297616257 -0.256324331676
484301000 0.677818699008 -0.256533325343
484311500 0.678202758104 -0.256798232316
484322000 0.678236380514 -0.256708820963
484332500 0.678319902192 -0.256966811543
484343000 0.678179973343 -0.256138199412
484353500 0.678585308636 -0.256723010578
484364000 0.677730276961 -0.256479470768
484374500 0.678047264723 -0.256214253662
484385000 0.678061322637 -0.256082123285
484395500 0.677763167316 -0.256816164812
484406000 0.677836948669 -0.256636195695
484416500 0.678171100629 -0.256263282674
484427000 0.677815043186 -0.256689253492
484437500 0.677370793114 -0.256955951255
484448000 0.677667303236 -0.256880843918
484458500 0.677546038034 -0.256715963685
484469000 0.678120653817 -0.256956146283
484479500 0.677878713147 -0.256885331985
484490000 0.67806864843 -0.256609408395
484500500 0.677971245361 -0.256686475305
484511000 0.678003854715 -0.256230560276
484521500 0.677725775814 -0.25656770897
484532000 0.67748723128 -0.257077759933
484542500 0.677948655917 -0.256764189646
484553000 0.677977277457 -0.257014575643
484563500 0.677509464989 -0.257168335086
484574000 0.677271551834 -0.257251061711
484584500 0.676819269939 -0.257175086306
484595000 0.677320636311 -0.256777841706
484605500 0.676979832981 -0.2576299023
484616000 0.676931557148 -0.258926171382
484626500 0.67689653367 -0.257297152879
484637000 0.677194642116 -0.257286962649
484647500 0.677555415699 -0.256749627866
484658000 0.6770245013 -0.256656752971
484668500 0.677056162432 -0.257221742949
484679000 0.677975853446 -0.256609403876
484689500 0.677605061611 -0.256458868718
484700000 0.678372519333 -0.256974329634
484710500 0.677932736721 -0.256768652181
484721000 0.677834244276 -0.256903685133
484731500 0.677280819308 -0.256953423531
484742000 0.677278143781 -0.257010469159
484752500 0.676883720987 -0.257651143719
484763000 0.67693984584 -0.257418662039
484773500 0.677151784555 -0.25776858758
484784000 0.676929383035 -0.257311155938
484794500 0.677211147075 -0.257344067363
484805000 0.676958915333 -0.257182964067
484815500 0.677230726586 -0.257178365134
484826000 0.677253194757 -0.257185659541
484836500 0.677289943631 -0.256697307491
484847000 0.677446621532 -0.25633394491
484857500 0.676898044714 -0.257239694179
484868000 0.676167671076 -0.257386612818
484878500 0.676585060274 -0.257863397684
484889000 0.676159314687 -0.257220882896
484899500 0.67665604363 -0.257812336312
484910000 0.676762133272 -0.257249890159
484920500 0.676676192597 -0.257012612973
484931000 0.676454036074 -0.256819029739
484941500 0.676717086284 -0.256896797
484952000 0.676451294658 -0.257525118431
484962500 0.676501387479 -0.256705086512
484973000 0.676250770058 -0.256717106592
484983500 0.676460382809 -0.255537423835
484994000 0.676012779395 -0.256222745377
485004500 0.676114172011 -0.256577544318
485015000 0.675778869372 -0.257438959523
485025500 0.676819596417 -0.257354121929
485036000 0.676601058965 -0.257103457843
485046500 0.676872753114 -0.25751359245
485057000 0.677186508882 -0.257516153507
485067500 0.676898609575 -0.257881065486
485078000 0.676326439928 -0.257912102754
485088500 0.675917642426 -0.257931931271
485099000 0.675771136654 -0.257774880829
485109500 0.675452010565 -0.257763131107
485120000 0.675829527405 -0.258198401891
485130500 0.676132123859 -0.258203966548
485141000 0.676474840275 -0.257741274725
485151500 0.67621864512 -0.257437533437
485162000 0.675917129699 -0.257038167335
485172500 0.676008510014 -0.257412397538
485183000 0.676826526643 -0.256726018694
485193500 0.676323448988 -0.257397906818
485204000 0.676036179032 -0.257070742099
485214500 0.675833988369 -0.2572374338
485225000 0.676025350751 -0.257602261126
485235500 0.675973006751 -0.258066457083
485246000 0.675833309001 -0.258124239948
485256500 0.676169578943 -0.257964133073
485267000 0.676009533406 -0.258268667185
485277500 0.676646768605 -0.258357063198
485288000 0.676211200612 -0.25888863068
485298500 0.676830897429 -0.258797520125
485309000 0.677230318924 -0.258909107883
485319500 0.676611764308 -0.25848338396
485330000 0.676010687879 -0.258339446565
485340500 0.675985552025 -0.258785149703
485351000 0.67555322401 -0.258225774382
485361500 0.675388541854 -0.257876970802
485372000 0.675036975457 -0.258054792393
485382500 0.675537612778 -0.258276774218
485393000 0.675739458266 -0.257845645281
485403500 0.675798653782 -0.25848328567
485414000 0.675514616009 -0.258235966454
485424500 0.676061826722 -0.258254483868
485435000 0.675892276848 -0.258101680805
485445500 0.675205136974 -0.257551797741
485456000 0.675146207484 -0.258051737735
485466500 0.676502804678 -0.258839066859
485477000 0.675951493083 -0.258116774651
485487500 0.676017549906 -0.258167467212
485498000 0.676160553919 -0.257826904244
485508500 0.675165305975 -0.257899819126
485519000 0.676656389926 -0.259167442225
485529500 0.676052070126 -0.258525629537
485540000 0.675633193397 -0.258139185631
485550500 0.676001511048 -0.257736050457
485561000 0.675515891998 -0.257331483869
485571500 0.676920897096 -0.258421266931
485582000 0.676330815326 -0.2581472156
485592500 0.676250270619 -0.258052762789
485603000 0.675418034046 -0.258446440322
485613500 0.676126236118 -0.259138353259
485624000 0.675316619156 -0.257594054838
485634500 0.675284324196 -0.257106130246
485645000 0.677982657763 -0.25730621121
485655500 0.67844723905 -0.258551498374
485666000 0.677147404741 -0.258368789148
485676500 0.676933418971 -0.257796316283
485687000 0.67712812098 -0.25799983697
485697500 0.676028849174 -0.258535901682
485708000 0.675169593848 -0.257161996237
485718500 0.676385708865 -0.257597701509
485729000 0.676185286958 -0.258093101729
485739500 0.6749762956 -0.259290191487
485750000 0.675040001107 -0.258460918905
485760500 0.676773552035 -0.258509125449
485771000 0.676150658371 -0.25764728957
485781500 0.674890309674 -0.2576666274
485792000 0.674886211294 -0.260638503706
485802500 0.673688646614 -0.258752457124
485813000 0.674699668558 -0.259223115659
485823500 0.675351542838 -0.259130223046
485834000 0.674254424961 -0.25863993575
485844500 0.675623929111 -0.258172993296
485855000 0.67768116242 -0.259102239246
485865500 0.675606350309 -0.258183093698
485876000 0.676606526549 -0.258832275085
485886500 0.674910284344 -0.256717490773
485897000 0.674983623484 -0.258230169959
485907500 0.675729886182 -0.258345987731
485918000 0.675693043664 -0.258055916663
485928500 0.675990841912 -0.257976119654
485939000 0.673852454551 -0.257069124072
485949500 0.675769762597 -0.258159862794
485960000 0.675184147958 -0.258360050483
485970500 0.675516075117 -0.259460025976
485981000 0.675575744945 -0.258377567921
485991500 0.675450948618 -0.258423202548
486002000 0.675400713188 -0.258499915694
486012500 0.676562645472 -0.257753230536
486023000 0.675425049025 -0.258291967206
486033500 0.675736285737 -0.259932775356
486044000 0.676206160313 -0.258769234442
486054500 0.678116745164 -0.26032973319
486065000 0.6758695653 -0.259571382246
486075500 0.675100750083 -0.257179113167
486086000 0.674888647768 -0.257745147734
486096500 0.670194293454 -0.26015947837
486107000 0.674586612814 -0.260692122678
486117500 0.674760080065 -0.258635156659
486128000 0.673799494201 -0.260166194373
486138500 0.673869687729 -0.261983420597
486149000 0.674836548371 -0.260445862055
486159500 0.674041809171 -0.258200142442
486170000 0.67355844994 -0.2610843812
486180500 0.67546502548 -0.25840785367
486191000 0.67518911416 -0.259637918642
486201500 0.670466990365 -0.262382229875
486212000 0.675460769605 -0.257352221214
486222500 0.674330011518 -0.25828685587
486233000 0.672513433322 -0.25749115933
486243500 0.671456544723 -0.263752325688
486254000 0.675913491138 -0.256111164357
486264500 0.675799146865 -0.257956301371
486275000 0.670059098145 -0.257381882914
486285500 0.669572511143 -0.256990313049
486296000 0.670538102755 -0.257057618188
486306500 0.675306974104 -0.256537056944
486317000 0.678354851522 -0.256880996756
486327500 0.673616748355 -0.262307733737
486338000 0.671219764879 -0.255933614619
486348500 0.679632119249 -0.261785854845
486359000 0.677595297032 -0.256244328558
486369500 0.666598937591 -0.259490945596
486380000 0.670940086711 -0.266616892877
486390500 0.678945298604 -0.258573339698
486401000 0.66843831272 -0.264815732137
486411500 0.672777204515 -0.253451902093
486422000 0.676061606457 -0.267690813257
486432500 0.67041904785 -0.264987690698
486443000 0.673438410386 -0.256213600939
486453500 0.674381553473 -0.255065785047
486464000 0.680863021264 -0.25924515855
486474500 0.684339717033 -0.263240155038
486485000 0.675152112321 -0.258814413996
486495500 0.674465047146 -0.263613747948
486506000 0.681131112378 -0.270259964518
486516500 0.680580357779 -0.257105360344
486527000 0.67758667606 -0.258777194553
486537500 0.680220851261 -0.255718322711
486548000 0.677160270945 -0.256213185898
486558500 0.677916793234 -0.262698976414
486569000 0.675597891115 -0.255290823041
486579500 0.680084662738 -0.257085498895
486590000 0.676229643418 -0.256755859824
486600500 0.67233977882 -0.256086194512
486611000 0.676160599299 -0.256577250282
486621500 0.672364672829 -0.260116040452
486632000 0.672282334871 -0.263374409462
486642500 0.673836672168 -0.256860285426
486653000 0.673717584833 -0.25891198429
486663500 0.67769833972 -0.258879872507
486674000 0.681881264831 -0.265169613744
486684500 0.677083495764 -0.256761776968
486695000 0.673606031408 -0.256734587812
486705500 0.67448356202 -0.258270238529
486716000 0.68184811927 -0.255507123006
486726500 0.673300750156 -0.260203529958
486737000 0.674156276488 -0.258628035082
486747500 0.671911736599 -0.258700846999
486758000 0.67282420803 -0.257856992883
486768500 0.674726333166 -0.2594333677
486779000 0.671279897278 -0.261011378396
486789500 0.676017603498 -0.257243601641
486800000 0.674518118998 -0.259013857497
486810500 0.677214978465 -0.256421576861
486821000 0.673429059385 -0.259664412563
486831500 0.673455086603 -0.260125542869
486842000 0.6731771924 -0.259011240752
486852500 0.678536176162 -0.258446587053
486863000 0.676937018713 -0.261414510205
486873500 0.674327990813 -0.259304285674
486884000 0.674039741675 -0.257190534531
486894500 0.674640430052 -0.261253869341
486905000 0.675473706212 -0.259302869665
486915500 0.676404661293 -0.260414992892
486926000 0.673999822154 -0.259481136227
486936500 0.674324024184 -0.260088910148
486947000 0.672982800667 -0.259250462672
486957500 0.672322431503 -0.259447597109
486968000 0.674677722143 -0.259802420713
486978500 0.673294214593 -0.258212063046
486989000 0.673150480007 -0.259694554901
486999500 0.673875433639 -0.258854920194
487010000 0.673310223962 -0.259606525056
487020500 0.673311670735 -0.25903811551
487031000 0.672771792237 -0.260343938702
487041500 0.672634708092 -0.259870054263
487052000 0.673720041725 -0.259763794015
487062500 0.673718887125 -0.259176006382
487073000 0.673810728906 -0.260143929367
487083500 0.674077141469 -0.259804383453
487094000 0.672894142799 -0.25936415954
487104500 0.672468232461 -0.258620266794
487115000 0.672504260198 -0.259070696636
487125500 0.672418725297 -0.259605091559
487136000 0.673286486929 -0.25887193979
487146500 0.67304173822 -0.258221892883
487157000 0.672279917612 -0.259320545792
487167500 0.672063051366 -0.259406150516
487178000 0.673484902187 -0.259304763153
487188500 0.672229241372 -0.259377890023
487199000 0.672933257679 -0.25959590877
487209500 0.672436003426 -0.259430053537
487220000 0.673240686452 -0.259469218436
487230500 0.673204010535 -0.260174031708
487241000 0.673048332994 -0.25914994481
487251500 0.673960818656 -0.259550848257
487262000 0.673833512409 -0.259712184052
487272500 0.673409914627 -0.25921781801
487283000 0.673056746296 -0.259419423881
487293500 0.673208246036 -0.259913975198
487304000 0.672193495053 -0.259068054846
487314500 0.672303583482 -0.259179392521
487325000 0.67272515471 -0.258660002636
487335500 0.672411469458 -0.259098906509
487346000 0.673177073528 -0.259494969379
487356500 0.671850678134 -0.259930123976
487367000 0.672643677854 -0.260298288249
487377500 0.672307815539 -0.261378790727
487388000 0.672794273264 -0.260769828729
487398500 0.673305492568 -0.259573647985
487409000 0.673386198902 -0.259107743742
487419500 0.675298692071 -0.259674932478
487430000 0.671670979347 -0.25726266739
487440500 0.674412419277 -0.258955114985
487451000 0.673065028485 -0.258984629192
487461500 0.672269603025 -0.259472471902
487472000 0.671046261716 -0.261542175942
487482500 0.667276635124 -0.260551450133
487493000 0.709472374329 -0.290073297557
487503500 0.669311846606 -0.260807960862
487514000 0.66821657609 -0.258121892191
487524500 0.669514044003 -0.258130414836
487535000 0.671320298542 -0.258472608937
487545500 0.672009271838 -0.25919445583
487556000 0.672529944752 -0.259187392846
487566500 0.672409963403 -0.259665385462
487577000 0.673086545345 -0.258941094714
487587500 0.672897630498 -0.259569193759
487598000 0.672693466381 -0.259923606601
487608500 0.672686200779 -0.260107609358
487619000 0.6731641796 -0.26013909322
487629500 0.672649537152 -0.259596354334
487640000 0.672055634682 -0.260070544265
487650500 0.671880570499 -0.259545613055
487661000 0.67247975059 -0.259607406517
487671500 0.672459423561 -0.259697138389
487682000 0.67241575518 -0.25984013518
487692500 0.672537625998 -0.260307052515
487703000 0.673056081572 -0.259407698285
487713500 0.673150983096 -0.259994717057
487724000 0.672910843907 -0.260112879251
487734500 0.672518746377 -0.259644190542
487745000 0.672717111157 -0.259827138379
487755500 0.672531427411 -0.259831666557
487766000 0.672497867781 -0.260439022854
487776500 0.672409205415 -0.259943144376
487787000 0.67253652001 -0.2600669416
487797500 0.673153351827 -0.260432531343
487808000 0.67234735145 -0.260250815942
487818500 0.672353682325 -0.260295726379
487829000 0.672079641948 -0.260212403998
487839500 0.672295129131 -0.259982797314
487850000 0.6720919796 -0.260621010965
487860500 0.671728504897 -0.260587721431
487871000 0.672059670697 -0.260506789641
487881500 0.672160762923 -0.260051975866
487892000 0.672047299459 -0.259691373754
487902500 0.671803711344 -0.259991629578
487913000 0.671820893 -0.259764994989
487923500 0.671657871246 -0.25945522534
487934000 0.672266102371 -0.259616379843
487944500 0.673342981647 -0.259798722631
487955000 0.672432727071 -0.259634705034
487965500 0.671739931505 -0.259712190148
487976000 0.671725051835 -0.25967924578
487986500 0.671966448393 -0.259764277365
487997000 0.672406442838 -0.25940099905
488007500 0.672331330706 -0.258917641391
488018000 0.672719463329 -0.259500572461
488028500 0.672061199063 -0.260058581695
488039000 0.672108647334 -0.259599617112
488049500 0.671966126387 -0.259662218039
488060000 0.672265416714 -0.259893387972
488070500 0.672524481799 -0.259531002015
488081000 0.67211829375 -0.260170689172
488091500 0.672121368104 -0.260477454775
488102000 0.672031560402 -0.260272108059
488112500 0.672508219729 -0.260552315384
488123000 0.671978896129 -0.260174275717
488133500 0.672147824008 -0.260022735638
488144000 0.671914184113 -0.260144443555
488154500 0.672406497493 -0.259938448801
488165000 0.672148383872 -0.259964745408
488175500 0.672441078081 -0.25962453362
488186000 0.672172811207 -0.259652587781
488196500 0.672063982104 -0.259710075863
488207000 0.671772998431 -0.259505112373
488217500 0.671744232191 -0.25987728077
488228000 0.671987432848 -0.260545347041
488238500 0.672303830155 -0.260871879785
488249000 0.672109682495 -0.260435111845
488259500 0.671643114234 -0.260076590087
488270000 0.671722375228 -0.26055312293
488280500 0.671794593128 -0.259912050695
488291000 0.671563962847 -0.26022489058
488301500 0.672051034357 -0.260173372444
488312000 0.671890645841 -0.260188434567
488322500 0.672364360491 -0.260336027544
488333000 0.672481308533 -0.2602183755
488343500 0.672284755441 -0.259995126077
488354000 0.672090801744 -0.259845661572
488364500 0.672118019096 -0.260415703618
488375000 0.672024835448 -0.26018007123
488385500 0.671779987438 -0.260430451722
488396000 0.67141058327 -0.260118312641
488406500 0.671477534842 -0.259816567333
488417000 0.671193657712 -0.259777737161
488427500 0.671527982313 -0.259907586279
488438000 0.671897112968 -0.260013446559
488448500 0.671970582178 -0.260047434465
488459000 0.671618473608 -0.260295254985
488469500 0.671889448431 -0.259975370164
488480000 0.67136563209 -0.260335619993
488490500 0.67063604716 -0.260002976877
488501000 0.67102937768 -0.260203674916
488511500 0.670857421993 -0.260318331212
488522000 0.670741483836 -0.260752537923
488532500 0.670890465503 -0.260182165399
488543000 0.671493580507 -0.260759936452
488553500 0.671604197473 -0.260251339245
488564000 0.671006358479 -0.260192676434
488574500 0.67116310273 -0.260381993884
488585000 0.671377300859 -0.260772248685
488595500 0.671514628129 -0.260383392014
488606000 0.671724824405 -0.260153372591
488616500 0.671374141621 -0.260802286798
488627000 0.671775570281 -0.260181842774
488637500 0.671306167263 -0.260031162024
488648000 0.670802367022 -0.259872314719
488658500 0.671512141133 -0.260301192286
488669000 0.671886977857 -0.260067760582
488679500 0.671641040211 -0.260024143411
488690000 0.671790112037 -0.259307626633
488700500 0.670920030274 -0.259666068114
488711000 0.671161184804 -0.26027373375
488721500 0.671321836345 -0.260292556258
488732000 0.671483274249 -0.260583748999
488742500 0.671158657967 -0.260230824756
488753000 0.670714873724 -0.260351154028
488763500 0.671123623097 -0.26018795357
488774000 0.671230928636 -0.260305993071
488784500 0.671339635005 -0.260713738143
488795000 0.67085362189 -0.260418439079
488805500 0.67121398211 -0.260428662492
488816000 0.670857515784 -0.259978676513
488826500 0.671243297062 -0.260427626243
488837000 0.671243561035 -0.259816943419
488847500 0.671071892409 -0.260138682587
488858000 0.671432690414 -0.259714403472
488868500 0.670964151817 -0.260614718073
488879000 0.670642293569 -0.260388388389
488889500 0.671214186786 -0.260710205206
488900000 0.671922806926 -0.26025817395
488910500 0.671545500799 -0.260119624096
488921000 0.670904102669 -0.260021624246
488931500 0.671133040971 -0.260056844233
488942000 0.670594369344 -0.260442963256
488952500 0.669615989647 -0.262438520473
488963000 0.671219587977 -0.260710803268
488973500 0.671002430559 -0.260595497861
488984000 0.671097334241 -0.260404637351
488994500 0.671248155349 -0.260007760819
489005000 0.671294914748 -0.260322233843
489015500 0.670979478255 -0.260656885328
489026000 0.671053040327 -0.259909431231
489036500 0.671295251207 -0.259024382804
489047000 0.670975148656 -0.260337626203
489057500 0.67088139923 -0.260632400102
489068000 0.670990027808 -0.260466115205
489078500 0.671008212711 -0.26037388718
489089000 0.671314303664 -0.260470787269
489099500 0.671159046328 -0.260229588475
489110000 0.67094266954 -0.259972718389
489120500 0.670671015887 -0.260597522281
489131000 0.670515210502 -0.260656563239
489141500 0.670742232061 -0.260624664013
489152000 0.67040415864 -0.260670085199
489162500 0.670754839671 -0.260810801346
489173000 0.670196001644 -0.260322442407
489183500 0.670798255129 -0.260446400715
489194000 0.671066470789 -0.260409927345
489204500 0.671307649617 -0.260541750937
489215000 0.670912767443 -0.260738705198
489225500 0.67072542213 -0.260660188285
489236000 0.670825503667 -0.261062833133
489246500 0.670587519604 -0.260737046208
489257000 0.670944894577 -0.260130472367
489267500 0.670323977753 -0.260076301643
489278000 0.670791896627 -0.260016238606
489288500 0.671157260759 -0.259462557257
489299000 0.670947856834 -0.259716970483
489309500 0.670869714478 -0.259748129768
489320000 0.671123554846 -0.259665223159
489330500 0.671287240556 -0.259728910876
489341000 0.670976088677 -0.259652591587
489351500 0.670285174708 -0.259954150223
489362000 0.67010161723 -0.260477161325
489372500 0.669430989017 -0.259760229483
489383000 0.669958408022 -0.259606459481
489393500 0.670401992161 -0.26026580251
489404000 0.67119656225 -0.260416128906
489414500 0.670750062049 -0.260379581879
489425000 0.670329380499 -0.260029588373
489435500 0.669972849323 -0.260185781671
489446000 0.670518160204 -0.259700998378
489456500 0.670535453656 -0.260219502837
489467000 0.671120228137 -0.260240804392
489477500 0.671002611162 -0.260293396773
489488000 0.670957900812 -0.260553782883
489498500 0.671528301349 -0.260079681953
489509000 0.671335770848 -0.260473435931
489519500 0.67111171772 -0.260084006963
489530000 0.671298608621 -0.260117542284
489540500 0.670493685527 -0.260495194884
489551000 0.670058020072 -0.259779334415
489561500 0.669694725397 -0.260430787583
489572000 0.670390355605 -0.259757980213
489582500 0.670621809955 -0.259932542219
489593000 0.671182154477 -0.259928250822
489603500 0.671081088284 -0.26049776572
489614000 0.670970946963 -0.260396984971
489624500 0.671572200039 -0.260956060466
489635000 0.671074637613 -0.26102941189
489645500 0.671382459031 -0.259977094759
489656000 0.672922980072 -0.249790869654
489666500 0.6705665679 -0.260039035638
489677000 0.670934099059 -0.259995084867
489687500 0.670176369477 -0.260236407355
489698000 0.670550699959 -0.259906838711
489708500 0.671099817443 -0.261030865886
489719000 0.670572137182 -0.260459897582
489729500 0.671277997631 -0.261037303775
489740000 0.67114664011 -0.260200312244
489750500 0.670948966226 -0.260920412298
489761000 0.670535146281 -0.26013813306
489771500 0.670651392727 -0.260981546229
489782000 0.67042407389 -0.260455000496
489792500 0.671185085676 -0.261283669539
489803000 0.670814382235 -0.260180573166
489813500 0.670740098995 -0.26048528385
489824000 0.67063731899 -0.26024010559
489834500 0.670741681896 -0.261270798902
489845000 0.671327360671 -0.260857983167
489855500 0.670401249519 -0.260999549682
489866000 0.669649308108 -0.260537593068
489876500 0.670398511246 -0.260358085232
489887000 0.669943387592 -0.260654311463
489897500 0.670317854828 -0.260146217109
489908000 0.669918195972 -0.260826771148
489918500 0.670363905364 -0.260780564715
489929000 0.670010954087 -0.260577958971
489939500 0.67093099471 -0.259930859108
489950000 0.670112350229 -0.259719032672
489960500 0.671500982593 -0.260461701846
489971000 0.671325933538 -0.260874223936
489981500 0.670856010387 -0.260430541794
489992000 0.670096076176 -0.260378337408
490002500 0.670074358451 -0.260598015435
490013000 0.670418745612 -0.260942788749
490023500 0.670709736058 -0.260657557268
490034000 0.670748088435 -0.260694058772
490044500 0.670234949085 -0.260476446787
490055000 0.669836127792 -0.259969624887
490065500 0.670181141709 -0.260199906808
490076000 0.67019556149 -0.260029014199
490086500 0.669704843735 -0.260037407278
490097000 0.669862883257 -0.260669347607
490107500 0.6703675128 -0.260553228249
490118000 0.670405670435 -0.260312453146
490128500 0.670436577834 -0.259809448466
490139000 0.670165582626 -0.260013498186
490149500 0.670665368211 -0.260334832813
490160000 0.671308299188 -0.260297089686
490170500 0.670695745818 -0.260451867805
490181000 0.669720989991 -0.260443294621
490191500 0.670175691432 -0.260560512348
490202000 0.670963640979 -0.26042994761
490212500 0.671077019757 -0.259932113689
490223000 0.670505656692 -0.260386294304
490233500 0.670967356671 -0.260027071222
490244000 0.670481467271 -0.260489375633
490254500 0.670450176482 -0.260504145641
490265000 0.670394028466 -0.260679797464
490275500 0.669317689613 -0.260905784014
490286000 0.670407754487 -0.260810537248
490296500 0.670523317791 -0.260726541283
490307000 0.670900113834 -0.259910481629
490317500 0.670079240027 -0.260539360032
490328000 0.67151955573 -0.26147532733
490338500 0.670708065425 -0.260605998361
490349000 0.67084157319 -0.259910356784
490359500 0.669821636371 -0.260370191894
490370000 0.668773018853 -0.259860243897
490380500 0.671289396391 -0.259937725074
490391000 0.670779142889 -0.259664266739
490401500 0.672033430971 -0.261399773305
490412000 0.672851357329 -0.262306429715
490422500 0.669680103776 -0.26056851044
490433000 0.671326852448 -0.258076610351
490443500 0.671415306766 -0.261513289854
490454000 0.676907363111 -0.257507639225
490464500 0.671924092572 -0.260023923514
490475000 0.665187712113 -0.257553884049
490485500 0.672082395266 -0.264116583923
490496000 0.664894581234 -0.258733158959
490506500 0.671355634211 -0.260656561295
490517000 0.670570961523 -0.261497557223
490527500 0.66793481682 -0.261404133736
490538000 0.665506874802 -0.257430439518
490548500 0.669982920525 -0.261554565816
490559000 0.673517154146 -0.258875091509
490569500 0.675078790926 -0.258436397909
490580000 0.67094505179 -0.258322749374
490590500 0.672916885334 -0.258948690456
490601000 0.671142216273 -0.264660733686
490611500 0.669781298564 -0.260117299906
490622000 0.669312234028 -0.260780208042
490632500 0.669545068326 -0.260007673651
490643000 0.669877066038 -0.263248858777
490653500 0.669941402803 -0.260634479647
490664000 0.670426428138 -0.260643323752
490674500 0.670723062532 -0.260353286304
490685000 0.669823021481 -0.260916477492
490695500 0.669616680056 -0.260510890936
490706000 0.669056445232 -0.260738683365
490716500 0.671578119627 -0.259867852344
490727000 0.67382305703 -0.258668887002
490737500 0.67677063805 -0.256560959303
490748000 0.674011959051 -0.258961026346
490758500 0.672002656375 -0.259996565769
490769000 0.670756393404 -0.261060800157
490779500 0.670003578989 -0.260737685082
490790000 0.669795150775 -0.260445851429
490800500 0.669591231728 -0.260171345874
490811000 0.669993066897 -0.260295293662
490821500 0.669734354416 -0.260422083571
490832000 0.669578214941 -0.261055261949
490842500 0.669323074432 -0.260772689856
490853000 0.670416241306 -0.261307787246
490863500 0.670312054383 -0.260839253862
490874000 0.670515386432 -0.260968100562
490884500 0.669682332015 -0.260326207903
490895000 0.670463417765 -0.260824912637
490905500 0.6705109095 -0.260949685977
490916000 0.670560609997 -0.260803828115
490926500 0.6700984304 -0.260774369604
490937000 0.67115447338 -0.260720009782
490947500 0.67071414393 -0.260481180085
490958000 0.670054469201 -0.260711501455
490968500 0.670006248658 -0.260510283877
490979000 0.670036808116 -0.260702077837
490989500 0.670971906826 -0.260315476795
491000000 0.670843510147 -0.260116745037
491010500 0.670762584046 -0.260602148899
491021000 0.670792766688 -0.26083355958
491031500 0.670279997909 -0.261122073898
491042000 0.669804348373 -0.260541311883
491052500 0.670592699566 -0.260545330706
491063000 0.670773830629 -0.260917680559
491073500 0.670439536353 -0.260292441052
491084000 0.670514680145 -0.260468568684
491094500 0.670682820124 -0.26081863961
491105000 0.671879739283 -0.260856100656
491115500 0.670506335107 -0.261552320955
491126000 0.670672191642 -0.261217160459
491136500 0.67160439051 -0.261256604826
491147000 0.670280934596 -0.260504399305
491157500 0.670310501136 -0.260786276854
491168000 0.669663925109 -0.260864212457
491178500 0.669568941669 -0.260373844913
491189000 0.669567696255 -0.260261124473
491199500 0.66897681327 -0.25963866214
491210000 0.669414769874 -0.260849122649
491220500 0.670242056016 -0.261292567162
491231000 0.669988825417 -0.261545485574
491241500 0.670031868823 -0.261295689278
491252000 0.670133399046 -0.260828615795
491262500 0.670116522644 -0.260201562234
491273000 0.670523865067 -0.260710767728
491283500 0.670252331797 -0.261248911839
491294000 0.670081138442 -0.261102123418
491304500 0.670002491895 -0.260678321177
491315000 0.67032907766 -0.260317870948
491325500 0.670785269191 -0.260249110427
491336000 0.669292218411 -0.260953152647
491346500 0.670088352234 -0.26064617542
491357000 0.670112356556 -0.260237476942
491367500 0.670181535988 -0.260403320064
491378000 0.66971548803 -0.260989015427
491388500 0.669305877636 -0.261476445632
491399000 0.669955307346 -0.261401431569
491409500 0.670064476535 -0.261841447587
491420000 0.670083305127 -0.261328458224
491430500 0.670475544547 -0.261271573438
491441000 0.670589189118 -0.260599924044
491451500 0.669153840357 -0.260711235767
491462000 0.669987444469 -0.260554011046
491472500 0.669486792005 -0.261251513873
491483000 0.669171283826 -0.261117322644
491493500 0.670463450794 -0.261422597446
491504000 0.669128857439 -0.260918827685
491514500 0.669330624977 -0.261120786935
491525000 0.670487010795 -0.260403670566
491535500 0.670650362121 -0.260543075896
491546000 0.66974859926 -0.2607631392
491556500 0.669266782607 -0.261241120213
491567000 0.668972470269 -0.261656584318
491577500 0.669279692703 -0.261286393137
491588000 0.66925982051 -0.261504517553
491598500 0.669030761949 -0.261208833272
491609000 0.669841966176 -0.260308930595
491619500 0.670336806942 -0.260414219634
491630000 0.670257751668 -0.260323072356
491640500 0.670244087634 -0.260618768702
491651000 0.67006459122 -0.260598184
491661500 0.66996269977 -0.260488331088
491672000 0.669859249305 -0.260420597654
491682500 0.670095299403 -0.259961871801
491693000 0.670079621794 -0.260694245783
491703500 0.670546574495 -0.260582531384
491714000 0.669871531601 -0.259908433582
491724500 0.67016133475 -0.260524418526
491735000 0.669461321265 -0.260044556565
491745500 0.669529646721 -0.259296151749
491756000 0.6699413472 -0.260083179341
491766500 0.66963968456 -0.260632735875
491777000 0.669405892553 -0.261090397118
491787500 0.669891250979 -0.260678138084
491798000 0.669933927539 -0.260668506316
491808500 0.669722175935 -0.260381631808
491819000 0.669604977773 -0.26099589628
491829500 0.669678179378 -0.261100457969
491840000 0.669967342745 -0.260846402701
491850500 0.670017688264 -0.260422566286
491861000 0.669286999067 -0.260324074609
491871500 0.669827365993 -0.260106269547
491882000 0.669015549023 -0.260762980088
491892500 0.669167482736 -0.260519415753
491903000 0.669722673133 -0.260361219661
491913500 0.669389716932 -0.260898928522
491924000 0.669708459191 -0.261249886981
491934500 0.669484275842 -0.26128036407
491945000 0.669764747817 -0.26099297038
491955500 0.669992703483 -0.260904695662
491966000 0.67047168473 -0.260528669815
491976500 0.670018190243 -0.2601274693
491987000 0.670197808234 -0.260663800033
491997500 0.669707112925 -0.261056780887
492008000 0.669264164276 -0.261721277716
492018500 0.669844245437 -0.260936458831
492029000 0.668930412513 -0.261123839942
492039500 0.66932159807 -0.261315428002
492050000 0.669837075829 -0.26095757666
492060500 0.669548743023 -0.261300240198
492071000 0.669160748741 -0.261284445426
492081500 0.669514503198 -0.261359789912
492092000 0.669317180511 -0.261613704247
492102500 0.669399639366 -0.260881411229
492113000 0.669777963379 -0.261117113908
492123500 0.670131864855 -0.260604392839
492134000 0.668349298936 -0.261931438012
492144500 0.66969084214 -0.261070699204
492155000 0.669821658961 -0.261275246711
492165500 0.66961464533 -0.261318420662
492176000 0.66978475321 -0.261233217643
492186500 0.669387898348 -0.261357806953
492197000 0.669534399814 -0.261262125317
492207500 0.669417903686 -0.261251945908
492218000 0.669732715755 -0.260941953202
492228500 0.668675208804 -0.26150893397
492239000 0.668501974466 -0.261052498874
492249500 0.66898017429 -0.261294953844
492260000 0.669070659651 -0.261465047473
492270500 0.66884428578 -0.261262348217
492281000 0.669224074052 -0.261095608255
492291500 0.668901756639 -0.260949296056
492302000 0.668704048631 -0.260720690349
492312500 0.669122584262 -0.261060878438
492323000 0.669671166191 -0.260859263089
492333500 0.669621477068 -0.261550472655
492344000 0.669566454885 -0.261384232459
492354500 0.669169508689 -0.261647040877
492365000 0.669550828585 -0.261235877554
492375500 0.669523284606 -0.261238725139
492386000 0.669413733428 -0.26126767698
492396500 0.669809896055 -0.260609756738
492407000 0.669772792585 -0.260485831246
492417500 0.669404283049 -0.26072730561
492428000 0.669557032298 -0.26115154912
492438500 0.669610980355 -0.261239603204
492449000 0.669332334984 -0.261464434796
492459500 0.668988318322 -0.26117112117
492470000 0.669538904591 -0.261506918688
492480500 0.669618254494 -0.260968865827
492491000 0.669968990459 -0.260966533747
492501500 0.669541078764 -0.260870428377
492512000 0.669543237424 -0.260825616756
492522500 0.669249190444 -0.261051963294
492533000 0.668820787519 -0.260804608325
492543500 0.669264695879 -0.261413659303
492554000 0.669469063354 -0.261169681117
492564500 0.669787754529 -0.261064422136
492575000 0.668963343576 -0.261159795683
492585500 0.669560870111 -0.261213510937
492596000 0.670067817947 -0.261290108797
492606500 0.672087058059 -0.261775121861
492617000 0.670627980228 -0.260809640632
492627500 0.67047313085 -0.261265902702
492638000 0.669983378944 -0.261300581904
492648500 0.670638971854 -0.261386936787
492659000 0.670043605263 -0.26166749999
492669500 0.669943393738 -0.261672455074
492680000 0.669313451913 -0.261483606813
492690500 0.669012761933 -0.261624654462
492701000 0.668743257852 -0.261558611719
492711500 0.668163700947 -0.261752338853
492722000 0.668264517449 -0.261492269061
492732500 0.669378187473 -0.261086747929
492743000 0.670077014718 -0.26069408408
492753500 0.67016256499 -0.260492456676
492764000 0.669813667662 -0.26032770698
492774500 0.669743758158 -0.261227525578
492785000 0.670125502463 -0.261886593443
492795500 0.670112047176 -0.261880732867
492806000 0.6704565214 -0.260435830602
492816500 0.670134271627 -0.261471765654
492827000 0.67079738093 -0.262082308101
492837500 0.670161247016 -0.261448793278
492848000 0.670101133747 -0.261290720277
492858500 0.669715515541 -0.261327474354
492869000 0.669232184041 -0.261044973526
492879500 0.669301742464 -0.261267347858
492890000 0.669546772294 -0.261319908411
492900500 0.669449971376 -0.262138353041
492911000 0.669061615979 -0.260956549909
492921500 0.669839858646 -0.261884683941
492932000 0.669311808057 -0.261766498241
492942500 0.669654014981 -0.260741761921
492953000 0.669713541639 -0.260622602286
492963500 0.669463882776 -0.26089074678
492974000 0.669271155905 -0.261065297752
492984500 0.66891174208 -0.261750144262
492995000 0.669390440083 -0.262046928631
493005500 0.668864800288 -0.262583094926
493016000 0.669672366208 -0.262165680336
493026500 0.669212062244 -0.262669460911
493037000 0.669204551424 -0.262095307538
493047500 0.668875171161 -0.26226916549
493058000 0.669100092031 -0.26222840264
493068500 0.669834088116 -0.263885510043
493079000 0.669693409329 -0.262055080157
493089500 0.669133974306 -0.262477437624
493100000 0.669361210273 -0.262063469693
493110500 0.669258759638 -0.261885703504
493121000 0.669112440343 -0.261600867766
493131500 0.669454296305 -0.261779519905
493142000 0.669468997657 -0.261888492751
493152500 0.669499175216 -0.261437199131
493163000 0.669572859995 -0.261782788818
493173500 0.66944768138 -0.261450169505
493184000 0.6693591098 -0.261534473037
493194500 0.669611773202 -0.261483090489
493205000 0.668747587498 -0.261349575376
493215500 0.670181310097 -0.262513185244
493226000 0.668736557143 -0.26171990235
493236500 0.66866845817 -0.26115557016
493247000 0.66902291485 -0.261799243251
493257500 0.669081337209 -0.261743958414
493268000 0.668531550202 -0.262126608957
493278500 0.669230334755 -0.261740555139
493289000 0.6688832863 -0.261536263436
493299500 0.669151826547 -0.261744942127
493310000 0.669877254721 -0.261892146434
493320500 0.669782292795 -0.261419803279
493331000 0.670169361992 -0.261800188486
493341500 0.670021713202 -0.261837904561
493352000 0.669983296693 -0.261704479445
493362500 0.670005952224 -0.261766260224
493373000 0.669697891477 -0.261936479605
493383500 0.66911099102 -0.261899514947
493394000 0.669879539436 -0.262089729399
493404500 0.669656231619 -0.261990199011
493415000 0.669949139634 -0.261746576695
493425500 0.669397497142 -0.261387962145
493436000 0.669227371897 -0.261143045497
493446500 0.669197183456 -0.260698602671
493457000 0.669068740766 -0.260761996038
493467500 0.669029918967 -0.261275766749
493478000 0.669503148182 -0.261819128765
493488500 0.670171905447 -0.261626208076
493499000 0.669885278424 -0.261498145033
493509500 0.669299111718 -0.261162257029
493520000 0.669508745442 -0.261119923774
493530500 0.670134632888 -0.261378401678
493541000 0.670008461959 -0.262312631062
493551500 0.669511656601 -0.261775799146
493562000 0.66955038279 -0.261296175309
493572500 0.670127046391 -0.261399533502
493583000 0.669086979804 -0.261530499707
493593500 0.669502079898 -0.262262037609
493604000 0.669251375951 -0.262247335918
493614500 0.669547586563 -0.261556357664
493625000 0.669357443894 -0.261303603628
493635500 0.669749442426 -0.2616195793
493646000 0.668040499668 -0.262040220492
493656500 0.668742257927 -0.262714503927
493667000 0.670047120435 -0.262294444572
493677500 0.668353201702 -0.261082893241
493688000 0.66909847217 -0.261673131505
493698500 0.669829313312 -0.261909236374
493709000 0.669084479377 -0.262203674262
493719500 0.668865040217 -0.260890665463
493730000 0.668273942036 -0.26233429571
493740500 0.668993636226 -0.262249206432
493751000 0.669126786761 -0.261866262748
493761500 0.669011287373 -0.261036353312
493772000 0.669328746886 -0.263560410821
493782500 0.668682782919 -0.262381770714
493793000 0.670141982399 -0.263448607795
493803500 0.668669133649 -0.262148563861
493814000 0.669177348054 -0.262097898112
493824500 0.669543786707 -0.262284010096
493835000 0.669284142655 -0.261556864307
493845500 0.669447787468 -0.261606318218
493856000 0.668514890067 -0.261970716305
493866500 0.668575523919 -0.262090298567
493877000 0.669652532171 -0.262105232396
493887500 0.669755735539 -0.261869040546
493898000 0.669683426082 -0.261875228655
493908500 0.668367733742 -0.262036840849
493919000 0.669267025086 -0.262170717695
493929500 0.670248257806 -0.262074747347
493940000 0.669279938079 -0.262006480019
493950500 0.66929991393 -0.262544905313
493961000 0.669400791031 -0.262005113218
493971500 0.669812459417 -0.261026435551
493982000 0.670100208757 -0.259407241049
493992500 0.669791323971 -0.260189574058
494003000 0.669394448508 -0.262835510008
494013500 0.66909450053 -0.262349668241
494024000 0.669633188757 -0.262093142985
494034500 0.669170939903 -0.261587432996
494045000 0.668258602484 -0.261524683613
494055500 0.669301797902 -0.261875039751
494066000 0.669551118147 -0.261973420625
494076500 0.670428465573 -0.261627450109
494087000 0.669669594825 -0.260402131782
494097500 0.669291204713 -0.262405846912
494108000 0.669033491062 -0.261510429114
494118500 0.66979004227 -0.261515777522
494129000 0.669136824292 -0.260879514928
494139500 0.669289632992 -0.262473512859
494150000 0.670209854254 -0.260829061649
494160500 0.670401490088 -0.26104785304
494171000 0.669039199585 -0.262465083084
494181500 0.669335543216 -0.259869034541
494192000 0.668051314617 -0.261873920608
494202500 0.669391299651 -0.261231356705
494213000 0.669144184354 -0.261533887506
494223500 0.669006519959 -0.262987932382
494234000 0.670560144453 -0.263379921946
494244500 0.66890641735 -0.263509681154
494255000 0.670905147906 -0.260724355519
494265500 0.667680276557 -0.263842281403
494276000 0.670214325075 -0.26162958701
494286500 0.670114303611 -0.264538505008
494297000 0.672192030488 -0.264203228576
494307500 0.667345004555 -0.264122284413
494318000 0.667939046093 -0.261052340665
494328500 0.668489173383 -0.262977899384
494339000 0.674293825178 -0.265506383037
494349500 0.666733242284 -0.261576577543
494360000 0.670696196723 -0.260856906545
494370500 0.669205693293 -0.265953592251
494381000 0.673444843672 -0.264146373127
494391500 0.66834884659 -0.264901532381
494402000 0.669854718933 -0.258939536175
494412500 0.676239736573 -0.26141060713
494423000 0.670608509036 -0.25587089345
494433500 0.673762364346 -0.261131921646
494444000 0.662241370272 -0.258634188574
494454500 0.661735105761 -0.264207294102
494465000 0.674181121309 -0.258405818598
494475500 0.670108656541 -0.268551839153
494486000 0.673148420017 -0.264203545812
494496500 0.667578400739 -0.267308640839
494507000 0.670615073509 -0.268241936596
494517500 0.669456301849 -0.26223353183
494528000 0.66986895974 -0.268676367978
494538500 0.661996208928 -0.261580248113
494549000 0.674143034516 -0.26511749361
494559500 0.664080104865 -0.263309925361
494570000 0.670787601031 -0.268033851107
494580500 0.669596305506 -0.258280330884
494591000 0.670475872558 -0.258930589848
494601500 0.674301051253 -0.265495744902
494612000 0.6717562249 -0.260953836237
494622500 0.668676502918 -0.265889685673
494633000 0.670888572115 -0.262324886206
494643500 0.668256467515 -0.25857112939
494654000 0.664280461152 -0.258386012765
494664500 0.669262004735 -0.261844285918
494675000 0.669300946019 -0.261656089092
494685500 0.666031137875 -0.268644877991
494696000 0.670112684205 -0.26059016659
494706500 0.666502136112 -0.260508980359
494717000 0.670548343622 -0.258323895804
494727500 0.669246251972 -0.261437707225
494738000 0.67183094852 -0.260179825022
494748500 0.66996986024 -0.260864233866
494759000 0.669725049298 -0.262440827257
494769500 0.666731662104 -0.25905624423
494780000 0.6692461883 -0.262098830429
494790500 0.66964684869 -0.262736540975
494801000 0.669112718231 -0.260879436573
494811500 0.669049511558 -0.262619712228
494822000 0.669716829616 -0.261549800021
494832500 0.66914353142 -0.262268948324
494843000 0.669103406405 -0.261350737638
494853500 0.669296387685 -0.261376830502
494864000 0.667857116714 -0.262029191339
494874500 0.669949866925 -0.261016070203
494885000 0.669248100571 -0.261415073292
494895500 0.66983480246 -0.260672426594
494906000 0.669671318949 -0.261883902827
494916500 0.66965507276 -0.261572696686
494927000 0.668591485902 -0.261920548482
494937500 0.668939229734 -0.261685157301
494948000 0.670144903777 -0.261689160599
494958500 0.669737170528 -0.262163421609
494969000 0.670008109127 -0.261791304803
494979500 0.668911624463 -0.262291358402
494990000 0.668809081372 -0.263178990838
495000500 0.668698842114 -0.262393715115
495011000 0.669161132516 -0.261821649041
495021500 0.669505813037 -0.261407694491
495032000 0.669304631164 -0.261527163857
495042500 0.67022296823 -0.262005952034
495053000 0.669866103451 -0.262320119831
495063500 0.668670819766 -0.262572197848
495074000 0.669832370784 -0.262596342925
495084500 0.669685034524 -0.262258467107
495095000 0.669015884762 -0.262671157286
495105500 0.668696081803 -0.261358299709
495116000 0.669021238878 -0.261514702827
495126500 0.669391875074 -0.262447205514
495137000 0.668656561032 -0.261671316349
495147500 0.669460117917 -0.26116200743
495158000 0.669072849226 -0.262250365503
495168500 0.669422365825 -0.262417617738
495179000 0.67061618585 -0.262073084722
495189500 0.67044827143 -0.262233130255
495200000 0.66871068582 -0.261733955374
495210500 0.668935082534 -0.262926655741
495221000 0.668563121137 -0.262624720945
495231500 0.669191156761 -0.262982217751
495242000 0.670054499433 -0.263432841033
495252500 0.669180729261 -0.262656636833
495263000 0.66940849693 -0.263383421276
495273500 0.66897936681 -0.263401190266
495284000 0.669231249606 -0.263070458977
495294500 0.667472643644 -0.26287798436
495305000 0.668309691257 -0.262842264665
495315500 0.668253676606 -0.262969511233
495326000 0.669860171378 -0.262650899275
495336500 0.669816459758 -0.262213364042
495347000 0.66904121406 -0.262700089666
495357500 0.670378012085 -0.262425595862
495368000 0.669596990872 -0.262225145389
495378500 0.669885537029 -0.263603389652
495389000 0.669643487991 -0.263106838797
495399500 0.669295507494 -0.26287416244
495410000 0.668469138537 -0.263212739455
495420500 0.669356077679 -0.262878242548
495431000 0.669502608988 -0.262797138282
495441500 0.670058961813 -0.262747286522
495452000 0.668989382493 -0.262591925821
495462500 0.669497653936 -0.262778789541
495473000 0.669214263527 -0.262099348784
495483500 0.669446354824 -0.262117513294
495494000 0.669777576906 -0.261834622105
495504500 0.670104917389 -0.260800327444
495515000 0.668915907269 -0.261741051531
495525500 0.669006013842 -0.262855025381
495536000 0.669483891768 -0.262387670176
495546500 0.669156149353 -0.262183005918
495557000 0.668996481204 -0.262289901396
495567500 0.669747555913 -0.262395778278
495578000 0.669647108561 -0.261782179594
495588500 0.66966223423 -0.262437680297
495599000 0.668874876861 -0.262163306086
495609500 0.669901221783 -0.262236947743
495620000 0.670147471727 -0.262092356881
495630500 0.669613405579 -0.262232163512
495641000 0.669534053735 -0.262253446838
495651500 0.6694774194 -0.262138382745
495662000 0.669351135875 -0.261888324071
495672500 0.669770776829 -0.262325091585
495683000 0.669422614939 -0.261914374251
495693500 0.66986544362 -0.262132163013
495704000 0.669822805335 -0.262277848962
495714500 0.669599414487 -0.262441211206
495725000 0.669841804039 -0.262311837607
495735500 0.669850958811 -0.261929386042
495746000 0.669525918392 -0.261904516158
495756500 0.66963810797 -0.261922792643
495767000 0.669803137212 -0.263112561684
495777500 0.669687904077 -0.262769631104
495788000 0.669584576574 -0.26204313727
495798500 0.67016139785 -0.261931417233
495809000 0.670417123198 -0.262869971297
495819500 0.66975701404 -0.262402643822
495830000 0.66969290384 -0.261765728733
495840500 0.669803737389 -0.262255018102
495851000 0.670689950261 -0.26207953481
495861500 0.670265080725 -0.261978499131
495872000 0.669834693264 -0.262398355505
495882500 0.669150468518 -0.263006951533
495893000 0.669545408183 -0.263380567139
495903500 0.669478169578 -0.263287515511
495914000 0.669554370956 -0.26304829521
495924500 0.669346906123 -0.262875131582
495935000 0.669579150986 -0.262918133223
495945500 0.669813744063 -0.262537801028
495956000 0.669823434123 -0.262507184962
495966500 0.669904967994 -0.261904668063
495977000 0.670164770316 -0.262782011851
495987500 0.670351439089 -0.262211363006
495998000 0.670091860744 -0.262035219139
496008500 0.669721923913 -0.262427234194
496019000 0.669560898077 -0.262598469353
496029500 0.669665429329 -0.262653137587
496040000 0.669792225427 -0.261990204547
496050500 0.669966375892 -0.262965643374
496061000 0.669610694391 -0.262915350829
496071500 0.669606009133 -0.263282553083
496082000 0.669012563236 -0.263664302443
496092500 0.669217544751 -0.262921970057
496103000 0.669164887964 -0.262781196843
496113500 0.669665360219 -0.26258325113
496124000 0.669271276279 -0.262571446216
496134500 0.669549649371 -0.262397808973
496145000 0.669366727157 -0.262889973516
496155500 0.669781705916 -0.2633504378
496166000 0.668921601294 -0.264058736082
496176500 0.670102663877 -0.263391463017
496187000 0.669890033025 -0.263113208087
496197500 0.670300196439 -0.263296049482
496208000 0.669536211748 -0.264170171506
496218500 0.67037231071 -0.262521233028
496229000 0.670550468788 -0.262380565115
496239500 0.670103169782 -0.262901092791
496250000 0.670699248325 -0.26274149938
496260500 0.669983343117 -0.262680990527
496271000 0.669907917929 -0.262784659666
496281500 0.669237738763 -0.26272299091
496292000 0.669314571302 -0.262511070958
496302500 0.669828766401 -0.262995558006
496313000 0.66975899872 -0.262684850957
496323500 0.669376918469 -0.262864710664
496334000 0.669803750036 -0.262690325204
496344500 0.670293022427 -0.263201277081
496355000 0.669454041295 -0.262760919026
496365500 0.669411085406 -0.261698686602
496376000 0.669135639464 -0.26247753909
496386500 0.669271125923 -0.263222358917
496397000 0.669937364141 -0.264106494466
496407500 0.669991240904 -0.264235655947
496418000 0.670046023053 -0.263240524916
496428500 0.670434468881 -0.263184295558
496439000 0.670615814561 -0.263100571434
496449500 0.66948498463 -0.262823967626
496460000 0.669668810006 -0.262974457373
496470500 0.669702523201 -0.262843522525
496481000 0.670023677587 -0.26295785498
496491500 0.670413926079 -0.262813930795
496502000 0.670757077929 -0.262457394571
496512500 0.670399293576 -0.262449999146
496523000 0.670780346155 -0.262786735165
496533500 0.670385293021 -0.262679781127
496544000 0.670358487579 -0.262713295874
496554500 0.670411215355 -0.262913623249
496565000 0.670313425176 -0.263125617673
496575500 0.669658718233 -0.263374261925
496586000 0.670138972933 -0.263127404107
496596500 0.670123270755 -0.262612946511
496607000 0.670309494727 -0.262406516654
496617500 0.670141078767 -0.263042804781
496628000 0.670138984225 -0.262205777588
496638500 0.670192597002 -0.262532814347
496649000 0.670657727406 -0.262677540335
496659500 0.670002571179 -0.262661326664
496670000 0.669815929866 -0.262833091649
496680500 0.670370523819 -0.262597197158
496691000 0.670236695603 -0.263023264068
496701500 0.670797841767 -0.263170300324
496712000 0.670147034885 -0.26273264395
496722500 0.670430395282 -0.262844649451
496733000 0.670222551853 -0.263241387114
496743500 0.669887206777 -0.263281680083
496754000 0.669586918805 -0.26395976052
496764500 0.668921844999 -0.264201399624
496775000 0.668918558095 -0.266241772946
496785500 0.668769044705 -0.264567999081
496796000 0.669495548512 -0.263937830478
496806500 0.669468348717 -0.263052739457
496817000 0.669821681419 -0.263451650052
496827500 0.66979295448 -0.262870555164
496838000 0.670429771306 -0.26296310238
496848500 0.669524510984 -0.262984239333
496859000 0.670118398325 -0.263066754645
496869500 0.669827585841 -0.262915833299
496880000 0.669816412986 -0.26342536796
496890500 0.669865876696 -0.263622948272
496901000 0.669434716887 -0.263158161403
496911500 0.67032591227 -0.263612016862
496922000 0.670339236575 -0.263699680706
496932500 0.670452567488 -0.263129671759
496943000 0.670640631228 -0.263304826259
496953500 0.670661510462 -0.26325299705
496964000 0.670164043383 -0.263436784125
496974500 0.67006250991 -0.263591255488
496985000 0.669490634238 -0.263344418938
496995500 0.669767765086 -0.26328662679
497006000 0.670006772271 -0.262984841943
497016500 0.670417698268 -0.263410471413
497027000 0.670344987572 -0.263410601779
497037500 0.669913511749 -0.263119479525
497048000 0.671043893335 -0.269598110614
497058500 0.669819630601 -0.263334868111
497069000 0.670321443099 -0.263128668272
497079500 0.670051288184 -0.26335868406
497090000 0.669774721098 -0.26399494434
497100500 0.670290021473 -0.263292262488
497111000 0.669865556552 -0.263258619786
497121500 0.670230191123 -0.263345786479
497132000 0.669576652029 -0.263431936634
497142500 0.66999833151 -0.263844618872
497153000 0.669977116001 -0.263495693833
497163500 0.670297757438 -0.263113824479
497174000 0.670867279284 -0.26368611184
497184500 0.670404241805 -0.262939095611
497195000 0.670102389417 -0.26333532612
497205500 0.670166918622 -0.263288032829
497216000 0.670148748224 -0.263363051075
497226500 0.670286202185 -0.263026170033
497237000 0.665859693792 -0.267255126699
497247500 0.67008926889 -0.263255712132
497258000 0.670245783898 -0.263229623271
497268500 0.67046010127 -0.263283118324
497279000 0.670264046501 -0.263143529793
497289500 0.670160700106 -0.263284755431
497300000 0.670457342943 -0.263523010036
497310500 0.670618605647 -0.263421560274
497321000 0.6705443089 -0.26344933088
497331500 0.670177499968 -0.263753869501
497342000 0.669805752265 -0.263506764979
497352500 0.670412371573 -0.263509784758
497363000 0.670181503948 -0.263608913336
497373500 0.670915047447 -0.263358557585
497384000 0.67080496032 -0.263586618935
497394500 0.670454390552 -0.263624017939
497405000 0.670239909745 -0.263255618978
497415500 0.670672550415 -0.263304673077
497426000 0.671472727186 -0.263161894474
497436500 0.671013913325 -0.263593691193
497447000 0.670813013458 -0.263385175456
497457500 0.670668310118 -0.263657830005
497468000 0.671023440855 -0.263524721605
497478500 0.670691750146 -0.264081379641
497489000 0.670993758696 -0.263732766154
497499500 0.670567982678 -0.263559887704
497510000 0.670603244196 -0.263771846735
497520500 0.670858751118 -0.263836819205
497531000 0.670038915836 -0.263714064235
497541500 0.669913669394 -0.263551249597
497552000 0.670244973118 -0.263643160761
497562500 0.670410053059 -0.263572769024
497573000 0.670167357819 -0.263925787546
497583500 0.670271473514 -0.263643040596
497594000 0.670195275 -0.263791603011
497604500 0.670574239598 -0.263472102169
497615000 0.670919617073 -0.263583731048
497625500 0.670420013534 -0.26334855677
497636000 0.670068387433 -0.263299701675
497646500 0.670655574258 -0.263353046952
497657000 0.670711319248 -0.263401661354
497667500 0.6709686702 -0.263537275847
497678000 0.67057578253 -0.264167521343
497688500 0.670403699029 -0.264050551234
497699000 0.670591665375 -0.264105644961
497709500 0.670483334569 -0.26387896667
497720000 0.670455123386 -0.263608646174
497730500 0.670106084089 -0.263733934732
497741000 0.670095027637 -0.26365004023
497751500 0.669797816388 -0.263400544641
497762000 0.670155594981 -0.263730616136
497772500 0.670277241932 -0.263806799175
497783000 0.670468344941 -0.263611755132
497793500 0.670209161133 -0.263650523363
497804000 0.670226571088 -0.263800554092
497814500 0.670409904472 -0.264182357987
497825000 0.670565243711 -0.263746330852
497835500 0.67033577631 -0.264434741339
497846000 0.670252061834 -0.264235945646
497856500 0.670404744829 -0.263983705664
497867000 0.67030138837 -0.264069792958
497877500 0.670359117183 -0.263645219345
497888000 0.670826286159 -0.263732300223
497898500 0.670458562941 -0.263886410466
497909000 0.670458747569 -0.263823705623
497919500 0.670822447677 -0.263547275208
497930000 0.670876028596 -0.263528885623
497940500 0.670149095057 -0.263688820017
497951000 0.670059325549 -0.26331332058
497961500 0.669985987197 -0.263319254052
497972000 0.670235412023 -0.264255679194
497982500 0.669741104464 -0.264659591354
497993000 0.670963695274 -0.264290237049
498003500 0.670835372588 -0.263979266054
498014000 0.671384614221 -0.263285338557
498024500 0.670720017694 -0.263942158718
498035000 0.670977585274 -0.264285511133
498045500 0.670757586004 -0.264064286747
498056000 0.670218104193 -0.264202526221
498066500 0.670364585558 -0.2639492435
498077000 0.670353833066 -0.26406160412
498087500 0.670605012297 -0.263965078577
498098000 0.670534532741 -0.264109146886
498108500 0.670574251866 -0.263298148737
498119000 0.6709879864 -0.264334558842
498129500 0.670541978073 -0.264561889962
498140000 0.671397675095 -0.264222915836
498150500 0.671071484959 -0.26410502592
498161000 0.671331248278 -0.263999648127
498171500 0.671202945635 -0.264111176745
498182000 0.670343257974 -0.264331538501
498192500 0.669759671064 -0.264798440847
498203000 0.670538831759 -0.264233105426
498213500 0.670594379592 -0.264336361951
498224000 0.67072137945 -0.264498114195
498234500 0.671106181347 -0.264646654802
498245000 0.671377931211 -0.264253963001
498255500 0.670858029857 -0.264021641495
498266000 0.670140881766 -0.264228606701
498276500 0.670599891475 -0.262903862735
498287000 0.672530548932 -0.26081781392
498297500 0.670127297081 -0.254542570447
498308000 0.671962345384 -0.26288005376
498318500 0.677565501926 -0.275792605244
498329000 0.672573541076 -0.271879939881
498339500 0.67312036576 -0.266916233679
498350000 0.670965718534 -0.265031802037
498360500 0.669984914996 -0.264466133854
498371000 0.670169380569 -0.264445277429
498381500 0.670718223967 -0.264493332449
498392000 0.670728985672 -0.263272619813
498402500 0.670736380798 -0.263738791238
498413000 0.67029137251 -0.263731985829
498423500 0.670623619155 -0.264806971816
498434000 0.671202320547 -0.263936071465
498444500 0.671486385883 -0.265444267052
498455000 0.671443462729 -0.263121833837
498465500 0.67082293585 -0.264266945721
498476000 0.670613999972 -0.265215105312
498486500 0.671278799679 -0.263951810022
498497000 0.669620926162 -0.264177065445
498507500 0.670877588279 -0.265852531819
498518000 0.670666310849 -0.264445704396
498528500 0.670960404048 -0.264538059216
498539000 0.671708258452 -0.264650509956
498549500 0.670652120775 -0.264869853428
498560000 0.670198187166 -0.264458808314
498570500 0.670759409987 -0.263345002784
498581000 0.671334184365 -0.26332410162
498591500 0.671501589698 -0.264406380751
498602000 0.67077816185 -0.264860587685
498612500 0.67123038233 -0.264283217953
498623000 0.671381230809 -0.264668551342
498633500 0.671061853233 -0.264930446184
498644000 0.670641709316 -0.264854964499
498654500 0.670340954194 -0.265513446817
498665000 0.669468955097 -0.263876799429
498675500 0.670179755036 -0.264871518934
498686000 0.671298200156 -0.263559613034
498696500 0.67182179336 -0.264613188965
498707000 0.670198526489 -0.264752241267
498717500 0.670469298565 -0.265434683889
498728000 0.670396754227 -0.265321013768
498738500 0.67015277985 -0.265074483095
498749000 0.669985748113 -0.263826309473
498759500 0.670593228069 -0.263405372337
498770000 0.670451867045 -0.264255557439
498780500 0.669413891419 -0.26362552896
498791000 0.669456841256 -0.263714874605
498801500 0.670045524373 -0.264041707317
498812000 0.671852095614 -0.263548046802
498822500 0.670999200823 -0.264621951728
498833000 0.671993526935 -0.265076052499
498843500 0.671481784922 -0.265389586073
498854000 0.671073529711 -0.266113203835
498864500 0.671310579861 -0.265451776336
498875000 0.670779100881 -0.264813132589
498885500 0.670396191178 -0.264990774385
498896000 0.670922749027 -0.263973696753
498906500 0.670823588595 -0.264206006964
498917000 0.670772035668 -0.264053668649
498927500 0.671503465308 -0.264994743353
498938000 0.671279382848 -0.2652792498
498948500 0.670307303325 -0.264766520684
498959000 0.671036883934 -0.265141140018
498969500 0.670595261075 -0.264494352249
498980000 0.67143681542 -0.264962668672
498990500 0.671738964992 -0.264582076907
499001000 0.671534419769 -0.264607608037
499011500 0.671725920362 -0.26526365794
499022000 0.67130583666 -0.26565815048
499032500 0.671080380988 -0.265486332234
499043000 0.670690854 -0.264773410793
499053500 0.671030587941 -0.264838936216
499064000 0.670623973207 -0.264834052608
499074500 0.670694565294 -0.264824284812
499085000 0.670596428409 -0.264742722876
499095500 0.670061471753 -0.263555509857
499106000 0.671205766835 -0.264925860819
499116500 0.671302025127 -0.263265142484
499127000 0.670707363714 -0.264832466578
499137500 0.671273818656 -0.266190659708
499148000 0.668484835398 -0.265795932813
499158500 0.670434532819 -0.267001557233
499169000 0.671644267311 -0.26700443239
499179500 0.672301651807 -0.265167572158
499190000 0.671252333201 -0.265385798878
499200500 0.669767540663 -0.266533851878
499211000 0.671689989523 -0.264302221018
499221500 0.668103708426 -0.265843647564
499232000 0.670798815696 -0.263206883865
499242500 0.671831709474 -0.262981144711
499253000 0.670096793411 -0.264958957701
499263500 0.67033297809 -0.266479385955
499274000 0.668822160553 -0.26626004479
499284500 0.67155820055 -0.265297807487
499295000 0.672041115137 -0.264551998861
499305500 0.670325617652 -0.2654258196
499316000 0.67414087128 -0.262653964536
499326500 0.672412099082 -0.267032807949
499337000 0.671617187035 -0.262635895405
499347500 0.672448757962 -0.265031526199
499358000 0.67696552947 -0.26385958065
499368500 0.673913317935 -0.26372376955
499379000 0.672624419189 -0.259137209675
499389500 0.67152842448 -0.263776027216
499400000 0.659026165061 -0.274593790425
499410500 0.680514180348 -0.268326157088
499421000 0.670133005136 -0.263322085526
499431500 0.670767708042 -0.265024211992
499442000 0.669064709422 -0.265400080229
499452500 0.670707260321 -0.260184212557
499463000 0.668554963049 -0.262032624511
499473500 0.675591085534 -0.262618890555
499484000 0.670527359664 -0.262762103341
499494500 0.665739808769 -0.266233426172
499505000 0.670567720794 -0.266570533865
499515500 0.672969694731 -0.262427426217
499526000 0.670562429547 -0.273370140419
499536500 0.675136414606 -0.264213154329
499547000 0.669035672839 -0.261809358299
499557500 0.666999294531 -0.271866955526
499568000 0.674574717753 -0.261895605995
499578500 0.67311838596 -0.265356158148
499589000 0.673684217439 -0.266007550099
499599500 0.671663423217 -0.264457646663
499610000 0.674171936967 -0.261594075005
499620500 0.67159624986 -0.264715411189
499631000 0.671322651617 -0.264343366296
499641500 0.672349582533 -0.2671929272
499652000 0.670732150589 -0.264201840709
499662500 0.668890387231 -0.267184698048
499673000 0.670740276736 -0.265375910999
499683500 0.671762684519 -0.265854403447
499694000 0.670952644843 -0.265959949775
499704500 0.670753341371 -0.26755712866
499715000 0.670865976421 -0.267244734002
499725500 0.671818248521 -0.266014815292
499736000 0.671661765827 -0.265427675954
499746500 0.671134175561 -0.264952671344
499757000 0.672692164993 -0.268061588283
499767500 0.671445641914 -0.264923194479
499778000 0.671135305917 -0.265491491803
499788500 0.671353388121 -0.266303201857
499799000 0.672069627601 -0.26838546152
499809500 0.671914382246 -0.266180738008
499820000 0.671804289978 -0.265106149922
499830500 0.672108154444 -0.265701225925
499841000 0.671672376634 -0.265081305497
499851500 0.668601685617 -0.262567230908
499862000 0.670848450763 -0.265443581557
499872500 0.671006842635 -0.265599604051
499883000 0.671347424019 -0.265570240687
499893500 0.671133882315 -0.26520450291
499904000 0.671010515854 -0.265392067139
499914500 0.671561724641 -0.265255811379
499925000 0.671945445506 -0.265421619925
499935500 0.672062688028 -0.264929645436
499946000 0.671838319673 -0.265603974741
499956500 0.671961578578 -0.265757272273
499967000 0.671384891639 -0.26599129668
499977500 0.671487196553 -0.265212081401
499988000 0.670874624579 -0.265628947791
499998500 0.671199924325 -0.265823126418
500009000 0.671507903706 -0.265505399676
500019500 0.671614301574 -0.264930490949
500030000 0.671640205339 -0.265426671565
500040500 0.671023887942 -0.265787590205
500051000 0.670724685054 -0.265718602162
500061500 0.671103874998 -0.265489093551
500072000 0.670982117746 -0.265792420074
500082500 0.671180916439 -0.265436018698
500093000 0.670592092359 -0.265809126097
500103500 0.670693986171 -0.265641161047
500114000 0.670947849255 -0.266220079566
500124500 0.670978350824 -0.265867693962
500135000 0.670511327435 -0.265989482609
500145500 0.671787238658 -0.266955834534
500156000 0.671299873986 -0.266442933307
500166500 0.671821810203 -0.266452919273
500177000 0.671776485985 -0.266739527433
500187500 0.671340830468 -0.265683031266
500198000 0.672518842998 -0.266424344369
500208500 0.671242889445 -0.266075873742
500219000 0.670642661324 -0.264932184707
500229500 0.671048798077 -0.266509994761
500240000 0.671073495451 -0.266326886564
500250500 0.67102046639 -0.265995456122
500261000 0.670655825661 -0.266800011281
500271500 0.671176876622 -0.266214707058
500282000 0.670620473472 -0.267013444165
500292500 0.671269809966 -0.266586949166
500303000 0.670912921009 -0.266358734374
500313500 0.672270774988 -0.265931547997
500324000 0.67161529108 -0.264739932769
500334500 0.671206787787 -0.264905459184
500345000 0.671371498076 -0.265685659902
500355500 0.670334791571 -0.266035681939
500366000 0.671699196722 -0.265083318325
500376500 0.671155666171 -0.266255259559
500387000 0.671755007164 -0.266431539718
500397500 0.671903507573 -0.265192474149
500408000 0.671729625892 -0.26528487187
500418500 0.670418278244 -0.265931724643
500429000 0.671215031202 -0.265753232518
500439500 0.672169421759 -0.266954569658
500450000 0.67144493176 -0.266525575533
500460500 0.671412412201 -0.265712544038
500471000 0.671127668214 -0.265986087504
500481500 0.670437818761 -0.265910455072
500492000 0.671270215555 -0.265766244054
500502500 0.671656550777 -0.266173204865
500513000 0.671841029873 -0.266385485614
500523500 0.671258811107 -0.266320589715
500534000 0.672029267148 -0.266196347398
500544500 0.672408512021 -0.266798895401
500555000 0.671735778907 -0.266630242716
500565500 0.671252262963 -0.26644862186
500576000 0.671751278492 -0.26666127845
500586500 0.671443481708 -0.266152239853
500597000 0.671343287093 -0.266154229276
500607500 0.67111927818 -0.26584039606
500618000 0.671395825356 -0.265971627951
500628500 0.67146229441 -0.266322944529
500639000 0.671396019824 -0.265694828838
500649500 0.671787789315 -0.265612759009
500660000 0.67171329026 -0.266188777053
500670500 0.671668624402 -0.265538143949
500681000 0.672251231428 -0.265480720309
500691500 0.671584383564 -0.265542044659
500702000 0.671721700554 -0.266669166687
500712500 0.67169490218 -0.266499265821
500723000 0.6713451476 -0.266726594692
500733500 0.671734979085 -0.266868115861
500744000 0.671636449156 -0.267078345
500754500 0.671485434317 -0.266535978799
500765000 0.67198872133 -0.266559331882
500775500 0.671948549661 -0.266437938688
500786000 0.671804369914 -0.266110253304
500796500 0.671451137176 -0.266326709033
500807000 0.672417278792 -0.266270699359
500817500 0.672020053274 -0.266355962747
500828000 0.671926863245 -0.266572362638
500838500 0.671902970499 -0.266759152097
500849000 0.671427439648 -0.265652946657
500859500 0.671227344604 -0.266207399113
500870000 0.671475388356 -0.266969391337
500880500 0.671714108973 -0.267183178066
500891000 0.671546797394 -0.267044793699
500901500 0.671343870639 -0.267090782904
500912000 0.671770378691 -0.266617204712
500922500 0.671981695514 -0.266663267008
500933000 0.672320916313 -0.26652960183
500943500 0.672128343773 -0.267017832971
500954000 0.672158783566 -0.266463355477
500964500 0.67210925757 -0.267240440078
500975000 0.672191359166 -0.266719569152
500985500 0.671159935939 -0.266214762772
500996000 0.671480188425 -0.266480161103
501006500 0.67068934018 -0.266403947796
501017000 0.67096829615 -0.266146874764
501027500 0.67102670639 -0.266339641336
501038000 0.670771505674 -0.265887215766
501048500 0.671386854602 -0.265980623586
501059000 0.671212034439 -0.266394392355
501069500 0.672177181568 -0.26689361862
501080000 0.672174579063 -0.267234040065
501090500 0.672616506602 -0.268069162792
501101000 0.672024952587 -0.26734521115
501111500 0.672109027434 -0.267320445805
501122000 0.67203775912 -0.266087031132
501132500 0.671751527313 -0.266688741384
501143000 0.671459316774 -0.267063217604
501153500 0.671881009819 -0.266862429447
501164000 0.671399920948 -0.266245190938
501174500 0.671734640874 -0.266449672478
501185000 0.672086029617 -0.266313585135
501195500 0.671808808353 -0.266365059663
501206000 0.672491954163 -0.266327120198
501216500 0.672070952511 -0.266363201362
501227000 0.672139280563 -0.266178232107
501237500 0.672028677991 -0.266812346435
501248000 0.671652991316 -0.267032394653
501258500 0.671301307471 -0.267091900569
501269000 0.671428892477 -0.266676131334
501279500 0.671424349736 -0.266831677102
501290000 0.671461416777 -0.266735404574
501300500 0.671892270746 -0.266999314104
501311000 0.671509220284 -0.267444612211
501321500 0.671767988743 -0.268027188807
501332000 0.671657125969 -0.26645778451
501342500 0.671955311463 -0.266990132273
501353000 0.671549243567 -0.266698725366
501363500 0.671705334719 -0.26694294466
501374000 0.671034808522 -0.267133254002
501384500 0.671077578246 -0.267098425637
501395000 0.672994180789 -0.267609003078
501405500 0.672198044266 -0.266779278825
501416000 0.673342919486 -0.269002428562
501426500 0.672223022467 -0.267313233704
501437000 0.671771100403 -0.267352735806
501447500 0.67198399242 -0.267452158436
501458000 0.670331270733 -0.268149520682
501468500 0.671714140347 -0.267741026845
501479000 0.672521140891 -0.267519358766
501489500 0.672695379773 -0.266940066774
501500000 0.672176777093 -0.267111113124
501510500 0.671905825958 -0.266536376113
501521000 0.671758758523 -0.266478065234
501531500 0.672069649652 -0.266829651144
501542000 0.672458337325 -0.267222349088
501552500 0.671528256271 -0.267607116447
501563000 0.671815391975 -0.267241773465
501573500 0.671985566391 -0.267280296116
501584000 0.671734608075 -0.266996190392
501594500 0.671867349956 -0.267065757435
501605000 0.672132837517 -0.266576725281
501615500 0.672202386002 -0.266964973911
501626000 0.671636574548 -0.267284838238
501636500 0.672103504798 -0.267994126379
501647000 0.671645572749 -0.267202296533
501657500 0.67182376847 -0.267308425661
501668000 0.671612648117 -0.268112046496
501678500 0.671808723454 -0.268580228981
501689000 0.672151990763 -0.269942993456
501699500 0.672448722883 -0.26944146021
501710000 0.672677157582 -0.267968887508
501720500 0.673165331503 -0.267055701844
501731000 0.672454980211 -0.26710852891
501741500 0.672177413705 -0.26697365167
501752000 0.671638201784 -0.266741813347
501762500 0.671969003108 -0.267545756867
501773000 0.672146372139 -0.267502334503
501783500 0.672397913635 -0.267308426235
501794000 0.67205120919 -0.267203474679
501804500 0.672174609534 -0.267157400236
501815000 0.672184934968 -0.267446235993
501825500 0.672289287155 -0.267135292374
501836000 0.672498851868 -0.267598706709
501846500 0.67193146029 -0.267764126856
501857000 0.671694894183 -0.26768435902
501867500 0.671888472009 -0.267447400099
501878000 0.671827006714 -0.267453054251
501888500 0.672442388346 -0.267799742169
501899000 0.672803619371 -0.267500881427
501909500 0.672436774127 -0.267306712178
501920000 0.671918892916 -0.266896931138
501930500 0.672354767823 -0.267353986081
501941000 0.671892525796 -0.267339969084
501951500 0.67168245758 -0.267991911649
501962000 0.672131927404 -0.267300482873
501972500 0.672822815082 -0.267326852088
501983000 0.672484119875 -0.266861838306
501993500 0.672010397607 -0.267184161888
502004000 0.67241764589 -0.267551112001
502014500 0.672687995517 -0.267402383395
502025000 0.672217897496 -0.267325264728
502035500 0.672483153749 -0.267253032738
502046000 0.672341111032 -0.267539477816
502056500 0.672250845011 -0.26805091491
502067000 0.671778335128 -0.268050168753
502077500 0.671908073831 -0.267584799867
502088000 0.67223263858 -0.267431193887
502098500 0.671751384486 -0.26731254788
502109000 0.671988937115 -0.267333984932
502119500 0.671757632074 -0.268181965525
502130000 0.671535052652 -0.267647407389
502140500 0.672093050606 -0.267896560024
502151000 0.671966337244 -0.267087031339
502161500 0.671869560489 -0.267351782742
502172000 0.672469836321 -0.267424408039
502182500 0.672572066084 -0.26716844874
502193000 0.671897074349 -0.267733807695
502203500 0.672543114862 -0.268238753057
502214000 0.671859779257 -0.267852525602
502224500 0.671723620957 -0.267702156243
502235000 0.671705239753 -0.268004553099
502245500 0.672227081328 -0.268051290106
502256000 0.672031333857 -0.267957534038
502266500 0.671990500835 -0.26771620641
502277000 0.671961310558 -0.267709280853
502287500 0.672248877362 -0.268046406048
502298000 0.672503782134 -0.268013968408
502308500 0.67228012071 -0.266878043833
502319000 0.672755833755 -0.267795566245
502329500 0.672906423724 -0.268056330992
502340000 0.672697405988 -0.268744350384
502350500 0.672941177203 -0.268747440345
502361000 0.673171791643 -0.268485058523
502371500 0.672916724148 -0.268208800962
502382000 0.672761808702 -0.268188421827
502392500 0.672749976704 -0.267871552478
502403000 0.672613852431 -0.268129201408
502413500 0.672519538356 -0.268773173631
502424000 0.672511046494 -0.268111983468
502434500 0.672916436472 -0.267420396223
502445000 0.672281159716 -0.267563998549
502455500 0.672492499785 -0.268072750951
502466000 0.671589795063 -0.268927274171
502476500 0.67226535229 -0.268639247623
502487000 0.671908397228 -0.268675283683
502497500 0.672316665369 -0.268569461047
502508000 0.671830264879 -0.268316915065
502518500 0.671548422109 -0.268316571112
502529000 0.67169062598 -0.268123467065
502539500 0.672203965927 -0.267967590861
502550000 0.671948024692 -0.268192960749
502560500 0.67233116991 -0.267924921545
502571000 0.672612414123 -0.267744850554
502581500 0.67303958642 -0.267276975759
502592000 0.673149382574 -0.267261044507
502602500 0.672196027485 -0.26783623586
502613000 0.672248383686 -0.267908412161
502623500 0.672241645922 -0.268742695378
502634000 0.671787442857 -0.267934464891
502644500 0.672198170839 -0.268433775308
502655000 0.671399508191 -0.268883461289
502665500 0.671660102275 -0.268509711869
502676000 0.672574467118 -0.268374454414
502686500 0.672457661812 -0.268631412207
502697000 0.672251940502 -0.268441631901
502707500 0.672504436585 -0.268541715467
502718000 0.672432258666 -0.267957521954
502728500 0.672361339177 -0.268052781157
502739000 0.67233347931 -0.268486569488
502749500 0.672244387828 -0.268955178462
502760000 0.672550941171 -0.268118147862
502770500 0.672297749473 -0.268564428859
502781000 0.672291059814 -0.268283815488
502791500 0.672180365451 -0.268823538006
502802000 0.672842406099 -0.268589367148
502812500 0.672690698051 -0.269017485509
502823000 0.67273597496 -0.268405793047
502833500 0.672571949103 -0.269022302968
502844000 0.672318686085 -0.268535958539
502854500 0.672927948371 -0.268630408077
502865000 0.673133491295 -0.268714310203
502875500 0.672625941583 -0.268528112618
502886000 0.672956490117 -0.268341243506
502896500 0.67295557561 -0.268489343739
502907000 0.672582805602 -0.268516045386
502917500 0.672445989578 -0.268286441749
502928000 0.672779137386 -0.268851758402
502938500 0.672808360515 -0.2688621385
502949000 0.672650170033 -0.268309914617
502959500 0.672300336001 -0.268253805459
502970000 0.672602104953 -0.268763595057
502980500 0.67253469739 -0.269159449816
502991000 0.673006438358 -0.268735842943
503001500 0.6723541679 -0.268485205321
503012000 0.672477098487 -0.269228622761
503022500 0.672761836876 -0.269010710847
503033000 0.672923390822 -0.268956081043
503043500 0.67331890607 -0.268921548034
503054000 0.672245187329 -0.269194142759
503064500 0.672640680582 -0.269493668091
503075000 0.672685166122 -0.269869728996
503085500 0.672407610087 -0.2696939043
503096000 0.672564791563 -0.270305890697
503106500 0.670871817412 -0.269383684831
503117000 0.672691875897 -0.267962781896
503127500 0.674742883603 -0.269467813032
503138000 0.673622214002 -0.26932710044
503148500 0.671800718799 -0.267237308282
503159000 0.671992119529 -0.269051615464
503169500 0.673577210256 -0.270847488489
503180000 0.673889941489 -0.267111395232
503190500 0.673189320299 -0.269300230892
503201000 0.673540958225 -0.26887287229
503211500 0.670282545729 -0.267362861607
503222000 0.675588399974 -0.268023080641
503232500 0.673090047351 -0.269085047695
503243000 0.673031805182 -0.270218337161
503253500 0.671202478566 -0.268061540942
503264000 0.67210930141 -0.269047856075
503274500 0.671481832318 -0.268760229017
503285000 0.67218683316 -0.271624919371
503295500 0.675688344553 -0.269715050734
503306000 0.674191375223 -0.270572022984
503316500 0.675486151311 -0.269081679211
503327000 0.671329953824 -0.269155097172
503337500 0.674016060713 -0.268854733498
503348000 0.673510746101 -0.271139686776
503358500 0.672417205763 -0.271612848429
503369000 0.676091602926 -0.271013763383
503379500 0.671772519284 -0.270767252273
503390000 0.67343495235 -0.268368787627
503400500 0.670909323413 -0.268693120192
503411000 0.669228746548 -0.271792986148
503421500 0.669039744397 -0.269921543844
503432000 0.671664180794 -0.270855280852
503442500 0.673407270476 -0.267809714039
503453000 0.673417329231 -0.265870461345
503463500 0.672393222122 -0.268588035756
503474000 0.674621601452 -0.266873372348
503484500 0.671773596665 -0.268385080384
503495000 0.673614157654 -0.26913089264
503505500 0.671743388141 -0.267747569438
503516000 0.67307990373 -0.270441921251
503526500 0.673962543154 -0.266316799954
503537000 0.671309798536 -0.269491768543
503547500 0.675542763835 -0.271303052366
503558000 0.671326371501 -0.26531581986
503568500 0.669805034967 -0.26892986612
503579000 0.668625697229 -0.271659433366
503589500 0.669720377025 -0.270119183098
503600000 0.674520363254 -0.268291605111
503610500 0.669511003877 -0.269115034291
503621000 0.673261324184 -0.270037225811
503631500 0.671788159102 -0.268219402246
503642000 0.674935507343 -0.269310919868
503652500 0.673178591452 -0.269386969163
503663000 0.668937658225 -0.270505259907
503673500 0.67231669429 -0.269420059893
503684000 0.673888885362 -0.272391758895
503694500 0.674029264736 -0.270117902778
503705000 0.670380311526 -0.272591057537
503715500 0.670524316412 -0.268434239131
503726000 0.671349731746 -0.264920131038
503736500 0.673733415032 -0.263396604657
503747000 0.67407235083 -0.267629165796
503757500 0.672274272892 -0.268665876509
503768000 0.67275375681 -0.271046662452
503778500 0.672859366184 -0.270457563295
503789000 0.675239359002 -0.270197221842
503799500 0.671968127825 -0.270830997591
503810000 0.675548657479 -0.269926240419
503820500 0.672199293519 -0.270027292558
503831000 0.672349047642 -0.268878515827
503841500 0.673874937115 -0.268078931674
503852000 0.673332558225 -0.269384793299
503862500 0.67210268145 -0.269653278857
503873000 0.673008379384 -0.269990218237
503883500 0.673206119585 -0.270718810842
503894000 0.673713996354 -0.270594449649
503904500 0.673531555282 -0.270171090237
503915000 0.673398021238 -0.270841594073
503925500 0.67317568731 -0.270329770776
503936000 0.673214942981 -0.269829025025
503946500 0.672611758357 -0.270377242024
503957000 0.672495414057 -0.270005238467
503967500 0.672041352385 -0.270098486599
503978000 0.672293239858 -0.270026100963
503988500 0.6725828578 -0.270412499863
503999000 0.67280919616 -0.270598806924
504009500 0.67314547514 -0.270181712701
504020000 0.673416507394 -0.270444131862
504030500 0.673247451904 -0.270400222857
504041000 0.672631127288 -0.27023573899
504051500 0.672620173707 -0.269975058617
504062000 0.672818771413 -0.270522614119
504072500 0.672711291477 -0.269712143648
504083000 0.672812787843 -0.270099744666
504093500 0.672533525428 -0.270323671813
504104000 0.672383622226 -0.27069581975
504114500 0.673079713212 -0.271005961309
504125000 0.67244883356 -0.271310076916
504135500 0.673116872546 -0.270884779662
504146000 0.672902308846 -0.270610212999
504156500 0.673156035682 -0.270810486848
504167000 0.672819477166 -0.270283856957
504177500 0.672711962457 -0.270553656317
504188000 0.672734966206 -0.270755625384
504198500 0.672675027831 -0.270312722194
504209000 0.672651604302 -0.270329472407
504219500 0.672514925411 -0.270373827524
504230000 0.672711749655 -0.270262709168
504240500 0.672566875763 -0.27003914323
504251000 0.672854877167 -0.269783880539
504261500 0.672871914867 -0.270400504036
504272000 0.672896941394 -0.270093872921
504282500 0.672854970942 -0.270360041558
504293000 0.672643451802 -0.270368897115
504303500 0.672781819087 -0.270720566536
504314000 0.672449937653 -0.270773486139
504324500 0.672255834883 -0.270292223764
504335000 0.672625997103 -0.270582413529
504345500 0.672432149191 -0.270361600859
504356000 0.672420122205 -0.270481599958
504366500 0.673198582603 -0.27009195161
504377000 0.673334584449 -0.270156409185
504387500 0.671996487816 -0.269874577553
504398000 0.672680539969 -0.269715349174
504408500 0.672849936227 -0.270702442718
504419000 0.672816990904 -0.270755783714
504429500 0.672773517378 -0.270775934752
504440000 0.672781106197 -0.270415478487
504450500 0.672944420053 -0.270347802324
504461000 0.673524238874 -0.270607387283
504471500 0.672971830135 -0.270426806002
504482000 0.672841247533 -0.270297316789
504492500 0.672068251244 -0.270246273469
504503000 0.670478736503 -0.27105494741
504513500 0.670414768413 -0.270924319474
504524000 0.671470271086 -0.270905089892
504534500 0.672857242073 -0.270684754854
504545000 0.673139277546 -0.27119315072
504555500 0.673537894089 -0.270954184307
504566000 0.673407564434 -0.270709004101
504576500 0.672793533725 -0.270760690417
504587000 0.672934469166 -0.270440030763
504597500 0.673336302462 -0.270994846191
504608000 0.672428888168 -0.270655969943
504618500 0.673222476349 -0.270791806044
504629000 0.673068512889 -0.270492682347
504639500 0.673218337886 -0.270632377172
504650000 0.673044402755 -0.271042324113
504660500 0.673375315279 -0.270605370008
504671000 0.673280778525 -0.270212997121
504681500 0.673446117233 -0.269895377195
504692000 0.673398233678 -0.269814250162
504702500 0.673148575326 -0.270081350377
504713000 0.672397422814 -0.27023210947
504723500 0.672747489931 -0.270389115113
504734000 0.672735924005 -0.270093762036
504744500 0.672934287114 -0.270346598034
504755000 0.67277353447 -0.270554083077
504765500 0.672638700543 -0.270498984105
504776000 0.672277598809 -0.270987036338
504786500 0.672493219564 -0.270582881541
504797000 0.672494237958 -0.270607919105
504807500 0.672344787148 -0.270603857303
504818000 0.673339009077 -0.270662532395
504828500 0.673578449744 -0.270555792419
504839000 0.673282549222 -0.270756295953
504849500 0.672846167641 -0.270652918879
504860000 0.673160871277 -0.271412731846
504870500 0.672996854691 -0.271201314414
504881000 0.673353816384 -0.271003267644
504891500 0.673298007702 -0.271423285056
504902000 0.672890681992 -0.270751110137
504912500 0.673216532955 -0.270813925577
504923000 0.673003338714 -0.270963255776
504933500 0.673228453771 -0.271348912088
504944000 0.673056999425 -0.271444076053
504954500 0.673218770668 -0.271521537992
504965000 0.672745078038 -0.271584558396
504975500 0.672789294764 -0.2710194439
504986000 0.672713119471 -0.271377629127
504996500 0.672174781859 -0.2714766035
505007000 0.672407287863 -0.271510727167
505017500 0.672512331732 -0.271143969747
505028000 0.6727636978 -0.271093054068
505038500 0.672921701114 -0.270864650104
505049000 0.673083641118 -0.270920528916
505059500 0.673270536285 -0.270338925017
505070000 0.673108840307 -0.27067525051
505080500 0.672863779098 -0.269693506075
505091000 0.673702573203 -0.269784383423
505101500 0.67338271622 -0.270644512645
505112000 0.673217282624 -0.271170874624
505122500 0.673392734187 -0.271451397169
505133000 0.672793882493 -0.271596505136
505143500 0.672477597494 -0.271877863026
505154000 0.672585799353 -0.271288022566
505164500 0.669486634389 -0.27042562479
505175000 0.672784647092 -0.270996040561
505185500 0.67283274267 -0.27132747494
505196000 0.673165893359 -0.271295819791
505206500 0.672964257577 -0.270990671341
505217000 0.673009163766 -0.271437609253
505227500 0.672871387644 -0.271277308954
505238000 0.672942164545 -0.27098580206
505248500 0.673021649854 -0.271323394987
505259000 0.672665782046 -0.271473892125
505269500 0.672581062929 -0.270852496445
505280000 0.672727777436 -0.271088682533
505290500 0.672620983375 -0.271306382251
505301000 0.672694778675 -0.270957816018
505311500 0.672882702316 -0.271617770543
505322000 0.673084801754 -0.271134629788
505332500 0.673352723856 -0.271163345971
505343000 0.673266225781 -0.271390388483
505353500 0.673178606381 -0.271489608634
505364000 0.673118986634 -0.271507576441
505374500 0.67295536782 -0.271243630379
505385000 0.67265723559 -0.271682467311
505395500 0.673128327487 -0.271691064322
505406000 0.673118960959 -0.271298744823
505416500 0.672701070729 -0.271306630134
505427000 0.672935746009 -0.271522745735
505437500 0.673561484656 -0.271502508885
505448000 0.673149726959 -0.271289277795
505458500 0.673259571633 -0.271770161353
505469000 0.673361920308 -0.271520155287
505479500 0.672881255578 -0.271682171122
505490000 0.67219284858 -0.270678853898
505500500 0.672549663994 -0.271003858551
505511000 0.672790066727 -0.271540585347
505521500 0.671247535388 -0.271531164136
505532000 0.671326020077 -0.272032697609
505542500 0.670558932225 -0.270553446377
505553000 0.67087578937 -0.271753055215
505563500 0.671886740945 -0.271856401393
505574000 0.67245039282 -0.271521726655
505584500 0.672349961246 -0.271768678937
505595000 0.671290728371 -0.271880245858
505605500 0.67199751939 -0.271994444415
505616000 0.67256254363 -0.271630921686
505626500 0.672845615857 -0.271229177285
505637000 0.672472234692 -0.271450604122
505647500 0.672960790941 -0.272088128062
505658000 0.67245007954 -0.271912874685
505668500 0.672144833979 -0.27216222939
505679000 0.672686930689 -0.271852065493
505689500 0.672461939053 -0.271796104262
505700000 0.673247463989 -0.271756926099
505710500 0.673091263175 -0.271271750135
505721000 0.67288243861 -0.271111668384
505731500 0.673586846683 -0.271605455529
505742000 0.673134958714 -0.271523481925
505752500 0.673067822425 -0.271893436003
505763000 0.67287417698 -0.271859211754
505773500 0.672240172261 -0.272448801661
505784000 0.672499238189 -0.272303523832
505794500 0.672694467915 -0.272400911107
505805000 0.672733370257 -0.272284482947
505815500 0.672749895917 -0.271661266063
505826000 0.672786925507 -0.271829932054
505836500 0.672883602323 -0.271649134053
505847000 0.672913950312 -0.272236405131
505857500 0.673437057024 -0.271562999179
505868000 0.673010334702 -0.271828239325
505878500 0.672890083106 -0.271610323967
505889000 0.673060286255 -0.271430346372
505899500 0.672909391024 -0.271819161973
505910000 0.672940187851 -0.272065139588
505920500 0.672981058919 -0.272400602821
505931000 0.672819919201 -0.272323881091
505941500 0.672683692491 -0.271870400049
505952000 0.672851630645 -0.270767379227
505962500 0.672766366387 -0.270660836055
505973000 0.673096632468 -0.27054514642
505983500 0.672376728354 -0.271112180629
505994000 0.672101345849 -0.271468534827
506004500 0.672458492865 -0.272599312188
506015000 0.672454219061 -0.272380825934
506025500 0.672658136883 -0.272368340331
506036000 0.67334673529 -0.272145050996
506046500 0.673223064925 -0.272002853389
506057000 0.67271700096 -0.271923859715
506067500 0.67252940022 -0.272285242309
506078000 0.672708744371 -0.271675785824
506088500 0.672979772534 -0.271102942968
506099000 0.672558235106 -0.271855437621
506109500 0.672776826089 -0.271813339968
506120000 0.672865438838 -0.271947390758
506130500 0.673186428175 -0.272294158887
506141000 0.673044524618 -0.27191446968
506151500 0.672894970858 -0.272396123706
506162000 0.672819948153 -0.271969145785
506172500 0.673235841876 -0.271977936213
506183000 0.672135435073 -0.272149662221
506193500 0.672455163015 -0.271602894214
506204000 0.673089692428 -0.271706961361
506214500 0.673519595956 -0.271999706732
506225000 0.673568335599 -0.271713124844
506235500 0.672655474952 -0.272208512299
506246000 0.673102861501 -0.272448788585
506256500 0.672934368446 -0.272316877855
506267000 0.673056007911 -0.271962068269
506277500 0.672587281226 -0.271997812448
506288000 0.672166489046 -0.272055342543
506298500 0.672401041186 -0.27203808578
506309000 0.672400174211 -0.272173232443
506319500 0.672760483384 -0.273242229125
506330000 0.67266429232 -0.272975732313
506340500 0.672400732702 -0.272524515981
506351000 0.673094721817 -0.272273351194
506361500 0.673269631049 -0.272876492967
506372000 0.673187098431 -0.272789646259
506382500 0.673056410462 -0.273010961088
506393000 0.672448970168 -0.272891111694
506403500 0.672205738024 -0.272080425292
506414000 0.672397847026 -0.27225527527
506424500 0.672576831331 -0.272293189338
506435000 0.672635422372 -0.272418747839
506445500 0.674162224506 -0.266713238313
506456000 0.672620738458 -0.27173356929
506466500 0.672940437661 -0.271642524159
506477000 0.672920919442 -0.272084695561
506487500 0.67264641639 -0.27167336406
506498000 0.672823438288 -0.271505805224
506508500 0.672791878164 -0.272322288176
506519000 0.670785221867 -0.272500175372
506529500 0.672991564449 -0.271830027326
506540000 0.672733954557 -0.272254201148
506550500 0.673312927002 -0.272609020556
506561000 0.67263369057 -0.272839050585
506571500 0.672931115846 -0.272487258963
506582000 0.673524069906 -0.272855905417
506592500 0.672735321102 -0.272291251718
506603000 0.672512307054 -0.272382777267
506613500 0.67315367254 -0.2728515386
506624000 0.672241976141 -0.272744630272
506634500 0.673006812356 -0.272655231864
506645000 0.672676282636 -0.27223741235
506655500 0.671748763609 -0.271902002231
506666000 0.672554254243 -0.270992166841
506676500 0.671875455257 -0.272176725473
506687000 0.673181537716 -0.272198154409
506697500 0.673540167045 -0.272383766031
506708000 0.673647834708 -0.272607243342
506718500 0.672959039653 -0.272062701164
506729000 0.67462564823 -0.27119590138
506739500 0.67374692985 -0.271792285204
506750000 0.67419295529 -0.271470668081
506760500 0.673624856808 -0.272130878679
506771000 0.673323599891 -0.271595608184
506781500 0.672883066232 -0.271898988678
506792000 0.673032116116 -0.271906212159
506802500 0.672720308884 -0.272266548629
506813000 0.673025506423 -0.272199490741
506823500 0.673243138226 -0.272192525338
506834000 0.672905076773 -0.271429704248
506844500 0.672926411165 -0.271918362725
506855000 0.672711328189 -0.272369250233
506865500 0.672698987494 -0.272231705761
506876000 0.673100393595 -0.272711238581
506886500 0.673393677832 -0.272738879899
506897000 0.673008705088 -0.273048513221
506907500 0.672720135514 -0.272168056621
506918000 0.672928848849 -0.272618512802
506928500 0.673169236457 -0.272300549872
506939000 0.673517516403 -0.272336236667
506949500 0.673206140569 -0.272706492029
506960000 0.67409632649 -0.272228874854
506970500 0.673097395618 -0.272734798567
506981000 0.673084315127 -0.272923546795
506991500 0.672904234456 -0.272653553903
507002000 0.671247553571 -0.271631722425
507012500 0.673439835668 -0.272284371727
507023000 0.673417354794 -0.272636012837
507033500 0.672905169698 -0.272330143521
507044000 0.673281215532 -0.272066415102
507054500 0.673488437072 -0.273637041467
507065000 0.673852952897 -0.272895591152
507075500 0.672874621546 -0.272586609254
507086000 0.673900863343 -0.273080466879
507096500 0.673749091177 -0.27180388713
507107000 0.673767878291 -0.272483205835
507117500 0.673335650393 -0.272385273078
507128000 0.673655595077 -0.272100592552
507138500 0.67317977681 -0.272270202405
507149000 0.672728710268 -0.272324428991
507159500 0.673005444277 -0.272719759468
507170000 0.671636894712 -0.272102010398
507180500 0.672177052858 -0.271547873408
507191000 0.673346532435 -0.272078841911
507201500 0.671800801818 -0.272664424869
507212000 0.673473969629 -0.273482194465
507222500 0.67419663228 -0.27221823558
507233000 0.673125121536 -0.274622430867
507243500 0.674636422878 -0.271653716442
507254000 0.672679408505 -0.272100394299
507264500 0.672713009485 -0.272622597716
507275000 0.672273366773 -0.272765263336
507285500 0.674109397094 -0.271803993191
507296000 0.673693196851 -0.271508573764
507306500 0.673017761852 -0.274613517573
507317000 0.671927213327 -0.272366159933
507327500 0.673010723195 -0.271921153243
507338000 0.672388884429 -0.273590693061
507348500 0.671750967196 -0.272250694805
507359000 0.673868506408 -0.270602269727
507369500 0.673727927562 -0.271756201255
507380000 0.674420395733 -0.270541757175
507390500 0.672239915481 -0.272949041619
507401000 0.675312898594 -0.27159935028
507411500 0.675616399677 -0.272999474639
507422000 0.672641609113 -0.272320580087
507432500 0.674836216674 -0.272701328273
507443000 0.674734274174 -0.273747950153
507453500 0.672958659192 -0.271583898188
507464000 0.673272811086 -0.271123614094
507474500 0.673110394297 -0.271489341042
507485000 0.672384639105 -0.272216868887
507495500 0.673364437997 -0.272493538276
507506000 0.67347490304 -0.273066159032
507516500 0.67643671239 -0.271108942974
507527000 0.674916089194 -0.272162509983
507537500 0.67321554912 -0.271710752146
507548000 0.672796532712 -0.271602131515
507558500 0.672565821558 -0.272099692417
507569000 0.673164673162 -0.273649004097
507579500 0.673989940424 -0.273729983881
507590000 0.675412771922 -0.274143223907
507600500 0.67225763607 -0.274079048721
507611000 0.673595581726 -0.271633107535
507621500 0.674523712426 -0.272762523836
507632000 0.673984235177 -0.272011788906
507642500 0.673102464543 -0.27252520499
507653000 0.674482596337 -0.273715741452
507663500 0.674916795659 -0.272853016826
507674000 0.673961141515 -0.272524597784
507684500 0.674686422701 -0.273479657938
507695000 0.673929622761 -0.273254855765
507705500 0.673733416211 -0.272506359867
507716000 0.67203741598 -0.272490306041
507726500 0.672526038329 -0.273100612875
507737000 0.672874992509 -0.272888931654
507747500 0.674110673689 -0.27196832323
507758000 0.672087580051 -0.272864431713
507768500 0.673273499695 -0.273056503089
507779000 0.673792820333 -0.272875152002
507789500 0.672702059446 -0.272458863909
507800000 0.672465620124 -0.274054440376
507810500 0.67315288682 -0.27292011228
507821000 0.672952093164 -0.272138059602
507831500 0.673621016024 -0.273346800874
507842000 0.67376452989 -0.27298056521
507852500 0.674309029465 -0.273553034069
507863000 0.673503957088 -0.273128953689
507873500 0.673690671651 -0.2726681985
507884000 0.673388405973 -0.273708079002
507894500 0.673831318457 -0.273154384673
507905000 0.674055149938 -0.273317423912
507915500 0.673966422398 -0.273546476834
507926000 0.673674252221 -0.272315300708
507936500 0.673935226541 -0.272623962867
507947000 0.674435711226 -0.272639035416
507957500 0.673476227145 -0.272937638226
507968000 0.673869517963 -0.272798886954
507978500 0.673840907716 -0.272729741876
507989000 0.673914438819 -0.273378420121
507999500 0.673738664158 -0.273177473367
508010000 0.673613923553 -0.27251538948
508020500 0.673519173609 -0.272680931325
508031000 0.673232313152 -0.272569265373
508041500 0.673458801299 -0.272272193611
508052000 0.673864669683 -0.272326716641
508062500 0.673434078592 -0.271840028757
508073000 0.674161668386 -0.273068261286
508083500 0.673689257559 -0.273170715007
508094000 0.673105825232 -0.272983026343
508104500 0.673786019547 -0.273065192429
508115000 0.67377967072 -0.272532725988
508125500 0.673843677397 -0.273295871872
508136000 0.673662819004 -0.27308695017
508146500 0.674342723191 -0.272924644517
508157000 0.673961675548 -0.272699572308
508167500 0.673774632193 -0.273369594221
508178000 0.673778998742 -0.273045080538
508188500 0.673631342095 -0.273169193278
508199000 0.673782608051 -0.273451834895
508209500 0.6743404652 -0.273487638568
508220000 0.674741131725 -0.273410960446
508230500 0.674087264165 -0.273169540175
508241000 0.674596883233 -0.272908989
508251500 0.673847387995 -0.272639312022
508262000 0.674096119573 -0.272872501517
508272500 0.673457559495 -0.272455043298
508283000 0.673849952165 -0.272852081341
508293500 0.67389532009 -0.273158705585
508304000 0.673689202183 -0.273198860195
508314500 0.674159446447 -0.273411664447
508325000 0.673799833483 -0.273441024016
508335500 0.674367511718 -0.273211523369
508346000 0.674390331367 -0.273947332198
508356500 0.674275805537 -0.27394563196
508367000 0.675060303403 -0.273420081042
508377500 0.674867587661 -0.273398241216
508388000 0.674688778675 -0.273418942452
508398500 0.674353201075 -0.273680656996
508409000 0.674336663783 -0.273548961667
508419500 0.674678300515 -0.27372212396
508430000 0.674278847722 -0.273326212395
508440500 0.674707478758 -0.27340432115
508451000 0.674465527807 -0.273164190672
508461500 0.674628055555 -0.272752722892
508472000 0.675049427997 -0.273083771105
508482500 0.674531690291 -0.273178848493
508493000 0.674433214583 -0.27333208043
508503500 0.674346417079 -0.272979572763
508514000 0.673838693594 -0.273723801727
508524500 0.674080705855 -0.273444737065
508535000 0.673965121013 -0.273454156641
508545500 0.674534518973 -0.273594790943
508556000 0.67444666204 -0.273689275257
508566500 0.674061242924 -0.273525134727
508577000 0.674149640373 -0.273791498734
508587500 0.675015987738 -0.273768107918
508598000 0.67454314335 -0.273365899022
508608500 0.674765793592 -0.273352838841
508619000 0.674706266921 -0.273047598419
508629500 0.674273923317 -0.273116688809
508640000 0.674745898318 -0.273310953102
508650500 0.673856066784 -0.273155441258
508661000 0.673711806901 -0.2734091049
508671500 0.674353337408 -0.2738779856
508682000 0.673862246633 -0.273556084529
508692500 0.674314749552 -0.273934432713
508703000 0.674455893486 -0.27268409597
508713500 0.67431023753 -0.27298061911
508724000 0.675086288675 -0.27335419857
508734500 0.674684369824 -0.272993188887
508745000 0.675030900635 -0.273538534692
508755500 0.675211656327 -0.273449788511
508766000 0.674898687551 -0.272959456149
508776500 0.67484017969 -0.273629738576
508787000 0.674878024629 -0.273285106061
508797500 0.674664799933 -0.273432715317
508808000 0.674600428017 -0.273423458669
508818500 0.674422658418 -0.272737569161
508829000 0.674547710383 -0.272931419875
508839500 0.674174217368 -0.272961276557
508850000 0.67417395639 -0.271910844652
508860500 0.674624981252 -0.272958609454
508871000 0.675212530281 -0.27358216764
508881500 0.675717369562 -0.273276949114
508892000 0.675099359865 -0.273679051638
508902500 0.674522497122 -0.274160392697
508913000 0.674538171445 -0.273767691353
508923500 0.675039648086 -0.273608668734
508934000 0.674822411237 -0.273023866133
508944500 0.674667297643 -0.273377238055
508955000 0.675134002429 -0.273367818113
508965500 0.674902048051 -0.273390605393
508976000 0.674560220222 -0.273180269706
508986500 0.674045455751 -0.272814750734
508997000 0.674090086211 -0.272995224561
509007500 0.674631675301 -0.273299324321
509018000 0.674759295467 -0.273685620664
509028500 0.674424748778 -0.273493998001
509039000 0.674711535219 -0.273164051972
509049500 0.674456231785 -0.273016921622
509060000 0.674917148901 -0.272905928453
509070500 0.674475386677 -0.273330054525
509081000 0.674786382777 -0.272955349656
509091500 0.674605902181 -0.273691780601
509102000 0.675295528945 -0.273172397058
509112500 0.675105923581 -0.273815407457
509123000 0.674799834861 -0.2736285163
509133500 0.675396452576 -0.273365671881
509144000 0.668322770118 -0.274939803665
509154500 0.673018054885 -0.275715019251
509165000 0.681946911278 -0.280820581462
509175500 0.673633154154 -0.275682527757
509186000 0.674504219336 -0.274519018534
509196500 0.675219440305 -0.274109380509
509207000 0.675449500624 -0.274030271925
509217500 0.675815140685 -0.273959228962
509228000 0.675473385468 -0.274182706512
509238500 0.675410947452 -0.274291754995
509249000 0.67541870067 -0.273983822454
509259500 0.675336516539 -0.27377558607
509270000 0.675607904225 -0.274274344583
509280500 0.675815986589 -0.274188058375
509291000 0.674885551259 -0.274353420631
509301500 0.675093534896 -0.274994081491
509312000 0.675491726352 -0.274628219529
509322500 0.675729625638 -0.274616754588
509333000 0.675439387401 -0.273806078125
509343500 0.67516171623 -0.273820650938
509354000 0.675559971058 -0.274245418144
509364500 0.674884789742 -0.274358275563
509375000 0.674594906736 -0.274048546665
509385500 0.675002052704 -0.274147023803
509396000 0.675411959482 -0.274267616301
509406500 0.675395962192 -0.274120422226
509417000 0.675435172359 -0.274066965855
509427500 0.674733484623 -0.274427966828
509438000 0.675447316975 -0.274543251253
509448500 0.676055232907 -0.274581887682
509459000 0.675658280577 -0.274139844685
509469500 0.675594320462 -0.274006699815
509480000 0.675673093974 -0.274304649367
509490500 0.676027009803 -0.274682847772
509501000 0.675532879645 -0.274427867162
509511500 0.67557284437 -0.274668758758
509522000 0.675706100982 -0.274227420904
509532500 0.675179750872 -0.274011965935
509543000 0.675559887673 -0.273668568176
509553500 0.675365327567 -0.273761285406
509564000 0.675136801765 -0.274180892311
509574500 0.67568821988 -0.27388742347
509585000 0.675193558959 -0.273909290262
509595500 0.674874272587 -0.272944520741
509606000 0.675718819899 -0.27351022053
509616500 0.675910095498 -0.27446090388
509627000 0.676484902667 -0.274778901831
509637500 0.67573297488 -0.274592912401
509648000 0.675711586173 -0.274081639513
509658500 0.676422219724 -0.274062404348
509669000 0.676041822719 -0.27437334785
509679500 0.676123324567 -0.27440897429
509690000 0.675784134623 -0.274468970525
509700500 0.6758231243 -0.273985045106
509711000 0.676295541181 -0.274865926965
509721500 0.675504330402 -0.274328304183
509732000 0.675502620001 -0.274562613856
509742500 0.67576623312 -0.274688384588
509753000 0.675854409796 -0.274765159707
509763500 0.676471303796 -0.274564674922
509774000 0.676403906024 -0.27381831737
509784500 0.676199297918 -0.274201712839
509795000 0.676014272509 -0.274260639356
509805500 0.676102917503 -0.274504065602
509816000 0.676157326094 -0.274469650697
509826500 0.675956676522 -0.274867768144
509837000 0.676823128958 -0.2745943087
509847500 0.677380794421 -0.27485799839
509858000 0.677862848051 -0.274889881687
509868500 0.677357673276 -0.274576991124
509879000 0.676904975017 -0.274643727133
509889500 0.676450165012 -0.274626119414
509900000 0.676123123093 -0.275007977955
509910500 0.676149175894 -0.274842847479
509921000 0.676389300384 -0.274488041489
509931500 0.676005769083 -0.27468081942
509942000 0.676891965631 -0.274334234327
509952500 0.676467640407 -0.274593688422
509963000 0.676057236064 -0.27453837463
509973500 0.67678654724 -0.27484268966
509984000 0.676302213931 -0.275456803964
509994500 0.675964318861 -0.275034703503
510005000 0.676038542879 -0.275146157407
510015500 0.676210495716 -0.275226696158
510026000 0.676196231499 -0.274867210388
510036500 0.676212990596 -0.274851259747
510047000 0.676737315907 -0.274408402476
510057500 0.676469600167 -0.274230196685
510068000 0.676642628819 -0.274591189808
510078500 0.676684802335 -0.27466702132
510089000 0.676464431267 -0.27466206556
510099500 0.676350836102 -0.274168301926
510110000 0.676714106874 -0.274553795573
510120500 0.676312723943 -0.275059730307
510131000 0.676206026853 -0.274879543251
510141500 0.675989605323 -0.275400300905
510152000 0.675903079949 -0.274864946148
510162500 0.676293416048 -0.275310293867
510173000 0.676163396289 -0.275387308026
510183500 0.676801935958 -0.275336457071
510194000 0.67636830547 -0.275017423226
510204500 0.676258157038 -0.275571169296
510215000 0.676092871324 -0.275465935777
510225500 0.675630835229 -0.275730183077
510236000 0.676318395663 -0.275562125537
510246500 0.676262892809 -0.275547493616
510257000 0.676814895206 -0.275662153781
510267500 0.676727722275 -0.27526557069
510278000 0.6769528526 -0.275162816293
510288500 0.676797769475 -0.274808245853
510299000 0.6768548946 -0.27505026555
510309500 0.676449377232 -0.27437759761
510320000 0.676216697624 -0.274368262477
510330500 0.676606984147 -0.274519192284
510341000 0.676258147975 -0.27451229509
510351500 0.676687048849 -0.274836801817
510362000 0.676552668064 -0.274481205734
510372500 0.676746936483 -0.274898892117
510383000 0.676517345205 -0.275115140899
510393500 0.676861885864 -0.275075251545
510404000 0.676782081578 -0.27565586443
510414500 0.676397420696 -0.274993560975
510425000 0.676213223548 -0.275177581352
510435500 0.676504328844 -0.275267401845
510446000 0.676034134912 -0.275279321235
510456500 0.676384480848 -0.275052120704
510467000 0.675986245799 -0.274820741807
510477500 0.676727549763 -0.274640163549
510488000 0.677135451899 -0.274413324294
510498500 0.676755712551 -0.275270664992
510509000 0.677021247587 -0.275392071064
510519500 0.676058220089 -0.275838955609
510530000 0.676429748682 -0.275486195397
510540500 0.676573522927 -0.275863340386
510551000 0.676826210399 -0.275676509442
510561500 0.676979431219 -0.275491739531
510572000 0.676889267503 -0.276071110942
510582500 0.67656219167 -0.275882744884
510593000 0.676552343851 -0.275809851749
510603500 0.676326695286 -0.275750414421
510614000 0.676483679073 -0.275863403121
510624500 0.676849768457 -0.275681316768
510635000 0.677310347953 -0.275710049319
510645500 0.677326196909 -0.275948487057
510656000 0.677077046629 -0.27605520284
510666500 0.677062076354 -0.275653752351
510677000 0.677364851127 -0.275567826142
510687500 0.676916543594 -0.275450194246
510698000 0.676982761061 -0.275005978444
510708500 0.677299081039 -0.275721305743
510719000 0.677125012385 -0.27584263474
510729500 0.677383794871 -0.27611244733
510740000 0.677737780732 -0.275685940954
510750500 0.677447969797 -0.275203466512
510761000 0.677959379784 -0.27590555035
510771500 0.677933374152 -0.276153452799
510782000 0.677508213503 -0.275697454722
510792500 0.677531309308 -0.275404994321
510803000 0.677067946441 -0.274850433563
510813500 0.67756680057 -0.275651369735
510824000 0.677596762483 -0.275261508388
510834500 0.677910124533 -0.275722290842
510845000 0.677475662345 -0.276132928324
510855500 0.677250247576 -0.276003044829
510866000 0.676699140898 -0.275978040943
510876500 0.677249359385 -0.275948945443
510887000 0.677012804936 -0.275734100108
510897500 0.677375799992 -0.275934820032
510908000 0.677252001658 -0.275625611148
510918500 0.676797929268 -0.275150572199
510929000 0.67684931279 -0.275701325447
510939500 0.67713432291 -0.275705915588
510950000 0.677990918992 -0.275684039697
510960500 0.677371648357 -0.275422974416
510971000 0.677603443607 -0.276070251029
510981500 0.677861469966 -0.276178878914
510992000 0.676897821193 -0.275965796566
511002500 0.67718000986 -0.276022742881
511013000 0.677608681548 -0.276271705457
511023500 0.677842446339 -0.275646153221
511034000 0.677689393045 -0.275789495395
511044500 0.678113097019 -0.276214049469
511055000 0.678088725916 -0.276008931765
511065500 0.678194274371 -0.276316498733
511076000 0.67761563585 -0.276587389255
511086500 0.677676724705 -0.276294783437
511097000 0.677083248988 -0.276241482833
511107500 0.677649331136 -0.27562583985
511118000 0.677220435081 -0.27673550038
511128500 0.677558291446 -0.276905907932
511139000 0.677871208144 -0.276879984405
511149500 0.67817255077 -0.27699882285
511160000 0.677860903661 -0.277012518795
511170500 0.67829482024 -0.276919440778
511181000 0.6782526142 -0.276936648578
511191500 0.676811575597 -0.277497139605
511202000 0.675573498742 -0.278690747635
511212500 0.675909090329 -0.278313641442
511223000 0.67695822173 -0.277596577535
511233500 0.677290083991 -0.276863379354
511244000 0.677473593885 -0.276588186705
511254500 0.677802504588 -0.276510872443
511265000 0.678083223228 -0.276590939587
511275500 0.677821200404 -0.276236890515
511286000 0.67759136899 -0.276464167227
511296500 0.676714523249 -0.276739485992
511307000 0.677495288975 -0.276099421742
511317500 0.677603346818 -0.27609818895
511328000 0.677793627828 -0.276466419646
511338500 0.677478075339 -0.2767717035
511349000 0.677804422075 -0.276335767027
511359500 0.678335105018 -0.276871050724
511370000 0.677632951583 -0.277481863538
511380500 0.67782099632 -0.27714427074
511391000 0.677627218374 -0.277143117053
511401500 0.677934298952 -0.276588340252
511412000 0.678271426595 -0.276430475736
511422500 0.678409591918 -0.276199773342
511433000 0.677926172526 -0.276662512603
511443500 0.678116080713 -0.276850138579
511454000 0.677313070939 -0.276477476829
511464500 0.678003454797 -0.275939014531
511475000 0.677640604002 -0.277097208243
511485500 0.67713722662 -0.27564354657
511496000 0.678294225172 -0.275632693078
511506500 0.676597411928 -0.275739990722
511517000 0.678537281909 -0.276733342826
511527500 0.678414761789 -0.276291657041
511538000 0.678486186668 -0.276613081041
511548500 0.678534012556 -0.277432113698
511559000 0.679122114806 -0.276754142121
511569500 0.677988518804 -0.277947422766
511580000 0.677934230198 -0.277166266931
511590500 0.677786615803 -0.277517572453
511601000 0.678615623106 -0.277111267595
511611500 0.677792584072 -0.277788620931
511622000 0.677349496857 -0.277210309312
511632500 0.677189341734 -0.277226916823
511643000 0.678206786594 -0.278210585022
511653500 0.67866198938 -0.278009625444
511664000 0.679048213354 -0.278254254581
511674500 0.677217919811 -0.27758755732
511685000 0.678330437984 -0.276706040896
511695500 0.677839803715 -0.276294556388
511706000 0.67875925686 -0.276374039581
511716500 0.678373951374 -0.277711396384
511727000 0.679109080618 -0.278083479308
511737500 0.677735563167 -0.277578534358
511748000 0.678195869687 -0.278492014065
511758500 0.678634998871 -0.277364195919
511769000 0.679179964153 -0.277440428533
511779500 0.678298929573 -0.278244056175
511790000 0.67926765578 -0.277542694189
511800500 0.678362742046 -0.276774532707
511811000 0.678108249517 -0.277690292258
511821500 0.67764449908 -0.277168332142
511832000 0.677903760031 -0.277564097356
511842500 0.6784327171 -0.278909422771
511853000 0.678003474149 -0.277605476528
511863500 0.678880390072 -0.279672273116
511874000 0.679403375728 -0.278682798914
511884500 0.678672223268 -0.277514535344
511895000 0.677882151183 -0.277436496571
511905500 0.677964014301 -0.277489374618
511916000 0.678594505175 -0.277630247546
511926500 0.678398491294 -0.277959360204
511937000 0.677955438513 -0.27818241575
511947500 0.678496684069 -0.277643062345
511958000 0.678222217401 -0.277840750759
511968500 0.679211529642 -0.276859298288
511979000 0.678743172492 -0.278348956485
511989500 0.678518955268 -0.277929128237
512000000 0.678688370449 -0.277846018467
