! Calibrated averaged scanner-service zoom
# Hz S RI R 50
450000000 0.665759338689 -0.178916843264
450010000 0.666110683898 -0.178366549878
450020000 0.665810178188 -0.178476921522
450030000 0.665842040829 -0.179066016761
450040000 0.666699152001 -0.178437594541
450050000 0.666352947928 -0.178323512388
450060000 0.666297436713 -0.178404173371
450070000 0.667085997041 -0.178709426165
450080000 0.666763573274 -0.179125417624
450090000 0.666498694686 -0.178832070333
450100000 0.666616490497 -0.179167723898
450110000 0.666621717447 -0.17846245031
450120000 0.666831852182 -0.179383189314
450130000 0.6663858234 -0.17907561698
450140000 0.666141839783 -0.177950332775
450150000 0.666784179512 -0.178442655549
450160000 0.665854299831 -0.179371061533
450170000 0.665487912822 -0.18012418823
450180000 0.666329418855 -0.179263522183
450190000 0.666611484497 -0.179017446615
450200000 0.666146763624 -0.178186040524
450210000 0.666074583376 -0.178394831262
450220000 0.666098195652 -0.178760618297
450230000 0.665444815054 -0.178800721199
450240000 0.666568574561 -0.178964651337
450250000 0.666452520352 -0.179559469588
450260000 0.66692004844 -0.17944432791
450270000 0.666790563247 -0.179717523373
450280000 0.66657641634 -0.179612813883
450290000 0.666299972903 -0.179499122933
450300000 0.66615003003 -0.178892662975
450310000 0.666751396422 -0.17985327809
450320000 0.664410199519 -0.18066822668
450330000 0.66215997918 -0.182909758895
450340000 0.659722612644 -0.184774302076
450350000 0.66023691066 -0.184316225755
450360000 0.662556911504 -0.18287193731
450370000 0.664326639718 -0.180351611439
450380000 0.666173345582 -0.179598598198
450390000 0.666823518184 -0.179376904197
450400000 0.66852236738 -0.179425774403
450410000 0.667038674155 -0.178782586378
450420000 0.667104628466 -0.179575833754
450430000 0.666611052843 -0.179369255434
450440000 0.667317742485 -0.179187204237
450450000 0.667542921403 -0.179220805216
450460000 0.66718145472 -0.178344631022
450470000 0.667051005605 -0.17918271161
450480000 0.667651892129 -0.179740926564
450490000 0.666963292251 -0.179621723631
450500000 0.667704586309 -0.179034623584
450510000 0.667104743458 -0.179268002438
450520000 0.667339058832 -0.179279530686
450530000 0.667518443305 -0.179195431196
450540000 0.667408869135 -0.179182962078
450550000 0.666995735122 -0.179638302727
450560000 0.667153668133 -0.179982291396
450570000 0.667105060494 -0.180049329493
450580000 0.666960793464 -0.179913424987
450590000 0.667074681722 -0.179587723207
450600000 0.667146672817 -0.179589861556
450610000 0.667211828916 -0.179446386364
450620000 0.666550544941 -0.179132564017
450630000 0.667763766008 -0.179132781319
450640000 0.667575417839 -0.179459419718
450650000 0.667233686472 -0.179443550306
450660000 0.666846606339 -0.179202905334
450670000 0.667291640798 -0.179149704666
450680000 0.666784444312 -0.179078521772
450690000 0.667036294878 -0.179335803726
450700000 0.666421269751 -0.179201327607
450710000 0.667203674398 -0.179215879149
450720000 0.66708782751 -0.180315473619
450730000 0.666948700357 -0.179646418262
450740000 0.667154995323 -0.179536925886
450750000 0.666803802543 -0.179478940708
450760000 0.666366661832 -0.179785106364
450770000 0.666492178044 -0.179953802908
450780000 0.66631671528 -0.180528485394
450790000 0.66669212535 -0.180175990647
450800000 0.666546137075 -0.180785892016
450810000 0.666772182235 -0.181076135034
450820000 0.666798092935 -0.180697332022
450830000 0.666830380337 -0.180289234051
450840000 0.665982243883 -0.180946605001
450850000 0.665417115713 -0.180225019659
450860000 0.663928458648 -0.179008759217
450870000 0.66504837803 -0.179327269014
450880000 0.666043208967 -0.180080249666
450890000 0.667286486178 -0.179876167124
450900000 0.667596975451 -0.179970156018
450910000 0.667612911905 -0.180432855195
450920000 0.667653760104 -0.180413935978
450930000 0.667860915061 -0.18017913385
450940000 0.667304890627 -0.180207040895
450950000 0.667654384949 -0.180366150467
450960000 0.667382698801 -0.180202016556
450970000 0.666996079488 -0.180097943115
450980000 0.667354217457 -0.180186619922
450990000 0.667581352477 -0.180193250793
451000000 0.667747139626 -0.180377108496
451010000 0.667722300812 -0.180570640589
451020000 0.667616976238 -0.180345582682
451030000 0.667795386439 -0.180027086354
451040000 0.667820768158 -0.180487973558
451050000 0.667576285771 -0.179024885793
451060000 0.667265526786 -0.180533647743
451070000 0.666826544576 -0.180164399264
451080000 0.667700059444 -0.180238341335
451090000 0.667289122376 -0.179970725395
451100000 0.667160732677 -0.179881551641
451110000 0.667096533483 -0.18048074107
451120000 0.667145279933 -0.17999183416
451130000 0.667152725362 -0.180007120321
451140000 0.667162631343 -0.180774758975
451150000 0.667285157458 -0.179946041585
451160000 0.667404847954 -0.180380457729
451170000 0.667476972339 -0.180400989203
451180000 0.667859630515 -0.180716759857
451190000 0.667635480519 -0.18028841059
451200000 0.667671346326 -0.180107915326
451210000 0.667555654538 -0.180357111481
451220000 0.667770591536 -0.180808228128
451230000 0.668196224201 -0.180615055585
451240000 0.667706026024 -0.180654285803
451250000 0.667963702983 -0.181421227675
451260000 0.667825831518 -0.182031060272
451270000 0.667692503726 -0.182058857106
451280000 0.667628320336 -0.180894503228
451290000 0.667866109763 -0.180888415825
451300000 0.668147790226 -0.180183687504
451310000 0.667660728007 -0.18050305931
451320000 0.667508181492 -0.18039499223
451330000 0.667741573869 -0.181114253301
451340000 0.667976256366 -0.180920208058
451350000 0.66840069425 -0.181049052537
451360000 0.668011592049 -0.181223902959
451370000 0.668838980616 -0.180964579423
451380000 0.670671591498 -0.188545604612
451390000 0.669073859216 -0.181485170939
451400000 0.668435235956 -0.180754904685
451410000 0.668150732905 -0.180911117698
451420000 0.667336123893 -0.180985838571
451430000 0.666461175207 -0.180389720708
451440000 0.665787144436 -0.181008707258
451450000 0.666454915819 -0.181238303515
451460000 0.667166557834 -0.180820719744
451470000 0.668136422535 -0.180816164428
451480000 0.667591874537 -0.18104726331
451490000 0.667454041361 -0.18157879891
451500000 0.66698747193 -0.181490580911
451510000 0.668143657309 -0.181155622142
451520000 0.667881051971 -0.181536792394
451530000 0.668031163424 -0.181496577588
451540000 0.668424223266 -0.181438829151
451550000 0.668058728873 -0.181502905782
451560000 0.668273299572 -0.181419448202
451570000 0.668346575873 -0.181291680425
451580000 0.668245329315 -0.181488093004
451590000 0.668240885132 -0.181951241778
451600000 0.668006944691 -0.181007246986
451610000 0.668302539427 -0.181938970527
451620000 0.667657900878 -0.180805490149
451630000 0.667773778902 -0.181803437694
451640000 0.667062598782 -0.180814127685
451650000 0.667927273777 -0.180939117199
451660000 0.667728020736 -0.181325450679
451670000 0.668118805129 -0.18090952617
451680000 0.668505017114 -0.180977532617
451690000 0.668746949196 -0.181113051784
451700000 0.668747159189 -0.181446007441
451710000 0.668748839901 -0.181479752411
451720000 0.668596157148 -0.181685082384
451730000 0.667380458605 -0.181165743702
451740000 0.668322105204 -0.181597272061
451750000 0.668597532178 -0.181114020383
451760000 0.66880672398 -0.181186879851
451770000 0.668198097972 -0.181361322854
451780000 0.668383715521 -0.181340905031
451790000 0.669355060222 -0.181292822862
451800000 0.668566646691 -0.181320867664
451810000 0.668144272727 -0.181201627014
451820000 0.668497764433 -0.181036995438
451830000 0.66836869579 -0.180934709614
451840000 0.667985890871 -0.181183162766
451850000 0.667652963242 -0.180674559365
451860000 0.668275149265 -0.181364881969
451870000 0.668624233448 -0.181445545399
451880000 0.669145337677 -0.181619846354
451890000 0.669565731092 -0.181257032987
451900000 0.669424420066 -0.180497057367
451910000 0.66913830969 -0.181256264356
451920000 0.66907189139 -0.181701544856
451930000 0.668085222012 -0.182342216667
451940000 0.668033729653 -0.182024129057
451950000 0.667627569147 -0.181938510766
451960000 0.667493130464 -0.182200571163
451970000 0.668221899332 -0.182369789698
451980000 0.667889091361 -0.182001140127
451990000 0.668104989147 -0.182156301029
452000000 0.668656662719 -0.181942531561
452010000 0.668454391302 -0.181722943883
452020000 0.668042505728 -0.18202239133
452030000 0.668092045649 -0.181987870461
452040000 0.668314597443 -0.181379888343
452050000 0.667841043203 -0.181958449576
452060000 0.668365345661 -0.182269291644
452070000 0.668419406569 -0.182574211486
452080000 0.66836299554 -0.181834164717
452090000 0.669155583467 -0.181695816623
452100000 0.669434810218 -0.182464879607
452110000 0.669767453515 -0.182308496331
452120000 0.66916517531 -0.182418476688
452130000 0.669163836432 -0.182926987646
452140000 0.669175087704 -0.182452332308
452150000 0.669234979934 -0.182794409439
452160000 0.669515976651 -0.182760952298
452170000 0.668652929621 -0.182902043251
452180000 0.66906156238 -0.182593127434
452190000 0.668984804662 -0.182929957427
452200000 0.669420851868 -0.182532268135
452210000 0.669139418852 -0.182802579808
452220000 0.669205080422 -0.182662317647
452230000 0.669111596344 -0.182524097588
452240000 0.669283015888 -0.182112736193
452250000 0.668769231234 -0.182191360312
452260000 0.668838335867 -0.181527030254
452270000 0.668428369064 -0.182046809015
452280000 0.668488674474 -0.182382747558
452290000 0.669230778073 -0.182873112211
452300000 0.668797902317 -0.182936454729
452310000 0.669214807661 -0.183121666748
452320000 0.669627451353 -0.182726519604
452330000 0.669235929333 -0.182357030367
452340000 0.668751925368 -0.182205432366
452350000 0.669070546186 -0.182298300177
452360000 0.668549149919 -0.18219312982
452370000 0.668736863499 -0.182597903403
452380000 0.669021865756 -0.183272356545
452390000 0.669143626385 -0.183317337413
452400000 0.669200061741 -0.183101166526
452410000 0.669353218426 -0.182785443932
452420000 0.669183626182 -0.182883453695
452430000 0.668603134411 -0.182708056393
452440000 0.669169959226 -0.182769750744
452450000 0.66883430877 -0.182912326939
452460000 0.66908250911 -0.183086383891
452470000 0.669287540622 -0.182612328374
452480000 0.668858610447 -0.182981575236
452490000 0.669242289536 -0.182799327485
452500000 0.668779995338 -0.182704075227
452510000 0.669437203083 -0.183165024105
452520000 0.669388112842 -0.182616008262
452530000 0.668717636068 -0.183188639451
452540000 0.668997231024 -0.183157112115
452550000 0.66935299874 -0.182813526947
452560000 0.669668207319 -0.182974988386
452570000 0.6696345631 -0.183197380369
452580000 0.667877928806 -0.182881468974
452590000 0.668933072746 -0.182332100947
452600000 0.669132654601 -0.182139983451
452610000 0.669178487593 -0.181851917554
452620000 0.668819563099 -0.183198573046
452630000 0.669026139678 -0.183308193176
452640000 0.669269923841 -0.183594922668
452650000 0.669067387332 -0.183299132883
452660000 0.66878713773 -0.183429292962
452670000 0.669435556237 -0.18311039746
452680000 0.669804820829 -0.183451283517
452690000 0.669692862885 -0.183402768292
452700000 0.669482873696 -0.182649710822
452710000 0.669267464007 -0.183136406503
452720000 0.669338352444 -0.18342788168
452730000 0.668969942734 -0.183782188949
452740000 0.668468541001 -0.182929621955
452750000 0.668941974445 -0.182735005679
452760000 0.668991922449 -0.182399681058
452770000 0.669478839518 -0.182163438523
452780000 0.669395391452 -0.18259317305
452790000 0.669478017452 -0.18253115118
452800000 0.669419030241 -0.182692584453
452810000 0.67018485479 -0.182605612648
452820000 0.669995707722 -0.182641651706
452830000 0.669368249622 -0.182434938403
452840000 0.669559782008 -0.18321619652
452850000 0.669499674098 -0.183158892092
452860000 0.669588332299 -0.182641708819
452870000 0.669467672786 -0.183114178164
452880000 0.668619538242 -0.182487343998
452890000 0.670190288981 -0.182501797117
452900000 0.670138760292 -0.182762108335
452910000 0.669551651873 -0.182673353085
452920000 0.669910886754 -0.182997598144
452930000 0.6691320026 -0.183630125816
452940000 0.669535752601 -0.183614148001
452950000 0.669412067155 -0.183748912924
452960000 0.669839332381 -0.183887387522
452970000 0.669065904658 -0.183078314156
452980000 0.669886432754 -0.182889127858
452990000 0.668954327853 -0.182662478175
453000000 0.669060859238 -0.183018562729
453010000 0.66967910668 -0.183463976043
453020000 0.669056974234 -0.18393764322
453030000 0.670255732281 -0.183505908577
453040000 0.669959451685 -0.183144055396
453050000 0.67050404124 -0.183444153293
453060000 0.67079582359 -0.183508302698
453070000 0.669593995449 -0.183217112521
453080000 0.669358010325 -0.183394022846
453090000 0.669374829678 -0.183142588478
453100000 0.669091280942 -0.183267520843
453110000 0.669506142583 -0.182770946012
453120000 0.669779303312 -0.18294182852
453130000 0.669711947437 -0.183163293503
453140000 0.6699455002 -0.183299626426
453150000 0.669507952678 -0.182745678227
453160000 0.669620016454 -0.183016338256
453170000 0.66947614859 -0.182910338953
453180000 0.669822612277 -0.183463559338
453190000 0.670673022507 -0.183626039549
453200000 0.66976944131 -0.183754952822
453210000 0.670175765478 -0.184186823833
453220000 0.668848466318 -0.184306726873
453230000 0.670382992484 -0.18362734604
453240000 0.669662802143 -0.184029931924
453250000 0.669945839627 -0.183767074456
453260000 0.670232667203 -0.183680128026
453270000 0.670243074577 -0.183992336481
453280000 0.670201884325 -0.183666136878
453290000 0.670847321551 -0.183513585024
453300000 0.669539019453 -0.183149656764
453310000 0.670356013956 -0.183540594293
453320000 0.669227649997 -0.183110835292
453330000 0.670376111943 -0.182985730333
453340000 0.670793351408 -0.183772074712
453350000 0.671674245382 -0.186434932315
453360000 0.672333202416 -0.188249835452
453370000 0.671648582646 -0.187208444236
453380000 0.671977414803 -0.185262456648
453390000 0.670472346944 -0.183671365322
453400000 0.670122385301 -0.183033993891
453410000 0.670601833436 -0.183857315544
453420000 0.670423515062 -0.183784185806
453430000 0.670550071962 -0.184117256468
453440000 0.670800384395 -0.184115162744
453450000 0.670424253358 -0.183600074874
453460000 0.670482414378 -0.184127741434
453470000 0.669432694058 -0.184682991506
453480000 0.669618146208 -0.18445937356
453490000 0.669888461299 -0.183788023982
453500000 0.670307536359 -0.184078966598
453510000 0.669549444324 -0.183792757212
453520000 0.670358835181 -0.183930179415
453530000 0.670261545113 -0.183538183948
453540000 0.670606151973 -0.183369482766
453550000 0.670664471825 -0.183625212288
453560000 0.670900238711 -0.183577990664
453570000 0.671379449597 -0.183399785774
453580000 0.670840211909 -0.184029471068
453590000 0.670670289205 -0.183276321515
453600000 0.670725105322 -0.184437162486
453610000 0.670410089817 -0.184113205322
453620000 0.671173830296 -0.184809424401
453630000 0.670721002777 -0.184260910703
453640000 0.670395332807 -0.184326914657
453650000 0.669715323925 -0.18381835229
453660000 0.671135737092 -0.184357669713
453670000 0.670030737367 -0.183975735645
453680000 0.669460667401 -0.184562146096
453690000 0.669856520108 -0.184458704233
453700000 0.669718763448 -0.18414809209
453710000 0.67026012027 -0.18409470998
453720000 0.669966136239 -0.184464564321
453730000 0.670851487671 -0.184003974405
453740000 0.670400214215 -0.184571680645
453750000 0.670164819684 -0.184678267331
453760000 0.669853330836 -0.184248905797
453770000 0.670100462163 -0.184188784154
453780000 0.670573550613 -0.184108313032
453790000 0.67074180647 -0.184175747935
453800000 0.670962411214 -0.184531024998
453810000 0.67064103526 -0.18427190509
453820000 0.670910414902 -0.184780679248
453830000 0.670634425097 -0.184082154459
453840000 0.671129067551 -0.18467684125
453850000 0.671020259458 -0.184759443645
453860000 0.670499855542 -0.184513595451
453870000 0.670810901616 -0.184870940309
453880000 0.670939918881 -0.185600858817
453890000 0.670971159389 -0.184626682121
453900000 0.67067463891 -0.18504723349
453910000 0.670368694547 -0.184353686409
453920000 0.671214131056 -0.184308536475
453930000 0.671185839397 -0.183799402555
453940000 0.671578718459 -0.183825902729
453950000 0.670467791111 -0.184027636418
453960000 0.670771514997 -0.184651823603
453970000 0.670844660177 -0.184635933454
453980000 0.671177596635 -0.184570894252
453990000 0.670219190007 -0.184583813323
454000000 0.670682855717 -0.184467141158
454010000 0.67129058582 -0.184510193185
454020000 0.671645444894 -0.18413346138
454030000 0.67135818262 -0.184331672426
454040000 0.670579053975 -0.184809102749
454050000 0.671024144319 -0.185113069212
454060000 0.671489303444 -0.184181262213
454070000 0.671028075269 -0.184351494206
454080000 0.670696713393 -0.184290034215
454090000 0.670652654917 -0.184394817424
454100000 0.670979144208 -0.184560403129
454110000 0.671009517461 -0.184027482666
454120000 0.671075180083 -0.184754465843
454130000 0.67152555969 -0.184444549418
454140000 0.672268236189 -0.184657345775
454150000 0.671432386624 -0.183837169694
454160000 0.671208796874 -0.184435250353
454170000 0.671398292015 -0.18423464911
454180000 0.670978524755 -0.184465978888
454190000 0.670932182109 -0.184542134864
454200000 0.670970745159 -0.184886908741
454210000 0.671333441496 -0.184984537311
454220000 0.671845719397 -0.184839064086
454230000 0.672449441933 -0.185221323078
454240000 0.671906216604 -0.185227652804
454250000 0.671569691035 -0.185132642045
454260000 0.671970490446 -0.185156943134
454270000 0.671655563592 -0.185040845313
454280000 0.672069639658 -0.185142416324
454290000 0.671838816026 -0.185400314717
454300000 0.67172701066 -0.185391723169
454310000 0.671857190815 -0.185633743151
454320000 0.671388145621 -0.184905276426
454330000 0.671904322255 -0.184910988241
454340000 0.67158574652 -0.185300941674
454350000 0.671606767155 -0.184833810225
454360000 0.672019242873 -0.185015407242
454370000 0.672123286001 -0.185324007581
454380000 0.672482745536 -0.185994886759
454390000 0.672855116604 -0.185302130403
454400000 0.672030064007 -0.185648127386
454410000 0.672245830892 -0.185209739244
454420000 0.672021774019 -0.184840986295
454430000 0.671633005948 -0.184815645681
454440000 0.672019259632 -0.185633934704
454450000 0.67216483253 -0.185295624554
454460000 0.671004885802 -0.186317619388
454470000 0.671952418082 -0.186126853734
454480000 0.671583900587 -0.185464579746
454490000 0.671493091205 -0.185376396303
454500000 0.671124762575 -0.185543600303
454510000 0.671198119549 -0.185795503283
454520000 0.670890479778 -0.185611284679
454530000 0.671265208049 -0.185361473277
454540000 0.6715300718 -0.185356624249
454550000 0.671585191508 -0.185467615121
454560000 0.671984757201 -0.185576593015
454570000 0.671465962868 -0.185001142449
454580000 0.672114469487 -0.185236571195
454590000 0.671947032022 -0.185704197686
454600000 0.672411973737 -0.185561357974
454610000 0.67283024339 -0.185365619242
454620000 0.67202537935 -0.18526634901
454630000 0.672494401871 -0.185288668674
454640000 0.672618422854 -0.185743418146
454650000 0.671937419079 -0.18557155709
454660000 0.672516234872 -0.186161865257
454670000 0.6719293023 -0.18555770691
454680000 0.672231549452 -0.185764460571
454690000 0.672589671191 -0.185983322974
454700000 0.67194350502 -0.186004175841
454710000 0.67212484791 -0.186344150553
454720000 0.672402034916 -0.186072874245
454730000 0.672741464502 -0.185811856492
454740000 0.672044461879 -0.185630320271
454750000 0.67186892281 -0.186160588993
454760000 0.672673122928 -0.185928009405
454770000 0.672137642453 -0.186433872298
454780000 0.672650140282 -0.186348396798
454790000 0.672825418583 -0.186033169603
454800000 0.672681027335 -0.185213188617
454810000 0.672719730423 -0.1857945389
454820000 0.672706786243 -0.185811621458
454830000 0.672723221595 -0.18586576582
454840000 0.672544012134 -0.185768955642
454850000 0.672787650016 -0.186417037051
454860000 0.672449297866 -0.186440797802
454870000 0.672296232571 -0.185877496942
454880000 0.672542050811 -0.186003633756
454890000 0.672369097208 -0.185680601835
454900000 0.672597950574 -0.185966735089
454910000 0.672125234574 -0.185922200839
454920000 0.671888238057 -0.185904794125
454930000 0.672027282994 -0.186257739876
454940000 0.672784238002 -0.187396955748
454950000 0.673844336038 -0.184345329489
454960000 0.677782888684 -0.178463081356
454970000 0.656070451622 -0.185765205843
454980000 0.67049644902 -0.183558154502
454990000 0.663556012268 -0.193717355158
455000000 0.680042947383 -0.188311077894
455010000 0.680190990505 -0.182031679326
455020000 0.670820550397 -0.188420147288
455030000 0.673354383567 -0.188023689504
455040000 0.673527159345 -0.186858876722
455050000 0.672560049033 -0.186552272222
455060000 0.673415259904 -0.185761146156
455070000 0.672500154816 -0.185825071994
455080000 0.672765868575 -0.186294651083
455090000 0.672740327486 -0.18628355298
455100000 0.672594062585 -0.186642982828
455110000 0.672828047487 -0.18696166455
455120000 0.673193550722 -0.186387396131
455130000 0.672851442134 -0.186755254457
455140000 0.672677315378 -0.185943426231
455150000 0.672405271658 -0.185989043694
455160000 0.672618434084 -0.186399719826
455170000 0.673038864775 -0.186658476048
455180000 0.672594282493 -0.186309296803
455190000 0.673690101715 -0.186468681191
455200000 0.673301594567 -0.186883734201
455210000 0.673187647403 -0.187089160774
455220000 0.672729879095 -0.187083888915
455230000 0.673256129113 -0.187175756932
455240000 0.673105954078 -0.187322120978
455250000 0.67308536336 -0.186878166592
455260000 0.673238100343 -0.186805028487
455270000 0.672906156484 -0.18680172019
455280000 0.673280445548 -0.187052302053
455290000 0.672693309011 -0.186837495404
455300000 0.673294616633 -0.186919722398
455310000 0.672866990031 -0.186536329925
455320000 0.672573187008 -0.186078351754
455330000 0.673535787257 -0.187080597298
455340000 0.67290471282 -0.187102460151
455350000 0.673357713635 -0.187151572739
455360000 0.672994321968 -0.186883219159
455370000 0.673275489726 -0.187501869271
455380000 0.673213195913 -0.187297214852
455390000 0.673300427022 -0.187213943296
455400000 0.673506269016 -0.187112597043
455410000 0.673750200897 -0.186563112585
455420000 0.673837491163 -0.186973735323
455430000 0.673068091757 -0.187526928015
455440000 0.673513099671 -0.187263085718
455450000 0.673219665356 -0.187288813382
455460000 0.672590901693 -0.187370379875
455470000 0.672723066392 -0.187492705281
455480000 0.67309076942 -0.187387740424
455490000 0.672877108323 -0.187765050351
455500000 0.67342160106 -0.187659198472
455510000 0.673960612575 -0.187231100989
455520000 0.673998059929 -0.187637978055
455530000 0.673508350362 -0.187639754722
455540000 0.674406664084 -0.187408387036
455550000 0.673650166317 -0.187928078217
455560000 0.673464165415 -0.18802060183
455570000 0.673680336851 -0.187864947758
455580000 0.673515710355 -0.187954364898
455590000 0.673169268694 -0.187914835747
455600000 0.673481687744 -0.187668922324
455610000 0.673719955434 -0.187573143106
455620000 0.674055335086 -0.188102229766
455630000 0.674325809083 -0.187959832562
455640000 0.674302739214 -0.187828871024
455650000 0.675181801819 -0.188619875151
455660000 0.674118207105 -0.187609865416
455670000 0.673978436498 -0.187956931642
455680000 0.673587921738 -0.187912090046
455690000 0.673412597183 -0.18782476668
455700000 0.673699380957 -0.187803978298
455710000 0.672901339163 -0.188523406622
455720000 0.673340956063 -0.187386760148
455730000 0.673266386208 -0.188027353935
455740000 0.673473313622 -0.187727099929
455750000 0.673214699177 -0.188183728884
455760000 0.673404144996 -0.188309155672
455770000 0.673932872126 -0.188083540234
455780000 0.674092798603 -0.187598150524
455790000 0.673567137363 -0.187901689318
455800000 0.673495314491 -0.187642679281
455810000 0.673564860404 -0.187956425285
455820000 0.673871356313 -0.187942136377
455830000 0.673476780236 -0.187423126824
455840000 0.67428712684 -0.187892718055
455850000 0.673566637713 -0.188019976369
455860000 0.673657487287 -0.188031406642
455870000 0.673899283286 -0.188225053913
455880000 0.67414943011 -0.188254411363
455890000 0.6736146034 -0.188604037111
455900000 0.674519043459 -0.188004892265
455910000 0.6747806518 -0.188013586947
455920000 0.67460529714 -0.187835830067
455930000 0.67432763017 -0.187832854744
455940000 0.67413832138 -0.188044082173
455950000 0.673781677641 -0.188439600201
455960000 0.674762610823 -0.188165268059
455970000 0.674384147849 -0.187827492632
455980000 0.674957011352 -0.188050625848
455990000 0.674577096022 -0.187813229201
456000000 0.674669618588 -0.188237251177
456010000 0.674484559793 -0.188227045015
456020000 0.673963349622 -0.187978676015
456030000 0.674130110434 -0.187803271725
456040000 0.674458365948 -0.188151726411
456050000 0.674127356611 -0.188195495259
456060000 0.674330512141 -0.188042541258
456070000 0.674109180749 -0.188643183224
456080000 0.67410446489 -0.188251829875
456090000 0.674223558099 -0.188472019514
456100000 0.674369451848 -0.188756754141
456110000 0.674755470295 -0.188364318435
456120000 0.674679366345 -0.188888393717
456130000 0.675058618614 -0.188432259524
456140000 0.674564093399 -0.189113219633
456150000 0.675306224206 -0.18892311129
456160000 0.674982271433 -0.188867942179
456170000 0.674690954433 -0.189790450892
456180000 0.674595735249 -0.188418937568
456190000 0.674285607771 -0.18913151755
456200000 0.673753147563 -0.189065184241
456210000 0.673286298318 -0.189018731489
456220000 0.673727176367 -0.189705169393
456230000 0.674024768194 -0.1896564214
456240000 0.674910732831 -0.188891338329
456250000 0.674752139749 -0.189163319878
456260000 0.675095559413 -0.188745678436
456270000 0.674818355637 -0.188919318737
456280000 0.674698867649 -0.188650554445
456290000 0.675007013596 -0.18948772004
456300000 0.674838003907 -0.189195399197
456310000 0.674457112186 -0.189285012964
456320000 0.674869468446 -0.189911540991
456330000 0.674649266715 -0.19002748454
456340000 0.674754117396 -0.189148151053
456350000 0.6743021329 -0.189745769071
456360000 0.674491464241 -0.188887621372
456370000 0.674867391386 -0.188537722808
456380000 0.675370243657 -0.188648853182
456390000 0.674601101629 -0.189615025679
456400000 0.674840952549 -0.190340450711
456410000 0.674693570764 -0.190327692421
456420000 0.674511377087 -0.188489501875
456430000 0.674362543004 -0.19021275864
456440000 0.674922434212 -0.189222950742
456450000 0.674394726341 -0.189931246559
456460000 0.674982894402 -0.189285416251
456470000 0.675964733054 -0.188982464668
456480000 0.674931110616 -0.188945990733
456490000 0.675059096715 -0.1895118504
456500000 0.674460518034 -0.189271972538
456510000 0.674719540026 -0.18955314636
456520000 0.674693376833 -0.189599563822
456530000 0.674922629212 -0.189985543427
456540000 0.673940536481 -0.189522955148
456550000 0.674405121047 -0.18895567419
456560000 0.67387647491 -0.189802435224
456570000 0.676064295308 -0.189207340841
456580000 0.675143306336 -0.191103653725
456590000 0.675455394984 -0.189643877961
456600000 0.675200743482 -0.190215505253
456610000 0.674773025912 -0.189517308595
456620000 0.674665287801 -0.189392732643
456630000 0.675078023698 -0.189266513475
456640000 0.675023847269 -0.190007372521
456650000 0.67476963353 -0.189284178233
456660000 0.674867955413 -0.19000748942
456670000 0.675080220049 -0.190303695986
456680000 0.675012696732 -0.18957467756
456690000 0.674827971637 -0.189741624972
456700000 0.67520815343 -0.189626802597
456710000 0.67494112468 -0.189673106918
456720000 0.674440660283 -0.189767900397
456730000 0.675077031019 -0.18968479659
456740000 0.675383423956 -0.190021906644
456750000 0.674840377153 -0.190680164894
456760000 0.675317848181 -0.190404825001
456770000 0.675154424546 -0.190319451484
456780000 0.675110441624 -0.190032497842
456790000 0.675719238929 -0.190133858181
456800000 0.675548207932 -0.190124260408
456810000 0.675302811399 -0.190841060047
456820000 0.675230072113 -0.189905044234
456830000 0.675638231524 -0.19008768244
456840000 0.675482889802 -0.189813813772
456850000 0.675913341647 -0.19010054352
456860000 0.675459781356 -0.18999765699
456870000 0.675156215568 -0.189937503571
456880000 0.675122295152 -0.190405860915
456890000 0.675336957715 -0.189941427445
456900000 0.674680161995 -0.189841396717
456910000 0.675356210106 -0.190089125349
456920000 0.675226099162 -0.190375865807
456930000 0.67586785831 -0.190533491233
456940000 0.676034548 -0.190914094295
456950000 0.675742883838 -0.190822989493
456960000 0.675747365505 -0.190704308143
456970000 0.675542962536 -0.190272457885
456980000 0.67529151111 -0.190393881438
456990000 0.675455419027 -0.190565474234
457000000 0.67506090478 -0.190797555001
457010000 0.675547112541 -0.191284535455
457020000 0.675290700369 -0.190411854474
457030000 0.675615004169 -0.191087178096
457040000 0.676058807998 -0.190795356448
457050000 0.675646798151 -0.190666558637
457060000 0.675463273743 -0.190645601979
457070000 0.675131440131 -0.191256904467
457080000 0.675166594441 -0.190693182995
457090000 0.675658809147 -0.190872708178
457100000 0.676122651771 -0.190895432313
457110000 0.675793996392 -0.190961616016
457120000 0.675767421638 -0.191319517703
457130000 0.676170434844 -0.191386175212
457140000 0.675941889782 -0.191697439495
457150000 0.675656474633 -0.191277166976
457160000 0.675329346757 -0.191498926595
457170000 0.675435254641 -0.191404845513
457180000 0.675780178905 -0.191380600301
457190000 0.676049081536 -0.191057237916
457200000 0.67605161753 -0.190438765702
457210000 0.675974180512 -0.190985513209
457220000 0.676317607732 -0.190818604531
457230000 0.676541767965 -0.190437096987
457240000 0.676578130931 -0.190918499309
457250000 0.676573368169 -0.190877760015
457260000 0.676364969244 -0.191466822367
457270000 0.676144568295 -0.191939080037
457280000 0.675849148609 -0.191363637762
457290000 0.676250789471 -0.191330731611
457300000 0.676462742588 -0.191589614754
457310000 0.676061869815 -0.190913605979
457320000 0.675684248948 -0.191338664097
457330000 0.675674014471 -0.19165823106
457340000 0.67586885175 -0.191608949583
457350000 0.675698261729 -0.19162347058
457360000 0.675335162592 -0.190948173777
457370000 0.675776624083 -0.19127389313
457380000 0.676313594101 -0.192381309122
457390000 0.675749188271 -0.19198554661
457400000 0.675957878674 -0.192016988313
457410000 0.676386530108 -0.191513269402
457420000 0.676290114709 -0.191404941977
457430000 0.675727458355 -0.191628606911
457440000 0.675833640743 -0.191605275084
457450000 0.675688130321 -0.191145959873
457460000 0.676122612414 -0.191646488137
457470000 0.676183204568 -0.191281691852
457480000 0.676148359071 -0.191851275091
457490000 0.676161726673 -0.191485724977
457500000 0.675916805229 -0.191760029554
457510000 0.676013261981 -0.192153088511
457520000 0.675977006105 -0.192519781397
457530000 0.676179927317 -0.192009788603
457540000 0.676202983598 -0.192157179015
457550000 0.675190815259 -0.191848081273
457560000 0.675771799004 -0.191921501523
457570000 0.67601322469 -0.191133140682
457580000 0.676210938375 -0.190277189505
457590000 0.676793498752 -0.189384410505
457600000 0.676464524405 -0.190346601801
457610000 0.67612374865 -0.190507960756
457620000 0.676115204293 -0.191696254459
457630000 0.676416733759 -0.191863870594
457640000 0.676542437417 -0.191714812686
457650000 0.675744884905 -0.191849238565
457660000 0.676228873326 -0.191999751148
457670000 0.676566383326 -0.192146364902
457680000 0.676328099198 -0.191831891191
457690000 0.676278804783 -0.192057799274
457700000 0.67557594833 -0.191583123763
457710000 0.676626513452 -0.192610645244
457720000 0.676190488167 -0.192375068036
457730000 0.676103120496 -0.192826467412
457740000 0.675694504435 -0.192861726713
457750000 0.676074186648 -0.192648361963
457760000 0.676597835239 -0.192162255656
457770000 0.67652058084 -0.192637787722
457780000 0.67606642375 -0.192205349442
457790000 0.676541958228 -0.192167525513
457800000 0.676399890861 -0.191640044989
457810000 0.676443966298 -0.192337680826
457820000 0.676332967485 -0.192240594519
457830000 0.676739389571 -0.19225471462
457840000 0.676374435183 -0.192837760699
457850000 0.675981129714 -0.192922881185
457860000 0.676062229409 -0.192658580125
457870000 0.676898576108 -0.192572699442
457880000 0.677154152572 -0.192882801662
457890000 0.677230330235 -0.192281008626
457900000 0.67735282835 -0.192665376615
457910000 0.67679144464 -0.19320108365
457920000 0.676605494891 -0.192427201271
457930000 0.676044289498 -0.19283861705
457940000 0.675889908566 -0.192757934269
457950000 0.676148406291 -0.191855102513
457960000 0.67664011348 -0.192953338503
457970000 0.67641483854 -0.193078569524
457980000 0.67593376641 -0.193174861115
457990000 0.675572181438 -0.193577183165
458000000 0.6762881385 -0.193305206767
458010000 0.676004142035 -0.193706363026
458020000 0.676068908675 -0.193327979627
458030000 0.676922309332 -0.193023458803
458040000 0.676756724919 -0.192914437657
458050000 0.67690602774 -0.192857282128
458060000 0.676927986334 -0.193521710476
458070000 0.676661822939 -0.19285762426
458080000 0.676401109868 -0.19206422965
458090000 0.676539079812 -0.192695054997
458100000 0.677187871735 -0.192978907556
458110000 0.677016420228 -0.193003756119
458120000 0.676922692591 -0.19267992213
458130000 0.676579892644 -0.191847192172
458140000 0.676484803282 -0.191902659754
458150000 0.676804167409 -0.192405246269
458160000 0.677316720887 -0.192694649933
458170000 0.676930146339 -0.19314661361
458180000 0.676794513386 -0.192940992431
458190000 0.676648918325 -0.193197298155
458200000 0.676830365302 -0.193224470928
458210000 0.676817464834 -0.193482327159
458220000 0.677461866275 -0.193465743825
458230000 0.677104835791 -0.193527197005
458240000 0.676664617467 -0.193706639588
458250000 0.677191149169 -0.193771278757
458260000 0.676651947995 -0.19364631206
458270000 0.676737713321 -0.19337879118
458280000 0.676257507306 -0.193266907602
458290000 0.676908807814 -0.193702719602
458300000 0.676722846695 -0.193377655107
458310000 0.677066217529 -0.193464657758
458320000 0.677534438017 -0.193627115944
458330000 0.677074285745 -0.193128163958
458340000 0.677030016782 -0.19348942298
458350000 0.67739640324 -0.193744975659
458360000 0.677693539197 -0.193902832284
458370000 0.676924138789 -0.193198592425
458380000 0.676955864023 -0.193211609326
458390000 0.676875991176 -0.193548549293
458400000 0.676800967391 -0.193441931494
458410000 0.676258857527 -0.193852534633
458420000 0.676300193761 -0.193815683533
458430000 0.677019055572 -0.193347952921
458440000 0.676890219425 -0.193740125208
458450000 0.677199665852 -0.193614235038
458460000 0.677340484377 -0.194273729071
458470000 0.676985760665 -0.193824548354
458480000 0.677022729239 -0.193969064824
458490000 0.67713491381 -0.194576395629
458500000 0.677930669683 -0.194386506765
458510000 0.6771460095 -0.195116825276
458520000 0.676922558536 -0.194692997218
458530000 0.677101954826 -0.195116632716
458540000 0.677503913392 -0.194709641207
458550000 0.676821483522 -0.194475719757
458560000 0.677263123762 -0.194568338138
458570000 0.677365550951 -0.194378876805
458580000 0.677436917618 -0.193862249463
458590000 0.677362516452 -0.193030851476
458600000 0.67788114436 -0.193199247396
458610000 0.677203257315 -0.193104821232
458620000 0.677192798744 -0.193790847574
458630000 0.677256021926 -0.194503731348
458640000 0.677130668717 -0.194195996052
458650000 0.677321238821 -0.194987990026
458660000 0.67809518038 -0.194300863318
458670000 0.677778718389 -0.194343360926
458680000 0.67707970104 -0.194316007679
458690000 0.676986087742 -0.194249789908
458700000 0.677566557807 -0.193992279015
458710000 0.676936218215 -0.193854485137
458720000 0.676915133947 -0.194176185118
458730000 0.677145055138 -0.19420718888
458740000 0.677090220482 -0.194804171324
458750000 0.677580412556 -0.194650486531
458760000 0.677038304325 -0.194590716107
458770000 0.677460067213 -0.194490155076
458780000 0.677024508391 -0.194239102773
458790000 0.676959925524 -0.194580133797
458800000 0.676572648148 -0.194337904646
458810000 0.676093834558 -0.193958036762
458820000 0.675928231823 -0.193346732721
458830000 0.675990997767 -0.193803925876
458840000 0.676333948722 -0.194435686207
458850000 0.67743770471 -0.195034730772
458860000 0.677394964241 -0.195717548251
458870000 0.677401723633 -0.195133365012
458880000 0.677348887546 -0.195151313465
458890000 0.677443508384 -0.194895555713
458900000 0.677753263098 -0.194840207171
458910000 0.67812231117 -0.195020610892
458920000 0.677718799081 -0.194801578319
458930000 0.677150906479 -0.194216954972
458940000 0.677262658528 -0.194600958005
458950000 0.677655122735 -0.194908801344
458960000 0.677596695899 -0.194860139064
458970000 0.677478025114 -0.194556155387
458980000 0.677443811972 -0.19489748075
458990000 0.677861638287 -0.195251022706
459000000 0.67773655106 -0.195035696383
459010000 0.677488541267 -0.195021906376
459020000 0.678297631109 -0.195245018938
459030000 0.678227245038 -0.195055349842
459040000 0.677858994044 -0.195203870065
459050000 0.677754579995 -0.195069308169
459060000 0.677807060054 -0.195065881567
459070000 0.677242510089 -0.195413642077
459080000 0.677251877676 -0.195654014303
459090000 0.677015677333 -0.19559864745
459100000 0.677153190422 -0.195922773664
459110000 0.677270500986 -0.195143868157
459120000 0.677451183427 -0.19548362002
459130000 0.678025997956 -0.195697653697
459140000 0.678176926843 -0.195883119216
459150000 0.677883345935 -0.195338474323
459160000 0.677442049504 -0.19539728495
459170000 0.676658931677 -0.19508157709
459180000 0.6773764863 -0.194906312062
459190000 0.677747458473 -0.195040494177
459200000 0.677942673573 -0.195145020876
459210000 0.677846319502 -0.195760424324
459220000 0.678049459961 -0.195991921953
459230000 0.678480134301 -0.196153946701
459240000 0.67809513429 -0.195537458549
459250000 0.678123878779 -0.195240212807
459260000 0.677847730739 -0.194775668221
459270000 0.678560044852 -0.195945963115
459280000 0.67830932673 -0.195151859879
459290000 0.678272207278 -0.19634333326
459300000 0.678276701764 -0.196074008551
459310000 0.678374753452 -0.196532575584
459320000 0.672052691298 -0.201960974677
459330000 0.678218617828 -0.196147217196
459340000 0.678329080008 -0.195606912942
459350000 0.678407834116 -0.195798155511
459360000 0.677806207868 -0.195463974775
459370000 0.677712555996 -0.196120850025
459380000 0.677811748628 -0.195530082393
459390000 0.678474564387 -0.196238193921
459400000 0.678382475035 -0.196235762598
459410000 0.678411041832 -0.195861779585
459420000 0.678354116961 -0.196109324892
459430000 0.677890046873 -0.196401641601
459440000 0.678328970659 -0.195463067241
459450000 0.677700233999 -0.195590092712
459460000 0.678072195974 -0.195848604857
459470000 0.677555424776 -0.196691068657
459480000 0.678256013207 -0.19605496146
459490000 0.67822593841 -0.196177008336
459500000 0.67815636038 -0.196053878337
459510000 0.679071013404 -0.195909409531
459520000 0.678423685158 -0.196403985704
459530000 0.678170861556 -0.195779170124
459540000 0.677870923956 -0.196297028106
459550000 0.678041340493 -0.196058563422
459560000 0.677799119293 -0.196324236141
459570000 0.678418376412 -0.196477504072
459580000 0.677994523271 -0.196344986223
459590000 0.678436643554 -0.195933192999
459600000 0.678223021742 -0.19666833486
459610000 0.678004617237 -0.196063464582
459620000 0.678504827694 -0.196083670833
459630000 0.677863178308 -0.195885913659
459640000 0.678862416956 -0.196279886149
459650000 0.677997157904 -0.196894965034
459660000 0.678141031658 -0.197607445695
459670000 0.678232579222 -0.197024456195
459680000 0.678553513074 -0.196749719324
459690000 0.678880779284 -0.196598472687
459700000 0.678549826868 -0.19645094071
459710000 0.678792791663 -0.196223175952
459720000 0.678548421653 -0.196145787508
459730000 0.678331750913 -0.196480722304
459740000 0.678693227058 -0.196371466541
459750000 0.678841933109 -0.196864900178
459760000 0.678636989575 -0.196536166411
459770000 0.678390443453 -0.19651001307
459780000 0.679190539342 -0.195468671799
459790000 0.680266141508 -0.195016335284
459800000 0.681003376772 -0.19457807321
459810000 0.680993424213 -0.194360986834
459820000 0.67960535401 -0.195706183793
459830000 0.678480341688 -0.196582877291
459840000 0.678556529597 -0.196760744871
459850000 0.678806135829 -0.196712650718
459860000 0.678687892243 -0.196705538967
459870000 0.677920296407 -0.19699904975
459880000 0.678527484678 -0.197464999264
459890000 0.678571653876 -0.19687569112
459900000 0.678972242073 -0.196656204785
459910000 0.679487733068 -0.196654640408
459920000 0.679689809615 -0.196951602176
459930000 0.679610243996 -0.196952228057
459940000 0.678979754025 -0.196755525617
459950000 0.678799854456 -0.196505623748
459960000 0.678963081165 -0.196781984909
459970000 0.678447454222 -0.197179471514
459980000 0.678680304943 -0.197496356256
459990000 0.679530750685 -0.197055564833
460000000 0.679235340547 -0.196463590666
460010000 0.679108429006 -0.19719567266
460020000 0.678959085558 -0.197304246944
460030000 0.679015151342 -0.197306745341
460040000 0.679197835761 -0.197520733824
460050000 0.678756974238 -0.197258962862
460060000 0.678721085831 -0.197267537033
460070000 0.678503164025 -0.197578199124
460080000 0.678399980909 -0.197252309898
460090000 0.678811199941 -0.196881663691
460100000 0.679209505606 -0.197562012612
460110000 0.67870071131 -0.197165420264
460120000 0.678317927699 -0.197630162911
460130000 0.678725267942 -0.197065007306
460140000 0.678698299769 -0.196781330682
460150000 0.679229159195 -0.196987302766
460160000 0.67911921654 -0.19743470295
460170000 0.679285029031 -0.197007749569
460180000 0.679334165353 -0.197644657365
460190000 0.679585838646 -0.197344034591
460200000 0.679194847094 -0.19731581355
460210000 0.678723805773 -0.197037201526
460220000 0.678914026902 -0.198067517543
460230000 0.678857105146 -0.196908487093
460240000 0.678581406131 -0.198168341418
460250000 0.679428690178 -0.198279655257
460260000 0.679062987421 -0.197748900314
460270000 0.678971448094 -0.198107515331
460280000 0.679123559715 -0.198150922233
460290000 0.678965486164 -0.197946780826
460300000 0.678819976602 -0.19801412011
460310000 0.679041002486 -0.19765187448
460320000 0.678590749282 -0.198330725114
460330000 0.678454944751 -0.197978103822
460340000 0.678780013393 -0.197681881967
460350000 0.678628407905 -0.198257088059
460360000 0.678820138754 -0.19838718626
460370000 0.678928294474 -0.198808320977
460380000 0.679430917957 -0.199471807424
460390000 0.679936012246 -0.200539988129
460400000 0.683324117749 -0.207740411843
460410000 0.678737923985 -0.202494178019
460420000 0.680036871822 -0.200469992465
460430000 0.679637126773 -0.198769435022
460440000 0.679541654515 -0.198537568148
460450000 0.679616965995 -0.198506674377
460460000 0.678823844445 -0.198196903091
460470000 0.67908864109 -0.198024162502
460480000 0.679103215385 -0.197999443792
460490000 0.679650821831 -0.197869400275
460500000 0.67927769014 -0.197731563546
460510000 0.679336975045 -0.197911945239
460520000 0.679341334088 -0.197868074774
460530000 0.679109010693 -0.198536357934
460540000 0.678826265072 -0.198441322814
460550000 0.678532266238 -0.198363666336
460560000 0.674337406682 -0.191985808102
460570000 0.678950641081 -0.193382422836
460580000 0.679430683175 -0.190417022011
460590000 0.679077609776 -0.193816181188
460600000 0.679281244881 -0.19661918733
460610000 0.679135673169 -0.198309887607
460620000 0.679099842076 -0.198360372855
460630000 0.679408615159 -0.198688517985
460640000 0.679490808417 -0.19911533511
460650000 0.679771988338 -0.198462361598
460660000 0.68034988936 -0.198181136412
460670000 0.680253304623 -0.197951635501
460680000 0.679978447961 -0.198047774564
460690000 0.679104425762 -0.197830265467
460700000 0.679801738045 -0.198223244192
460710000 0.679206230376 -0.198058492597
460720000 0.679747113098 -0.198602556526
460730000 0.679669144704 -0.198059656799
460740000 0.679856302504 -0.1984594294
460750000 0.679808565214 -0.198754680894
460760000 0.679849993457 -0.199199220242
460770000 0.679726406825 -0.199426972649
460780000 0.679582010086 -0.199402443513
460790000 0.678895478838 -0.198783951638
460800000 0.678672750372 -0.198840844776
460810000 0.678364769157 -0.197765069024
460820000 0.678838827758 -0.198645950378
460830000 0.679153476163 -0.199379751895
460840000 0.679626222585 -0.199465350675
460850000 0.679566026577 -0.198990732156
460860000 0.679922238206 -0.199967044946
460870000 0.679404624271 -0.199580964981
460880000 0.679833971771 -0.19841893283
460890000 0.678907218062 -0.198018203471
460900000 0.679005593014 -0.198095723686
460910000 0.679442505009 -0.198746769672
460920000 0.679423061763 -0.198971503262
460930000 0.679471909134 -0.199112852533
460940000 0.679687539786 -0.199520438383
460950000 0.679909653132 -0.200081931367
460960000 0.679605721597 -0.199223544142
460970000 0.679497099976 -0.199345354785
460980000 0.67890752553 -0.198997396391
460990000 0.680092047349 -0.199286412174
461000000 0.679764744518 -0.199496087136
461010000 0.680211808936 -0.199422263666
461020000 0.680304779383 -0.199921887995
461030000 0.679916670665 -0.19969477105
461040000 0.680512048434 -0.199618313052
461050000 0.68011994908 -0.199792330555
461060000 0.680085697901 -0.199634128844
461070000 0.680140958811 -0.199505859307
461080000 0.680185884193 -0.199166231994
461090000 0.679873598769 -0.1992850018
461100000 0.679805916519 -0.199941124177
461110000 0.680400338754 -0.200364657827
461120000 0.679965191532 -0.199422220863
461130000 0.680509944001 -0.200063898876
461140000 0.68021681386 -0.20013046617
461150000 0.679482826828 -0.200046045409
461160000 0.679478110924 -0.199590117528
461170000 0.679889961779 -0.199868341703
461180000 0.682265807073 -0.200979465412
461190000 0.680317377807 -0.19944806794
461200000 0.680211840929 -0.199822699906
461210000 0.679752683795 -0.199952596784
461220000 0.679790571604 -0.199820334895
461230000 0.679881786044 -0.200174301172
461240000 0.680549110348 -0.20008777719
461250000 0.679962283343 -0.199501460006
461260000 0.679457219952 -0.199907822155
461270000 0.67958198667 -0.199841755341
461280000 0.679662814794 -0.200076659411
461290000 0.680060138097 -0.200223168276
461300000 0.680110247938 -0.200238732337
461310000 0.680241618384 -0.200350060774
461320000 0.68007125881 -0.20012289
461330000 0.679455823171 -0.200523449445
461340000 0.679767610511 -0.200582612038
461350000 0.680702039352 -0.200191491462
461360000 0.681024590279 -0.199937704256
461370000 0.680250946606 -0.200189164849
461380000 0.680274962409 -0.199988166868
461390000 0.680321758667 -0.20081443272
461400000 0.680720393367 -0.200343672948
461410000 0.680794655521 -0.200256303419
461420000 0.680667022334 -0.20084363127
461430000 0.680118427758 -0.201368612566
461440000 0.680394888674 -0.200988920177
461450000 0.681108308253 -0.200555766763
461460000 0.681030597221 -0.200268771171
461470000 0.681529111093 -0.201011387671
461480000 0.680418203223 -0.200649805484
461490000 0.677453072873 -0.199832000732
461500000 0.679927517935 -0.200721228418
461510000 0.68000947088 -0.200566100524
461520000 0.680125549592 -0.200329463776
461530000 0.680162155573 -0.200495865542
461540000 0.680486496177 -0.200624352728
461550000 0.680302118652 -0.201160084533
461560000 0.680036202714 -0.201187676431
461570000 0.680227060535 -0.200980487793
461580000 0.680000942554 -0.201167763087
461590000 0.679961027158 -0.201055520023
461600000 0.680287679008 -0.201314585404
461610000 0.680612702341 -0.201028342749
461620000 0.680553196988 -0.201264525694
461630000 0.680125173209 -0.200653597063
461640000 0.680019837077 -0.201098695691
461650000 0.680215036799 -0.201267436173
461660000 0.67999956823 -0.201402591601
461670000 0.680230293859 -0.20116804526
461680000 0.679754605195 -0.201802157285
461690000 0.679987835059 -0.20152631945
461700000 0.680853448505 -0.201269992214
461710000 0.680436871957 -0.201300881738
461720000 0.680635769364 -0.201084774026
461730000 0.681144062307 -0.201800657058
461740000 0.679452128896 -0.202138866477
461750000 0.679366934848 -0.202410784832
461760000 0.677659092253 -0.200741696402
461770000 0.678527177582 -0.202934989408
461780000 0.679751055394 -0.202059555224
461790000 0.680674134564 -0.201639271152
461800000 0.681028711717 -0.201700325702
461810000 0.680596154417 -0.202217057137
461820000 0.680603233377 -0.2017697475
461830000 0.679683395525 -0.201391949318
461840000 0.680160228103 -0.201832876164
461850000 0.680171882814 -0.202209809696
461860000 0.680477529397 -0.201836598321
461870000 0.68055714852 -0.201619543219
461880000 0.680606369995 -0.201973430132
461890000 0.680087176599 -0.201630214076
461900000 0.680008140471 -0.201588021022
461910000 0.68031925223 -0.201431854721
461920000 0.680869873147 -0.201532846782
461930000 0.681158252143 -0.201592098722
461940000 0.680966228763 -0.202237047933
461950000 0.680933387558 -0.202125913359
461960000 0.681301430648 -0.202312842969
461970000 0.680711008252 -0.201842134722
461980000 0.681116253099 -0.20215502109
461990000 0.681221423076 -0.201950800288
462000000 0.681185064955 -0.201857426954
462010000 0.681108464498 -0.20211425179
462020000 0.681248512767 -0.201814082171
462030000 0.680633428752 -0.202333494813
462040000 0.680158656332 -0.201615480324
462050000 0.68071142907 -0.202136691194
462060000 0.680508996683 -0.202223180831
462070000 0.680486357413 -0.203746173204
462080000 0.680023485462 -0.201880405102
462090000 0.680678220756 -0.201904056426
462100000 0.680907408614 -0.204330025327
462110000 0.680664379487 -0.20291881311
462120000 0.681487404463 -0.202970996799
462130000 0.681324375394 -0.202158017201
462140000 0.682678715042 -0.201954507894
462150000 0.680811574509 -0.202435911904
462160000 0.681322098365 -0.201357399857
462170000 0.682222744604 -0.202793069373
462180000 0.680102407849 -0.202571069721
462190000 0.681497373678 -0.20463474539
462200000 0.682558866801 -0.20715352684
462210000 0.683922664366 -0.212054049221
462220000 0.678913102242 -0.212456958083
462230000 0.680180865604 -0.206881681854
462240000 0.681410562356 -0.204441359903
462250000 0.683590707438 -0.203509784774
462260000 0.68027360096 -0.204109185891
462270000 0.680990625917 -0.202402197578
462280000 0.681396595849 -0.203120140472
462290000 0.678905224036 -0.202164344765
462300000 0.680691847603 -0.201402446662
462310000 0.681862129947 -0.204148686427
462320000 0.681642938323 -0.204497141469
462330000 0.681644314111 -0.202873537723
462340000 0.680077769017 -0.203818390849
462350000 0.682237320304 -0.202369854675
462360000 0.680848859272 -0.201711739691
462370000 0.682567472091 -0.202731531531
462380000 0.680209922711 -0.202123219679
462390000 0.680267905872 -0.204814603645
462400000 0.681222526967 -0.202096691605
462410000 0.679949614827 -0.204439939239
462420000 0.682190852557 -0.203353066282
462430000 0.68173191763 -0.202856769434
462440000 0.6820157571 -0.203894045083
462450000 0.680677888711 -0.202809955096
462460000 0.680962738684 -0.204743504286
462470000 0.679912351841 -0.201650687754
462480000 0.680279774217 -0.202357206685
462490000 0.681404819361 -0.20371249414
462500000 0.681158855911 -0.20325647986
462510000 0.68173562632 -0.20295469713
462520000 0.68220270538 -0.204014560825
462530000 0.680186600154 -0.204243514492
462540000 0.680005209896 -0.202180340151
462550000 0.682305823281 -0.20394081451
462560000 0.681397131969 -0.204557411487
462570000 0.681203675368 -0.204744052526
462580000 0.681730926874 -0.203428301755
462590000 0.6817142149 -0.20309744546
462600000 0.681918782989 -0.203616881734
462610000 0.680134473346 -0.20470297143
462620000 0.680173604752 -0.203215027583
462630000 0.681658329869 -0.201489251565
462640000 0.682052468918 -0.202644309128
462650000 0.680175277391 -0.205828157686
462660000 0.681308811872 -0.203821882913
462670000 0.683361428309 -0.205568704645
462680000 0.681048339307 -0.20419056084
462690000 0.679746128216 -0.202679098439
462700000 0.680625324558 -0.20480899711
462710000 0.68167018442 -0.204222097829
462720000 0.680442645006 -0.20384329894
462730000 0.681672056841 -0.203184318952
462740000 0.680896832365 -0.204446976639
462750000 0.681333460559 -0.20454336443
462760000 0.682295695331 -0.204135056952
462770000 0.68114937773 -0.203457326151
462780000 0.681522331035 -0.204498646639
462790000 0.680685767695 -0.202586728805
462800000 0.681826842074 -0.204478112009
462810000 0.681137610054 -0.204628819041
462820000 0.681174631236 -0.205547352738
462830000 0.682707953329 -0.203775865152
462840000 0.680745064312 -0.204288227558
462850000 0.681400347576 -0.203632278366
462860000 0.681801890754 -0.204120760307
462870000 0.681799863209 -0.204538313512
462880000 0.681935366534 -0.203565001458
462890000 0.681722249694 -0.20360038356
462900000 0.680825512303 -0.204435016072
462910000 0.681827413995 -0.204339389748
462920000 0.681296096717 -0.204120195615
462930000 0.681587009037 -0.204480424553
462940000 0.681258179155 -0.204477832868
462950000 0.681190934199 -0.204812996882
462960000 0.681137648549 -0.204749738496
462970000 0.681348124115 -0.204789407764
462980000 0.68139731954 -0.204255134
462990000 0.681681762789 -0.203986354978
463000000 0.682118648225 -0.20371137031
463010000 0.681802055473 -0.204397009365
463020000 0.682159985172 -0.204353058321
463030000 0.681740719018 -0.204511995212
463040000 0.681601597583 -0.204543991479
463050000 0.681708104695 -0.204201568338
463060000 0.68190981294 -0.204436276567
463070000 0.682288004514 -0.204577608332
463080000 0.682033680462 -0.204207663552
463090000 0.682213596879 -0.204813379865
463100000 0.681506134133 -0.204951254991
463110000 0.681491768035 -0.203754822992
463120000 0.682407539846 -0.206911647776
463130000 0.681449022189 -0.204887301939
463140000 0.68165419323 -0.205020345142
463150000 0.681848894525 -0.204711783444
463160000 0.682075563982 -0.205176728593
463170000 0.682217313792 -0.205062989555
463180000 0.681590742118 -0.205100621613
463190000 0.681311755994 -0.2051643766
463200000 0.681319142587 -0.205505874378
463210000 0.682707996332 -0.205377518842
463220000 0.683033533146 -0.205356053451
463230000 0.683422272337 -0.204966756566
463240000 0.682546970902 -0.204833355781
463250000 0.681786339857 -0.204262245065
463260000 0.681893402281 -0.204419039114
463270000 0.682555404195 -0.204728484049
463280000 0.681729218427 -0.205543479111
463290000 0.681609478017 -0.205690857778
463300000 0.681513739423 -0.205420205267
463310000 0.681368298396 -0.205335577979
463320000 0.681699734886 -0.205477967536
463330000 0.681919092107 -0.205164740637
463340000 0.681171911678 -0.204775640954
463350000 0.682380790774 -0.20474477811
463360000 0.681573842553 -0.204910863478
463370000 0.681227010605 -0.205376108124
463380000 0.681435195471 -0.20528757506
463390000 0.68106920705 -0.205496797968
463400000 0.68038931371 -0.205259023194
463410000 0.681604586989 -0.2055214719
463420000 0.681919434224 -0.205445708822
463430000 0.682464435233 -0.205658021153
463440000 0.681726364016 -0.205595920538
463450000 0.681495061185 -0.205775568437
463460000 0.681683165307 -0.205673761501
463470000 0.681476663784 -0.205878599181
463480000 0.681852687566 -0.20542261574
463490000 0.681823894123 -0.205597868059
463500000 0.68135714833 -0.205693003562
463510000 0.68092232945 -0.2055327958
463520000 0.681735802962 -0.205477573988
463530000 0.682035351933 -0.205460131846
463540000 0.682014978621 -0.20494511298
463550000 0.682121159652 -0.205779739903
463560000 0.682176212665 -0.205666785091
463570000 0.682037526702 -0.206047412205
463580000 0.682334268169 -0.206246767799
463590000 0.681915145373 -0.206005258231
463600000 0.681874963553 -0.205639930529
463610000 0.681884129293 -0.205378045505
463620000 0.681969814973 -0.205877060566
463630000 0.681486813032 -0.204993048141
463640000 0.681138732964 -0.203214340847
463650000 0.68140360986 -0.201513638261
463660000 0.681973286248 -0.201700970336
463670000 0.682376706201 -0.203430196172
463680000 0.682355002115 -0.20504869647
463690000 0.682413004838 -0.205506931417
463700000 0.682408725579 -0.205600886101
463710000 0.682556734462 -0.205910827735
463720000 0.682508181123 -0.206549774601
463730000 0.682322748738 -0.205986520514
463740000 0.68244687736 -0.206157677704
463750000 0.681740326109 -0.206266278812
463760000 0.681684095499 -0.206507741843
463770000 0.681421123772 -0.205823719408
463780000 0.682721126526 -0.207204074467
463790000 0.681903080637 -0.206600700685
463800000 0.682213692766 -0.206246586951
463810000 0.682488103806 -0.206735985503
463820000 0.682353716963 -0.206854616989
463830000 0.68227511414 -0.206903000313
463840000 0.682536591076 -0.206819127999
463850000 0.68198237881 -0.206508037579
463860000 0.681746429278 -0.206479187205
463870000 0.681933258649 -0.206705090383
463880000 0.68197403835 -0.206838122639
463890000 0.682416684954 -0.206722216767
463900000 0.682275388728 -0.206780591925
463910000 0.682066369729 -0.206887911349
463920000 0.682206534229 -0.206746963148
463930000 0.681957734184 -0.206346171291
463940000 0.68190624464 -0.206243060647
463950000 0.683431127485 -0.207860779416
463960000 0.685160569436 -0.210018555807
463970000 0.686627198512 -0.212037297614
463980000 0.685649456256 -0.210619384657
463990000 0.6839916359 -0.209144471559
464000000 0.682946103167 -0.207161051145
464010000 0.682490877551 -0.206377391667
464020000 0.682552069823 -0.20682724506
464030000 0.682439477412 -0.20615646301
464040000 0.682784103649 -0.206339026275
464050000 0.683279547653 -0.206680098
464060000 0.683308602947 -0.206321130495
464070000 0.682973252608 -0.206523658867
464080000 0.683185671237 -0.20678687871
464090000 0.683109957849 -0.206987465424
464100000 0.682712548159 -0.206841672826
464110000 0.683062506257 -0.206403589553
464120000 0.683152846446 -0.207232813044
464130000 0.682922251237 -0.206594987393
464140000 0.683032106474 -0.206116014125
464150000 0.683374364247 -0.206672225232
464160000 0.683024691386 -0.20673849752
464170000 0.683195469261 -0.206779872312
464180000 0.68324107299 -0.206484403922
464190000 0.682744914826 -0.206315394073
464200000 0.683017301016 -0.206519640889
464210000 0.682573720522 -0.207460268146
464220000 0.682642646203 -0.207020594547
464230000 0.682765301234 -0.206764286957
464240000 0.682238825112 -0.207259410837
464250000 0.682357682394 -0.207193881449
464260000 0.682694043482 -0.207339757071
464270000 0.683155630446 -0.207149319984
464280000 0.683447209954 -0.206733776881
464290000 0.683433383732 -0.206581992307
464300000 0.683027441027 -0.206643474721
464310000 0.683128231082 -0.207081772483
464320000 0.682450136471 -0.206861452726
464330000 0.682924267179 -0.206891168113
464340000 0.682872911854 -0.207482803755
464350000 0.682806712212 -0.207161515785
464360000 0.682592394352 -0.206937576314
464370000 0.682690235958 -0.207495735799
464380000 0.683118321757 -0.207492143694
464390000 0.682794522336 -0.207008471777
464400000 0.682614973294 -0.206574817659
464410000 0.683015809243 -0.206826441888
464420000 0.68247377479 -0.206631457396
464430000 0.683269741994 -0.207254003821
464440000 0.682802099468 -0.207259340555
464450000 0.683465413613 -0.207619877782
464460000 0.683401195355 -0.207701593988
464470000 0.683476977589 -0.207798225965
464480000 0.683382300847 -0.208282622658
464490000 0.682882523329 -0.207837416661
464500000 0.683108365912 -0.207344733396
464510000 0.683319345426 -0.207856464006
464520000 0.6834174462 -0.207852459197
464530000 0.682704057388 -0.208835051894
464540000 0.681548851318 -0.210607144516
464550000 0.681962008582 -0.211099225901
464560000 0.682304076144 -0.209491892219
464570000 0.682232680318 -0.208418602368
464580000 0.683670334429 -0.207961503819
464590000 0.683212991126 -0.207636265404
464600000 0.683563588843 -0.207300646897
464610000 0.683439831619 -0.208106693967
464620000 0.684527050221 -0.209009261894
464630000 0.682823535722 -0.207871852248
464640000 0.683315698614 -0.207905767316
464650000 0.683512835189 -0.207973118631
464660000 0.683489764936 -0.207766027972
464670000 0.683706218551 -0.208330700896
464680000 0.683649825967 -0.208204891742
464690000 0.683873285933 -0.208325417669
464700000 0.683015148793 -0.208007618948
464710000 0.68343058768 -0.208118699999
464720000 0.683565118619 -0.20770592295
464730000 0.68343014261 -0.207820315838
464740000 0.682791024442 -0.207525485811
464750000 0.683032736376 -0.20792646176
464760000 0.683354973533 -0.2078546959
464770000 0.683329684065 -0.207667748356
464780000 0.683515465073 -0.208176620486
464790000 0.683116175035 -0.208204707802
464800000 0.683090625662 -0.208610794819
464810000 0.683295258352 -0.208444133066
464820000 0.682738373952 -0.207690114444
464830000 0.683305827356 -0.207553276997
464840000 0.683364751011 -0.207566415221
464850000 0.682847286529 -0.207795988265
464860000 0.682895308003 -0.207422834737
464870000 0.68314427153 -0.207128598126
464880000 0.682650246558 -0.207290815458
464890000 0.682457536002 -0.207544062641
464900000 0.682830240221 -0.208370225225
464910000 0.683073564402 -0.208302865753
464920000 0.682515057399 -0.208526379179
464930000 0.682393781218 -0.208527448277
464940000 0.682314248411 -0.20832944062
464950000 0.681896971694 -0.208382760741
464960000 0.682480583478 -0.208220466421
464970000 0.682780201414 -0.20847579664
464980000 0.683583793883 -0.208304752575
464990000 0.682454874919 -0.209152398524
465000000 0.683142899617 -0.208243241946
465010000 0.682891564762 -0.20829780589
465020000 0.683282476234 -0.208284704994
465030000 0.683223413855 -0.208786513506
465040000 0.683016065265 -0.208599361216
465050000 0.68291490778 -0.208584256194
465060000 0.683189424365 -0.208454383362
465070000 0.682815572752 -0.208735627409
465080000 0.682992097308 -0.208934863642
465090000 0.683321765496 -0.209050805923
465100000 0.68310914523 -0.209160069356
465110000 0.683289440409 -0.208924554746
465120000 0.683214737394 -0.208942683652
465130000 0.683046875397 -0.209299495078
465140000 0.68263913244 -0.208830562444
465150000 0.682562851817 -0.208848688952
465160000 0.682892822667 -0.208963741727
465170000 0.683486564736 -0.209574670731
465180000 0.683532140108 -0.209136505059
465190000 0.683331914053 -0.208911482306
465200000 0.683293438255 -0.208988126826
465210000 0.683025905323 -0.20962051788
465220000 0.682571844654 -0.209230945252
465230000 0.68270131152 -0.208814129626
465240000 0.682768978129 -0.209219933309
465250000 0.683068658883 -0.210091317705
465260000 0.68342753844 -0.209517186894
465270000 0.683962530041 -0.209814165257
465280000 0.683770590288 -0.209461041887
465290000 0.683496055757 -0.208750437526
465300000 0.683467243315 -0.209255859577
465310000 0.683772195048 -0.209263568636
465320000 0.683057219139 -0.209504349288
465330000 0.684033158744 -0.209256877987
465340000 0.68427833559 -0.209826787348
465350000 0.685137834442 -0.209919873172
465360000 0.684306155935 -0.209760293367
465370000 0.683706553728 -0.209730665839
465380000 0.682763517385 -0.209354919356
465390000 0.683019052216 -0.209246381713
465400000 0.68318405634 -0.208812925049
465410000 0.682997742809 -0.209401641233
465420000 0.683422956985 -0.209878143164
465430000 0.682742441067 -0.209204568377
465440000 0.682846915132 -0.20940667796
465450000 0.68310517786 -0.209556062122
465460000 0.683327948125 -0.209075242146
465470000 0.682554160589 -0.209145649237
465480000 0.683318470532 -0.209267077896
465490000 0.683669027807 -0.209724218538
465500000 0.683487794797 -0.209818630441
465510000 0.683054424589 -0.210114034987
465520000 0.682917342805 -0.209121838813
465530000 0.683175597503 -0.209221417177
465540000 0.683496904077 -0.209917257807
465550000 0.683095155555 -0.209310335059
465560000 0.683128206792 -0.209800125101
465570000 0.683423969421 -0.209657647902
465580000 0.683394474684 -0.210048349255
465590000 0.683195671901 -0.209855762022
465600000 0.683701912495 -0.209387150508
465610000 0.683946245958 -0.209367756587
465620000 0.683596946871 -0.20993061933
465630000 0.68374009328 -0.210343516608
465640000 0.683901860191 -0.209557201448
465650000 0.684016692302 -0.209895918563
465660000 0.683801490227 -0.209763518646
465670000 0.683376088726 -0.210061395001
465680000 0.683435228904 -0.209932017793
465690000 0.683731992456 -0.209768886933
465700000 0.683807774282 -0.210332728284
465710000 0.683679769649 -0.210606707451
465720000 0.683683343186 -0.210390069723
465730000 0.683689063549 -0.210130662326
465740000 0.683936529804 -0.21044008276
465750000 0.683662761916 -0.210371147764
465760000 0.683607464306 -0.211130683932
465770000 0.683649250355 -0.211066545154
465780000 0.684779464142 -0.210168652195
465790000 0.684726830135 -0.184385819156
465800000 0.683335079283 -0.151113871415
465810000 0.671856511256 -0.119444410748
465820000 0.681775666701 -0.141083513444
465830000 0.687099256811 -0.18011453158
465840000 0.684544580627 -0.209835953343
465850000 0.684466116301 -0.210890286623
465860000 0.684653931066 -0.210780295617
465870000 0.684420829799 -0.211036083828
465880000 0.684038281169 -0.211299590927
465890000 0.683784119072 -0.210658919733
465900000 0.683647065757 -0.211075329454
465910000 0.683749125179 -0.21079074348
465920000 0.684162264755 -0.211181702972
465930000 0.684484846094 -0.210651204109
465940000 0.684266502605 -0.21067177741
465950000 0.683569702916 -0.209989720957
465960000 0.683891849995 -0.210375750501
465970000 0.683642514396 -0.210859647643
465980000 0.683723071478 -0.210816636516
465990000 0.683489142668 -0.21078921609
466000000 0.683478006579 -0.212013595391
466010000 0.684720548426 -0.211387711458
466020000 0.68354223178 -0.211893588482
466030000 0.683944974873 -0.211374689269
466040000 0.683446888799 -0.211202514377
466050000 0.681876266626 -0.212927044606
466060000 0.684530107895 -0.210897649655
466070000 0.684765183723 -0.211006238796
466080000 0.685340513827 -0.209210296032
466090000 0.685543703908 -0.211488398271
466100000 0.683973026023 -0.211636939936
466110000 0.68382039201 -0.211033073919
466120000 0.685896738184 -0.210846522366
466130000 0.68411593506 -0.211065612488
466140000 0.683808736816 -0.211955462548
466150000 0.68699273482 -0.210937730052
466160000 0.683680544025 -0.213063574471
466170000 0.683819835243 -0.210327659803
466180000 0.684357652916 -0.210378992819
466190000 0.682348648406 -0.213792985472
466200000 0.680396125756 -0.212340115949
466210000 0.684096469333 -0.212040157634
466220000 0.683970785122 -0.210352969292
466230000 0.684104294294 -0.214220224672
466240000 0.684576070932 -0.211614797446
466250000 0.683907939736 -0.209247315945
466260000 0.682836293767 -0.20951876098
466270000 0.682431602388 -0.212909526982
466280000 0.690531255954 -0.20970974906
466290000 0.685231636482 -0.208951890675
466300000 0.687268006706 -0.212643824643
466310000 0.682055968096 -0.209973340483
466320000 0.683288493237 -0.211996660456
466330000 0.68642874872 -0.209999980929
466340000 0.678323890135 -0.20767045689
466350000 0.67971719311 -0.211470564278
466360000 0.681002084975 -0.209161810817
466370000 0.682413332641 -0.217963493352
466380000 0.681739957647 -0.213504994373
466390000 0.680878157353 -0.212043883979
466400000 0.697556121386 -0.216569488868
466410000 0.687860132154 -0.207275971134
466420000 0.6860114258 -0.197926084085
466430000 0.676865900323 -0.208769335899
466440000 0.683592361245 -0.208093013356
466450000 0.686410669603 -0.203132858342
466460000 0.685682829295 -0.21401568261
466470000 0.691486741978 -0.213628946359
466480000 0.678813284959 -0.213845404186
466490000 0.682874746478 -0.213040988381
466500000 0.686130593522 -0.208981325986
466510000 0.686902545907 -0.216825968458
466520000 0.682291166564 -0.209060093765
466530000 0.692128058775 -0.212375209315
466540000 0.680548566388 -0.206093156263
466550000 0.694409882409 -0.205190493075
466560000 0.684604947094 -0.207075689428
466570000 0.691220441738 -0.209301603505
466580000 0.689856929979 -0.207254826866
466590000 0.687901191289 -0.215567344648
466600000 0.684735450561 -0.222027323565
466610000 0.687950045231 -0.21420616645
466620000 0.681717190442 -0.218409199206
466630000 0.680684130702 -0.213886825218
466640000 0.685721179949 -0.212382529984
466650000 0.684904084625 -0.207945213909
466660000 0.683993606202 -0.210759701422
466670000 0.686174557922 -0.216057713664
466680000 0.684306530691 -0.213079700165
466690000 0.683412025481 -0.212719111204
466700000 0.683066209697 -0.215773286229
466710000 0.686453061721 -0.213714675108
466720000 0.685148425463 -0.211159795463
466730000 0.684640308539 -0.213844336356
466740000 0.684827559234 -0.212827689242
466750000 0.68461366013 -0.216032028085
466760000 0.684534822085 -0.212811083746
466770000 0.684336701492 -0.212873373554
466780000 0.684417143099 -0.213171914872
466790000 0.684172132557 -0.213208067352
466800000 0.684651672512 -0.213481770523
466810000 0.683680393097 -0.212730466272
466820000 0.684577191328 -0.21307530983
466830000 0.683795856553 -0.213189306849
466840000 0.683751541313 -0.213112571257
466850000 0.683955969471 -0.212125218507
466860000 0.684054896193 -0.21264479757
466870000 0.684722580519 -0.213345764636
466880000 0.684887278444 -0.213293467876
466890000 0.68449164113 -0.212316399012
466900000 0.684850705381 -0.212769874397
466910000 0.684177853028 -0.212955002813
466920000 0.684161403188 -0.212598570171
466930000 0.684122916067 -0.213154513978
466940000 0.685876733553 -0.213311677599
466950000 0.684126680188 -0.21355284635
466960000 0.683510699809 -0.213656410624
466970000 0.685116567404 -0.213551121752
466980000 0.684445514966 -0.213274341938
466990000 0.684681137209 -0.213222763105
467000000 0.684772961952 -0.21352148886
467010000 0.685224946437 -0.213896377523
467020000 0.685212593215 -0.213965609677
467030000 0.685209310198 -0.213798242196
467040000 0.684620845955 -0.213664961376
467050000 0.684286361033 -0.213609778287
467060000 0.684450905033 -0.213539356749
467070000 0.684269627005 -0.213331017561
467080000 0.68475063152 -0.21371753029
467090000 0.684371636865 -0.213977801204
467100000 0.684837305373 -0.214090324616
467110000 0.685581064057 -0.214326105014
467120000 0.685126299752 -0.214208694009
467130000 0.685422391712 -0.214362013464
467140000 0.68489099405 -0.214294114995
467150000 0.684607152752 -0.213820815456
467160000 0.684530737364 -0.214707141491
467170000 0.684327560705 -0.213965124262
467180000 0.684187445955 -0.213810557285
467190000 0.684284529401 -0.213751511199
467200000 0.684267578421 -0.213802564218
467210000 0.684494194646 -0.213615129227
467220000 0.685167317326 -0.214253303957
467230000 0.685065325187 -0.2137408966
467240000 0.685208102527 -0.213602763093
467250000 0.684497364172 -0.213814769686
467260000 0.685149366495 -0.214149559386
467270000 0.684709277669 -0.213574490394
467280000 0.684689738282 -0.213625379583
467290000 0.684787610603 -0.214369521233
467300000 0.684477706237 -0.214225891189
467310000 0.685024921379 -0.214538733028
467320000 0.684865323014 -0.214249788883
467330000 0.684702504334 -0.214340851297
467340000 0.684979789136 -0.214407615737
467350000 0.685020499686 -0.21519355117
467360000 0.685159360274 -0.215089659235
467370000 0.684975205309 -0.215117977718
467380000 0.685195441849 -0.215387213767
467390000 0.685198563298 -0.215346819373
467400000 0.685323690103 -0.214956160876
467410000 0.685685699388 -0.21535697275
467420000 0.685555157113 -0.215136881937
467430000 0.685366428095 -0.215289172325
467440000 0.685011257076 -0.214833041298
467450000 0.685128629176 -0.215431346133
467460000 0.684647762328 -0.215548987853
467470000 0.68520371392 -0.214899236462
467480000 0.685033938283 -0.215008850948
467490000 0.685738911595 -0.214804760464
467500000 0.685435141769 -0.21491655885
467510000 0.685726186524 -0.215512068717
467520000 0.685469546601 -0.215574643746
467530000 0.685225634 -0.215481161197
467540000 0.684986111401 -0.215535732133
467550000 0.684405583053 -0.215418178589
467560000 0.684448807964 -0.215557049496
467570000 0.685367360034 -0.215196951732
467580000 0.685085219925 -0.21467965621
467590000 0.684827905638 -0.214975837635
467600000 0.68463301909 -0.214411623481
467610000 0.685176205404 -0.215102173655
467620000 0.685202277048 -0.215385526947
467630000 0.685413279065 -0.215305833951
467640000 0.684856178836 -0.214975314477
467650000 0.685274683499 -0.215148199554
467660000 0.685160689395 -0.21509242624
467670000 0.685210768466 -0.2152612425
467680000 0.685263221994 -0.214982575731
467690000 0.685477180808 -0.215369177424
467700000 0.685115201577 -0.21550158686
467710000 0.685397149849 -0.215730254389
467720000 0.685180500668 -0.216431711738
467730000 0.685232362606 -0.21592108918
467740000 0.685145705433 -0.216324125348
467750000 0.685189522522 -0.215718668159
467760000 0.684973582329 -0.216443480626
467770000 0.68566700297 -0.215678935372
467780000 0.685375218129 -0.215793066724
467790000 0.684862317928 -0.215683189872
467800000 0.68490499254 -0.215939410902
467810000 0.685194577719 -0.215804376891
467820000 0.685105579026 -0.215633905111
467830000 0.685231698174 -0.215961495004
467840000 0.685650569455 -0.216084243269
467850000 0.685288485817 -0.216314779097
467860000 0.686565515162 -0.216865429946
467870000 0.686117581172 -0.216164388758
467880000 0.685452467378 -0.216189296371
467890000 0.685718857495 -0.216026323926
467900000 0.685375857738 -0.215325762248
467910000 0.685432270005 -0.215588139538
467920000 0.684934322209 -0.215637028554
467930000 0.684817109716 -0.215313556016
467940000 0.685217242433 -0.215053847338
467950000 0.685027754909 -0.215923532947
467960000 0.685027861677 -0.216047373491
467970000 0.684721748536 -0.215574786534
467980000 0.685242670027 -0.215205454004
467990000 0.682680587778 -0.188913074086
468000000 0.684237691569 -0.210763350618
468010000 0.686184045409 -0.214422436702
468020000 0.685981355944 -0.215350139031
468030000 0.685136721909 -0.216128433741
468040000 0.685785285714 -0.215899301852
468050000 0.686044608003 -0.215829026625
468060000 0.685400671571 -0.216147306275
468070000 0.685842820184 -0.216114478487
468080000 0.685381976381 -0.216131698116
468090000 0.685904766423 -0.216252231655
468100000 0.685564519465 -0.216274141039
468110000 0.686132070773 -0.217272958496
468120000 0.686347774898 -0.216973916406
468130000 0.685500138236 -0.217084124292
468140000 0.685138201603 -0.216820844011
468150000 0.685034569552 -0.216446031594
468160000 0.684811186347 -0.217041412191
468170000 0.685303428144 -0.217010172473
468180000 0.684911343643 -0.217007899663
468190000 0.684985132782 -0.216965689929
468200000 0.685307075402 -0.216388496323
468210000 0.68533055555 -0.216245233636
468220000 0.685282555339 -0.216554951887
468230000 0.685165799022 -0.216430456288
468240000 0.685422161291 -0.21659593867
468250000 0.685858797035 -0.216424193905
468260000 0.68561570016 -0.216455728894
468270000 0.684683404646 -0.216222563518
468280000 0.685333515147 -0.216540526056
468290000 0.684987132539 -0.216730025611
468300000 0.685800800138 -0.21717651188
468310000 0.685285759726 -0.217019022938
468320000 0.685139217163 -0.218245556128
468330000 0.685847565414 -0.217399507262
468340000 0.686217264942 -0.217719206189
468350000 0.685147865023 -0.217650925673
468360000 0.684799916971 -0.217084995584
468370000 0.684307013895 -0.216993799579
468380000 0.685111066678 -0.217135251246
468390000 0.685020409436 -0.217335337417
468400000 0.684871319031 -0.217579613408
468410000 0.684948256263 -0.217901239438
468420000 0.684832324044 -0.217358414369
468430000 0.684507496312 -0.217244027797
468440000 0.685134777018 -0.217278099361
468450000 0.685856218399 -0.216880684563
468460000 0.685890963761 -0.217133843346
468470000 0.685241178718 -0.217405545335
468480000 0.685325421929 -0.217400743185
468490000 0.684751083705 -0.217540479883
468500000 0.684978772744 -0.217518518236
468510000 0.685862972693 -0.217200663565
468520000 0.685686289285 -0.216924138853
468530000 0.685939494952 -0.217562868131
468540000 0.685861269591 -0.21776077956
468550000 0.68629304146 -0.217305119349
468560000 0.685487081699 -0.217578093867
468570000 0.685636690549 -0.217992188763
468580000 0.685428324841 -0.218021561856
468590000 0.685856688512 -0.217305765321
468600000 0.684815256215 -0.217045801515
468610000 0.685791104165 -0.217955630848
468620000 0.685289564711 -0.217743448643
468630000 0.685622426724 -0.217642338544
468640000 0.685754811228 -0.217340171883
468650000 0.685450608006 -0.217605218949
468660000 0.685410367752 -0.217808715355
468670000 0.685854395017 -0.217211776321
468680000 0.685902098195 -0.218100890511
468690000 0.685573606467 -0.217945716194
468700000 0.685639233896 -0.217947616741
468710000 0.685729720822 -0.218156789664
468720000 0.685663385907 -0.218184391062
468730000 0.685482727419 -0.218284025831
468740000 0.685611580648 -0.218017588679
468750000 0.685281300092 -0.218060421707
468760000 0.685032515984 -0.218112746873
468770000 0.685246160833 -0.21774299547
468780000 0.685477780855 -0.217889890517
468790000 0.685606531399 -0.218089133474
468800000 0.686019805397 -0.218183585966
468810000 0.685625983067 -0.218293740475
468820000 0.685859396954 -0.218585042557
468830000 0.685378828763 -0.219461932714
468840000 0.685762374734 -0.218702863579
468850000 0.685446822452 -0.218834534744
468860000 0.685970682502 -0.218913752959
468870000 0.685837638795 -0.218371051301
468880000 0.685507465429 -0.218412427616
468890000 0.685261848116 -0.218730598131
468900000 0.685589945804 -0.218770990459
468910000 0.685824845089 -0.219860035611
468920000 0.686069651237 -0.219558708572
468930000 0.686063213519 -0.219349704258
468940000 0.685499165557 -0.219131323883
468950000 0.686279569486 -0.218823467189
468960000 0.68639693454 -0.218407909555
468970000 0.685681310932 -0.218242123007
468980000 0.685864651636 -0.218324920545
468990000 0.685459639006 -0.218065471475
469000000 0.685841834741 -0.217930373629
469010000 0.685739983885 -0.21865295437
469020000 0.685600934407 -0.218876591789
469030000 0.68576432898 -0.218857659299
469040000 0.685729833864 -0.21926597209
469050000 0.68544999194 -0.218942978705
469060000 0.685333413041 -0.218875659426
469070000 0.686180912079 -0.219386460649
469080000 0.685496465886 -0.219346963076
469090000 0.685168180856 -0.219585432888
469100000 0.685141340329 -0.220140349196
469110000 0.685367575117 -0.220348340997
469120000 0.685747651924 -0.220837404425
469130000 0.685475966065 -0.220010605496
469140000 0.685717740209 -0.219735187821
469150000 0.685380538522 -0.219188610193
469160000 0.685899949235 -0.219471085667
469170000 0.68618558893 -0.22084829629
469180000 0.685916863716 -0.220340706539
469190000 0.685668524512 -0.220086247286
469200000 0.685861766634 -0.219615225027
469210000 0.685226164921 -0.219493043674
469220000 0.685204396713 -0.21919596554
469230000 0.684888143375 -0.219625158833
469240000 0.685694773708 -0.219400431826
469250000 0.685025242041 -0.219312370254
469260000 0.685376794478 -0.219143037233
469270000 0.685745409997 -0.219262789688
469280000 0.685821263495 -0.219224859199
469290000 0.68529583817 -0.2190454211
469300000 0.685342119236 -0.219265759509
469310000 0.685571771017 -0.219471858572
469320000 0.686033138444 -0.219618780002
469330000 0.685567911961 -0.219956584506
469340000 0.685413079588 -0.219663653432
469350000 0.686042152876 -0.219790740655
469360000 0.684998991359 -0.219762302565
469370000 0.684957667409 -0.219705329613
469380000 0.684899959455 -0.219738857238
469390000 0.685346730326 -0.220258724241
469400000 0.686303942072 -0.220314830474
469410000 0.684700712502 -0.218886240434
469420000 0.680292900364 -0.215125182312
469430000 0.67540007182 -0.208476784277
469440000 0.677318377117 -0.217948411919
469450000 0.681545284456 -0.216334512323
469460000 0.685169965186 -0.219380558169
469470000 0.686196934484 -0.220111057381
469480000 0.686425209492 -0.220311514874
469490000 0.686472194401 -0.220914217966
469500000 0.686007255106 -0.219948515199
469510000 0.686212179272 -0.219745928223
469520000 0.685859838957 -0.219866035007
469530000 0.686273888682 -0.220507889848
469540000 0.685924237747 -0.220613918583
469550000 0.685486109498 -0.220679837334
469560000 0.68549056061 -0.22040684282
469570000 0.686876144863 -0.220516530578
469580000 0.685645754966 -0.220768637009
469590000 0.68606014284 -0.220507645495
469600000 0.686252856231 -0.220675363676
469610000 0.68636028702 -0.219901552413
469620000 0.68596329878 -0.220180474693
469630000 0.685373581747 -0.219627888922
469640000 0.685235143914 -0.220411617962
469650000 0.685645295522 -0.220347132101
469660000 0.685842066206 -0.220890019358
469670000 0.686259996791 -0.220553649606
469680000 0.686158179251 -0.220002662395
469690000 0.686462098175 -0.220134980048
469700000 0.686192381549 -0.220072683275
469710000 0.686133009277 -0.220217819314
469720000 0.685654461131 -0.220435728688
469730000 0.68618314929 -0.22069587097
469740000 0.68715827163 -0.220928504375
469750000 0.686392618949 -0.221256712982
469760000 0.68680782527 -0.221165441985
469770000 0.686116135784 -0.221519179527
469780000 0.686189297436 -0.221285299352
469790000 0.685736757728 -0.221058510069
469800000 0.68685434284 -0.221103288708
469810000 0.686884885899 -0.221305350173
469820000 0.686340252294 -0.221422595979
469830000 0.686276066622 -0.22131764409
469840000 0.685900024411 -0.221674326717
469850000 0.686547807221 -0.221340565348
469860000 0.686385353472 -0.221266656573
469870000 0.686291809795 -0.221298939221
469880000 0.685941511252 -0.221687334766
469890000 0.685785952226 -0.221423073089
469900000 0.685769772756 -0.221658788352
469910000 0.686571420564 -0.221081333421
469920000 0.685877803913 -0.221119161281
469930000 0.685838032862 -0.22130065265
469940000 0.685643232166 -0.221312377
469950000 0.685586969524 -0.221884430519
469960000 0.685631438389 -0.221351692905
469970000 0.685711029965 -0.221567644454
469980000 0.685525556905 -0.221246845644
469990000 0.686017844149 -0.221631335062
470000000 0.685457578239 -0.221906649594
