! Calibrated averaged scanner-service zoom
# Hz S RI R 50
1088000000 0.777172883996 0.0298565413349
1088004000 0.77729019952 0.0381010816333
1088008000 0.779991441577 0.0326801960106
1088012000 0.781792363109 0.0330902595382
1088016000 0.78406920333 0.0312000963161
1088020000 0.780938563303 0.0284524367013
1088024000 0.779009989729 0.0326737235141
1088028000 0.781763669815 0.02764188444
1088032000 0.776452480212 0.0278880911434
1088036000 0.78093227806 0.031924818489
1088040000 0.778732950333 0.0296493181586
1088044000 0.780491405289 0.0300376513804
1088048000 0.778581004603 0.0248418994301
1088052000 0.776114725642 0.0313003092824
1088056000 0.782250515809 0.0346184493853
1088060000 0.784080083158 0.0322601412264
1088064000 0.784590530378 0.0336980806212
1088068000 0.782887581233 0.03392441766
1088072000 0.787977392221 0.0353638607814
1088076000 0.783509221122 0.0375840088796
1088080000 0.781669546058 0.0304087741546
1088084000 0.780471752727 0.0313729674822
1088088000 0.780645281367 0.0337024233148
1088092000 0.779593949167 0.0324497711296
1088096000 0.778521130953 0.0335298151965
1088100000 0.778818151011 0.0307783302737
1088104000 0.77669841358 0.0315448944045
1088108000 0.778926287187 0.0290852289556
1088112000 0.777998633994 0.0321057985411
1088116000 0.780087509021 0.0342357529445
1088120000 0.780205848651 0.0303485344459
1088124000 0.781526093043 0.0279568503615
1088128000 0.77922595175 0.0294322950331
1088132000 0.781512837534 0.0287732106905
1088136000 0.785821150276 0.0297982282171
1088140000 0.783382001437 0.0281831665083
1088144000 0.781237472719 0.028272706006
1088148000 0.781256880049 0.0246007401993
1088152000 0.7815583819 0.0269833860247
1088156000 0.784486116098 0.0277855289175
1088160000 0.784619555446 0.0248939478677
1088164000 0.782599654965 0.0276021653564
1088168000 0.786415043015 0.0272656490212
1088172000 0.779905295421 0.0296338918338
1088176000 0.783213070625 0.0324786333653
1088180000 0.784168925884 0.0306868508452
1088184000 0.777881550298 0.0288526264555
1088188000 0.779096893248 0.0347356697398
1088192000 0.778792189148 0.0348549643977
1088196000 0.782992199113 0.031769611951
1088200000 0.780939063812 0.0346952469892
1088204000 0.777654399189 0.0327324537314
1088208000 0.783418555565 0.0291212293885
1088212000 0.780159606342 0.029974535454
1088216000 0.7805370006 0.0282773669811
1088220000 0.77812091706 0.0266697858007
1088224000 0.778087399805 0.0285400407423
1088228000 0.778711322692 0.0306205551767
1088232000 0.778303679818 0.027769799309
1088236000 0.77975200794 0.0287755139115
1088240000 0.781785499308 0.0334298912971
1088244000 0.777410277096 0.0304998702963
1088248000 0.782267110228 0.0345030841674
1088252000 0.778122258338 0.0340704552137
1088256000 0.781843952083 0.0321489929882
1088260000 0.778803375643 0.0318923252093
1088264000 0.784366188704 0.0296859935871
1088268000 0.788203737934 0.0379534981112
1088272000 0.789157739848 0.029092509424
1088276000 0.790116484351 0.032744013502
1088280000 0.788838607292 0.0299601683216
1088284000 0.787667027597 0.0350126778828
1088288000 0.783991946518 0.0321688459922
1088292000 0.785588248581 0.0275000040958
1088296000 0.784124874589 0.0297743501316
1088300000 0.78060024229 0.0335121781892
1088304000 0.777728249006 0.0285857359133
1088308000 0.781072682534 0.0305937232529
1088312000 0.781411693756 0.0237780496193
1088316000 0.780334986823 0.0284909363389
1088320000 0.784559813674 0.0270740749391
1088324000 0.783618605534 0.0289331111094
1088328000 0.783237196315 0.024735679897
1088332000 0.779407787105 0.0242024557405
1088336000 0.782437624348 0.0258115543152
1088340000 0.785938193172 0.0300126540316
1088344000 0.780085317809 0.0309113565818
1088348000 0.783043747524 0.0247299189264
1088352000 0.784526097684 0.0315430412943
1088356000 0.779271569249 0.0325200648637
1088360000 0.781491743868 0.0331215151898
1088364000 0.783094598661 0.0301690486138
1088368000 0.783515445294 0.0323312298394
1088372000 0.782143878237 0.0321627781477
1088376000 0.783403563017 0.0334994131769
1088380000 0.780764961636 0.0300454099758
1088384000 0.787031450221 0.0283439203149
1088388000 0.784966013411 0.0256987511673
1088392000 0.785332451521 0.0247720621324
1088396000 0.784040696551 0.0268619382724
1088400000 0.781336243971 0.0301931380759
1088404000 0.785817801484 0.0257689300737
1088408000 0.781350966659 0.0341959382052
1088412000 0.780988105013 0.0308770759853
1088416000 0.760754722493 0.00902502574307
1088420000 0.783743154558 0.0347574792613
1088424000 0.776589760067 0.0335136770858
1088428000 0.782285051698 0.0311708371231
1088432000 0.77464783037 0.0352071106468
1088436000 0.778824962784 0.0352108853569
1088440000 0.779851066506 0.0279731234709
1088444000 0.779981832731 0.0312846057242
1088448000 0.774588013591 0.0335152234487
1088452000 0.775825364505 0.0265383483683
1088456000 0.780819378484 0.0325028798298
1088460000 0.777812200067 0.0292754826408
1088464000 0.781331223836 0.0346440313695
1088468000 0.778779207915 0.0305530088377
1088472000 0.781299487727 0.0318563391323
1088476000 0.779659001333 0.0294190043354
1088480000 0.787751092996 0.0270065494731
1088484000 0.782763029063 0.0305671372665
1088488000 0.784177803057 0.0316446610101
1088492000 0.783105499702 0.0346945115653
1088496000 0.783964492241 0.0320611981125
1088500000 0.779998453286 0.0303160124184
1088504000 0.784271176267 0.0300701964645
1088508000 0.784337561054 0.032309681737
1088512000 0.780582829146 0.0350753028237
1088516000 0.779141933113 0.0351466972843
1088520000 0.781592985665 0.0317434915384
1088524000 0.779031135796 0.0312024045717
1088528000 0.783854396948 0.0319655606116
1088532000 0.779136330239 0.0320797359084
1088536000 0.779515199711 0.0298882210793
1088540000 0.780323017378 0.0327360651918
1088544000 0.785025282237 0.0279076633502
1088548000 0.784779818682 0.0279284293163
1088552000 0.779476783253 0.0268468499941
1088556000 0.780165795832 0.0277884242621
1088560000 0.785632664859 0.0307871738068
1088564000 0.782543929895 0.0242943296747
1088568000 0.783100983136 0.0287760089269
1088572000 0.785203917228 0.0304236680964
1088576000 0.786896328244 0.0273831424657
1088580000 0.784392211436 0.0268190416009
1088584000 0.787948489671 0.0308180972974
1088588000 0.786154618161 0.0324697361951
1088592000 0.786042733839 0.0292966380142
1088596000 0.786703440645 0.032033039438
1088600000 0.789594633032 0.0321759423336
1088604000 0.78875587713 0.0299314038783
1088608000 0.786710889104 0.0274958692229
1088612000 0.786531650415 0.0319533519441
1088616000 0.787973969959 0.0310314047723
1088620000 0.78389017542 0.031883446806
1088624000 0.787212861865 0.0301700530568
1088628000 0.789264926586 0.0299266924258
1088632000 0.783369869898 0.0302595097933
1088636000 0.785498831344 0.0309533822563
1088640000 0.781997518936 0.0300365044715
1088644000 0.784589242667 0.0258301954851
1088648000 0.783343843867 0.0278728581863
1088652000 0.781322193223 0.028698025161
1088656000 0.783720665379 0.0290796068716
1088660000 0.781334906334 0.0282668701098
1088664000 0.781361748668 0.0266022586963
1088668000 0.784089491537 0.0276136430868
1088672000 0.782746955313 0.0281454228203
1088676000 0.782677019334 0.0298463430401
1088680000 0.779113792888 0.0263275013652
1088684000 0.781976946997 0.0312539519335
1088688000 0.781887300124 0.0244640608604
1088692000 0.783140254725 0.0273158620961
1088696000 0.779895105319 0.0302588953707
1088700000 0.779750906897 0.0277438317763
1088704000 0.780124682298 0.0291564600316
1088708000 0.781462452326 0.0314034148864
1088712000 0.78152008147 0.0291096986886
1088716000 0.777533105829 0.0282113973745
1088720000 0.782723755725 0.0330333322665
1088724000 0.778902869937 0.0340921293721
1088728000 0.774899995969 0.0322705434502
1088732000 0.779459590043 0.0277394794625
1088736000 0.771110223689 0.0328754144104
1088740000 0.777357195685 0.0276101744935
1088744000 0.776959130124 0.0315444685129
1088748000 0.782135217546 0.0301173894663
1088752000 0.781147313968 0.0359613049328
1088756000 0.780810273885 0.0286788869093
1088760000 0.781066647625 0.0333280157517
1088764000 0.785399086408 0.032300170592
1088768000 0.783332333709 0.0372788222323
1088772000 0.785623638802 0.0329883903138
1088776000 0.7814831145 0.029271778899
1088780000 0.784286092133 0.0310020990096
1088784000 0.783484899918 0.0281916699638
1088788000 0.783219820303 0.0285779410535
1088792000 0.780458421966 0.0278928667441
1088796000 0.779720529647 0.0323512273794
1088800000 0.784396895643 0.0278960170654
1088804000 0.780412102339 0.0278193661346
1088808000 0.781193685479 0.0258937530452
1088812000 0.785066648267 0.0272722627441
1088816000 0.785081121731 0.0311418580782
1088820000 0.78369670571 0.0335626100279
1088824000 0.780073555983 0.0288899857797
1088828000 0.780653277568 0.0317291719222
1088832000 0.781294975749 0.0271946556122
1088836000 0.782697011514 0.0289261362731
1088840000 0.785151288966 0.0320593233606
1088844000 0.783974681498 0.0298261649054
1088848000 0.786844160654 0.0296379204614
1088852000 0.782809822932 0.0317117549145
1088856000 0.786129441393 0.0296209381841
1088860000 0.78822973476 0.0264570656999
1088864000 0.779921506882 0.0313184537466
1088868000 0.779172610366 0.0309800243806
1088872000 0.786077093984 0.0263410663604
1088876000 0.780230047689 0.0299732346244
1088880000 0.78269304205 0.0245682955284
1088884000 0.781261018464 0.0260688860433
1088888000 0.784197337707 0.0303327911512
1088892000 0.785199308021 0.0258830219606
1088896000 0.781322198087 0.0255818464823
1088900000 0.778985905898 0.0297134628057
1088904000 0.782399150673 0.0278125830243
1088908000 0.784791116229 0.0267045593064
1088912000 0.786011729011 0.0272860981187
1088916000 0.782310228431 0.0285266768672
1088920000 0.781398614715 0.0275632977298
1088924000 0.783047644489 0.0300312648206
1088928000 0.77802495461 0.0321427559571
1088932000 0.785903590452 0.0295829719999
1088936000 0.784410483157 0.0324538610273
1088940000 0.78586295697 0.0339565583218
1088944000 0.789151042572 0.0380717305395
1088948000 0.784739582473 0.0351718536274
1088952000 0.781098588073 0.0338194130061
1088956000 0.783436594076 0.0373358358342
1088960000 0.785430449861 0.0311640571792
1088964000 0.783688592227 0.0335292870722
1088968000 0.785666332761 0.0338751630467
1088972000 0.787419543897 0.0304926811228
1088976000 0.784272877358 0.0342856163017
1088980000 0.785401609251 0.0333768192256
1088984000 0.781606925107 0.0325245062005
1088988000 0.78371167988 0.0316087157508
1088992000 0.784063046658 0.030839813198
1088996000 0.784930551147 0.0318074583085
1089000000 0.786375997564 0.028886861286
1089004000 0.78295801935 0.0292202303641
1089008000 0.785103217655 0.027017094764
1089012000 0.780984492775 0.029828679886
1089016000 0.78735580166 0.0292012610673
1089020000 0.784037909502 0.0267638928867
1089024000 0.785290630382 0.0274522490746
1089028000 0.78352951535 0.0291231246017
1089032000 0.787523861262 0.0317442924903
1089036000 0.78451770727 0.028037960327
1089040000 0.785817461071 0.0296367517378
1089044000 0.785622607316 0.0295652533481
1089048000 0.790899906951 0.0321355317233
1089052000 0.788362283178 0.027982275153
1089056000 0.788085129684 0.0304199110961
1089060000 0.785275481643 0.0284971391262
1089064000 0.790805887727 0.0271860267968
1089068000 0.784086195756 0.0329746598562
1089072000 0.783409220627 0.0311573171796
1089076000 0.784194517191 0.030129470873
1089080000 0.7804159585 0.031282318899
1089084000 0.78286599836 0.0272880888559
1089088000 0.783679585282 0.0279447555329
1089092000 0.780960616194 0.0338847056373
1089096000 0.778675935194 0.0357076003513
1089100000 0.782108146179 0.0369147033825
1089104000 0.784300850947 0.0350356471482
1089108000 0.781042871976 0.0350720674609
1089112000 0.778262175042 0.0318495908631
1089116000 0.781855380628 0.0311800029996
1089120000 0.78488862081 0.0314050140215
1089124000 0.784066063015 0.0316975034995
1089128000 0.781978507715 0.0312961785371
1089132000 0.786206045014 0.0321824859846
1089136000 0.784020428595 0.0283667703355
1089140000 0.782316661058 0.0277234343892
1089144000 0.782577405646 0.0293753498135
1089148000 0.781406531103 0.0269903751547
1089152000 0.784865056599 0.0285032479574
1089156000 0.782911262643 0.0283838223462
1089160000 0.784955522359 0.0309883681689
1089164000 0.780217525458 0.0309221468845
1089168000 0.786767057996 0.029517640381
1089172000 0.78403739584 0.0272757772977
1089176000 0.785555528647 0.0327769218064
1089180000 0.787357409276 0.0324282892672
1089184000 0.783916702917 0.0305838414426
1089188000 0.785526400398 0.0299248104153
1089192000 0.783910338048 0.0321003783809
1089196000 0.785286754654 0.0305894822388
1089200000 0.783641628952 0.0293059522125
1089204000 0.781641547495 0.0301547922163
1089208000 0.781918205538 0.025591312333
1089212000 0.780376278043 0.0278169172454
1089216000 0.78184020154 0.0311251670668
1089220000 0.779156489997 0.0293380145323
1089224000 0.784584681253 0.0258268504048
1089228000 0.780483789359 0.0299843962533
1089232000 0.786832357924 0.0230709188385
1089236000 0.783239647284 0.0269571619508
1089240000 0.781368115179 0.0283467278625
1089244000 0.780323243875 0.0280020307769
1089248000 0.778926407374 0.0247969036066
1089252000 0.782143000062 0.0296962390093
1089256000 0.780092111516 0.0299872630709
1089260000 0.78303458615 0.027665416468
1089264000 0.779378772666 0.0277633798801
1089268000 0.783474775237 0.0273264877941
1089272000 0.784799540827 0.0238160694704
1089276000 0.783175361436 0.0243547204256
1089280000 0.785090815347 0.0270643855869
1089284000 0.783792359494 0.0222557328749
1089288000 0.784367757954 0.0249299112516
1089292000 0.786012943798 0.0248397699879
1089296000 0.788346703485 0.0233113982537
1089300000 0.788030609713 0.0226855860393
1089304000 0.787835885413 0.0260220858568
1089308000 0.787339979274 0.0214745372569
1089312000 0.789918260948 0.0220339472648
1089316000 0.784459783878 0.0260265687815
1089320000 0.782217303359 0.0240515697131
1089324000 0.785582501141 0.0241656445926
1089328000 0.784255156913 0.0286176590476
1089332000 0.783043318218 0.027484571349
1089336000 0.783373980536 0.028998017716
1089340000 0.783025297735 0.031726586397
1089344000 0.782880246295 0.0277920741276
1089348000 0.780288857527 0.0284415124382
1089352000 0.781754483292 0.0319369292265
1089356000 0.779438702519 0.0304855171508
1089360000 0.784089780483 0.0292111344871
1089364000 0.7817377455 0.0316952111455
1089368000 0.786695278407 0.030018041724
1089372000 0.784740436609 0.0286221901518
1089376000 0.783553887175 0.0289189349632
1089380000 0.790127843631 0.0296495466513
1089384000 0.78504305922 0.02982752995
1089388000 0.785119357769 0.029446635903
1089392000 0.780909264841 0.0352283212254
1089396000 0.784456910074 0.0295779261785
1089400000 0.781926128666 0.0293350498193
1089404000 0.778895445096 0.0289402576288
1089408000 0.781979697985 0.0317668073114
1089412000 0.778204904772 0.0242774940692
1089416000 0.784598825311 0.0231971993665
1089420000 0.78094791453 0.0284821840796
1089424000 0.782548177012 0.0297250104755
1089428000 0.777997374791 0.0292522284306
1089432000 0.781087672354 0.0257339976774
1089436000 0.780097315554 0.0247732558981
1089440000 0.783069531883 0.022624261423
1089444000 0.783712577324 0.0250468582801
1089448000 0.786720772535 0.0252709850611
1089452000 0.785951082621 0.0248582143304
1089456000 0.786128192173 0.0265953189483
1089460000 0.784374707692 0.0237232372524
1089464000 0.785428143592 0.0224764400384
1089468000 0.786596531838 0.0204361708138
1089472000 0.7865007303 0.0215255679133
1089476000 0.791306457656 0.0218482147592
1089480000 0.79163422545 0.021725015574
1089484000 0.789995086855 0.0164778751027
1089488000 0.789526816319 0.0197018204373
1089492000 0.78937317527 0.0203625029619
1089496000 0.785505773267 0.0177213279872
1089500000 0.786473779857 0.0234766256894
1089504000 0.788483521272 0.022750723097
1089508000 0.782679553712 0.0244869333347
1089512000 0.784687274461 0.023384492076
1089516000 0.783095061426 0.0270101090974
1089520000 0.784512076397 0.0282043637079
1089524000 0.782142188832 0.0267413951024
1089528000 0.78793040933 0.0251780097631
1089532000 0.787819970815 0.0286175888286
1089536000 0.786318858198 0.0306078152766
1089540000 0.784584599893 0.0281657787895
1089544000 0.783996224821 0.0272521229408
1089548000 0.788477783598 0.0314339314869
1089552000 0.79047658234 0.0229055231209
1089556000 0.787700747208 0.031155336087
1089560000 0.7888123001 0.0329253512461
1089564000 0.789817326039 0.0330898527876
1089568000 0.785297451824 0.0317819395179
1089572000 0.785273481111 0.0337823673685
1089576000 0.786577587163 0.0298876009021
1089580000 0.790108323366 0.0292360686231
1089584000 0.780295834998 0.0329425291213
1089588000 0.781879652993 0.0291111373571
1089592000 0.784418429549 0.0265752486787
1089596000 0.782514322515 0.0297776219211
1089600000 0.784216359445 0.0271769344492
1089604000 0.783104106377 0.0294421293797
1089608000 0.78681052251 0.027534718574
1089612000 0.785152712487 0.0254592186581
1089616000 0.782986911525 0.0271458476923
1089620000 0.788174585966 0.0288525523054
1089624000 0.782834156677 0.026168635125
1089628000 0.78954922068 0.0266135194255
1089632000 0.785165034981 0.0268114800092
1089636000 0.785165688224 0.0290700844977
1089640000 0.785162770304 0.0300962377329
1089644000 0.786564174158 0.0255919915015
1089648000 0.787205373342 0.0260154623202
1089652000 0.787007536784 0.0268523043736
1089656000 0.78546499155 0.0253377587225
1089660000 0.78585770691 0.02773955429
1089664000 0.786520506267 0.0284602950073
1089668000 0.784055962663 0.0282461036045
1089672000 0.783826747852 0.0318891014506
1089676000 0.786566715058 0.0304463597856
1089680000 0.786678224736 0.0297580213458
1089684000 0.786344654031 0.0276338551125
1089688000 0.783903727005 0.0311587915607
1089692000 0.785835593758 0.0285828124634
1089696000 0.786539279119 0.0282412193263
1089700000 0.780452176957 0.0271836791435
1089704000 0.781154939725 0.0252295871579
1089708000 0.781458313507 0.0256923280613
1089712000 0.779693702931 0.026324102038
1089716000 0.781633654436 0.0265418747169
1089720000 0.780705304237 0.0245081680623
1089724000 0.781882872543 0.0261356352948
1089728000 0.782333008823 0.0266146633202
1089732000 0.781519751401 0.027215512354
1089736000 0.7824743513 0.0260547400785
1089740000 0.783891080887 0.0282527145965
1089744000 0.784014068976 0.0231461281438
1089748000 0.785284066774 0.0282014056879
1089752000 0.785357724035 0.0260113907078
1089756000 0.784029106592 0.0303009751458
1089760000 0.781688981552 0.0266334962993
1089764000 0.78745725511 0.0275322130187
1089768000 0.78278224911 0.0304884433634
1089772000 0.785531517849 0.0283817481534
1089776000 0.784169097178 0.0279091737705
1089780000 0.781534641185 0.0275894065155
1089784000 0.781930485216 0.0283081373625
1089788000 0.785030082399 0.0280378661161
1089792000 0.78157411177 0.0297695435812
1089796000 0.777106670133 0.0298139407496
1089800000 0.780452643343 0.0289038118454
1089804000 0.777370061193 0.0300647923252
1089808000 0.782506067904 0.0291408583376
1089812000 0.784323350639 0.0290704146256
1089816000 0.784097531904 0.0332744343515
1089820000 0.782794077045 0.0280686570833
1089824000 0.783086233023 0.0274317604316
1089828000 0.784824487784 0.0308892210559
1089832000 0.783889640384 0.0294962534707
1089836000 0.782975807466 0.0275523401067
1089840000 0.786022374233 0.0278576761979
1089844000 0.778954632508 0.0269827875426
1089848000 0.782449371756 0.0314986306764
1089852000 0.783136470358 0.0238481047115
1089856000 0.781837555214 0.0266863736059
1089860000 0.781931989466 0.0293909350956
1089864000 0.780546587347 0.0267042971552
1089868000 0.78054274744 0.0270155645262
1089872000 0.780861374591 0.0305252562332
1089876000 0.783983201327 0.0280424537683
1089880000 0.780616295946 0.0315868226374
1089884000 0.780867972198 0.0318056164336
1089888000 0.780277291724 0.0270790746055
1089892000 0.78063977283 0.0297696015693
1089896000 0.781663443017 0.0293360242674
1089900000 0.780069234445 0.0281704248347
1089904000 0.777584271722 0.0254041444737
1089908000 0.780048331051 0.0284664899583
1089912000 0.781322145665 0.0287366631948
1089916000 0.779015719175 0.0274265239528
1089920000 0.781392163225 0.0275279539541
1089924000 0.780537582737 0.0293226636234
1089928000 0.77955474446 0.0307363502187
1089932000 0.780214990847 0.0272621535192
1089936000 0.782153689169 0.0271819999928
1089940000 0.785246325585 0.0255762296558
1089944000 0.784102590411 0.0277206807934
1089948000 0.787219349172 0.0265776856351
1089952000 0.78979476745 0.0282692848399
1089956000 0.790154977238 0.0287692632599
1089960000 0.787858645685 0.0289649683067
1089964000 0.788165421203 0.0310156806474
1089968000 0.792371733626 0.0270913181327
1089972000 0.788745950494 0.0244161629409
1089976000 0.795532608812 0.0316837182827
1089980000 0.789712767296 0.0277603352799
1089984000 0.789689009476 0.0293555911437
1089988000 0.788143227812 0.0305540442207
1089992000 0.786789092874 0.029885981379
1089996000 0.7832987768 0.0274610850145
1090000000 0.783008428006 0.0268127502181
1090004000 0.783125674925 0.0262706635779
1090008000 0.780830069957 0.0271622015826
1090012000 0.78355249009 0.0262906630932
1090016000 0.785637082624 0.0269020208436
1090020000 0.785388787012 0.0274170024758
1090024000 0.790414276028 0.0274854922171
1090028000 0.787702145949 0.0292773074018
1090032000 0.784780026041 0.0255180145653
1090036000 0.786428177902 0.0307723531069
1090040000 0.787528848024 0.0258626560809
1090044000 0.78636277124 0.0270316458389
1090048000 0.785188527241 0.028031481998
1090052000 0.782711686859 0.0249563930606
1090056000 0.789459270907 0.0294414789441
1090060000 0.784134051317 0.0294072809579
1090064000 0.78414511779 0.0262131511048
1090068000 0.784808240644 0.0248625329177
1090072000 0.787344903571 0.0290684888587
1090076000 0.786239639596 0.0284321121356
1090080000 0.785331329412 0.0272823623094
1090084000 0.7884850684 0.0297787587667
1090088000 0.785449392442 0.0236942464503
1090092000 0.786776999888 0.0253369854239
1090096000 0.787704072951 0.0282424500805
1090100000 0.788163551856 0.0247456681233
1090104000 0.786308845079 0.0226688649213
1090108000 0.787712862899 0.0248399666269
1090112000 0.789933505673 0.0266915930761
1090116000 0.784995994244 0.0240706272639
1090120000 0.785799367497 0.0293177751172
1090124000 0.785214308957 0.0271806469025
1090128000 0.785929660823 0.0276573393243
1090132000 0.779094161016 0.0277076383543
1090136000 0.780874661227 0.0284546741123
1090140000 0.778365293342 0.0318179720792
1090144000 0.77828507892 0.0313725740078
1090148000 0.776199716739 0.0302802770882
1090152000 0.781453496994 0.0319103777865
1090156000 0.781722625524 0.032549665911
1090160000 0.780996477752 0.0301236424038
1090164000 0.782190358351 0.0292811319129
1090168000 0.784268963218 0.0299585621865
1090172000 0.782411850448 0.0315857201954
1090176000 0.785903802814 0.0320138374256
1090180000 0.786314898495 0.0321475524657
1090184000 0.783627357276 0.0300182441981
1090188000 0.784638339036 0.0302556487504
1090192000 0.78630276968 0.0300848029875
1090196000 0.785004859701 0.0282736182367
1090200000 0.783752520991 0.0309075943262
1090204000 0.783241825302 0.029715126441
1090208000 0.785432726177 0.0290233696686
1090212000 0.781977222338 0.0239843130636
1090216000 0.783338574034 0.0267385240932
1090220000 0.782769720359 0.0274975883888
1090224000 0.782543201904 0.0247436667526
1090228000 0.781321074589 0.029294093931
1090232000 0.783207271932 0.0240693044264
1090236000 0.78054683731 0.0258651895884
1090240000 0.785558991186 0.0280272675512
1090244000 0.781428327097 0.0283699000981
1090248000 0.784912067764 0.0256355959762
1090252000 0.784493556069 0.0269466426267
1090256000 0.785970807033 0.0265022887757
1090260000 0.784107465278 0.0300335485546
1090264000 0.781987612108 0.0273204730074
1090268000 0.785542625333 0.0252359278881
1090272000 0.786073843064 0.0260866868124
1090276000 0.785445437521 0.0208975401374
1090280000 0.78435838106 0.0218509025079
1090284000 0.784132452347 0.0245653429909
1090288000 0.785885156993 0.0210352975678
1090292000 0.786045449582 0.0233221598812
1090296000 0.783617132066 0.0227108972445
1090300000 0.781750347228 0.0253640108763
1090304000 0.783446780132 0.0254892574614
1090308000 0.77968714114 0.0233297812031
1090312000 0.784610262992 0.0223322808339
1090316000 0.785602001119 0.0255736012452
1090320000 0.786706569545 0.0271340778234
1090324000 0.787348262774 0.0306845674351
1090328000 0.784856649386 0.0280563551142
1090332000 0.785620287712 0.0276416167762
1090336000 0.779742444055 0.0244323807635
1090340000 0.781881405732 0.0279795555574
1090344000 0.783481751457 0.0245144783476
1090348000 0.782543401466 0.0254584569882
1090352000 0.780732370052 0.0213716034607
1090356000 0.779246120255 0.0208603860152
1090360000 0.785212766017 0.0243029478789
1090364000 0.779759070576 0.0227291218315
1090368000 0.779825854856 0.0219442488722
1090372000 0.78452168204 0.0220663839888
1090376000 0.78380132088 0.0252729389471
1090380000 0.78368273836 0.0243277926204
1090384000 0.784134391096 0.0227182031606
1090388000 0.781578483891 0.0215016755538
1090392000 0.782266299691 0.0255885152617
1090396000 0.782657547825 0.0231643644458
1090400000 0.784649854409 0.0225100914899
1090404000 0.783044174185 0.0220020337741
1090408000 0.786099063475 0.0246257890611
1090412000 0.781813171922 0.022379337216
1090416000 0.781235644268 0.0240819603342
1090420000 0.783027110792 0.0242393711361
1090424000 0.78047182112 0.0252060085758
1090428000 0.78167756696 0.0264649947141
1090432000 0.780921979475 0.0232042753558
1090436000 0.779709538161 0.0230460163939
1090440000 0.782274411453 0.024306649608
1090444000 0.78005198675 0.0262573549762
1090448000 0.782021254689 0.0287843230615
1090452000 0.782785856482 0.0227092802781
1090456000 0.783821010369 0.024933793774
1090460000 0.779549331375 0.0272532798269
1090464000 0.786931134482 0.028402911697
1090468000 0.782906891944 0.0242222276033
1090472000 0.783048263582 0.027810451809
1090476000 0.785805124913 0.0284047345954
1090480000 0.786203482165 0.0297533746144
1090484000 0.783494013836 0.0271581243161
1090488000 0.783741519437 0.0300291643081
1090492000 0.780500400774 0.026510223362
1090496000 0.782127430751 0.0265649847628
1090500000 0.785194760099 0.0257555375919
1090504000 0.784884983647 0.0256676974428
1090508000 0.783497224926 0.0241296918478
1090512000 0.788798318987 0.0223875932317
1090516000 0.784850796401 0.0245141601144
1090520000 0.789786206554 0.0209310691947
1090524000 0.786182995963 0.0224049907856
1090528000 0.785205434394 0.0221541764784
1090532000 0.787285463051 0.0255243501967
1090536000 0.788556816882 0.0223701084095
1090540000 0.788771330716 0.023669135973
1090544000 0.788169595237 0.0256518727191
1090548000 0.790405181323 0.0230094113286
1090552000 0.788406993951 0.0233843059616
1090556000 0.79138837409 0.0226300716093
1090560000 0.791073783334 0.0244514884829
1090564000 0.789742995136 0.024085016412
1090568000 0.78640583284 0.0231758827956
1090572000 0.786476469472 0.0155524347527
1090576000 0.787613098971 0.018996379731
1090580000 0.788138702571 0.0244594315793
1090584000 0.788662757135 0.0228446125958
1090588000 0.787740627063 0.0229190186798
1090592000 0.789734144562 0.0233392369689
1090596000 0.7897596329 0.0209192252069
1090600000 0.78604011172 0.020774016197
1090604000 0.787107228856 0.0271754497318
1090608000 0.786240524953 0.0262414205836
1090612000 0.788561024648 0.0283311564764
1090616000 0.785875458729 0.0300544348301
1090620000 0.783116191964 0.025148922023
1090624000 0.782377107645 0.0262747226111
1090628000 0.786455666527 0.0256992029118
1090632000 0.778332375186 0.029361381882
1090636000 0.781803157261 0.0280908095452
1090640000 0.777552500475 0.0260452925127
1090644000 0.785362096218 0.0252141103526
1090648000 0.785442231118 0.0278765100679
1090652000 0.785072060191 0.0232390083119
1090656000 0.786064174279 0.0260890676538
1090660000 0.785137399953 0.0244194729387
1090664000 0.788406691829 0.0249366693039
1090668000 0.78355287651 0.029479688788
1090672000 0.787118744398 0.0260138886385
1090676000 0.788017814282 0.0255592939104
1090680000 0.786011833653 0.026061644903
1090684000 0.784924128724 0.0248758778066
1090688000 0.786464872057 0.0245507129028
1090692000 0.792887308886 0.028276825831
1090696000 0.790509585722 0.0228393678718
1090700000 0.786235787913 0.0277214258772
1090704000 0.789127493246 0.0286777250633
1090708000 0.784744985253 0.024571736994
1090712000 0.784767625006 0.0255586409338
1090716000 0.782343239865 0.0283014920748
1090720000 0.782357199085 0.0259529850685
1090724000 0.781529030516 0.0232020522942
1090728000 0.78162825002 0.0223281472475
1090732000 0.782809276399 0.0282617714419
1090736000 0.785440767817 0.0250690502049
1090740000 0.785681999601 0.0242007090347
1090744000 0.78679728756 0.0269169725978
1090748000 0.789679143322 0.0246734085831
1090752000 0.787055106934 0.0237431848225
1090756000 0.78545104407 0.0250610299769
1090760000 0.789303359227 0.0248766621482
1090764000 0.783384711592 0.0258571012507
1090768000 0.786685624005 0.0179592103737
1090772000 0.786881460303 0.0248118690881
1090776000 0.78167947764 0.024811510294
1090780000 0.784179335833 0.0245897446088
1090784000 0.785260394804 0.0244621122282
1090788000 0.786674165409 0.0244164497324
1090792000 0.788052539015 0.0271234083019
1090796000 0.787989399994 0.028829972133
1090800000 0.784485683652 0.0245461612729
1090804000 0.789392402007 0.0234542169508
1090808000 0.787829359357 0.0299805724374
1090812000 0.785855066167 0.0257239851381
1090816000 0.787642380404 0.0286689676386
1090820000 0.788185916376 0.0267351953972
1090824000 0.78506758372 0.0276712709714
1090828000 0.786336656369 0.023547128104
1090832000 0.782788534978 0.0240597850992
1090836000 0.779595405838 0.0235206845099
1090840000 0.780320796611 0.0231908079287
1090844000 0.783373616556 0.025663937581
1090848000 0.784724103693 0.0250728426987
1090852000 0.785936264333 0.0257836349058
1090856000 0.786601743064 0.0271955858791
1090860000 0.792409715673 0.0287592217289
1090864000 0.786205367366 0.0265679962931
1090868000 0.790024128014 0.0273876746049
1090872000 0.788491427412 0.0261678723008
1090876000 0.786400153091 0.0267502726926
1090880000 0.785401265739 0.0280204897419
1090884000 0.786344629513 0.0249820744635
1090888000 0.784688538143 0.024314885411
1090892000 0.788651900743 0.0215779072645
1090896000 0.787504356443 0.0258140547488
1090900000 0.787147817786 0.022688801122
1090904000 0.784621494225 0.0276341661817
1090908000 0.785983396022 0.0243291008599
1090912000 0.78590684255 0.0267937837168
1090916000 0.782945998803 0.0247932944708
1090920000 0.784071149159 0.0281538282702
1090924000 0.786885935298 0.0273375986424
1090928000 0.786723768995 0.0264730063364
1090932000 0.784498604721 0.0266217727244
1090936000 0.78554622371 0.0284589789295
1090940000 0.787213261924 0.0254152718331
1090944000 0.78618132135 0.0287916144086
1090948000 0.789562701494 0.0264459665643
1090952000 0.791980110742 0.0244531278105
1090956000 0.785981106737 0.0249534122481
1090960000 0.785663142936 0.0270145831251
1090964000 0.787889193821 0.0261193429702
1090968000 0.788807196723 0.0234343769308
1090972000 0.788179465471 0.0271403331767
1090976000 0.789575311059 0.0221116989235
1090980000 0.789995037501 0.0274541556098
1090984000 0.791010250914 0.0246385063486
1090988000 0.789699515945 0.0265264738889
1090992000 0.787663763968 0.0255320913617
1090996000 0.788117259407 0.0281398542804
1091000000 0.788844506778 0.0248300505702
1091004000 0.789574022918 0.0242051150171
1091008000 0.784986196218 0.0248762733706
1091012000 0.787634288462 0.0222433022057
1091016000 0.789711289817 0.0291830864655
1091020000 0.792286459769 0.0228940289014
1091024000 0.791835844011 0.0251914818289
1091028000 0.790841079826 0.0235313861856
1091032000 0.791136208498 0.0244452190734
1091036000 0.789573911869 0.0232989173133
1091040000 0.795368548063 0.0243093913
1091044000 0.790886566998 0.0248496127296
1091048000 0.787914056622 0.0235296458227
1091052000 0.790358979175 0.0272154967847
1091056000 0.788710235957 0.0241322215983
1091060000 0.788334563102 0.0251005712652
1091064000 0.788256326353 0.0233268009756
1091068000 0.789467568515 0.0239379498018
1091072000 0.788009661406 0.0255532991064
1091076000 0.789029466251 0.0272370120048
1091080000 0.787706901814 0.02761184079
1091084000 0.786648930819 0.0286278966471
1091088000 0.787761235679 0.025194817558
1091092000 0.786771609301 0.032302275682
1091096000 0.78834868999 0.0293498251043
1091100000 0.790031649161 0.0330031858596
1091104000 0.786568006632 0.0251258424829
1091108000 0.789622411236 0.0286520356709
1091112000 0.788469067558 0.0283443360213
1091116000 0.788523740792 0.0259328526224
1091120000 0.790421913554 0.021055376089
1091124000 0.7904295243 0.0227705366787
1091128000 0.79026428645 0.0254914495076
1091132000 0.78805454127 0.0252165140608
1091136000 0.78607979827 0.0224248732809
1091140000 0.789235266096 0.0250767954555
1091144000 0.788946332211 0.0264825911007
1091148000 0.788279797821 0.0240046142855
1091152000 0.783676315365 0.0241189920925
1091156000 0.78920654943 0.0254851024207
1091160000 0.787373053008 0.0235471000611
1091164000 0.787175472467 0.0262719778598
1091168000 0.78700534734 0.0215163177246
1091172000 0.79339220771 0.0228832188865
1091176000 0.790991761541 0.0247349826985
1091180000 0.790659778161 0.0208228720394
1091184000 0.790919989264 0.0234961431839
1091188000 0.789771942787 0.0197471535138
1091192000 0.78903378015 0.021986977845
1091196000 0.79011694933 0.0224587533076
1091200000 0.787206308193 0.0225045584497
1091204000 0.788628264478 0.0249318663557
1091208000 0.784600946303 0.0218326284142
1091212000 0.784874561719 0.0259588785462
1091216000 0.786825263952 0.0267184316262
1091220000 0.784395297392 0.0246831104783
1091224000 0.785229218527 0.0236887748712
1091228000 0.783134921949 0.0229869855011
1091232000 0.786905826151 0.02427623223
1091236000 0.785152763187 0.028243565486
1091240000 0.786776845037 0.0279788353141
1091244000 0.788561686588 0.0306009345154
1091248000 0.786475448647 0.0301096088989
1091252000 0.781413428893 0.0327406863137
1091256000 0.787328877378 0.0249650690589
1091260000 0.791244756632 0.0274351784783
1091264000 0.788084414781 0.028300526015
1091268000 0.788319801352 0.0263990631734
1091272000 0.785343107029 0.02788769114
1091276000 0.78925049791 0.0300010462907
1091280000 0.785176766238 0.0272774981746
1091284000 0.786516902474 0.0256544689691
1091288000 0.785440886082 0.0313648728196
1091292000 0.784791425307 0.0281467584824
1091296000 0.785560127818 0.0243226688124
1091300000 0.787179031424 0.0270560486541
1091304000 0.784435893637 0.031978062613
1091308000 0.787062830111 0.0265110413485
1091312000 0.788385361895 0.027332817245
1091316000 0.785362057092 0.0274424670845
1091320000 0.784694052412 0.0267901671453
1091324000 0.782321540789 0.0245163914482
1091328000 0.787336791044 0.0234328620309
1091332000 0.783784781707 0.0223155854739
1091336000 0.786290437646 0.0269112457942
1091340000 0.788090571998 0.028028423689
1091344000 0.784085732963 0.0268323858157
1091348000 0.784319708623 0.023589738579
1091352000 0.787692873849 0.0297784318519
1091356000 0.786097123053 0.0239643402395
1091360000 0.784476300081 0.0259111024118
1091364000 0.786800280459 0.0276480823198
1091368000 0.785858440693 0.0248394907963
1091372000 0.787779421025 0.0307829527867
1091376000 0.787321648075 0.0259907861184
1091380000 0.788557289262 0.0264436568477
1091384000 0.790774673561 0.0283375238882
1091388000 0.79018102789 0.0276890799108
1091392000 0.790477901065 0.0323543960137
1091396000 0.786878910966 0.0296193180702
1091400000 0.787021616836 0.0324294299055
1091404000 0.788945666403 0.0282754094165
1091408000 0.787357983934 0.0301707357641
1091412000 0.786956318923 0.0253996037735
1091416000 0.788753752082 0.0291139705764
1091420000 0.787553571969 0.0316084970618
1091424000 0.786239623583 0.0282233654063
1091428000 0.784670723877 0.0284361600405
1091432000 0.783196529301 0.0280261346787
1091436000 0.783742504293 0.0284277704255
1091440000 0.781128847909 0.028104449578
1091444000 0.785612184043 0.0283448363479
1091448000 0.786478288331 0.0265841385097
1091452000 0.782413410613 0.0287596378792
1091456000 0.790763780897 0.0239227464085
1091460000 0.790083997274 0.0251733759869
1091464000 0.792682579058 0.0262953871738
1091468000 0.791327118702 0.0272684723192
1091472000 0.79404284294 0.0248994057118
1091476000 0.796195559123 0.0227501106019
1091480000 0.791309616184 0.0245471383179
1091484000 0.792189662241 0.0227131680258
1091488000 0.790267107035 0.0232092479063
1091492000 0.787969629252 0.0214892342304
1091496000 0.78903044043 0.0202594060122
1091500000 0.78756395248 0.0243787642466
1091504000 0.789024482004 0.0193361283956
1091508000 0.788525478954 0.0231086243528
1091512000 0.790123161325 0.0211214976416
1091516000 0.79003455053 0.0244667119983
1091520000 0.791830920918 0.0237796685752
1091524000 0.79014436347 0.0260357455215
1091528000 0.789484821176 0.0266690522368
1091532000 0.792048863257 0.0300511884398
1091536000 0.787977430261 0.0250818258318
1091540000 0.793413185198 0.0204922701141
1091544000 0.789523975843 0.0253688941802
1091548000 0.793078967624 0.020587851956
1091552000 0.789621501905 0.0226310816562
1091556000 0.792220116419 0.0230119889443
1091560000 0.790200488123 0.024315949676
1091564000 0.789915361714 0.0243100627862
1091568000 0.791237459008 0.0245009841931
1091572000 0.787586351906 0.0220438623884
1091576000 0.786953413909 0.0269306646969
1091580000 0.784873096881 0.023478404917
1091584000 0.78926017151 0.0259703336805
1091588000 0.791777768017 0.0266315577925
1091592000 0.792404798787 0.0261774133632
1091596000 0.789588091385 0.0262796241588
1091600000 0.788114299564 0.0259717422033
1091604000 0.786999416901 0.0268045430036
1091608000 0.788784351542 0.0239463846894
1091612000 0.789055682533 0.0275610952183
1091616000 0.788244227426 0.0283029857495
1091620000 0.786239107422 0.0280975235181
1091624000 0.785109341176 0.0288878703483
1091628000 0.788943052216 0.0262389103196
1091632000 0.785579840464 0.0247351543451
1091636000 0.785831961901 0.0279625002479
1091640000 0.785960833715 0.0276174305502
1091644000 0.782499003818 0.0260063779747
1091648000 0.78597893265 0.025329974127
1091652000 0.787256748207 0.024574324786
1091656000 0.786054609501 0.0227649386981
1091660000 0.78663599069 0.0238890475755
1091664000 0.786577240483 0.0224653322974
1091668000 0.789738072439 0.0229658743789
1091672000 0.787800791816 0.0224371566495
1091676000 0.787507874001 0.0218710961288
1091680000 0.786232428869 0.0255822916087
1091684000 0.786509465964 0.0266934823048
1091688000 0.787420635822 0.024987601383
1091692000 0.788510248834 0.0245733857266
1091696000 0.788625421931 0.0244933763337
1091700000 0.788515874163 0.0220636547331
1091704000 0.791512206173 0.0241347488748
1091708000 0.792059233371 0.0245959520403
1091712000 0.791836219458 0.0264152558973
1091716000 0.792004132777 0.0269932971987
1091720000 0.792551221446 0.0286961119515
1091724000 0.788666914268 0.0276149458602
1091728000 0.791855869377 0.0279973914816
1091732000 0.791970787613 0.0256376783096
1091736000 0.794290550509 0.0250009428982
1091740000 0.790052044375 0.0266916424297
1091744000 0.793960071675 0.0250708586634
1091748000 0.791225623174 0.0265968536012
1091752000 0.78896313357 0.0248123400062
1091756000 0.787355352023 0.0294056327246
1091760000 0.789282484869 0.0273349170827
1091764000 0.791769071232 0.0209851772119
1091768000 0.793316292833 0.023301933827
1091772000 0.792952725576 0.0246646975671
1091776000 0.79238070734 0.0224750238364
1091780000 0.791210644819 0.0282490503838
1091784000 0.793945450458 0.0216961843297
1091788000 0.792632669716 0.0220768014306
1091792000 0.790782752848 0.0248707431063
1091796000 0.792184838563 0.0237024434737
1091800000 0.791066224695 0.0288688245214
1091804000 0.791427952885 0.0263574037793
1091808000 0.789956031401 0.0256054512788
1091812000 0.788843687535 0.0314160733994
1091816000 0.789777936282 0.0292682471023
1091820000 0.788997344147 0.0272782179266
1091824000 0.788353934376 0.0316080049756
1091828000 0.791780235858 0.0270278851721
1091832000 0.789352668419 0.0280495570664
1091836000 0.787970770048 0.0308610693809
1091840000 0.787744689274 0.0274602230542
1091844000 0.789994421558 0.0257106888597
1091848000 0.790278610704 0.0285829672885
1091852000 0.788172116131 0.0262187488211
1091856000 0.782081093686 0.0271018997759
1091860000 0.786833687999 0.0251025622626
1091864000 0.788360150119 0.0240336567417
1091868000 0.78428247172 0.0239260800429
1091872000 0.78066806713 0.024649984438
1091876000 0.788929004158 0.0225422492192
1091880000 0.794107570547 0.0156638679205
1091884000 0.797984858749 0.0140390299061
1091888000 0.79961610209 0.00837159382827
1091892000 0.798971419988 0.00468974832122
1091896000 0.805454239442 0.00872740137367
1091900000 0.798277977996 -0.0150639428307
1091904000 0.786481507977 -0.0384970250969
1091908000 0.826628588352 -0.009615522741
1091912000 0.806306687757 0.000638273388528
1091916000 0.802656319644 0.00848599423336
1091920000 0.801026131175 0.0134167649767
1091924000 0.801915992161 0.0136172070556
1091928000 0.799885867861 0.0206790050657
1091932000 0.797836105119 0.0164117414797
1091936000 0.784805407876 0.0251952065101
1091940000 0.791998606415 0.00842782837785
1091944000 0.772443304241 0.0141719460602
1091948000 0.812610943831 0.015836544676
1091952000 0.802923024851 0.0222605282395
1091956000 0.783830391014 0.0370298245702
1091960000 0.794234021649 0.0418088406559
1091964000 0.786397017921 0.0263439928714
1091968000 0.79908609585 0.0400259356909
1091972000 0.795725841283 0.0383423179698
1091976000 0.79403698182 0.0308934990205
1091980000 0.788211789958 0.0410314258428
1091984000 0.791685262846 0.0347811965358
1091988000 0.798547060414 0.0397470997847
1091992000 0.795757318755 0.0369770431965
1091996000 0.774483424765 0.0265627847344
1092000000 0.801670839177 0.0256647993237
