! Calibrated averaged scanner-service zoom
# Hz S RI R 50
420000000 0.641010760851 -0.196416467961
420010000 0.640438380295 -0.195327402179
420020000 0.639393019772 -0.194247832363
420030000 0.639768415594 -0.194081305427
420040000 0.639866734963 -0.193870577435
420050000 0.639744354092 -0.194643831955
420060000 0.640212158038 -0.194549945026
420070000 0.63961560973 -0.194665991313
420080000 0.639731676465 -0.194337299668
420090000 0.640238300549 -0.194293829561
420100000 0.64094825953 -0.194822458964
420110000 0.640184137122 -0.195131403171
420120000 0.640760517101 -0.194619774886
420130000 0.640613185409 -0.194576516529
420140000 0.640201326298 -0.194994932735
420150000 0.640769993318 -0.195283693733
420160000 0.640291151293 -0.194315697076
420170000 0.639850535435 -0.195086476962
420180000 0.641086297373 -0.194709081572
420190000 0.640588253228 -0.194532159423
420200000 0.640622159414 -0.195079116293
420210000 0.640022327931 -0.194478057838
420220000 0.64025838537 -0.195083496238
420230000 0.640385912441 -0.195053581032
420240000 0.640765976913 -0.195331635184
420250000 0.641709198745 -0.194571665996
420260000 0.640944611639 -0.195445687561
420270000 0.640988255734 -0.195719533215
420280000 0.64152513843 -0.196103991291
420290000 0.641963438133 -0.193845490829
420300000 0.641588255714 -0.194672591056
420310000 0.642203125647 -0.195979996215
420320000 0.63938203394 -0.192816975955
420330000 0.641425456976 -0.19576242239
420340000 0.641115274299 -0.196027179548
420350000 0.641389460793 -0.195625245732
420360000 0.641606655307 -0.194715689516
420370000 0.641969262006 -0.195099669501
420380000 0.640983157757 -0.19521593004
420390000 0.641444368602 -0.19447666642
420400000 0.641977194038 -0.194410489716
420410000 0.642425826586 -0.19516854033
420420000 0.641688726719 -0.19497448826
420430000 0.642028513383 -0.195791709388
420440000 0.641564290622 -0.195051592701
420450000 0.642666166875 -0.195332995726
420460000 0.642288635841 -0.195617722916
420470000 0.641466545855 -0.194459006394
420480000 0.640868988797 -0.195206571379
420490000 0.641987719399 -0.194857109697
420500000 0.641517429742 -0.196145888718
420510000 0.642358327154 -0.196078923306
420520000 0.641611337849 -0.194015283576
420530000 0.642183794957 -0.195053700547
420540000 0.642377405422 -0.195432316101
420550000 0.642018771448 -0.195284450189
420560000 0.642248818004 -0.195895868947
420570000 0.642258620339 -0.195352114837
420580000 0.64170925906 -0.19600752931
420590000 0.642055994035 -0.195272607396
420600000 0.642654805039 -0.195865517479
420610000 0.642670591938 -0.196105652816
420620000 0.64208016987 -0.195597241674
420630000 0.643268138213 -0.195756910989
420640000 0.641926782297 -0.19554673692
420650000 0.643080944606 -0.196113917571
420660000 0.642805553078 -0.195779590563
420670000 0.642150587553 -0.195940439992
420680000 0.642400985832 -0.195791811819
420690000 0.643403585894 -0.195060650289
420700000 0.643989183233 -0.196253680423
420710000 0.643262517975 -0.19578454717
420720000 0.643718908795 -0.195118766382
420730000 0.643141870016 -0.195145351296
420740000 0.642320890035 -0.195666569541
420750000 0.642869050482 -0.195196496532
420760000 0.643838042359 -0.195557850866
420770000 0.64315844113 -0.19655614385
420780000 0.642987545456 -0.195992321649
420790000 0.643719279338 -0.196846048494
420800000 0.642975118144 -0.196160170894
420810000 0.643757088552 -0.19652299344
420820000 0.644077546402 -0.196689216625
420830000 0.643377662951 -0.196448340702
420840000 0.642871354618 -0.196236338051
420850000 0.642805580603 -0.196039871454
420860000 0.642352797044 -0.195624442771
420870000 0.643380718355 -0.196302185824
420880000 0.642166016829 -0.196270019275
420890000 0.642371300602 -0.196488517911
420900000 0.642297295378 -0.195582287593
420910000 0.643305854646 -0.195140545982
420920000 0.642786299908 -0.196154125145
420930000 0.642787720576 -0.195081258494
420940000 0.642684683851 -0.196823017003
420950000 0.642488400425 -0.195534145473
420960000 0.643055047605 -0.195318008036
420970000 0.643175136185 -0.195925627383
420980000 0.642466075218 -0.19593511146
420990000 0.642966652477 -0.197256869774
421000000 0.642984036984 -0.197228289556
421010000 0.643581527528 -0.196668296185
421020000 0.643314693499 -0.195940453884
421030000 0.642585649888 -0.196456723999
421040000 0.642310455926 -0.19568240141
421050000 0.642964674994 -0.196531451499
421060000 0.642814635179 -0.196729598561
421070000 0.642532793388 -0.196044952128
421080000 0.642221629451 -0.196058996078
421090000 0.642702712626 -0.19667802826
421100000 0.644003804444 -0.196540632812
421110000 0.643626466857 -0.196081516156
421120000 0.643019572233 -0.19744367389
421130000 0.644580025386 -0.196531795235
421140000 0.644783224941 -0.19775237325
421150000 0.643281157612 -0.196199796528
421160000 0.643516411294 -0.195936737325
421170000 0.644657816983 -0.195884526139
421180000 0.643854319139 -0.197463820753
421190000 0.643696476612 -0.195378872336
421200000 0.643796032374 -0.195046652395
421210000 0.643437951065 -0.195747334323
421220000 0.643162517615 -0.195560113197
421230000 0.644603449885 -0.196813285795
421240000 0.643046979142 -0.197197372802
421250000 0.643955771383 -0.196457382853
421260000 0.644574244813 -0.196650876697
421270000 0.644169851455 -0.19575933039
421280000 0.644994151436 -0.196285203995
421290000 0.644132897734 -0.195962274073
421300000 0.643511072522 -0.195732747463
421310000 0.644048697025 -0.195307055148
421320000 0.644742158891 -0.195901709127
421330000 0.644760273561 -0.197056625527
421340000 0.643710726697 -0.196759626807
421350000 0.644250714592 -0.196890736836
421360000 0.643957568502 -0.196638605609
421370000 0.644588492831 -0.195954299204
421380000 0.643345978701 -0.196763481123
421390000 0.643440802947 -0.195060918433
421400000 0.644301462937 -0.196996771753
421410000 0.644202562876 -0.196668137586
421420000 0.644213688233 -0.195873712717
421430000 0.643534737204 -0.196762714608
421440000 0.644581024857 -0.197203277218
421450000 0.644419720833 -0.196996457084
421460000 0.644539324877 -0.196702176928
421470000 0.644268707641 -0.196149937366
421480000 0.644310440451 -0.196486701503
421490000 0.644258956113 -0.196346719933
421500000 0.644208781571 -0.196937822252
421510000 0.644476218238 -0.196936444854
421520000 0.64401208082 -0.196225433717
421530000 0.644570305949 -0.196931740049
421540000 0.64511416096 -0.197341083893
421550000 0.645799936254 -0.197052840562
421560000 0.644871082336 -0.199285277568
421570000 0.645843587184 -0.196904141313
421580000 0.645433552461 -0.196661625661
421590000 0.645094935947 -0.196555064738
421600000 0.644744448754 -0.197503714601
421610000 0.644746737575 -0.197760597897
421620000 0.643914197995 -0.198009970419
421630000 0.644298034239 -0.198045867984
421640000 0.644166527782 -0.197455027157
421650000 0.645295243085 -0.197116541577
421660000 0.645512357257 -0.197866820183
421670000 0.645729765142 -0.197211069576
421680000 0.645599364308 -0.198606660522
421690000 0.645257783971 -0.198536649029
421700000 0.645586597336 -0.196678260259
421710000 0.644556192934 -0.197542406768
421720000 0.645463014603 -0.197505073635
421730000 0.644022006139 -0.198497482092
421740000 0.645148327655 -0.197583817363
421750000 0.645949230333 -0.197536210738
421760000 0.646296585202 -0.19745864044
421770000 0.646548098457 -0.197064772913
421780000 0.646348843581 -0.197220691908
421790000 0.64582563768 -0.197706669809
421800000 0.646080026367 -0.197859772143
421810000 0.645987323217 -0.197911689055
421820000 0.644884736064 -0.197318202787
421830000 0.645144284138 -0.197820884255
421840000 0.645077985662 -0.19738674434
421850000 0.645823690792 -0.197890642545
421860000 0.646042039781 -0.197412989711
421870000 0.646321588446 -0.197343786209
421880000 0.645885937186 -0.198083649458
421890000 0.645931692152 -0.19774569172
421900000 0.646259775166 -0.197646526298
421910000 0.646588261829 -0.197464137485
421920000 0.646066074872 -0.198155348434
421930000 0.646595348228 -0.197628963466
421940000 0.646585019197 -0.197549648027
421950000 0.646649006519 -0.197392932059
421960000 0.646969632522 -0.197217333847
421970000 0.646415476172 -0.197417896769
421980000 0.646197884179 -0.197418829281
421990000 0.646092064676 -0.196971017475
422000000 0.646419676236 -0.196952716706
422010000 0.646115124506 -0.19759988042
422020000 0.646146758456 -0.197700446669
422030000 0.64591963939 -0.197972042448
422040000 0.646438956849 -0.197445407513
422050000 0.64753823634 -0.196771964353
422060000 0.646727816709 -0.197738394843
422070000 0.646670188151 -0.198307922177
422080000 0.646499847981 -0.19821365094
422090000 0.64659680566 -0.198088415063
422100000 0.646406401743 -0.197951201376
422110000 0.646350590733 -0.197831340486
422120000 0.647388095124 -0.197609609357
422130000 0.646777405549 -0.198431214499
422140000 0.646475491633 -0.197910045938
422150000 0.646750058538 -0.198329372758
422160000 0.64758525916 -0.197917212836
422170000 0.647486255511 -0.197862364355
422180000 0.646898884909 -0.198467303446
422190000 0.647157778778 -0.197889240511
422200000 0.646952314031 -0.197647888452
422210000 0.646369867524 -0.197893360524
422220000 0.647159672452 -0.19814355551
422230000 0.647222195053 -0.19739023009
422240000 0.647899607672 -0.198001574952
422250000 0.647007873312 -0.19920797603
422260000 0.647928155918 -0.198093025387
422270000 0.647370457889 -0.197289194028
422280000 0.645693058726 -0.197766860735
422290000 0.646496702734 -0.197774120508
422300000 0.647537558286 -0.196872880724
422310000 0.646926415625 -0.198160156955
422320000 0.646277635799 -0.198014080543
422330000 0.648006746021 -0.198618289149
422340000 0.648150572438 -0.198541436482
422350000 0.647811680157 -0.198402064318
422360000 0.648038603915 -0.198596768344
422370000 0.64754444265 -0.198233758707
422380000 0.647259028699 -0.198001757182
422390000 0.646708480777 -0.198021175309
422400000 0.648245831812 -0.19862981221
422410000 0.646034426628 -0.198603083815
422420000 0.64637549406 -0.197264707239
422430000 0.647082417843 -0.198384582602
422440000 0.647433846428 -0.198350637133
422450000 0.647714922151 -0.197720288447
422460000 0.646834192444 -0.197517960275
422470000 0.649474435172 -0.195884797759
422480000 0.65117849422 -0.197162653725
422490000 0.673254493437 -0.198025000585
422500000 0.649483388672 -0.19610796438
422510000 0.647976024194 -0.197223565903
422520000 0.647181021715 -0.197917765923
422530000 0.647398945146 -0.199189546691
422540000 0.647242185879 -0.199619995997
422550000 0.647507507496 -0.199503583671
422560000 0.648151591859 -0.198413062737
422570000 0.647491413271 -0.198536831886
422580000 0.648680844829 -0.199814733054
422590000 0.648130959276 -0.19861753149
422600000 0.648018775331 -0.199621200985
422610000 0.647722174684 -0.198577706836
422620000 0.64834934655 -0.199443552056
422630000 0.648493424916 -0.199500971276
422640000 0.648532981524 -0.199235772114
422650000 0.64828757034 -0.198681617861
422660000 0.648496320072 -0.19907887268
422670000 0.648454208403 -0.19868912505
422680000 0.648119464303 -0.19893005405
422690000 0.648801526429 -0.198913460673
422700000 0.649281905197 -0.199479767385
422710000 0.648513466676 -0.198910473665
422720000 0.647871827936 -0.199382400254
422730000 0.647558247066 -0.198459797372
422740000 0.646738659694 -0.199116947567
422750000 0.647497870681 -0.199191019743
422760000 0.647572243603 -0.199425948656
422770000 0.648120771742 -0.199901676807
422780000 0.648404961287 -0.199534743968
422790000 0.647540869918 -0.199512505584
422800000 0.647776269513 -0.199443952953
422810000 0.647612777759 -0.199590486809
422820000 0.647350659345 -0.199363779148
422830000 0.647128743271 -0.19846198204
422840000 0.647872886096 -0.199248536781
422850000 0.648522057073 -0.197772152235
422860000 0.648334428977 -0.199419989226
422870000 0.649275976737 -0.198699295522
422880000 0.648757950433 -0.199090883311
422890000 0.649624653877 -0.198089488128
422900000 0.648964047489 -0.19915821015
422910000 0.649422055126 -0.200231240853
422920000 0.64986655522 -0.198396269171
422930000 0.648662334323 -0.199395926185
422940000 0.648999019871 -0.199467471983
422950000 0.648934098557 -0.199684184035
422960000 0.64885331309 -0.199768677272
422970000 0.650311692165 -0.199966546934
422980000 0.649549611117 -0.200847452733
422990000 0.649156535945 -0.200416910185
423000000 0.649208477955 -0.200336378822
423010000 0.649346269547 -0.200269378833
423020000 0.649455111838 -0.200081567475
423030000 0.648652220433 -0.200653020603
423040000 0.648635214569 -0.200741951784
423050000 0.649435621607 -0.199779002479
423060000 0.649198879361 -0.200341229021
423070000 0.648988332139 -0.199912198734
423080000 0.649796744902 -0.199671881191
423090000 0.649163475995 -0.199788203893
423100000 0.648956888433 -0.200143402861
423110000 0.649125209388 -0.200100156898
423120000 0.648887494979 -0.19977117765
423130000 0.649630552785 -0.199741541839
423140000 0.649320921961 -0.200166716314
423150000 0.649562058143 -0.200934626651
423160000 0.649414161532 -0.19994530728
423170000 0.648985761626 -0.1993644352
423180000 0.649195451733 -0.19962965407
423190000 0.650150201776 -0.199849594447
423200000 0.649326564623 -0.200570520418
423210000 0.650183906901 -0.200949106255
423220000 0.649492311784 -0.199767629498
423230000 0.649916595988 -0.199488555189
423240000 0.649846559644 -0.199553469209
423250000 0.649095557309 -0.199967830224
423260000 0.650269295302 -0.200571425985
423270000 0.650139336772 -0.200161422488
423280000 0.650661831004 -0.200207039035
423290000 0.651340615435 -0.200428042749
423300000 0.650422599031 -0.200664642364
423310000 0.649778855549 -0.200096460462
423320000 0.649758126366 -0.198794957207
423330000 0.649795345862 -0.200185658703
423340000 0.649920482628 -0.200123668695
423350000 0.650257459219 -0.200880353127
423360000 0.649915002697 -0.200479383338
423370000 0.649623203538 -0.200699734378
423380000 0.650349683972 -0.200311874192
423390000 0.651587603565 -0.200333029978
423400000 0.650405004497 -0.200981970326
423410000 0.650361720795 -0.200077867105
423420000 0.65077231159 -0.200744914393
423430000 0.65109076592 -0.200635969213
423440000 0.65118277749 -0.200224457821
423450000 0.650140046288 -0.200534182412
423460000 0.651113010424 -0.200552262559
423470000 0.650075463024 -0.200897324974
423480000 0.649903690631 -0.200853967155
423490000 0.650963160693 -0.20126293912
423500000 0.649985740095 -0.200951369968
423510000 0.651308156502 -0.201544309755
423520000 0.651229966109 -0.201543635709
423530000 0.650926227467 -0.201472292213
423540000 0.651218789632 -0.201217660123
423550000 0.651450130361 -0.201510677265
423560000 0.651597875356 -0.201228098839
423570000 0.65090363554 -0.201955052911
423580000 0.651744147698 -0.201356253148
423590000 0.651257989812 -0.201272399325
423600000 0.651588628443 -0.201527134281
423610000 0.650885120878 -0.201538247715
423620000 0.650231156778 -0.201711909464
423630000 0.651368805434 -0.202099687344
423640000 0.650793927555 -0.202099366206
423650000 0.651095703785 -0.202194961755
423660000 0.651596233531 -0.200859661064
423670000 0.651676046285 -0.199941820639
423680000 0.652421240892 -0.202141519451
423690000 0.652699673872 -0.202004079218
423700000 0.652005344348 -0.20223383324
423710000 0.651989639472 -0.202044604488
423720000 0.651422143227 -0.201196719121
423730000 0.651400134075 -0.201390014728
423740000 0.651021150059 -0.201665015933
423750000 0.651651778656 -0.201516787087
423760000 0.651143760061 -0.201696747374
423770000 0.651017672017 -0.201358280996
423780000 0.652123953265 -0.201339039075
423790000 0.651546306718 -0.201341166384
423800000 0.651919964446 -0.201587937026
423810000 0.651630556271 -0.202020130362
423820000 0.651492121303 -0.201741624931
423830000 0.65136367807 -0.20166403106
423840000 0.651541892697 -0.20158081117
423850000 0.652033826432 -0.201561270336
423860000 0.651409917197 -0.201769566519
423870000 0.651376969088 -0.202160516278
423880000 0.651518585728 -0.202430205186
423890000 0.651796588535 -0.201676423455
423900000 0.651419212502 -0.202229239727
423910000 0.651609655497 -0.202273850949
423920000 0.652089053515 -0.202771096291
423930000 0.652429810794 -0.200847696795
423940000 0.652006307399 -0.201552269205
423950000 0.652284581583 -0.2018196704
423960000 0.651683147659 -0.201846300133
423970000 0.652490658144 -0.202259379988
423980000 0.652594957973 -0.202824226788
423990000 0.651809999336 -0.202964224291
424000000 0.65101939845 -0.202332046817
424010000 0.651112075275 -0.202427697166
424020000 0.6505527552 -0.202420661447
424030000 0.650932058714 -0.202811730858
424040000 0.651105553255 -0.202751385296
424050000 0.651702081576 -0.201862260632
424060000 0.652426135087 -0.202258022285
424070000 0.652529367457 -0.202894380452
424080000 0.652121854019 -0.203252980368
424090000 0.652789714017 -0.202438920352
424100000 0.652274565224 -0.202581071227
424110000 0.652041902281 -0.202693936708
424120000 0.651646199079 -0.202361267699
424130000 0.651892905074 -0.201453630443
424140000 0.652331071008 -0.202454871752
424150000 0.65194050468 -0.202263877901
424160000 0.652198202183 -0.20283886512
424170000 0.652913358982 -0.202427226552
424180000 0.652170435343 -0.203028190054
424190000 0.65250901875 -0.202855537395
424200000 0.652985721929 -0.202744781376
424210000 0.652797651419 -0.202727482403
424220000 0.652670695218 -0.202957358718
424230000 0.653037004531 -0.202681951921
424240000 0.652471572671 -0.203043301914
424250000 0.652380174752 -0.202363136846
424260000 0.653171598181 -0.203071808645
424270000 0.652539128209 -0.202769124564
424280000 0.65302834959 -0.202953231947
424290000 0.652753250753 -0.20264894214
424300000 0.653137363618 -0.202500196698
424310000 0.653579037549 -0.202307772673
424320000 0.653599893741 -0.202308219218
424330000 0.653575167475 -0.202873448143
424340000 0.65366038961 -0.202892643046
424350000 0.653103662598 -0.203052515348
424360000 0.653469340531 -0.203672804867
424370000 0.653330076548 -0.203074755001
424380000 0.653275568224 -0.203696563631
424390000 0.653428735616 -0.203417887744
424400000 0.654651580819 -0.204245257337
424410000 0.65242578796 -0.204076886376
424420000 0.653273982813 -0.202766245959
424430000 0.653437915642 -0.20301953159
424440000 0.653574038162 -0.202568026304
424450000 0.653467882473 -0.203572704837
424460000 0.653921920974 -0.203578151287
424470000 0.653696767044 -0.204224514326
424480000 0.653243971126 -0.20404673262
424490000 0.653340278143 -0.203492716253
424500000 0.65355189377 -0.203738559721
424510000 0.653231896778 -0.203076167313
424520000 0.65352304907 -0.203220030644
424530000 0.653173377908 -0.204225532591
424540000 0.653823492909 -0.203989511359
424550000 0.654087344981 -0.203809019394
424560000 0.653568158012 -0.204352002541
424570000 0.653926659513 -0.203886433087
424580000 0.653969428151 -0.203965435573
424590000 0.653502757404 -0.204065123378
424600000 0.653546591319 -0.20387922199
424610000 0.65371977597 -0.204157560756
424620000 0.654398699527 -0.20438316313
424630000 0.654362267629 -0.204689191258
424640000 0.65421478356 -0.204556309956
424650000 0.654567877106 -0.204820169115
424660000 0.65435336759 -0.204786990559
424670000 0.654363376012 -0.204355708942
424680000 0.654730163201 -0.203432690261
424690000 0.654002463276 -0.203754290408
424700000 0.653759176959 -0.203956221724
424710000 0.654441320038 -0.204332003385
424720000 0.654151432447 -0.204463333959
424730000 0.653934034758 -0.204643782986
424740000 0.653469955745 -0.204429060757
424750000 0.653347053142 -0.204668341378
424760000 0.653029766226 -0.20432680269
424770000 0.653304789211 -0.204060589173
424780000 0.65355958744 -0.204320870533
424790000 0.653855168155 -0.205117847231
424800000 0.655052433849 -0.207019820059
424810000 0.655366919882 -0.208992009855
424820000 0.655599878438 -0.208195239802
424830000 0.654763142701 -0.206788882777
424840000 0.654142811575 -0.205014831663
424850000 0.654272689392 -0.204662105903
424860000 0.653949869869 -0.204295256828
424870000 0.653860458946 -0.204700533331
424880000 0.65357634086 -0.203843763359
424890000 0.653498775243 -0.204144514783
424900000 0.654392348042 -0.203803953316
424910000 0.654897218762 -0.204082905852
424920000 0.655041267419 -0.204083846283
424930000 0.654879888786 -0.204898104457
424940000 0.654859140878 -0.204573430566
424950000 0.655441805531 -0.204844347606
424960000 0.654937781896 -0.204981016982
424970000 0.65484424219 -0.204679935035
424980000 0.654368483699 -0.204334352235
424990000 0.6543519552 -0.204812701591
425000000 0.65433181963 -0.204071284155
425010000 0.654499213477 -0.204545272922
425020000 0.654190235424 -0.204577309472
425030000 0.654425156987 -0.204543219571
425040000 0.655379892815 -0.204966820897
425050000 0.655497480316 -0.204356008472
425060000 0.654918790212 -0.203539543651
425070000 0.654625048737 -0.203794907366
425080000 0.654590232806 -0.204441839701
425090000 0.655244773205 -0.204642924495
425100000 0.655261000942 -0.205355775429
425110000 0.655166870851 -0.20517782754
425120000 0.654971606725 -0.205140556138
425130000 0.654470339324 -0.204784362371
425140000 0.654087626864 -0.204784162319
425150000 0.654444074128 -0.204420097982
425160000 0.654179713597 -0.204555824604
425170000 0.655140581025 -0.205080132275
425180000 0.655636046554 -0.204638636137
425190000 0.655363675485 -0.204502656455
425200000 0.655737148331 -0.205797198595
425210000 0.655419599743 -0.204631883657
425220000 0.655058915422 -0.204794956898
425230000 0.655024737343 -0.205512239087
425240000 0.654937089388 -0.204911975227
425250000 0.654787479455 -0.204633216775
425260000 0.656250787452 -0.205137351688
425270000 0.656434838611 -0.205133042254
425280000 0.655583263523 -0.205769740214
425290000 0.655694213208 -0.205116675931
425300000 0.656494965739 -0.205812421838
425310000 0.65644537095 -0.20513824676
425320000 0.655916739743 -0.205521759614
425330000 0.654911637883 -0.205200939795
425340000 0.654292280286 -0.205475887843
425350000 0.654515292191 -0.204955606408
425360000 0.655442714874 -0.204521620443
425370000 0.655210584657 -0.204437233081
425380000 0.655658916562 -0.204507870322
425390000 0.655637530935 -0.205784823199
425400000 0.655298441241 -0.204980364971
425410000 0.656247246243 -0.205870495074
425420000 0.655501479907 -0.205239333108
425430000 0.655523792625 -0.205807776591
425440000 0.656748523101 -0.205306670895
425450000 0.655755183481 -0.205877442762
425460000 0.655803693722 -0.205895361097
425470000 0.656230290904 -0.206242685866
425480000 0.656395260538 -0.206729625765
425490000 0.65635156977 -0.206210278344
425500000 0.656563644795 -0.20585324099
425510000 0.655490073602 -0.206572200133
425520000 0.655787652708 -0.205979993483
425530000 0.655959211102 -0.205248235929
425540000 0.655499855748 -0.205282732651
425550000 0.655470312866 -0.205946752934
425560000 0.655238108877 -0.204796732983
425570000 0.655247358576 -0.205704510846
425580000 0.655138369264 -0.206123334631
425590000 0.656119924602 -0.206637775687
425600000 0.65632317219 -0.206415356478
425610000 0.656248935868 -0.205782294043
425620000 0.656193003509 -0.205974088317
425630000 0.6555476901 -0.205781089907
425640000 0.656416052777 -0.206843491975
425650000 0.656092378859 -0.206820169109
425660000 0.655963071526 -0.206754602427
425670000 0.656800521398 -0.206438208802
425680000 0.65686726396 -0.206972524121
425690000 0.657017516015 -0.207168554821
425700000 0.656418534546 -0.207383928414
425710000 0.656642686273 -0.206848770473
425720000 0.656550106205 -0.207209533989
425730000 0.656334316257 -0.206107190044
425740000 0.656257895191 -0.206370210155
425750000 0.656802798046 -0.206396191707
425760000 0.656489941836 -0.206803607859
425770000 0.657116214836 -0.206056613959
425780000 0.656548715358 -0.206854310219
425790000 0.65650944218 -0.206590842448
425800000 0.656587844017 -0.206609098944
425810000 0.656540269935 -0.206981670152
425820000 0.65634117342 -0.20731243105
425830000 0.656882067763 -0.207476807365
425840000 0.657040339932 -0.207048929672
425850000 0.656936705564 -0.206367365301
425860000 0.656800927484 -0.207195563419
425870000 0.656611488415 -0.206994362365
425880000 0.656524521636 -0.207244423837
425890000 0.656126944954 -0.207891746577
425900000 0.656913002357 -0.207036575192
425910000 0.657393697139 -0.206981583243
425920000 0.65686528677 -0.206462339659
425930000 0.656937624827 -0.206802957439
425940000 0.657420157897 -0.206271523107
425950000 0.65737552018 -0.206583498139
425960000 0.657192496483 -0.206323980652
425970000 0.657497203403 -0.207055687528
425980000 0.657616292604 -0.206987918505
425990000 0.657127400614 -0.207279889135
426000000 0.656755131678 -0.207658780734
426010000 0.657032531148 -0.207371057608
426020000 0.657378845636 -0.207186472315
426030000 0.657616002166 -0.207833576082
426040000 0.657370510568 -0.207375929115
426050000 0.656677463201 -0.207074369451
426060000 0.656884016251 -0.206537280335
426070000 0.657140800872 -0.207416077114
426080000 0.657614283488 -0.207803699963
426090000 0.656897310766 -0.207062715797
426100000 0.659772457892 -0.207182602877
426110000 0.658723749495 -0.204839042915
426120000 0.657701337867 -0.206187745573
426130000 0.6571282153 -0.207160212982
426140000 0.657006912197 -0.207486442738
426150000 0.65708817834 -0.208014697066
426160000 0.657304096038 -0.207814801584
426170000 0.656836047485 -0.207657755587
426180000 0.65727861573 -0.207899220041
426190000 0.657447006204 -0.207757052989
426200000 0.656888245306 -0.207460767481
426210000 0.657149654581 -0.207111994091
426220000 0.65660351182 -0.208076721132
426230000 0.656912261327 -0.20802517111
426240000 0.65679085511 -0.20795500309
426250000 0.657436218245 -0.2074835685
426260000 0.657694726811 -0.207750795835
426270000 0.65725220216 -0.207778034851
426280000 0.657200825626 -0.208216109551
426290000 0.657656371807 -0.208627367767
426300000 0.657416449704 -0.208260302762
426310000 0.657165297082 -0.208336282304
426320000 0.657402266519 -0.207287990913
426330000 0.657264196636 -0.207800988275
426340000 0.657494772005 -0.207309643497
426350000 0.657832049501 -0.207404603437
426360000 0.657644317449 -0.208517822824
426370000 0.657908335842 -0.208693187095
426380000 0.657748374225 -0.208351007972
426390000 0.657768570409 -0.207802124931
426400000 0.65757624148 -0.207732103154
426410000 0.65780617497 -0.207469650858
426420000 0.657211006331 -0.208248644156
426430000 0.657513607715 -0.208300643764
426440000 0.657755075647 -0.20809464743
426450000 0.65807064981 -0.208477063813
426460000 0.657990092361 -0.208247315645
426470000 0.658368634465 -0.207843870285
426480000 0.658089058575 -0.208498483691
426490000 0.658231781112 -0.207889111754
426500000 0.657942622566 -0.208620509147
426510000 0.657998606315 -0.208060693694
426520000 0.658296116466 -0.208216212533
426530000 0.658652932022 -0.207887873824
426540000 0.65797675859 -0.208693116067
426550000 0.658865539024 -0.208236835154
426560000 0.658538658202 -0.208577474082
426570000 0.658662315546 -0.208793114912
426580000 0.658745587583 -0.208345508172
426590000 0.657994860685 -0.208114300727
426600000 0.657934666073 -0.208906665388
426610000 0.657174665721 -0.208894800534
426620000 0.657688553923 -0.209158551511
426630000 0.65781250501 -0.209596659443
426640000 0.658536549467 -0.208895091254
426650000 0.65864953377 -0.209481394971
426660000 0.659657783533 -0.209614001106
426670000 0.658744395529 -0.209145744019
426680000 0.658286975684 -0.208592211075
426690000 0.658372593197 -0.208724818088
426700000 0.658982001042 -0.208953460721
426710000 0.659585171224 -0.209062437873
426720000 0.658859695833 -0.209302916383
426730000 0.659539547045 -0.209022192982
426740000 0.65811261229 -0.208208033868
426750000 0.658106680829 -0.209189718808
426760000 0.658534118227 -0.209197741619
426770000 0.657857064091 -0.20929826631
426780000 0.658403122339 -0.210224414359
426790000 0.65840648397 -0.210597924712
426800000 0.658449791713 -0.210150015501
426810000 0.658084703481 -0.209463516198
426820000 0.65863607204 -0.209921074501
426830000 0.658866728602 -0.210190904589
426840000 0.658717648956 -0.209445416108
426850000 0.659199475851 -0.209833461393
426860000 0.659459996149 -0.20937562166
426870000 0.65870323524 -0.209674745018
426880000 0.659922226198 -0.209799655971
426890000 0.65872570344 -0.209502123063
426900000 0.658854067886 -0.20909289918
426910000 0.658871754753 -0.208698958557
426920000 0.658214224971 -0.209244923825
426930000 0.658272650775 -0.209390561773
426940000 0.658566405759 -0.209192942038
426950000 0.658429104034 -0.209133456275
426960000 0.658891975768 -0.209467590355
426970000 0.659275196358 -0.209370016048
426980000 0.659187409573 -0.209054473157
426990000 0.659013102038 -0.20881729995
427000000 0.658358377317 -0.209134723805
427010000 0.658504315634 -0.209065545771
427020000 0.658762898956 -0.209141573097
427030000 0.658835659043 -0.209396089379
427040000 0.658826137045 -0.209297593637
427050000 0.658796512648 -0.209819121539
427060000 0.658579447748 -0.209462765448
427070000 0.658881723319 -0.209235867635
427080000 0.658716680351 -0.2103951058
427090000 0.659316060245 -0.209344480347
427100000 0.659142052606 -0.209315499634
427110000 0.658649493898 -0.209102717877
427120000 0.658469005627 -0.208405035276
427130000 0.656968643779 -0.208544919045
427140000 0.659387183565 -0.208987069759
427150000 0.659418093385 -0.209796711739
427160000 0.658899312344 -0.209058017603
427170000 0.658749251619 -0.210303947194
427180000 0.65899567007 -0.209389655522
427190000 0.659702058943 -0.209409155374
427200000 0.659434678651 -0.208945451554
427210000 0.659526696358 -0.209791489351
427220000 0.659388800506 -0.209643371353
427230000 0.659628364523 -0.209523290639
427240000 0.660415289718 -0.210347428029
427250000 0.659730674836 -0.210166397676
427260000 0.659950819794 -0.210477015748
427270000 0.659461068905 -0.210385449871
427280000 0.660171746109 -0.210763546441
427290000 0.660054935648 -0.210017764357
427300000 0.659334197955 -0.210370194173
427310000 0.660041764453 -0.210519059119
427320000 0.659699673075 -0.210336835
427330000 0.658983904607 -0.211229665483
427340000 0.659306429959 -0.211331557102
427350000 0.659731486699 -0.211126606585
427360000 0.6597567144 -0.210614784998
427370000 0.659478906993 -0.210488038215
427380000 0.659533772 -0.210906079437
427390000 0.659670315863 -0.211180270872
427400000 0.659727328823 -0.211127846649
427410000 0.659653182158 -0.210751569893
427420000 0.659276050024 -0.210699032768
427430000 0.659275023849 -0.210306339287
427440000 0.659418264039 -0.211204267856
427450000 0.659763309227 -0.210584532719
427460000 0.660070941954 -0.211256949922
427470000 0.66051100181 -0.210873138076
427480000 0.659855345855 -0.210664088837
427490000 0.659906061906 -0.210518818549
427500000 0.66034080839 -0.210652035036
427510000 0.660325777281 -0.210625185799
427520000 0.660184559636 -0.21129524379
427530000 0.660524700301 -0.2112594474
427540000 0.66038713631 -0.211158427487
427550000 0.659610175583 -0.211848664228
427560000 0.660253459727 -0.211192857762
427570000 0.659858926615 -0.211194041298
427580000 0.660643158558 -0.21082642083
427590000 0.659963410785 -0.211102831856
427600000 0.66055637709 -0.211829196566
427610000 0.660607250456 -0.211607318724
427620000 0.660527350143 -0.211000724014
427630000 0.660970207701 -0.211358706399
427640000 0.660758479107 -0.211261000942
427650000 0.660623804834 -0.210775418325
427660000 0.660836599693 -0.210855890904
427670000 0.660589418794 -0.208889078836
427680000 0.660532699728 -0.211034650658
427690000 0.66040926052 -0.211411488483
427700000 0.660207698204 -0.211396678559
427710000 0.660525272489 -0.211499222164
427720000 0.661019648071 -0.211332162647
427730000 0.661461910591 -0.211101940031
427740000 0.660688236008 -0.211551889821
427750000 0.661312225267 -0.211784750625
427760000 0.660078445576 -0.211302365455
427770000 0.660853508572 -0.211247909219
427780000 0.660417769254 -0.211486467229
427790000 0.660257385304 -0.211249033305
427800000 0.660050658052 -0.211924221462
427810000 0.660075091728 -0.211825699317
427820000 0.660221786894 -0.211733165096
427830000 0.659897861814 -0.211426833811
427840000 0.660339582801 -0.211533436779
427850000 0.660430335497 -0.211951045581
427860000 0.661791139307 -0.21222063789
427870000 0.661154888116 -0.211563812
427880000 0.661031431671 -0.211520434445
427890000 0.660979748912 -0.211659696504
427900000 0.672088137184 -0.21906314615
427910000 0.660452129565 -0.217228202829
427920000 0.661842484473 -0.211963314412
427930000 0.662042989532 -0.211862512178
427940000 0.661247548405 -0.212601440455
427950000 0.66144361712 -0.212615749154
427960000 0.66086323214 -0.21195910438
427970000 0.660933988946 -0.212064655479
427980000 0.660579943443 -0.211546584908
427990000 0.660807517611 -0.211862114892
428000000 0.661207347572 -0.211822410605
428010000 0.661707338297 -0.212008120975
428020000 0.661039760532 -0.211989593505
428030000 0.660552458484 -0.212462033295
428040000 0.660742421083 -0.212050882294
428050000 0.660631505334 -0.211938897272
428060000 0.660377679581 -0.212152367411
428070000 0.661115779699 -0.211723799786
428080000 0.661164529118 -0.21250276769
428090000 0.660903742886 -0.212285691743
428100000 0.661264197136 -0.212644806155
428110000 0.661198575439 -0.211983510654
428120000 0.661235309131 -0.212246650097
428130000 0.661179112604 -0.211896049315
428140000 0.661191353854 -0.212012698343
428150000 0.660544598229 -0.212023332013
428160000 0.661164518917 -0.211838583545
428170000 0.661252670681 -0.212340629965
428180000 0.661544747223 -0.212299710134
428190000 0.661695651746 -0.212409997766
428200000 0.661835019443 -0.212011002723
428210000 0.661968191039 -0.212267005655
428220000 0.661258693763 -0.212566750491
428230000 0.661415298504 -0.212716514661
428240000 0.661995650175 -0.213278563387
428250000 0.661757266425 -0.211754421846
428260000 0.661853057857 -0.213126971816
428270000 0.662196630396 -0.213040579194
428280000 0.662354129755 -0.212564619352
428290000 0.661722534088 -0.212461218533
428300000 0.661940663865 -0.212579433747
428310000 0.661432701991 -0.212428825837
428320000 0.660951231531 -0.212584309447
428330000 0.661598472407 -0.212510226697
428340000 0.661742359926 -0.213039012908
428350000 0.661890981263 -0.212710631667
428360000 0.66185478076 -0.21285073214
428370000 0.662157327984 -0.212960721601
428380000 0.66139680344 -0.213035628806
428390000 0.661848775862 -0.212859256903
428400000 0.662096812895 -0.213422618576
428410000 0.662200135535 -0.213676214286
428420000 0.662226788811 -0.2132001489
428430000 0.661501202668 -0.213036530844
428440000 0.661810159152 -0.212896381013
428450000 0.661838599847 -0.213421648062
428460000 0.66270151505 -0.212972171856
428470000 0.662241408058 -0.213292263511
428480000 0.662401060251 -0.213694322288
428490000 0.662049845834 -0.2136976359
428500000 0.662438981788 -0.213170433956
428510000 0.661444583724 -0.21320470811
428520000 0.661623546203 -0.21341685661
428530000 0.66228216418 -0.213691500525
428540000 0.662077219003 -0.213319018941
428550000 0.661780315808 -0.213140224602
428560000 0.662368300743 -0.214087738065
428570000 0.662287188219 -0.213629390967
428580000 0.662396326648 -0.213015829506
428590000 0.661791970779 -0.213672255349
428600000 0.662165773837 -0.214642999836
428610000 0.662425102237 -0.214118211443
428620000 0.661695096252 -0.213728915515
428630000 0.662980137035 -0.213828742643
428640000 0.662766926289 -0.213794544281
428650000 0.663403642898 -0.213843763536
428660000 0.662596800666 -0.213630663413
428670000 0.662158265133 -0.213313102111
428680000 0.663836489073 -0.213210006898
428690000 0.662608876458 -0.214208704193
428700000 0.662530173497 -0.214014019316
428710000 0.662779444599 -0.214022675071
428720000 0.662394523547 -0.213878890503
428730000 0.662654670743 -0.213477259122
428740000 0.662535372279 -0.213241183876
428750000 0.662944539713 -0.21360567163
428760000 0.663006608854 -0.213874553773
428770000 0.662962974729 -0.214388871731
428780000 0.663305112263 -0.214174520021
428790000 0.662708427858 -0.214717199864
428800000 0.66255332586 -0.214075144509
428810000 0.662559995275 -0.214106188194
428820000 0.662185802853 -0.214453517309
428830000 0.662695511071 -0.214906224678
428840000 0.6625365441 -0.215064350138
428850000 0.662717865265 -0.215577102197
428860000 0.662196165323 -0.215550446025
428870000 0.663461390129 -0.214376878429
428880000 0.662931539044 -0.214329704244
428890000 0.663406558242 -0.214341325428
428900000 0.662771501961 -0.215560746274
428910000 0.662599870978 -0.214728605443
428920000 0.663514916304 -0.214600214465
428930000 0.663418515088 -0.214450376449
428940000 0.663739058461 -0.214819057219
428950000 0.663602822474 -0.215057116366
428960000 0.662733023073 -0.214332766946
428970000 0.661861008329 -0.213400335459
428980000 0.660573061129 -0.211722886402
428990000 0.677945499809 -0.200065893316
429000000 0.648794831463 -0.212762866154
429010000 0.661242853842 -0.213848388175
429020000 0.661542715692 -0.214561872584
429030000 0.662049847303 -0.214763431706
429040000 0.662079262744 -0.215759080856
429050000 0.661746174966 -0.216298725468
429060000 0.66229415956 -0.216144368824
429070000 0.662651274229 -0.216206914419
429080000 0.662683643373 -0.216002601488
429090000 0.662318219134 -0.215718734368
429100000 0.662609871033 -0.216296688538
429110000 0.662129669458 -0.215909564048
429120000 0.662485522876 -0.216330393119
429130000 0.662003647901 -0.216958314826
429140000 0.662457417519 -0.216163550005
429150000 0.662620048925 -0.216163900098
429160000 0.662760301854 -0.21610909335
429170000 0.662600662643 -0.216038273198
429180000 0.662007656758 -0.21611621128
429190000 0.662244328131 -0.216323866672
429200000 0.66139717772 -0.216055302081
429210000 0.66149053953 -0.21595643342
429220000 0.6612290627 -0.216205881033
429230000 0.662091952626 -0.216281570829
429240000 0.663194958105 -0.216506736845
429250000 0.663086378532 -0.215926554498
429260000 0.660188998063 -0.217058571796
429270000 0.663338179317 -0.215780145332
429280000 0.663045364565 -0.216577704288
429290000 0.663060930741 -0.216403321102
429300000 0.663136184987 -0.21596805089
429310000 0.662715588195 -0.215600960912
429320000 0.662691073587 -0.215624842792
429330000 0.661508201597 -0.215605435893
429340000 0.662354097077 -0.215694435103
429350000 0.662356180289 -0.216234689357
429360000 0.662182771534 -0.216256799827
429370000 0.662134407061 -0.215482477066
429380000 0.661755315395 -0.216624292782
429390000 0.661753719905 -0.215662860591
429400000 0.662599275745 -0.216504563931
429410000 0.662979936365 -0.216480957004
429420000 0.662516033133 -0.216406558788
429430000 0.662780686295 -0.216635271074
429440000 0.663194248588 -0.216731511809
429450000 0.662922976388 -0.216257653026
429460000 0.662326194536 -0.216851232111
429470000 0.663144436158 -0.216721637613
429480000 0.663112767479 -0.216983365546
429490000 0.662979443166 -0.216431797024
429500000 0.663310614077 -0.216937446902
429510000 0.662766544543 -0.216731472386
429520000 0.66285226937 -0.217264810983
429530000 0.662515121381 -0.217016538605
429540000 0.663219701054 -0.217101996294
429550000 0.663170017209 -0.216747500265
429560000 0.663302668683 -0.21674232568
429570000 0.663014615172 -0.216921106873
429580000 0.663138104864 -0.216455376764
429590000 0.663200732049 -0.217050504922
429600000 0.663334033647 -0.216805474721
429610000 0.663481914174 -0.21635867928
429620000 0.663293467787 -0.216841818394
429630000 0.662373370095 -0.216930903892
429640000 0.662385382044 -0.21703336697
429650000 0.662023034497 -0.217567154564
429660000 0.662922131731 -0.217247497733
429670000 0.662732010229 -0.217184357005
429680000 0.662491750689 -0.216776300984
429690000 0.662867582146 -0.216884679139
429700000 0.66325438879 -0.216405082096
429710000 0.66219317841 -0.216701706189
429720000 0.663398152068 -0.216843857263
429730000 0.662976992166 -0.21709669738
429740000 0.663251280329 -0.21680795422
429750000 0.663223157522 -0.217401652873
429760000 0.663163020033 -0.217138431644
429770000 0.663506137237 -0.21721389716
429780000 0.662725958042 -0.217448900721
429790000 0.663430805748 -0.2174874055
429800000 0.662770637328 -0.218016791185
429810000 0.663683339356 -0.217547165855
429820000 0.663407158678 -0.21674897245
429830000 0.663088256636 -0.217246497041
429840000 0.66267631307 -0.217682985809
429850000 0.662698872735 -0.217224303559
429860000 0.662828656902 -0.217633702644
429870000 0.663340641615 -0.218312553785
429880000 0.663272536485 -0.2178769422
429890000 0.663113364673 -0.217679238517
429900000 0.663238316305 -0.217343483818
429910000 0.663228536471 -0.21755462782
429920000 0.663852463622 -0.21737110805
429930000 0.662790494477 -0.216688155565
429940000 0.663683611069 -0.217562982923
429950000 0.663839390708 -0.217485106417
429960000 0.663439959096 -0.21717878433
429970000 0.664135557496 -0.218280646103
429980000 0.663937544009 -0.219164275983
429990000 0.664371786877 -0.220450351915
430000000 0.66438146504 -0.219461242039
430010000 0.66289403495 -0.220750175151
430020000 0.663039237501 -0.219252110482
430030000 0.663254158588 -0.219487661651
430040000 0.663395037012 -0.219835582464
430050000 0.662564924999 -0.219848883426
430060000 0.662676490621 -0.219855285183
430070000 0.662379292788 -0.219924309432
430080000 0.663216034441 -0.220095298741
430090000 0.663167312242 -0.220104240087
430100000 0.663286510368 -0.220377893018
430110000 0.663202250907 -0.220245860661
430120000 0.66263907837 -0.220608328585
430130000 0.662512264657 -0.22072565247
430140000 0.662577922627 -0.220858790619
430150000 0.662749661996 -0.220533097933
430160000 0.66283090261 -0.220908128515
430170000 0.665359988161 -0.220203354419
430180000 0.662937111601 -0.220514495754
430190000 0.662844439993 -0.220699082272
430200000 0.662303295757 -0.221175525295
430210000 0.662849697545 -0.220854499539
430220000 0.662842002329 -0.220560429281
430230000 0.662822239863 -0.2208263633
430240000 0.66312656912 -0.220983501154
430250000 0.662960135283 -0.221424945853
430260000 0.662797234363 -0.221356394987
430270000 0.663414577042 -0.221130595678
430280000 0.662879684029 -0.221263287983
430290000 0.662730189496 -0.221600914498
430300000 0.663410166359 -0.22181018253
430310000 0.663442794787 -0.222035159482
430320000 0.663147140834 -0.222027268493
430330000 0.662145717334 -0.221159495271
430340000 0.663271730624 -0.221958900319
430350000 0.662999118939 -0.221824266467
430360000 0.663314979519 -0.222196212847
430370000 0.66374391285 -0.221943157129
430380000 0.66307258162 -0.222410773629
430390000 0.662793924855 -0.221783990068
430400000 0.662795597783 -0.222097757475
430410000 0.662300651393 -0.22226581752
430420000 0.662433959865 -0.221896352628
430430000 0.66264460216 -0.222002023887
430440000 0.66221763899 -0.222356002532
430450000 0.662275965849 -0.222111325205
430460000 0.662446628886 -0.222448398073
430470000 0.662534688242 -0.222759231445
430480000 0.661730422758 -0.222216869972
430490000 0.662266167046 -0.222593752613
430500000 0.662235163133 -0.222203362317
430510000 0.662304701278 -0.222074131604
430520000 0.662195665817 -0.222140328313
430530000 0.661854812799 -0.222291339627
430540000 0.661963922962 -0.222080924932
430550000 0.661720467131 -0.222043958834
430560000 0.661738764851 -0.222283434812
430570000 0.661913098634 -0.222010403747
430580000 0.661823358494 -0.222156124183
430590000 0.661866563306 -0.223324035616
430600000 0.661772235512 -0.223000799574
430610000 0.661812816097 -0.223105731573
430620000 0.661576162929 -0.222348426724
430630000 0.661982858696 -0.222549926101
430640000 0.661662076145 -0.222619200118
430650000 0.661976289813 -0.222457342053
430660000 0.66156129791 -0.222438383255
430670000 0.6610487396 -0.222699587876
430680000 0.661723647089 -0.222348518466
430690000 0.660895150352 -0.222489342954
430700000 0.661026416492 -0.222556861094
430710000 0.660729343879 -0.222022459551
430720000 0.660676159859 -0.222092000831
430730000 0.660887882125 -0.222029955268
430740000 0.660700653061 -0.221874718787
430750000 0.660549808121 -0.222439521352
430760000 0.661122952047 -0.22200722563
430770000 0.660522850999 -0.221500566814
430780000 0.660645564823 -0.221820529348
430790000 0.660750800289 -0.22200738183
430800000 0.661381162946 -0.221992541521
430810000 0.66042174465 -0.221966063647
430820000 0.660685882867 -0.222310540323
430830000 0.660409212859 -0.222448305245
430840000 0.661254461857 -0.221787877944
430850000 0.660868447436 -0.221187094459
430860000 0.660850218525 -0.221584266969
430870000 0.66093632371 -0.220862285136
430880000 0.660970322916 -0.220903776241
430890000 0.660693468832 -0.221305784789
430900000 0.661100424392 -0.222041280674
430910000 0.660669507265 -0.222044937884
430920000 0.660632903629 -0.222321707817
430930000 0.660516092212 -0.221755556707
430940000 0.660498679907 -0.221829844152
430950000 0.66018767803 -0.221002809137
430960000 0.660061156315 -0.221208342278
430970000 0.660496415319 -0.221361984814
430980000 0.660520034006 -0.220518491388
430990000 0.660832220211 -0.220943211368
431000000 0.660944035359 -0.220522756454
431010000 0.663012942242 -0.219362561002
431020000 0.663096100313 -0.219714982645
431030000 0.662772979885 -0.219958147509
431040000 0.663046978239 -0.219475942136
431050000 0.662805689456 -0.21990818139
431060000 0.662875142042 -0.219577422402
431070000 0.663385909021 -0.219953729775
431080000 0.663513189202 -0.218998426162
431090000 0.663348154502 -0.21880536979
431100000 0.662630285869 -0.219731185063
431110000 0.663098416557 -0.219287081715
431120000 0.663174959406 -0.21966888143
431130000 0.663200736759 -0.22019505306
431140000 0.664140745423 -0.220403951724
431150000 0.663593850806 -0.220067305997
431160000 0.663431060225 -0.219359393208
431170000 0.66307645343 -0.219943268497
431180000 0.663495790397 -0.219876159838
431190000 0.663477405068 -0.219802969659
431200000 0.663744664176 -0.219941573638
431210000 0.663433595357 -0.22001775534
431220000 0.663050919966 -0.219653246486
431230000 0.66325262941 -0.219744000173
431240000 0.663263552498 -0.219876098979
431250000 0.663379078412 -0.220073659823
431260000 0.663477129809 -0.220389902321
431270000 0.66253954136 -0.220926226724
431280000 0.662771408682 -0.221682496951
431290000 0.662678683705 -0.220862749007
431300000 0.66236612005 -0.221117025999
431310000 0.662057182045 -0.221344060714
431320000 0.662848988666 -0.220473053582
431330000 0.662910751422 -0.220919202082
431340000 0.663304585628 -0.220667785778
431350000 0.664998648685 -0.220917598094
431360000 0.663547853105 -0.220985591511
431370000 0.66382310878 -0.22065089177
431380000 0.663244584032 -0.220010253131
431390000 0.66386427648 -0.220383155053
431400000 0.66360897627 -0.220150462186
431410000 0.662847911334 -0.22033385261
431420000 0.66362642923 -0.221131570435
431430000 0.662642369984 -0.221692668019
431440000 0.663377780311 -0.221390327671
431450000 0.662838084568 -0.220571543566
431460000 0.663539603653 -0.220612061808
431470000 0.663394508775 -0.221535986323
431480000 0.66289056594 -0.220553911926
431490000 0.663424677122 -0.220945732931
431500000 0.663402676664 -0.221153016082
431510000 0.664137654341 -0.220147985625
431520000 0.663541138251 -0.220691958979
431530000 0.663794375822 -0.221011279117
431540000 0.663471267671 -0.220849231749
431550000 0.663717125027 -0.220987567673
431560000 0.664657615461 -0.220298832064
431570000 0.664166495874 -0.22111659178
431580000 0.664686515462 -0.220610132047
431590000 0.664072798585 -0.221105565893
431600000 0.663884925398 -0.21997230267
431610000 0.663612779324 -0.220741129765
431620000 0.66381989132 -0.219779799774
431630000 0.663708239565 -0.219385508828
431640000 0.662018123094 -0.217596560095
431650000 0.6599352271 -0.216039352407
431660000 0.659770926332 -0.215761988176
431670000 0.661459652635 -0.218084137051
431680000 0.663614908224 -0.220402411404
431690000 0.663494699415 -0.220747085433
431700000 0.664482607355 -0.221368136314
431710000 0.664137028575 -0.220859233055
431720000 0.663615631459 -0.221688909348
431730000 0.664357429523 -0.221396838327
431740000 0.664720856687 -0.2211972689
431750000 0.664999087131 -0.220876097317
431760000 0.664094308863 -0.220558253215
431770000 0.664558068975 -0.220763010739
431780000 0.664393276769 -0.220418664096
431790000 0.664272136745 -0.221596412924
431800000 0.665222898442 -0.221537287779
431810000 0.664799074701 -0.222092357225
431820000 0.664679093185 -0.221442839403
431830000 0.664592316988 -0.220693675877
431840000 0.664219859578 -0.221379391415
431850000 0.664003329303 -0.220979004805
431860000 0.66337657193 -0.221243843816
431870000 0.664384653087 -0.221370669598
431880000 0.664124075315 -0.221535239537
431890000 0.664814126509 -0.221247041004
431900000 0.66430794321 -0.221657116264
431910000 0.664506157872 -0.221512355476
431920000 0.664230954645 -0.221302598083
431930000 0.664568343166 -0.221234261588
431940000 0.664300984066 -0.220998418707
431950000 0.664302902777 -0.221144360945
431960000 0.664339479583 -0.221577563192
431970000 0.663400956891 -0.221994881222
431980000 0.664307592903 -0.222296611848
431990000 0.664351865926 -0.222632534919
432000000 0.665067369915 -0.221888729412
432010000 0.664567574413 -0.221922150529
432020000 0.664459806996 -0.222021199798
432030000 0.66382496032 -0.221530154565
432040000 0.664213075028 -0.222196466042
432050000 0.664808149609 -0.222399655569
432060000 0.664637433423 -0.222323559384
432070000 0.664757742692 -0.222275564917
432080000 0.664821732945 -0.222272188811
432090000 0.66451409075 -0.221979729855
432100000 0.664437401562 -0.22201243871
432110000 0.6644069574 -0.221940787552
432120000 0.663898641331 -0.22148954175
432130000 0.664673452927 -0.221848738214
432140000 0.663850024524 -0.221962196784
432150000 0.664746957513 -0.221567247331
432160000 0.665034212993 -0.221693505877
432170000 0.665361108948 -0.222509283017
432180000 0.664630645866 -0.222072200538
432190000 0.664802080684 -0.222458101145
432200000 0.665013934082 -0.222434087439
432210000 0.664382766759 -0.222838205138
432220000 0.664112958995 -0.222280363527
432230000 0.664662837519 -0.222503609292
432240000 0.664370453058 -0.221988160579
432250000 0.664446597757 -0.222355448412
432260000 0.665482809391 -0.222059935312
432270000 0.664444638261 -0.222364220707
432280000 0.664631940906 -0.222112213703
432290000 0.663963477124 -0.223506050692
432300000 0.665029241387 -0.22269228129
432310000 0.664587388408 -0.222057279675
432320000 0.665060592657 -0.222025782886
432330000 0.665227918939 -0.22213819803
432340000 0.665164352802 -0.222173865186
432350000 0.664996933704 -0.222270910543
432360000 0.665637903493 -0.222407877787
432370000 0.665714107136 -0.222111650004
432380000 0.666633159852 -0.221977014423
432390000 0.66527477712 -0.222903008483
432400000 0.665275694321 -0.222385069496
432410000 0.664736471438 -0.223039369337
432420000 0.665630883762 -0.223035455081
432430000 0.665254826899 -0.222967493237
432440000 0.665380139673 -0.223337811055
432450000 0.665483325295 -0.222555002111
432460000 0.665419212912 -0.223387402022
432470000 0.666194414747 -0.223003449448
432480000 0.665446289627 -0.222938095301
432490000 0.665593821279 -0.223072263604
432500000 0.665871945679 -0.223296639882
432510000 0.665496526846 -0.223520787529
432520000 0.665220507478 -0.223398481879
432530000 0.665804520778 -0.223403764027
432540000 0.665893332434 -0.223647158721
432550000 0.665680571871 -0.224248931586
432560000 0.66588463678 -0.223701266118
432570000 0.666166524021 -0.222703457385
432580000 0.665977988469 -0.223328060446
432590000 0.666057484897 -0.223715021008
432600000 0.667026598325 -0.22362894057
432610000 0.666059326094 -0.223258998362
432620000 0.666621634838 -0.223267383966
432630000 0.666841139212 -0.222892018541
432640000 0.666056652652 -0.223247432415
432650000 0.666022854663 -0.222849886547
432660000 0.666212790571 -0.223845189099
432670000 0.665753108769 -0.223437260027
432680000 0.66516062659 -0.223305970169
432690000 0.665151091915 -0.223321367154
432700000 0.666055930647 -0.223642242452
432710000 0.667210235132 -0.223482555667
432720000 0.66763112237 -0.224604150439
432730000 0.667452149746 -0.224283022688
432740000 0.666859585432 -0.22409202138
432750000 0.666810004461 -0.224185480599
432760000 0.666129826787 -0.224026926493
432770000 0.665884913017 -0.223596896663
432780000 0.665306118044 -0.223768774495
432790000 0.665427313973 -0.223955317683
432800000 0.66525458807 -0.224365762591
432810000 0.66538929559 -0.223962800026
432820000 0.665240339743 -0.224325921546
432830000 0.66534370166 -0.224400306567
432840000 0.663960326818 -0.223579967152
432850000 0.665546763913 -0.224763011275
432860000 0.66564015768 -0.224264030257
432870000 0.665582459832 -0.224183786679
432880000 0.665862740747 -0.223943491093
432890000 0.665418694851 -0.22391136111
432900000 0.665668272376 -0.224137587439
432910000 0.666389585004 -0.22424795696
432920000 0.665626993529 -0.224486451145
432930000 0.666232346692 -0.223771988545
432940000 0.665689323324 -0.224735237925
432950000 0.665994371532 -0.224429974926
432960000 0.666172971841 -0.224100055338
432970000 0.665355635206 -0.223562402627
432980000 0.66549914094 -0.22389325182
432990000 0.665797667041 -0.224680701551
433000000 0.665897302888 -0.224164826844
433010000 0.664660307336 -0.225061418111
433020000 0.665000236285 -0.225436863127
433030000 0.665138009958 -0.225365911162
433040000 0.665882553754 -0.224132920134
433050000 0.665048839633 -0.225526710713
433060000 0.665249212001 -0.225080223154
433070000 0.665686018844 -0.225223431885
433080000 0.665234063796 -0.225675735269
433090000 0.665657150972 -0.22571965722
433100000 0.665571685337 -0.225527840418
433110000 0.665693551595 -0.22487021752
433120000 0.66488462154 -0.224906662457
433130000 0.665627533769 -0.224503302632
433140000 0.664909862965 -0.225789507973
433150000 0.664927606514 -0.225896722452
433160000 0.665119636713 -0.22575920102
433170000 0.664411289344 -0.225979744615
433180000 0.665963817054 -0.226402065837
433190000 0.66586231826 -0.225705256065
433200000 0.666640241068 -0.2260329168
433210000 0.665637641104 -0.225785741017
433220000 0.667058519122 -0.225769010898
433230000 0.666653824179 -0.22534064935
433240000 0.666278230974 -0.226375610253
433250000 0.666760111309 -0.226306481789
433260000 0.666081663981 -0.225540695418
433270000 0.665563017105 -0.227448535249
433280000 0.662833164412 -0.230121484829
433290000 0.661563830124 -0.233023305491
433300000 0.65772343673 -0.220863583738
433310000 0.663940556779 -0.234153038925
433320000 0.658683049036 -0.241745607784
433330000 0.659946758161 -0.223879877671
433340000 0.661926019166 -0.223938131162
433350000 0.663370415571 -0.221980814255
433360000 0.666067677826 -0.224755992794
433370000 0.665403790301 -0.223867063166
433380000 0.66495876476 -0.225047084096
433390000 0.665675017543 -0.22573857941
433400000 0.665304102532 -0.226227101526
433410000 0.665848193492 -0.226674096532
433420000 0.665901434952 -0.227028237962
433430000 0.666205813135 -0.226835994906
433440000 0.667205287095 -0.227237790055
433450000 0.666452841948 -0.227507307981
433460000 0.666839310424 -0.226926134866
433470000 0.666922170419 -0.226817978073
433480000 0.66651357399 -0.227549362668
433490000 0.666108195762 -0.227495412962
433500000 0.666473744518 -0.227257188907
433510000 0.666491444389 -0.226379076476
433520000 0.666137867881 -0.226559653453
433530000 0.666464826057 -0.226323736919
433540000 0.665845538442 -0.226972998919
433550000 0.66638765659 -0.227119268619
433560000 0.666623396641 -0.226751715392
433570000 0.666957358995 -0.226707320577
433580000 0.667476149884 -0.226758913753
433590000 0.667698947423 -0.226545534658
433600000 0.667758423349 -0.226976830192
433610000 0.667076384129 -0.226094329531
433620000 0.665582448007 -0.226809350162
433630000 0.666019623311 -0.226925550602
433640000 0.665767864225 -0.227504473199
433650000 0.665833364748 -0.227376213492
433660000 0.666629708538 -0.227184672208
433670000 0.665974302148 -0.227021124458
433680000 0.666681276782 -0.227385061277
433690000 0.666481471759 -0.227455529715
433700000 0.666152170458 -0.227600102526
433710000 0.666385187657 -0.226905162321
433720000 0.666766822417 -0.226495344686
433730000 0.666762479859 -0.226912476502
433740000 0.667231179393 -0.227304235621
433750000 0.666865905852 -0.227980742266
433760000 0.666087591812 -0.22785535613
433770000 0.666945066584 -0.227089830461
433780000 0.666856750998 -0.227556718558
433790000 0.666180310022 -0.227034532473
433800000 0.666527062446 -0.227327754355
433810000 0.666486433426 -0.228091713566
433820000 0.66713782154 -0.227696128174
433830000 0.667075170435 -0.227848192152
433840000 0.667513141487 -0.226958462634
433850000 0.66670049892 -0.227483690906
433860000 0.666505880032 -0.228160788661
433870000 0.667063805697 -0.227450201817
433880000 0.666559203969 -0.227950234494
433890000 0.667016463212 -0.228523593428
433900000 0.66644965024 -0.227480010918
433910000 0.666622845432 -0.227876021185
433920000 0.667385314804 -0.227927367053
433930000 0.668079791387 -0.22881126567
433940000 0.666627142254 -0.228217608929
433950000 0.667342877822 -0.227808108245
433960000 0.6665800405 -0.228135069435
433970000 0.667326607853 -0.228136921005
433980000 0.668090924787 -0.228597081697
433990000 0.667379204189 -0.228462970553
434000000 0.667052706339 -0.228723405575
434010000 0.667354158298 -0.228720549578
434020000 0.667888062853 -0.228232562444
434030000 0.667860871092 -0.229041986241
434040000 0.667628593487 -0.228983410108
434050000 0.667039906003 -0.229544406723
434060000 0.668095419307 -0.229504764434
434070000 0.667371233262 -0.230543466325
434080000 0.667953142912 -0.230062790046
434090000 0.667779342457 -0.229477568789
434100000 0.667792404579 -0.230249764862
434110000 0.668569955619 -0.22940940955
434120000 0.667991572086 -0.230249441985
434130000 0.66838917751 -0.230329338232
434140000 0.667999481419 -0.229347249339
434150000 0.668275542297 -0.230333132707
434160000 0.667789780964 -0.229669145875
434170000 0.66780009627 -0.229717309772
434180000 0.667804505715 -0.228701547822
434190000 0.668701100376 -0.229699734632
434200000 0.669035473262 -0.229306305989
434210000 0.667543987661 -0.228668199237
434220000 0.668626630907 -0.229179013329
434230000 0.668694221976 -0.229286039997
434240000 0.670057274149 -0.228799468335
434250000 0.671427419753 -0.229765853814
434260000 0.669187433432 -0.229846962316
434270000 0.667637288278 -0.229708387278
434280000 0.668178826709 -0.23025603717
434290000 0.668339547259 -0.229189120996
434300000 0.667247676032 -0.229179710993
434310000 0.667837272249 -0.230472731181
434320000 0.668233421997 -0.229331551494
434330000 0.668764768231 -0.230622870686
434340000 0.668131143526 -0.229990583195
434350000 0.667574864679 -0.230581333893
434360000 0.667983881214 -0.230276795352
434370000 0.668112452977 -0.23043501684
434380000 0.668437005374 -0.230362541912
434390000 0.667692756736 -0.230328037798
434400000 0.667594856773 -0.229622371669
434410000 0.668462098945 -0.229967056679
434420000 0.668431701007 -0.230060073242
434430000 0.667997113469 -0.230135205571
434440000 0.667359888912 -0.22989201273
434450000 0.669220977272 -0.230011078836
434460000 0.668670508907 -0.23028089935
434470000 0.668423932525 -0.230198373918
434480000 0.668503765442 -0.23056914949
434490000 0.668103430995 -0.229906793759
434500000 0.668125949717 -0.229737272904
434510000 0.668427464613 -0.229557062797
434520000 0.668604259403 -0.230544209444
434530000 0.668962150469 -0.229297551015
434540000 0.67079819664 -0.23153823994
434550000 0.672761560995 -0.233438726776
434560000 0.671615708396 -0.231850421032
434570000 0.671539582356 -0.234669833178
434580000 0.66891401427 -0.231901417854
434590000 0.667942075778 -0.230646232415
434600000 0.667301832266 -0.231134524832
434610000 0.667755667056 -0.23010824078
434620000 0.668135623575 -0.230414932093
434630000 0.668193529432 -0.230648023603
434640000 0.665405960763 -0.22957480823
434650000 0.668300461827 -0.231150534034
434660000 0.668668972663 -0.230768612277
434670000 0.668804924361 -0.230352629779
434680000 0.668907133237 -0.230155676426
434690000 0.668280586155 -0.230890779996
434700000 0.667858787564 -0.230045447694
434710000 0.66905296992 -0.230993584916
434720000 0.669194453859 -0.230785128655
434730000 0.668913419875 -0.230715239138
434740000 0.668380319843 -0.230883605315
434750000 0.669178312805 -0.230737456422
434760000 0.669499728092 -0.2298943782
434770000 0.668992711066 -0.230354375469
434780000 0.669196039127 -0.230675124365
434790000 0.669516087909 -0.229603160069
434800000 0.668677967192 -0.230710164332
434810000 0.668748855938 -0.230673409201
434820000 0.669514972413 -0.231501068456
434830000 0.6682845982 -0.231188686145
434840000 0.669133549457 -0.231290095019
434850000 0.66871994237 -0.231623163148
434860000 0.668772147192 -0.231775495283
434870000 0.668062383345 -0.232015297372
434880000 0.668931940703 -0.232690402592
434890000 0.669572217098 -0.231490869304
434900000 0.669650138464 -0.231901402537
434910000 0.668982379955 -0.231350332321
434920000 0.669306042532 -0.231100883385
434930000 0.6690831789 -0.231543545089
434940000 0.669410593395 -0.231190436518
434950000 0.668717480534 -0.231304020778
434960000 0.668273509627 -0.231704673731
434970000 0.668505434315 -0.23131260337
434980000 0.668783570271 -0.230936981964
434990000 0.668898251215 -0.230497942909
435000000 0.669439219174 -0.23091407105
435010000 0.669700053434 -0.231329961077
435020000 0.669732595328 -0.231463299691
435030000 0.669823981646 -0.231612872547
435040000 0.670113233787 -0.231906534177
435050000 0.670034113334 -0.232072729343
435060000 0.669069136829 -0.232122439689
435070000 0.670098652395 -0.232175047877
435080000 0.670424635041 -0.231997709787
435090000 0.670608271118 -0.23180138258
435100000 0.669993062954 -0.231391330846
435110000 0.670497378423 -0.230537626813
435120000 0.669442580143 -0.231473930567
435130000 0.669221665741 -0.230491037796
435140000 0.669157265861 -0.231325216758
435150000 0.669789498198 -0.230656551997
435160000 0.669700121244 -0.23096656673
435170000 0.670106091847 -0.23123548046
435180000 0.669583422614 -0.231126855523
435190000 0.670232873205 -0.231053087286
435200000 0.669666178612 -0.231020702956
435210000 0.669571084587 -0.231201582958
435220000 0.669804593418 -0.231448510282
435230000 0.670250849875 -0.232132802651
435240000 0.670392547066 -0.231871801867
435250000 0.669965744089 -0.231747067935
435260000 0.669901225781 -0.230946880247
435270000 0.669679631799 -0.231203563004
435280000 0.669996287956 -0.231534058792
435290000 0.669115207876 -0.231775893314
435300000 0.670147298035 -0.231465625891
435310000 0.670164631004 -0.231091631674
435320000 0.670148509515 -0.230827583225
435330000 0.670492699799 -0.231506878836
435340000 0.670861807207 -0.23056872442
435350000 0.669895849344 -0.231052470055
435360000 0.66977049804 -0.230460565353
435370000 0.669731031331 -0.231369758372
435380000 0.670854953185 -0.231438662702
435390000 0.671278355427 -0.231955825899
435400000 0.67069293124 -0.232310672881
435410000 0.670779492487 -0.232470079222
435420000 0.669711654199 -0.232248065694
435430000 0.669668271114 -0.232049289578
435440000 0.670458124739 -0.231836023299
435450000 0.670903024337 -0.232336851308
435460000 0.671292540873 -0.232316935981
435470000 0.670732387265 -0.232429823708
435480000 0.670706330013 -0.231800778196
435490000 0.678640548545 -0.209023445183
435500000 0.670310573149 -0.232488133122
435510000 0.670210129431 -0.232050727605
435520000 0.670491101856 -0.232270544423
435530000 0.670211990258 -0.232378702915
435540000 0.67108530624 -0.233071247481
435550000 0.670716657873 -0.231778316632
435560000 0.671044855414 -0.232948049819
435570000 0.671228028248 -0.232972648873
435580000 0.67093839181 -0.233082358055
435590000 0.670161457114 -0.232856419277
435600000 0.670206467423 -0.23211687043
435610000 0.669529167583 -0.232823488204
435620000 0.669488819216 -0.232999246571
435630000 0.669756436757 -0.232915755808
435640000 0.670091369143 -0.232558551976
435650000 0.670926999107 -0.232664582587
435660000 0.670449152476 -0.231858069479
435670000 0.671050842707 -0.23227248015
435680000 0.671081299175 -0.232571747247
435690000 0.671200370457 -0.232544815944
435700000 0.671236896978 -0.23286723263
435710000 0.670800019106 -0.233179269693
435720000 0.670898742507 -0.232997753204
435730000 0.671147187614 -0.232811809873
435740000 0.67046323118 -0.233097497172
435750000 0.670789951937 -0.233370113234
435760000 0.67084938147 -0.23342100446
435770000 0.671273999128 -0.233419821575
435780000 0.671238400103 -0.232710960936
435790000 0.670920379331 -0.232811395087
435800000 0.67088202706 -0.233237886557
435810000 0.670348937516 -0.233255207118
435820000 0.670421146902 -0.232702721883
435830000 0.670457541694 -0.232754565621
435840000 0.671431481851 -0.233748385391
435850000 0.671898731676 -0.233259831669
435860000 0.671830535523 -0.232823577602
435870000 0.670814042819 -0.2322932095
435880000 0.670244468047 -0.232710255538
435890000 0.670358621167 -0.232682554933
435900000 0.670110819481 -0.233612526356
435910000 0.671416018401 -0.233556178064
435920000 0.671195591323 -0.233714884291
435930000 0.670994971208 -0.232993942801
435940000 0.670999827077 -0.233360370178
435950000 0.671431200294 -0.233213521898
435960000 0.671645385571 -0.233576803345
435970000 0.671659365601 -0.232625884154
435980000 0.671280485695 -0.233026456944
435990000 0.671370817359 -0.233860455457
436000000 0.671304008421 -0.233545201976
436010000 0.67062606543 -0.232869827479
436020000 0.670272082751 -0.232517426741
436030000 0.671900193108 -0.232148470021
436040000 0.670788512031 -0.232133626425
436050000 0.670993899844 -0.232208568469
436060000 0.670607678532 -0.232225067733
436070000 0.671175084525 -0.23218964558
436080000 0.670648879293 -0.232765991048
436090000 0.671157459089 -0.232880782578
436100000 0.670700079828 -0.233045439833
436110000 0.67008357722 -0.232989986459
436120000 0.67077924361 -0.232543653972
436130000 0.670672076169 -0.232632577902
436140000 0.671591014631 -0.232399289069
436150000 0.670979926522 -0.232384352851
436160000 0.671323950291 -0.232444323028
436170000 0.671137862856 -0.232828571074
436180000 0.671031750328 -0.232945947255
436190000 0.670578281854 -0.232714497051
436200000 0.671297137654 -0.233147018433
436210000 0.67088822965 -0.232381020426
436220000 0.670893819964 -0.232686181102
436230000 0.671405323439 -0.232819345873
436240000 0.671472938034 -0.232841787265
436250000 0.671534079792 -0.233277306336
436260000 0.671616465855 -0.23339776611
436270000 0.671861488417 -0.233775872505
436280000 0.672109321989 -0.233261147826
436290000 0.671393245471 -0.233409358001
436300000 0.671828425557 -0.233255603262
436310000 0.67148827608 -0.233505078327
436320000 0.671879865013 -0.23382135308
436330000 0.670833377345 -0.234173785176
436340000 0.671628760119 -0.234311785434
436350000 0.671683792503 -0.233756582309
436360000 0.671913199252 -0.233912051802
436370000 0.671686256797 -0.233847070641
436380000 0.671728378211 -0.233982162806
436390000 0.671730350316 -0.233274064709
436400000 0.671472940685 -0.233293995823
436410000 0.671385655728 -0.233612431807
436420000 0.672487008386 -0.234168023439
436430000 0.671692868898 -0.233987709327
436440000 0.670484243242 -0.233903141398
436450000 0.671300086282 -0.233816376069
436460000 0.671070501734 -0.23358705256
436470000 0.6718042575 -0.23393182627
436480000 0.671362230848 -0.234250670321
436490000 0.6718261748 -0.234237253195
436500000 0.671706382737 -0.234101120641
436510000 0.671140447587 -0.233553385605
436520000 0.671548115162 -0.233705551727
436530000 0.671646059505 -0.233821417714
436540000 0.671739118519 -0.234455463177
436550000 0.671736904278 -0.233525185332
436560000 0.671319233036 -0.233825820929
436570000 0.671490609898 -0.233441854662
436580000 0.67167758346 -0.233539104404
436590000 0.671838956514 -0.233916292377
436600000 0.671602701077 -0.234245674751
436610000 0.672100281036 -0.233896696769
436620000 0.672007142081 -0.234439550434
436630000 0.672217341542 -0.234160339901
436640000 0.671689233218 -0.233807439756
436650000 0.67112582023 -0.233976543592
436660000 0.671677020005 -0.233589923958
436670000 0.673025122643 -0.233515913119
436680000 0.672234671672 -0.233410964047
436690000 0.671829142586 -0.234594384988
436700000 0.671950598386 -0.234381740673
436710000 0.671475395995 -0.234402523324
436720000 0.671114573256 -0.234370861945
436730000 0.671763103292 -0.23493806266
436740000 0.671532666179 -0.234820889529
436750000 0.671599869497 -0.234148785283
436760000 0.671929204762 -0.234044260984
436770000 0.671879239481 -0.233763864743
436780000 0.671717848012 -0.234069228801
436790000 0.671791554033 -0.234914330059
436800000 0.671466215031 -0.234790174265
436810000 0.671711799699 -0.234829805399
436820000 0.671313364583 -0.234256976442
436830000 0.671471201227 -0.233805499001
436840000 0.671613247814 -0.233381416363
436850000 0.671260152946 -0.234329420049
436860000 0.671206717417 -0.234243554846
436870000 0.67222749543 -0.234292374507
436880000 0.672000204901 -0.234631807269
436890000 0.672464199506 -0.234801384759
436900000 0.672258038452 -0.234506528515
436910000 0.67245516797 -0.234126275008
436920000 0.67211946556 -0.234326081488
436930000 0.672310404048 -0.233892292926
436940000 0.672876058281 -0.23429330708
436950000 0.672579006952 -0.234349108426
436960000 0.672299359397 -0.235068236538
436970000 0.67152567036 -0.23496262091
436980000 0.671751096935 -0.234802305889
436990000 0.672083402546 -0.235452884769
437000000 0.672881608519 -0.235513170248
437010000 0.671983850461 -0.235263298945
437020000 0.672067132204 -0.234765751706
437030000 0.671750879609 -0.234845660509
437040000 0.67211922223 -0.234812335619
437050000 0.672600960728 -0.235614001204
437060000 0.672729736505 -0.235192553389
437070000 0.672259373414 -0.235330017356
437080000 0.673105124615 -0.234966861745
437090000 0.672687530301 -0.235221331355
437100000 0.672734802749 -0.23528250781
437110000 0.673010773627 -0.235407351283
437120000 0.672457121019 -0.236224612662
437130000 0.672613304869 -0.236226501219
437140000 0.672629054392 -0.236410286395
437150000 0.673012893514 -0.236078824914
437160000 0.671981204612 -0.236500820996
437170000 0.672064446362 -0.236074849986
437180000 0.672057284183 -0.23602115067
437190000 0.671970877045 -0.235510143479
437200000 0.672798367613 -0.2354936191
437210000 0.672209534951 -0.235904371056
437220000 0.673020628555 -0.235722192634
437230000 0.672736797772 -0.235406336413
437240000 0.674406773375 -0.233989039353
437250000 0.675630138154 -0.231714387123
437260000 0.678066471827 -0.230554358762
437270000 0.677111613062 -0.231230147633
437280000 0.674625468409 -0.232569464204
437290000 0.672943189442 -0.233821205069
437300000 0.672716341666 -0.235439252742
437310000 0.672513888779 -0.235917919228
437320000 0.672521776549 -0.236631698944
437330000 0.672614566381 -0.236465968068
437340000 0.67330150224 -0.236782265225
437350000 0.673554664879 -0.236414060173
437360000 0.673380611523 -0.236106952048
437370000 0.671976742311 -0.235665801013
437380000 0.672982225705 -0.236558623313
437390000 0.673243440951 -0.236906578836
437400000 0.67376968268 -0.23609655054
437410000 0.672263345823 -0.236815456404
437420000 0.671928704596 -0.236320115194
437430000 0.671027083706 -0.236048154587
437440000 0.671641970248 -0.235948369771
437450000 0.672335397728 -0.236466933038
437460000 0.673091247823 -0.235879259496
437470000 0.672762786153 -0.235698663856
437480000 0.673090055697 -0.236483896689
437490000 0.673327746275 -0.236434375097
437500000 0.672699164084 -0.236319249148
437510000 0.672784890942 -0.236319476133
437520000 0.672312545768 -0.236800230768
437530000 0.672351314423 -0.236792107078
437540000 0.672852802194 -0.236576349683
437550000 0.673162914673 -0.236619190159
437560000 0.672359008802 -0.236364433694
437570000 0.673032924602 -0.236889457922
437580000 0.672529011136 -0.236653189045
437590000 0.672774438496 -0.236985986097
437600000 0.673511893529 -0.23752630542
437610000 0.673467047985 -0.237486190304
437620000 0.673435842086 -0.237292090843
437630000 0.673123787134 -0.236714184551
437640000 0.672498993074 -0.236275187146
437650000 0.673553989644 -0.236486261426
437660000 0.673758314048 -0.236771245053
437670000 0.673988825726 -0.237048612533
437680000 0.67344426423 -0.236734216415
437690000 0.672928638511 -0.236990392687
437700000 0.672772563368 -0.236979786257
437710000 0.672991161598 -0.236618241549
437720000 0.672969434644 -0.236841686317
437730000 0.673079425506 -0.237024176235
437740000 0.67302234983 -0.237163523502
437750000 0.67323564823 -0.237134625877
437760000 0.673624288483 -0.237270825909
437770000 0.673313550481 -0.236789344025
437780000 0.673649877935 -0.237313226032
437790000 0.673359435927 -0.2374618077
437800000 0.673278884535 -0.238040461943
437810000 0.673056955649 -0.238046073466
437820000 0.673138523709 -0.238060240694
437830000 0.67292000183 -0.238583360937
437840000 0.673462634875 -0.238157023224
437850000 0.673728449879 -0.238035540488
437860000 0.672865749768 -0.237757163546
437870000 0.672978808109 -0.236952969476
437880000 0.673162515221 -0.237296005666
437890000 0.673613415351 -0.23727825836
437900000 0.673246597917 -0.23740828454
437910000 0.673731057861 -0.238181691005
437920000 0.67338049222 -0.238499744765
437930000 0.673241499744 -0.238422884135
437940000 0.673042223457 -0.238137033308
437950000 0.673249937283 -0.238135122632
437960000 0.673052792675 -0.238389945941
437970000 0.673107314799 -0.238612484824
437980000 0.674212185827 -0.237836887153
437990000 0.674104849963 -0.237666696483
438000000 0.673892259247 -0.238223712769
438010000 0.673337496571 -0.23773632342
438020000 0.673574673899 -0.238129241152
438030000 0.67353329471 -0.238036217452
438040000 0.673780487652 -0.237861640283
438050000 0.673946918827 -0.238205361358
438060000 0.674104580813 -0.238405718356
438070000 0.673822872023 -0.238336087757
438080000 0.674070950528 -0.238360629457
438090000 0.673678205334 -0.238942589803
438100000 0.67390342844 -0.238056994349
438110000 0.673913795546 -0.238512242844
438120000 0.673384652613 -0.238238666831
438130000 0.673690775447 -0.238577168112
438140000 0.674023012929 -0.238463183327
438150000 0.674292142421 -0.238797172612
438160000 0.67360309916 -0.238168772589
438170000 0.674032548654 -0.238988948804
438180000 0.674332932371 -0.238226945859
438190000 0.673625109376 -0.238651860589
438200000 0.673213719228 -0.238910792911
438210000 0.673129325567 -0.239021394876
438220000 0.673713244453 -0.239358341826
438230000 0.673629999601 -0.238715833806
438240000 0.673547326017 -0.239124681079
438250000 0.674091878235 -0.238555006625
438260000 0.673934810072 -0.238689326473
438270000 0.673891521206 -0.238527102954
438280000 0.674192900018 -0.238820030139
438290000 0.673908945794 -0.238701440632
438300000 0.674173424079 -0.238531631916
438310000 0.67430293084 -0.239033683803
438320000 0.673754261997 -0.23847620745
438330000 0.67365620101 -0.238598902169
438340000 0.673996702384 -0.238857711536
438350000 0.67360560262 -0.239012078313
438360000 0.6727128686 -0.239683831623
438370000 0.673870037305 -0.239328991736
438380000 0.673727649733 -0.23975519659
438390000 0.673567525115 -0.239711850974
438400000 0.673708752428 -0.23957705437
438410000 0.674372568048 -0.239086804687
438420000 0.674275351206 -0.239038854225
438430000 0.673842555841 -0.23881176618
438440000 0.673824738104 -0.238629864939
438450000 0.673384620945 -0.238750043657
438460000 0.673755506888 -0.238880873687
438470000 0.67360551502 -0.238433175111
438480000 0.67404139552 -0.23912419023
438490000 0.674533712545 -0.239315522119
438500000 0.674676047982 -0.239833980541
438510000 0.674451791118 -0.23959789763
438520000 0.674426211208 -0.239793775802
438530000 0.674632494054 -0.23985942115
438540000 0.674152344718 -0.239756800718
438550000 0.673792452791 -0.239770289479
438560000 0.674221153665 -0.240074500344
438570000 0.674259086078 -0.239890489075
438580000 0.674376100902 -0.239624156773
438590000 0.673778775071 -0.239992684194
438600000 0.674530333048 -0.239956326576
438610000 0.674838633628 -0.239733068908
438620000 0.674780525893 -0.239395151626
438630000 0.67483510499 -0.239333949805
438640000 0.675719584333 -0.239564694978
438650000 0.675436536418 -0.238995544611
438660000 0.675284850054 -0.239239662016
438670000 0.675431656885 -0.238861710807
438680000 0.675460949489 -0.239170611197
438690000 0.674838733015 -0.239426255354
438700000 0.674452559131 -0.24022697063
438710000 0.674834199334 -0.240420877923
438720000 0.674801432829 -0.240686177553
438730000 0.676572368506 -0.240701946789
438740000 0.675284003119 -0.241468885147
438750000 0.675119967173 -0.240138120528
438760000 0.674932813593 -0.240840243364
438770000 0.674914987112 -0.240950693761
438780000 0.675098432528 -0.240482314504
438790000 0.674417592475 -0.239710938308
438800000 0.674278382615 -0.240118483306
438810000 0.673923217537 -0.240349266548
438820000 0.673967632774 -0.240266498722
438830000 0.674207799746 -0.240659299367
438840000 0.674872868716 -0.2405391597
438850000 0.674681681844 -0.240721468519
438860000 0.674625176355 -0.240491022225
438870000 0.674373666119 -0.240193654933
438880000 0.674852676321 -0.240508067845
438890000 0.674876129285 -0.240426786925
438900000 0.674331851276 -0.240107361146
438910000 0.674736678383 -0.240254282462
438920000 0.674798727208 -0.240329843551
438930000 0.675019612708 -0.240289715603
438940000 0.675163282637 -0.240362148305
438950000 0.67500232114 -0.24010353835
438960000 0.674951867842 -0.239765654825
438970000 0.674439054245 -0.240586456447
438980000 0.674270449103 -0.24022788879
438990000 0.674324544847 -0.241107005651
439000000 0.674119851669 -0.240756740989
439010000 0.674526963937 -0.240720284464
439020000 0.674427112838 -0.240658222101
439030000 0.674695929163 -0.240642402233
439040000 0.674208437099 -0.241355788825
439050000 0.674681948586 -0.240689022701
439060000 0.674133772574 -0.240962983639
439070000 0.674265490741 -0.240458775329
439080000 0.674893274961 -0.241518401202
439090000 0.674998978234 -0.241610902189
439100000 0.675002079934 -0.241116788466
439110000 0.674742030967 -0.241577588802
439120000 0.675145274219 -0.241101009585
439130000 0.675522653686 -0.240887959654
439140000 0.675365220917 -0.240384334545
439150000 0.675202737742 -0.240792910349
439160000 0.674771886302 -0.240602422672
439170000 0.674714981295 -0.240665725941
439180000 0.674916768659 -0.240615091472
439190000 0.674982736502 -0.240813353207
439200000 0.675114080131 -0.241374954311
439210000 0.674700226224 -0.24185829259
439220000 0.674787867014 -0.24175993816
439230000 0.675288555254 -0.242544513507
439240000 0.675563287069 -0.242014231568
439250000 0.675579985309 -0.241827681323
439260000 0.675571943842 -0.241101416143
439270000 0.67566890448 -0.241114922406
439280000 0.675187600128 -0.241045599225
439290000 0.675806843456 -0.241923815092
439300000 0.674832805254 -0.24137909666
439310000 0.674828044336 -0.241451518023
439320000 0.674861039045 -0.241171344436
439330000 0.675015270852 -0.242053954063
439340000 0.674764179326 -0.242058724472
439350000 0.674961999183 -0.241642684463
439360000 0.674979210451 -0.241440057154
439370000 0.675346842705 -0.241885181674
439380000 0.675528820561 -0.241639489379
439390000 0.675937895057 -0.241798314869
439400000 0.675837815492 -0.241631283051
439410000 0.675448774399 -0.241906476245
439420000 0.675329837317 -0.241719625227
439430000 0.675803626644 -0.241806825649
439440000 0.675801924225 -0.241584563176
439450000 0.675191669153 -0.241642464173
439460000 0.675709540866 -0.241914189971
439470000 0.674992146169 -0.242107074531
439480000 0.67512204558 -0.24235935869
439490000 0.675138887982 -0.241712791025
439500000 0.675317810917 -0.241916291637
439510000 0.676350718911 -0.240919595552
439520000 0.675060804082 -0.241818156399
439530000 0.675128395116 -0.24201200106
439540000 0.675433280488 -0.241694167046
439550000 0.674702002426 -0.241767400419
439560000 0.674858439778 -0.240903769091
439570000 0.675135248111 -0.241942248633
439580000 0.67563347851 -0.241972214888
439590000 0.675770441333 -0.24222947444
439600000 0.674843086224 -0.242654655412
439610000 0.673895652246 -0.242352633767
439620000 0.673667897214 -0.239654948383
439630000 0.674045922844 -0.241913339331
439640000 0.67542258142 -0.241365010712
439650000 0.675187717438 -0.242132933504
439660000 0.674479753464 -0.242187640078
439670000 0.675357189253 -0.242273505471
439680000 0.675265602263 -0.242214407217
439690000 0.67488690779 -0.242152959829
439700000 0.675042924406 -0.241313369638
439710000 0.674994408304 -0.242047217583
439720000 0.675754224852 -0.24233123288
439730000 0.675892893768 -0.242877299696
439740000 0.675860708808 -0.242729931875
439750000 0.676046567229 -0.242855810716
439760000 0.675793226745 -0.243130447169
439770000 0.675892022352 -0.242764543763
439780000 0.675834908202 -0.243058505827
439790000 0.676183554387 -0.242544897578
439800000 0.675596788194 -0.243337395157
439810000 0.675872862485 -0.242782270736
439820000 0.674989396748 -0.243712225335
439830000 0.675538125021 -0.242801898869
439840000 0.676182951103 -0.242790516278
439850000 0.675836265739 -0.242298722685
439860000 0.67611140621 -0.242639755926
439870000 0.67569622915 -0.243118041486
439880000 0.675187824224 -0.242686923923
439890000 0.675312858305 -0.242261876939
439900000 0.676544498614 -0.24272313745
439910000 0.675371989548 -0.242361306786
439920000 0.675644452222 -0.242823519762
439930000 0.675210105959 -0.242815373758
439940000 0.67514349997 -0.243387266306
439950000 0.675372886169 -0.242646511188
439960000 0.675379428186 -0.242864086222
439970000 0.675269089015 -0.243311277903
439980000 0.675555197402 -0.243307461795
439990000 0.675173358164 -0.24355176708
440000000 0.676208343744 -0.242731378255
440010000 0.676128371316 -0.243560789746
440020000 0.675813081264 -0.242811254376
440030000 0.675714902637 -0.242956044163
440040000 0.676504066457 -0.24335851578
440050000 0.676582764708 -0.242906073429
440060000 0.675363382555 -0.243597105051
440070000 0.675728607257 -0.243581344317
440080000 0.67578309695 -0.243524400044
440090000 0.67564407263 -0.242643134938
440100000 0.675368322579 -0.242782947236
440110000 0.67528483837 -0.24252826339
440120000 0.675231955882 -0.243063764046
440130000 0.675736769068 -0.243506630356
440140000 0.675731568846 -0.243576550992
440150000 0.675755492762 -0.243019901769
440160000 0.675378175698 -0.243498958539
440170000 0.676742592448 -0.243707598871
440180000 0.675530122209 -0.244107732985
440190000 0.676134312623 -0.244323738597
440200000 0.676012917351 -0.244101061862
440210000 0.675912404299 -0.244532019589
440220000 0.675642872978 -0.243799601309
440230000 0.675621977438 -0.244308140781
440240000 0.676176396322 -0.243997468947
440250000 0.676207417856 -0.244026682199
440260000 0.676598619149 -0.244384261937
440270000 0.676083875731 -0.243850155586
440280000 0.676657026832 -0.244292111782
440290000 0.676256424704 -0.243913520129
440300000 0.676770693395 -0.2446500967
440310000 0.676899714477 -0.245168032236
440320000 0.676246220976 -0.24539788633
440330000 0.675928661421 -0.243867673648
440340000 0.675732702534 -0.243809623845
440350000 0.676416054993 -0.243464068856
440360000 0.67610895481 -0.244554022241
440370000 0.675976595371 -0.244574941574
440380000 0.675392724139 -0.24370380161
440390000 0.675107868226 -0.242965166273
440400000 0.675203297613 -0.243743480246
440410000 0.675889729288 -0.244513040155
440420000 0.676168833696 -0.244328329244
440430000 0.676180951763 -0.244995244457
440440000 0.676141106458 -0.244849029782
440450000 0.675972981074 -0.244295077722
440460000 0.67599391407 -0.244474077506
440470000 0.676205303474 -0.244398133945
440480000 0.676599232074 -0.244574099327
440490000 0.676559739802 -0.244853687408
440500000 0.676323123567 -0.244742442182
440510000 0.676482499413 -0.243437524714
440520000 0.6731333514 -0.24407421553
440530000 0.667834678105 -0.24253614799
440540000 0.659859097671 -0.240669764393
440550000 0.660018694831 -0.249818103393
440560000 0.671933837054 -0.243706816943
440570000 0.676618498575 -0.244473504208
440580000 0.676104332573 -0.244546598987
440590000 0.675927496049 -0.24507562617
440600000 0.676828053494 -0.244804767774
440610000 0.676661320726 -0.244971041998
440620000 0.676133106371 -0.244802430439
440630000 0.676188419846 -0.244401746316
440640000 0.67595230695 -0.245196550437
440650000 0.676065844258 -0.24426991705
440660000 0.675844707295 -0.244379853264
440670000 0.677034997882 -0.244403032268
440680000 0.677620541689 -0.244867921164
440690000 0.677095906871 -0.245331800173
440700000 0.677327746513 -0.245361052523
440710000 0.676769638965 -0.245216992068
440720000 0.676414088768 -0.245139480044
440730000 0.676741517529 -0.244230235888
440740000 0.677417429531 -0.245100212849
440750000 0.679312465035 -0.245142846635
440760000 0.67723513461 -0.245273822612
440770000 0.677186932585 -0.245471045717
440780000 0.677586220124 -0.245038960699
440790000 0.677552495112 -0.245436608287
440800000 0.677151448923 -0.245280760551
440810000 0.67694746891 -0.245491061572
440820000 0.677128412704 -0.245349722938
440830000 0.67728765093 -0.245752730788
440840000 0.676380416375 -0.245735540491
440850000 0.675504702228 -0.245374323315
440860000 0.675263303092 -0.245738155352
440870000 0.676257723124 -0.24546716797
440880000 0.676783205124 -0.245787823828
440890000 0.677553490778 -0.245512964834
440900000 0.677246945744 -0.245610997297
440910000 0.676242957109 -0.246109769031
440920000 0.6767026051 -0.246090939079
440930000 0.677035770346 -0.246214347248
440940000 0.676688365339 -0.246016400962
440950000 0.676868654837 -0.245807895979
440960000 0.67696029153 -0.245663741539
440970000 0.677090742431 -0.245202823573
440980000 0.67675493075 -0.245724545779
440990000 0.677856666736 -0.245948193037
441000000 0.67763529351 -0.246519531065
441010000 0.677563256935 -0.246495821307
441020000 0.677272531596 -0.245761999647
441030000 0.676776148513 -0.245913395482
441040000 0.677043896509 -0.24580418183
441050000 0.677482871498 -0.246251535323
441060000 0.677138790586 -0.24583768774
441070000 0.677428368922 -0.245927931576
441080000 0.677312775553 -0.245937550672
441090000 0.677256064946 -0.246224495289
441100000 0.677470668654 -0.246411082294
441110000 0.677446043227 -0.246271855078
441120000 0.677940925529 -0.246678935384
441130000 0.677372586729 -0.246212100503
441140000 0.67766456554 -0.246846765957
441150000 0.677294848581 -0.246360869498
441160000 0.677383928588 -0.246059641125
441170000 0.677762064783 -0.246385136795
441180000 0.677358974089 -0.246196396076
441190000 0.677718230809 -0.245283353166
441200000 0.678394247911 -0.245641778958
441210000 0.678462512562 -0.245516616169
441220000 0.677420031842 -0.245743726649
441230000 0.677580646342 -0.246149147041
441240000 0.677269616611 -0.246180218673
441250000 0.677020404101 -0.246271560145
441260000 0.677376547286 -0.246612241698
441270000 0.677842053264 -0.246301901572
441280000 0.677869283304 -0.246485222838
441290000 0.677467792048 -0.24695655951
441300000 0.677910997963 -0.24592735994
441310000 0.681622977143 -0.238435032801
441320000 0.677063696243 -0.246588522412
441330000 0.677351469244 -0.246073343549
441340000 0.677621215424 -0.246445964735
441350000 0.67783913083 -0.246346092536
441360000 0.677997202569 -0.246406037229
441370000 0.678197326181 -0.246707377974
441380000 0.677801470616 -0.246526770127
441390000 0.678041260908 -0.246450766298
441400000 0.678322672947 -0.2466259268
441410000 0.678008531316 -0.246895225203
441420000 0.678161307984 -0.246947757681
441430000 0.678520233537 -0.24681093035
441440000 0.677647554684 -0.247250927901
441450000 0.677923571036 -0.247034311225
441460000 0.677125117452 -0.247246969298
441470000 0.67741411141 -0.247131193857
441480000 0.678035455594 -0.247080602002
441490000 0.677796950407 -0.24692099427
441500000 0.677294304288 -0.246724873713
441510000 0.677077816816 -0.247161110006
441520000 0.677370403949 -0.247376670459
441530000 0.677453473764 -0.24716840325
441540000 0.677260661717 -0.246757978206
441550000 0.677329140332 -0.247595661613
441560000 0.677700407206 -0.246503357562
441570000 0.677088071769 -0.247328640498
441580000 0.677281829631 -0.247199142079
441590000 0.677822055411 -0.247498894624
441600000 0.677013594915 -0.247042828328
441610000 0.677427090573 -0.246659082035
441620000 0.678412793569 -0.246984322918
441630000 0.678257523823 -0.247865055186
441640000 0.678105128501 -0.247868472951
441650000 0.678246733021 -0.24763939314
441660000 0.678276639441 -0.248227751141
441670000 0.678217984778 -0.247751688413
441680000 0.67835757963 -0.247161077869
441690000 0.678836323226 -0.247957802658
441700000 0.678536275228 -0.247995517263
441710000 0.679097131685 -0.248018853527
441720000 0.678263705069 -0.247930505796
441730000 0.678940522804 -0.247884452568
441740000 0.679140958543 -0.247595067223
441750000 0.678486872191 -0.247582371356
441760000 0.678210075824 -0.247562584173
441770000 0.6784569329 -0.247635154097
441780000 0.67757170935 -0.247586668585
441790000 0.677549053458 -0.247533643755
441800000 0.677783404385 -0.247627977608
441810000 0.67723990849 -0.247807844875
441820000 0.677838221222 -0.248177903099
441830000 0.678073549518 -0.248997364339
441840000 0.6785380536 -0.24960989307
441850000 0.678177560461 -0.24910616071
441860000 0.677728799361 -0.248992754909
441870000 0.677620940671 -0.248598352241
441880000 0.678595006966 -0.247597773417
441890000 0.679030524703 -0.247718048056
441900000 0.678549701042 -0.248149097268
441910000 0.678231774045 -0.248280035363
441920000 0.677752508486 -0.247623265098
441930000 0.677704753469 -0.24762148609
441940000 0.677824471839 -0.249069252786
441950000 0.678091944412 -0.248471765532
441960000 0.678766147974 -0.248342291187
441970000 0.678274325869 -0.24786664948
441980000 0.678375701416 -0.247243684003
441990000 0.67761291226 -0.250714314948
442000000 0.677607290027 -0.248807564522
442010000 0.676825059725 -0.248757339918
442020000 0.676730309416 -0.248879670057
442030000 0.677557023482 -0.248648143504
442040000 0.677541461719 -0.249423568204
442050000 0.677394845943 -0.24867441331
442060000 0.677399475243 -0.248993003733
442070000 0.677772849774 -0.248420616776
442080000 0.678286901413 -0.2484496204
442090000 0.678915407885 -0.24751130202
442100000 0.678479057517 -0.248857161755
442110000 0.678620187559 -0.249105944119
442120000 0.678177900534 -0.249316325391
442130000 0.678619579685 -0.249206287499
442140000 0.678182556823 -0.249423736516
442150000 0.678472995132 -0.249077906136
442160000 0.678964661278 -0.2497420633
442170000 0.678755477953 -0.248749087344
442180000 0.678539980997 -0.249806020401
442190000 0.679192831315 -0.249348452937
442200000 0.678473401047 -0.249647854354
442210000 0.678093275437 -0.249973985757
442220000 0.678834627886 -0.249533827468
442230000 0.678276834184 -0.249067383849
442240000 0.67822219989 -0.24961715546
442250000 0.678691555744 -0.248775539334
442260000 0.67818362561 -0.248991759597
442270000 0.678668734157 -0.250084242435
442280000 0.678937819884 -0.24911454287
442290000 0.679469969197 -0.249456243027
442300000 0.678882195696 -0.250278498896
442310000 0.678602689933 -0.249245766267
442320000 0.679370011567 -0.247509538516
442330000 0.673872802888 -0.251288053313
442340000 0.679660213832 -0.247263344963
442350000 0.679525525879 -0.24757283112
442360000 0.674911867736 -0.25318861766
442370000 0.681427010656 -0.251898366359
442380000 0.678710791988 -0.249405595351
442390000 0.677059407187 -0.247788474061
442400000 0.67977022738 -0.248946683058
442410000 0.678795620412 -0.244621456086
442420000 0.678678005694 -0.248638411885
442430000 0.674057298097 -0.253139277794
442440000 0.67709805621 -0.24961873251
442450000 0.676992535764 -0.252392830765
442460000 0.678005644742 -0.249477745581
442470000 0.676701125771 -0.246610199611
442480000 0.673248050507 -0.253277807769
442490000 0.675641188068 -0.249586880403
442500000 0.681167037433 -0.241884621177
442510000 0.679509758084 -0.245434905744
442520000 0.68026012644 -0.252637482387
442530000 0.674444059783 -0.247586837013
442540000 0.678015435797 -0.248936635321
442550000 0.680512362169 -0.252171612327
442560000 0.678206295668 -0.249704958883
442570000 0.678992118525 -0.251652830092
442580000 0.679027938915 -0.248804794844
442590000 0.680007157184 -0.254094591805
442600000 0.680241818786 -0.257717801629
442610000 0.679377949216 -0.259007050485
442620000 0.677409595048 -0.258071674981
442630000 0.677759105454 -0.25084163817
442640000 0.676841756425 -0.249890950965
442650000 0.678870136318 -0.248531384723
442660000 0.679644444593 -0.248682784754
442670000 0.676968692862 -0.250617737137
442680000 0.677371165508 -0.249104706473
442690000 0.679277984986 -0.24827830654
442700000 0.677957253108 -0.251770233138
442710000 0.678864597089 -0.24855784869
442720000 0.677003644992 -0.249822448969
442730000 0.678200632821 -0.248507306553
442740000 0.678080359416 -0.249156152543
442750000 0.67997043275 -0.251577422272
442760000 0.678611444179 -0.250497777954
442770000 0.678469795473 -0.251343001986
442780000 0.678529817645 -0.251881668888
442790000 0.679680786259 -0.249306589323
442800000 0.678262172178 -0.249651732395
442810000 0.678412030165 -0.250545642825
442820000 0.678560305193 -0.250398171722
442830000 0.678816452222 -0.2503257511
442840000 0.679161227162 -0.250446845923
442850000 0.678863953821 -0.250979812683
442860000 0.678130595014 -0.250622809965
442870000 0.677562067136 -0.250231077985
442880000 0.67784843592 -0.25105651096
442890000 0.678032102388 -0.250286133214
442900000 0.679336979472 -0.251402030511
442910000 0.678958529946 -0.251253540749
442920000 0.679414754393 -0.250774516049
442930000 0.678735010486 -0.251193234205
442940000 0.678261086643 -0.2513993312
442950000 0.679800865665 -0.250271007481
442960000 0.678828834671 -0.250722402234
442970000 0.679932588311 -0.250726341537
442980000 0.680024727053 -0.251493817085
442990000 0.679517199915 -0.251223894341
443000000 0.679169022026 -0.25109888586
443010000 0.678317013013 -0.251298056456
443020000 0.678597173162 -0.250988239657
443030000 0.678557219083 -0.25110067419
443040000 0.678640442585 -0.250930460366
443050000 0.678453205305 -0.251031218968
443060000 0.678788027253 -0.251242123073
443070000 0.678982440744 -0.250618121257
443080000 0.678577199926 -0.251017781116
443090000 0.678460373385 -0.251733641203
443100000 0.679375020092 -0.251460190945
443110000 0.679571054643 -0.251534701859
443120000 0.679208463326 -0.251611589757
443130000 0.678593126056 -0.252232442293
443140000 0.679518884949 -0.251382048591
443150000 0.679167980322 -0.252244406527
443160000 0.67924185504 -0.25231173433
443170000 0.677910796454 -0.253011423328
443180000 0.679263398197 -0.251970846899
443190000 0.678958651749 -0.25260738848
443200000 0.679361456289 -0.252408605571
443210000 0.679318654762 -0.250835912087
443220000 0.678964747033 -0.251167776754
443230000 0.678693080813 -0.252039152391
443240000 0.679406294004 -0.251957680581
443250000 0.67936419673 -0.250922573762
443260000 0.678561931689 -0.25134351648
443270000 0.678781564138 -0.251173627854
443280000 0.679056121335 -0.251683644562
443290000 0.678755038041 -0.252454149581
443300000 0.678116465309 -0.252230901764
443310000 0.678775598982 -0.252829202783
443320000 0.678503625804 -0.253088650703
443330000 0.678471461564 -0.25216236377
443340000 0.678446323839 -0.251501350606
443350000 0.678365428398 -0.252088454692
443360000 0.678616310254 -0.25163657202
443370000 0.679145921447 -0.252089127956
443380000 0.679233877422 -0.252179383731
443390000 0.679401171759 -0.252329734831
443400000 0.679051985866 -0.252059967545
443410000 0.678808618505 -0.252843651314
443420000 0.678875327403 -0.252755922735
443430000 0.67905652297 -0.252670660762
443440000 0.679148743065 -0.252068257542
443450000 0.679512584838 -0.25208859235
443460000 0.679246956089 -0.251187102547
443470000 0.679747708384 -0.252058916558
443480000 0.678873918817 -0.251454328211
443490000 0.678903608938 -0.252272656826
443500000 0.678161478611 -0.252343500226
443510000 0.678545525911 -0.25241638748
443520000 0.677876786795 -0.252575880482
443530000 0.678309051405 -0.253085853205
443540000 0.678443489362 -0.251988406051
443550000 0.679154107725 -0.251798561656
443560000 0.679782612684 -0.251173282854
443570000 0.678917408056 -0.252142108956
443580000 0.679211728252 -0.25303578381
443590000 0.678222203582 -0.253124598765
443600000 0.678774605984 -0.253057714613
443610000 0.679397714081 -0.253087679613
443620000 0.679321740257 -0.252903834859
443630000 0.679051338258 -0.253145305111
443640000 0.67893770088 -0.252112841827
443650000 0.678745618725 -0.251622831604
443660000 0.6786852421 -0.252280494873
443670000 0.679078683381 -0.251896124102
443680000 0.679376349867 -0.252008190436
443690000 0.679426866627 -0.252481368502
443700000 0.678755560783 -0.252925099638
443710000 0.678408164649 -0.252806567792
443720000 0.678498680587 -0.252432867218
443730000 0.679038657713 -0.252478246231
443740000 0.678985259766 -0.252741761669
443750000 0.679101603945 -0.25321609719
443760000 0.679673827901 -0.253118792227
443770000 0.679472186005 -0.253367601061
443780000 0.679243932425 -0.253159039712
443790000 0.679747142249 -0.253322781237
443800000 0.679615415057 -0.253322431587
443810000 0.679599887185 -0.253666199754
443820000 0.67959573888 -0.253575867758
443830000 0.679507716076 -0.253919202275
443840000 0.679674062125 -0.253699056798
443850000 0.678994392799 -0.253381237692
443860000 0.679433889683 -0.253279078059
443870000 0.679292887904 -0.253276296204
443880000 0.67961712922 -0.252946639189
443890000 0.679335473788 -0.25352103064
443900000 0.678943409833 -0.253310755965
443910000 0.679296778931 -0.253159889343
443920000 0.680128375503 -0.253857886291
443930000 0.678821674992 -0.253698309708
443940000 0.679049488583 -0.253881405814
443950000 0.679211645246 -0.253538489894
443960000 0.679934528103 -0.253800679117
443970000 0.679276213658 -0.25385603886
443980000 0.678823701992 -0.253282121429
443990000 0.679511703502 -0.253560524787
444000000 0.679213957482 -0.253404336814
444010000 0.679201445945 -0.254306143049
444020000 0.679584824888 -0.253007800878
444030000 0.679195659001 -0.253702970447
444040000 0.678835991126 -0.254001591349
444050000 0.678547462771 -0.253812730894
444060000 0.678545967395 -0.25382421286
444070000 0.678825468417 -0.253886263628
444080000 0.678585058277 -0.252975352905
444090000 0.678723628951 -0.254007320867
444100000 0.679164126835 -0.254108753762
444110000 0.679587998744 -0.253999490622
444120000 0.679092595672 -0.253368732187
444130000 0.679155445028 -0.252796833662
444140000 0.680379259583 -0.250415527463
444150000 0.693647904171 -0.243688112963
444160000 0.684740672232 -0.253261723374
444170000 0.682108244069 -0.250275986309
444180000 0.680739492903 -0.251878057343
444190000 0.679653313791 -0.253935963487
444200000 0.679462954183 -0.2543385181
444210000 0.67940615196 -0.254789666886
444220000 0.679520846139 -0.254447521973
444230000 0.679795553918 -0.254819117301
444240000 0.679361134686 -0.254709380646
444250000 0.679241641138 -0.254701495764
444260000 0.678870504298 -0.254418937598
444270000 0.679151791741 -0.254091388828
444280000 0.679514093124 -0.254126278368
444290000 0.678645918434 -0.254285533737
444300000 0.678441356393 -0.254306429208
444310000 0.678828968045 -0.254618451488
444320000 0.678923648174 -0.254676212477
444330000 0.679486435532 -0.254473359315
444340000 0.679628309549 -0.254908222686
444350000 0.679667178351 -0.254091348103
444360000 0.678720015642 -0.254840140075
444370000 0.679263830116 -0.254437211344
444380000 0.679176947801 -0.254722981856
444390000 0.678891389181 -0.254813246141
444400000 0.679099275089 -0.254348319762
444410000 0.679320830556 -0.254272704036
444420000 0.679190953997 -0.254942679292
444430000 0.679280552466 -0.254317518349
444440000 0.679443830667 -0.254932801228
444450000 0.679230759705 -0.254084496237
444460000 0.679604651327 -0.254481375632
444470000 0.679589599314 -0.254472902359
444480000 0.680264979025 -0.254919704578
444490000 0.679707027395 -0.254519963939
444500000 0.678866069459 -0.254869030162
444510000 0.679046810259 -0.254701204943
444520000 0.679535283377 -0.254811577314
444530000 0.679085169439 -0.254289482505
444540000 0.679557045015 -0.254451349074
444550000 0.67926780888 -0.254220985712
444560000 0.678960745302 -0.254721012082
444570000 0.679637029797 -0.254550690715
444580000 0.678608262205 -0.255143079277
444590000 0.678869132801 -0.25455826533
444600000 0.679360255817 -0.255147965454
444610000 0.679562777952 -0.255277625533
444620000 0.679580148044 -0.254165034757
444630000 0.679679370916 -0.254362560297
444640000 0.679405011103 -0.254646879383
444650000 0.679552513024 -0.255217218292
444660000 0.679454732048 -0.255085273021
444670000 0.679510146293 -0.254994350968
444680000 0.679525681528 -0.254760167175
444690000 0.679246387991 -0.254916878691
444700000 0.679528053645 -0.255663899627
444710000 0.679610220573 -0.256072486934
444720000 0.680109704378 -0.254882240204
444730000 0.680204485892 -0.25517272302
444740000 0.679863377429 -0.254257914692
444750000 0.679952703014 -0.255206957113
444760000 0.679627230965 -0.25519767711
444770000 0.679357779143 -0.255925258592
444780000 0.679637745334 -0.255678779766
444790000 0.679297550991 -0.255109071701
444800000 0.679522097462 -0.255232566391
444810000 0.679935493498 -0.255486927469
444820000 0.679279687743 -0.255873092452
444830000 0.679676096314 -0.255778344968
444840000 0.679839875307 -0.255537754899
444850000 0.680000989158 -0.255884669801
444860000 0.679983940029 -0.256149460127
444870000 0.679246931643 -0.256303942081
444880000 0.679158283781 -0.256866782811
444890000 0.680103142168 -0.256072176728
444900000 0.680648812855 -0.255685957627
444910000 0.68289735017 -0.255175046915
444920000 0.681281402231 -0.255404360461
444930000 0.680340455667 -0.255691760514
444940000 0.679964729452 -0.255633480551
444950000 0.679520606381 -0.256170996762
444960000 0.679254637424 -0.25597107483
444970000 0.679246241565 -0.255768779613
444980000 0.679297655951 -0.255500000159
444990000 0.680140379107 -0.255697075977
445000000 0.679699074572 -0.25523107668
445010000 0.679675523057 -0.255986386504
445020000 0.678698059732 -0.255906095076
445030000 0.67929207794 -0.255496370205
445040000 0.679224977634 -0.255564032833
445050000 0.679642388658 -0.254960535626
445060000 0.679926465395 -0.255513989606
445070000 0.679561035174 -0.255839413933
445080000 0.680152111974 -0.25628204804
445090000 0.679379412183 -0.25526052613
445100000 0.680362341434 -0.255346716387
445110000 0.679661456753 -0.25583283722
445120000 0.67954180819 -0.255912243391
445130000 0.67972993755 -0.255617574945
445140000 0.68047573808 -0.25710039267
445150000 0.680177869711 -0.25609183205
445160000 0.679645902166 -0.256120973762
445170000 0.679811198824 -0.256688557284
445180000 0.679121558818 -0.25618750819
445190000 0.679100689455 -0.25672589277
445200000 0.679019890335 -0.256925149473
445210000 0.679786116444 -0.256412725207
445220000 0.680085917238 -0.256307374848
445230000 0.679836560504 -0.256300412212
445240000 0.680093460725 -0.256628904067
445250000 0.679203397797 -0.256150457903
445260000 0.67916656289 -0.255667040929
445270000 0.679162387114 -0.25613453014
445280000 0.679133931598 -0.25586625846
445290000 0.6789136846 -0.256067907567
445300000 0.67902109326 -0.255853279682
445310000 0.679499309623 -0.254777021495
445320000 0.679525639633 -0.255787977429
445330000 0.680239159563 -0.25565578765
445340000 0.679519515312 -0.256079350128
445350000 0.680306116139 -0.255857014308
445360000 0.67982746006 -0.256635763921
445370000 0.679769275481 -0.256168565514
445380000 0.67983162217 -0.256425051407
445390000 0.679945195645 -0.257359819394
445400000 0.679858466393 -0.256608954987
445410000 0.679748510852 -0.256837560957
445420000 0.68027383214 -0.2562894102
445430000 0.679714157332 -0.256040583801
445440000 0.679265841299 -0.257277280718
445450000 0.679880052969 -0.257550544107
445460000 0.678976030583 -0.256675161795
445470000 0.68104193844 -0.257251574992
445480000 0.680193578324 -0.257026555755
445490000 0.680144516235 -0.257183747912
445500000 0.680373678189 -0.25684996035
445510000 0.67914528751 -0.258455048961
445520000 0.680563720551 -0.256871376256
445530000 0.680242736564 -0.257514133349
445540000 0.680382866438 -0.257921058224
445550000 0.681092621713 -0.257261572155
445560000 0.680010408139 -0.256345314539
445570000 0.680306813627 -0.255997663652
445580000 0.680148273439 -0.257105007027
445590000 0.680309630021 -0.256484309061
445600000 0.680266829297 -0.25679465151
445610000 0.680511420783 -0.25625477156
445620000 0.680803048239 -0.257187071466
445630000 0.680450093236 -0.257119910659
445640000 0.680050931513 -0.257007384117
445650000 0.680223400299 -0.257605740649
445660000 0.680384011537 -0.257107028292
445670000 0.68043028229 -0.257197445929
445680000 0.680272810566 -0.256767636544
445690000 0.679845864815 -0.256618333495
445700000 0.681291404756 -0.258632312045
445710000 0.680733577917 -0.257160938105
445720000 0.678092229746 -0.257035897314
445730000 0.680938541127 -0.257760638733
445740000 0.680650680556 -0.258506724777
445750000 0.680113712375 -0.258509089569
445760000 0.680739032751 -0.25828479962
445770000 0.679856119017 -0.257987385989
445780000 0.680193084512 -0.25752701116
445790000 0.680632045734 -0.25784891563
445800000 0.681387158352 -0.257823222678
445810000 0.68044983656 -0.258175949753
445820000 0.680925073559 -0.25820890673
445830000 0.679985556329 -0.258296325573
445840000 0.679809147122 -0.258649459794
445850000 0.680864334969 -0.257299991536
445860000 0.680053541498 -0.25730393394
445870000 0.680623555397 -0.257939365127
445880000 0.680508165015 -0.258267877421
445890000 0.67997908232 -0.258387516168
445900000 0.679977588271 -0.257876538632
445910000 0.680134652961 -0.25732881048
445920000 0.680610537141 -0.257110457141
445930000 0.680421661573 -0.257627724702
445940000 0.680442687616 -0.257647700318
445950000 0.680798772866 -0.257972307474
445960000 0.68040985028 -0.257693400669
445970000 0.681104053673 -0.258185825405
445980000 0.680616260703 -0.257818112593
445990000 0.680372456775 -0.257860264029
446000000 0.680714750366 -0.258473875638
446010000 0.680503723942 -0.258538095437
446020000 0.679964947487 -0.257875923543
446030000 0.680045065338 -0.257629005731
446040000 0.680358143412 -0.257355185957
446050000 0.679359180115 -0.257551739941
446060000 0.680027821001 -0.257816992838
446070000 0.680157210533 -0.257424680485
446080000 0.680809920987 -0.2571750809
446090000 0.680452005205 -0.257787932377
446100000 0.680204186814 -0.257167908883
446110000 0.680269964175 -0.257778624759
446120000 0.679874004008 -0.257659876346
446130000 0.680168069346 -0.25792252613
446140000 0.680292795811 -0.257791775811
446150000 0.679713294512 -0.258358850861
446160000 0.681003913044 -0.258260363544
446170000 0.680586534897 -0.258614550437
446180000 0.68016319952 -0.257845650676
446190000 0.679939700608 -0.257498587632
446200000 0.679286729802 -0.258198297458
446210000 0.679914404504 -0.25813110962
446220000 0.680140316945 -0.258283203768
446230000 0.679810708401 -0.259290123383
446240000 0.680030260612 -0.259068020791
446250000 0.680389113547 -0.258122137233
446260000 0.680817821471 -0.258229309454
446270000 0.681065794233 -0.25850657447
446280000 0.6808549924 -0.25844135607
446290000 0.680774310994 -0.25885276389
446300000 0.680774802031 -0.260007536084
446310000 0.680224829887 -0.260220441199
446320000 0.670501660125 -0.256381539247
446330000 0.680446223275 -0.26012165929
446340000 0.680401504369 -0.25909598738
446350000 0.680368427583 -0.258757754653
446360000 0.679699095724 -0.258802300517
446370000 0.680252836189 -0.258756050035
446380000 0.679519646392 -0.259214613019
446390000 0.679956301249 -0.258858807112
446400000 0.6805468296 -0.258757872032
446410000 0.68069179517 -0.25880856751
446420000 0.680425155595 -0.258706685399
446430000 0.680294422816 -0.258485870489
446440000 0.680581685157 -0.258854493197
446450000 0.680394259909 -0.258787663361
446460000 0.680676310552 -0.258453110903
446470000 0.68051335192 -0.258735843585
446480000 0.680373886662 -0.259024698599
446490000 0.680099973139 -0.259381952129
446500000 0.680187057843 -0.259490269699
446510000 0.680429074865 -0.25905957066
446520000 0.679854634413 -0.259185747204
446530000 0.679944666698 -0.258703230795
446540000 0.681044808657 -0.259191082061
446550000 0.680450189548 -0.25911632756
446560000 0.680584715148 -0.259189386873
446570000 0.680465601439 -0.259080944322
446580000 0.679717084353 -0.260036348197
446590000 0.679873817805 -0.25885390227
446600000 0.680217839143 -0.259461369871
446610000 0.679836837997 -0.258841031865
446620000 0.680823897648 -0.259119941747
446630000 0.680708518033 -0.259459322155
446640000 0.68112790247 -0.259033091893
446650000 0.680538579663 -0.259302421389
446660000 0.680727564293 -0.25909278975
446670000 0.680256515321 -0.259369003824
446680000 0.679877786003 -0.258812323411
446690000 0.679597794216 -0.259142704689
446700000 0.680474086422 -0.258972477456
446710000 0.680218753034 -0.259311627775
446720000 0.680202561513 -0.25936470098
446730000 0.679881231943 -0.259155135322
446740000 0.680289958314 -0.259945307782
446750000 0.680067171288 -0.259208783936
446760000 0.679824317197 -0.259006223275
446770000 0.680598607173 -0.260187862325
446780000 0.680042576197 -0.25917612185
446790000 0.680310080252 -0.259138548124
446800000 0.680157898737 -0.260432319299
446810000 0.681149796125 -0.260189523463
446820000 0.681082794798 -0.259625115756
446830000 0.681073616006 -0.258867773216
446840000 0.681031266412 -0.258308601825
446850000 0.681242320029 -0.258069146096
446860000 0.680459969269 -0.257841222366
446870000 0.680771892614 -0.258486123473
446880000 0.680863359018 -0.258943302331
446890000 0.680624522542 -0.260037770837
446900000 0.680349626349 -0.260317410974
446910000 0.680958127625 -0.2601849323
446920000 0.681218495392 -0.259849054468
446930000 0.68115398472 -0.259973639419
446940000 0.680783015604 -0.260032360484
446950000 0.680692426136 -0.259509408027
446960000 0.680774744016 -0.259523277563
446970000 0.68086623261 -0.259399930137
446980000 0.681289152597 -0.259783746489
446990000 0.681300334333 -0.259809122321
447000000 0.68182442167 -0.260607464601
447010000 0.681110479264 -0.260614553326
447020000 0.681356823931 -0.260883593769
447030000 0.68091942286 -0.26023812558
447040000 0.680649340271 -0.260693262296
447050000 0.680636788972 -0.260453167941
447060000 0.680837470422 -0.260706162633
447070000 0.680897054632 -0.260833078026
447080000 0.681130249694 -0.261918613561
447090000 0.680759600378 -0.262167173053
447100000 0.680489026565 -0.262451100088
447110000 0.6801622707 -0.261652493206
447120000 0.680201310119 -0.26041097958
447130000 0.680899643218 -0.260476795616
447140000 0.679982163631 -0.259865576233
447150000 0.679788915195 -0.260331814098
447160000 0.680122299243 -0.260153865675
447170000 0.680290560878 -0.2604802046
447180000 0.68075882705 -0.261100740745
447190000 0.681679655203 -0.260814413773
447200000 0.681291211263 -0.260486469676
447210000 0.68098452088 -0.261163437901
447220000 0.680687506445 -0.260540177669
447230000 0.680396084028 -0.259948971797
447240000 0.68092862673 -0.261524344077
447250000 0.681736564301 -0.260987068325
447260000 0.681535108006 -0.260881163439
447270000 0.680717762301 -0.259754425548
447280000 0.681886151134 -0.260531074417
447290000 0.680348404843 -0.260684029462
447300000 0.680666648226 -0.260460557825
447310000 0.680756394437 -0.261153352014
447320000 0.681404972108 -0.259616906432
447330000 0.680624902254 -0.261111422776
447340000 0.68081372548 -0.260445833947
447350000 0.680243584649 -0.260216037473
447360000 0.680137147958 -0.260162847658
447370000 0.680362335207 -0.26053988264
447380000 0.680375856517 -0.261015351013
447390000 0.681600201903 -0.259518465159
447400000 0.680802772784 -0.260418343283
447410000 0.682599019492 -0.258769717887
447420000 0.680811314346 -0.259764127519
447430000 0.680268203729 -0.259530534108
447440000 0.67957446831 -0.258541710765
447450000 0.680517471624 -0.261280804236
447460000 0.681156040291 -0.260785232144
447470000 0.681456505371 -0.260901174962
447480000 0.681742518282 -0.260254330993
447490000 0.682383577502 -0.260392543851
447500000 0.680748139386 -0.261108049676
447510000 0.68129126399 -0.26164451064
447520000 0.681240763366 -0.263959102603
447530000 0.682409140328 -0.259924781134
447540000 0.681272583275 -0.261954431952
447550000 0.683715407498 -0.260562207945
447560000 0.684077386502 -0.257232340268
447570000 0.680673312391 -0.259420508683
447580000 0.681028250576 -0.259661958815
447590000 0.681073801953 -0.260733802366
447600000 0.682029430903 -0.260553546014
447610000 0.680558776753 -0.260351046765
447620000 0.683387035492 -0.260939045475
447630000 0.680400178593 -0.26172513316
447640000 0.678938021897 -0.261366903042
447650000 0.680027395531 -0.261509440822
447660000 0.681040952317 -0.260349141184
447670000 0.682969257263 -0.260089116265
447680000 0.681667175911 -0.259181697434
447690000 0.681718679569 -0.260231542911
447700000 0.680377027872 -0.260451847837
447710000 0.68074179136 -0.261014227625
447720000 0.680490833969 -0.260789132897
447730000 0.680076430453 -0.261298779406
447740000 0.680894960184 -0.260893378804
447750000 0.681431545173 -0.262428387575
447760000 0.683663916956 -0.259656894394
447770000 0.680809732892 -0.258912746274
447780000 0.680606507636 -0.262864475801
447790000 0.681492827155 -0.261839731459
447800000 0.681113128481 -0.261580810525
447810000 0.680640398551 -0.261249489316
447820000 0.6812228255 -0.261903332301
447830000 0.681146265995 -0.261467409727
447840000 0.681482827776 -0.261443454242
447850000 0.680553688157 -0.261429240617
447860000 0.680983320001 -0.26121667849
447870000 0.681022985744 -0.261106323595
447880000 0.681379067743 -0.261354505292
447890000 0.680401247328 -0.261748687854
447900000 0.680663576736 -0.261927256806
447910000 0.680482510933 -0.261240989467
447920000 0.68098679071 -0.260853117413
447930000 0.680506002943 -0.261141002428
447940000 0.681224377359 -0.261566313241
447950000 0.680771886896 -0.261870828278
447960000 0.680482072781 -0.261647108413
447970000 0.680892809829 -0.261442575029
447980000 0.680795694745 -0.261604916031
447990000 0.680411761721 -0.261445015955
448000000 0.680693594306 -0.261873828967
448010000 0.680902164182 -0.261870338014
448020000 0.68052950569 -0.261815898081
448030000 0.681033951089 -0.261955117766
448040000 0.68091741717 -0.260836053081
448050000 0.680694294301 -0.260960691217
448060000 0.680814790611 -0.261012006192
448070000 0.680514136742 -0.26134149536
448080000 0.680896509603 -0.261198452996
448090000 0.681285805988 -0.261094492261
448100000 0.681436854132 -0.261445182267
448110000 0.681111888297 -0.261021242867
448120000 0.682148942649 -0.261397650825
448130000 0.681098929755 -0.261789823254
448140000 0.680939991744 -0.261673734793
448150000 0.681322708496 -0.261818142526
448160000 0.681465420969 -0.261872199191
448170000 0.681323436853 -0.261876625347
448180000 0.681845814715 -0.261728256844
448190000 0.68175674547 -0.261408771143
448200000 0.680769244712 -0.261105480987
448210000 0.681197743465 -0.260868348385
448220000 0.680142509839 -0.261644337627
448230000 0.680603477294 -0.261598827556
448240000 0.680648244902 -0.261416226761
448250000 0.680051204915 -0.26161527878
448260000 0.68039989356 -0.261583932289
448270000 0.680694686197 -0.260677487664
448280000 0.680575524888 -0.261121328796
448290000 0.680943701485 -0.26099699273
448300000 0.680697238448 -0.261308372863
448310000 0.681823749248 -0.261802877506
448320000 0.681503353533 -0.262605921052
448330000 0.681999957088 -0.263003286916
448340000 0.68205773778 -0.262573205091
448350000 0.681537966858 -0.262320177856
448360000 0.68169522938 -0.261522897312
448370000 0.6821718273 -0.261617753998
448380000 0.68142625016 -0.260868327989
448390000 0.681667587442 -0.262433340499
448400000 0.681646583145 -0.261961139941
448410000 0.681059521806 -0.261627263856
448420000 0.681520756813 -0.262105740441
448430000 0.681733891849 -0.262065449528
448440000 0.681137118206 -0.262273722957
448450000 0.680865325563 -0.262308025313
448460000 0.681466733735 -0.26189428157
448470000 0.681800448744 -0.261974774311
448480000 0.681526299164 -0.262639162816
448490000 0.685863735437 -0.278816106796
448500000 0.680422343441 -0.253809138845
448510000 0.681329979839 -0.26147709056
448520000 0.681769959718 -0.262030779298
448530000 0.68262771408 -0.262573004924
448540000 0.681721347989 -0.262099278743
448550000 0.680846325574 -0.26209571422
448560000 0.681216937009 -0.261961801915
448570000 0.681603378566 -0.262296593041
448580000 0.68158597662 -0.262727671035
448590000 0.682141278352 -0.263022391026
448600000 0.681930761329 -0.262624418138
448610000 0.681529704665 -0.262425984268
448620000 0.681380418694 -0.261797487929
448630000 0.681517412623 -0.262359273158
448640000 0.681371589711 -0.262802620359
448650000 0.681617666537 -0.263133915063
448660000 0.681525909995 -0.262706752673
448670000 0.681509752923 -0.262377826148
448680000 0.681327533649 -0.262295292933
448690000 0.681267146059 -0.262417541484
448700000 0.68108713915 -0.26178841723
448710000 0.681771570016 -0.261944122629
448720000 0.68134370292 -0.262114920271
448730000 0.680986585613 -0.261518151062
448740000 0.681536104992 -0.262451119371
448750000 0.681561234317 -0.261970674996
448760000 0.681685597038 -0.262473654506
448770000 0.680903827217 -0.262741966639
448780000 0.681114366092 -0.262243111506
448790000 0.681254594702 -0.262459172844
448800000 0.683153931623 -0.262362204673
448810000 0.681655533687 -0.262709138968
448820000 0.681045240634 -0.262969780729
448830000 0.681192550326 -0.264044200167
448840000 0.681122040097 -0.262618839046
448850000 0.681677747331 -0.263147820074
448860000 0.680924325525 -0.263310714223
448870000 0.681468110758 -0.26288715959
448880000 0.681550581076 -0.262938954143
448890000 0.681303997555 -0.261965265491
448900000 0.681284360171 -0.261621085226
448910000 0.68168916861 -0.261805907688
448920000 0.681745075568 -0.262074699017
448930000 0.68152045954 -0.26312107605
448940000 0.681901157056 -0.263177737965
448950000 0.681661874692 -0.262774641539
448960000 0.681726436003 -0.262695711619
448970000 0.68135301924 -0.262626588535
448980000 0.681468643722 -0.262535107288
448990000 0.681561755018 -0.262940898851
449000000 0.681682396969 -0.263260001832
449010000 0.681877850948 -0.262821214745
449020000 0.681719060607 -0.262514824622
449030000 0.681862989248 -0.263466536979
449040000 0.681866468639 -0.262967386245
449050000 0.681765534887 -0.26302652078
449060000 0.682010731781 -0.262798534508
449070000 0.682685547603 -0.263045258354
449080000 0.682732688347 -0.263425760691
449090000 0.682929103574 -0.263106589312
449100000 0.682710144579 -0.263080479898
449110000 0.682631661042 -0.263022754732
449120000 0.682466574278 -0.263376661855
449130000 0.682699575421 -0.263420314531
449140000 0.682562161782 -0.262819555755
449150000 0.682745182443 -0.262460996419
449160000 0.683417401971 -0.262683556775
449170000 0.682125495862 -0.263102517499
449180000 0.682074027371 -0.262942152635
449190000 0.681722494175 -0.263515287312
449200000 0.682012120969 -0.263355258942
449210000 0.68206531677 -0.262696181644
449220000 0.681466387972 -0.262720811448
449230000 0.681821737845 -0.26325288168
449240000 0.681900712662 -0.26343954328
449250000 0.682185863334 -0.263845249568
449260000 0.682535794507 -0.263608674348
449270000 0.682113968297 -0.263846011794
449280000 0.682044028129 -0.263392768221
449290000 0.682012990103 -0.262851353013
449300000 0.682310780761 -0.263295208252
449310000 0.682446353218 -0.263012899405
449320000 0.682353294991 -0.2628739945
449330000 0.682568489825 -0.263369774294
449340000 0.681952731995 -0.264066723668
449350000 0.682050355455 -0.264027555063
449360000 0.682277315823 -0.263032854698
449370000 0.681959226607 -0.263914952572
449380000 0.681764238567 -0.263885603111
449390000 0.681754999338 -0.264517684908
449400000 0.68226095861 -0.263966366416
449410000 0.681593681764 -0.263238934838
449420000 0.681168953585 -0.263476866836
449430000 0.681474705845 -0.263367435769
449440000 0.681640683316 -0.264116416284
449450000 0.682165119518 -0.264553467012
449460000 0.682198518591 -0.26444029632
449470000 0.682322125738 -0.264715768486
449480000 0.6824508006 -0.264216653943
449490000 0.681995300818 -0.264128191314
449500000 0.68237466394 -0.26404147132
449510000 0.681621825402 -0.264127249169
449520000 0.681752462185 -0.263674648589
449530000 0.681821333133 -0.26367843989
449540000 0.682082044933 -0.263800399152
449550000 0.68346859221 -0.265068344873
449560000 0.685082174411 -0.266449260127
449570000 0.688368832276 -0.266787615038
449580000 0.684563854985 -0.26696109072
449590000 0.682873347228 -0.26544432755
449600000 0.683131198926 -0.263948263029
449610000 0.682343467913 -0.264029826374
449620000 0.682916203542 -0.263803953972
449630000 0.682235216381 -0.263631774459
449640000 0.681962370593 -0.263631429822
449650000 0.682342797699 -0.263663100922
449660000 0.682053688159 -0.263375103536
449670000 0.681901616676 -0.261539970533
449680000 0.68298409588 -0.263683763221
449690000 0.683031323703 -0.263961978901
449700000 0.682676646676 -0.263803270657
449710000 0.682416616333 -0.263462206007
449720000 0.681785548436 -0.26363419726
449730000 0.681792446025 -0.263823855249
449740000 0.682108885377 -0.263727435097
449750000 0.682041698426 -0.263866757461
449760000 0.683021860692 -0.263957561851
449770000 0.682910889351 -0.26419766948
449780000 0.683516058333 -0.264453043179
449790000 0.683513326593 -0.263749467886
449800000 0.683544768116 -0.264069001106
449810000 0.682860113034 -0.264314118539
449820000 0.681842305762 -0.264952339247
449830000 0.68170030609 -0.264730601879
449840000 0.681835839447 -0.264420374117
449850000 0.682842066146 -0.263812343591
449860000 0.68230592355 -0.264504825911
449870000 0.681898717708 -0.264249690964
449880000 0.682953819415 -0.263180994519
449890000 0.683416942807 -0.263439851597
449900000 0.683140242875 -0.263901337575
449910000 0.683053561658 -0.264507938515
449920000 0.682924858764 -0.264682301734
449930000 0.683353415094 -0.264281144208
449940000 0.682843968208 -0.264893504912
449950000 0.682623579522 -0.265065902255
449960000 0.681870024877 -0.264230415011
449970000 0.682608717107 -0.263661385255
449980000 0.682102472402 -0.264083859446
449990000 0.682349856253 -0.26415913498
450000000 0.682473254487 -0.264331165294
