! Calibrated averaged scanner-service zoom
# Hz S RI R 50
118000000 0.0696090716327 -0.666480231111
118009500 0.070408539878 -0.665855674395
118019000 0.0705694578054 -0.665596588429
118028500 0.0678681868573 -0.666307455286
118038000 0.0687866002139 -0.667043801584
118047500 0.0695384931688 -0.6673495138
118057000 0.0709362459696 -0.666391546195
118066500 0.0702655309411 -0.666665180404
118076000 0.0678239828837 -0.667134983825
118085500 0.0690698278766 -0.667944499621
118095000 0.070092562991 -0.667876637568
118104500 0.0711879876958 -0.667324290354
118114000 0.0695245338978 -0.667603466831
118123500 0.0679995284507 -0.668109769022
118133000 0.0693864915985 -0.668899619189
118142500 0.0702729331901 -0.668358290918
118152000 0.0710085414551 -0.668046994276
118161500 0.0686921380035 -0.668376452257
118171000 0.0681971759917 -0.669158033331
118180500 0.0695330692664 -0.669788743208
118190000 0.0704610223297 -0.669201813414
118199500 0.0707009115919 -0.668995814167
118209000 0.0681188956257 -0.669392232587
118218500 0.0686720819249 -0.670175877095
118228000 0.0697082383619 -0.670499949374
118237500 0.0710187062174 -0.670033338179
118247000 0.0703006020857 -0.670150492896
118256500 0.0678113668936 -0.670382257254
118266000 0.0688548775172 -0.6712772651
118275500 0.0699714741512 -0.671318151975
118285000 0.0712515132829 -0.670892458414
118294500 0.0696829687856 -0.671146301585
118304000 0.0680658416872 -0.67144614348
118313500 0.06926970114 -0.672489757449
118323000 0.0699709727301 -0.672129347746
118332500 0.0711059836105 -0.67172886186
118342000 0.068952110952 -0.671893810735
118351500 0.0681883913599 -0.672505690255
118361000 0.0693084208124 -0.673332699072
118370500 0.0702190885645 -0.672870808491
118380000 0.0707797546626 -0.672616190172
118389500 0.068172073319 -0.672753276117
118399000 0.0685893973622 -0.673555441985
118408500 0.0693104423912 -0.674114088668
118418000 0.0706046616865 -0.673704818902
118427500 0.0702386649995 -0.673668069576
118437000 0.0678784250238 -0.673634229657
118446500 0.068796085208 -0.674613908365
118456000 0.0697188719836 -0.675052758495
118465500 0.0708958211515 -0.674681601989
118475000 0.0697975120584 -0.674637496289
118484500 0.0680050345529 -0.674781372334
118494000 0.0690638512437 -0.675925013244
118503500 0.0698984126471 -0.675769156859
118513000 0.070886038932 -0.675515714035
118522500 0.0690193877761 -0.675379615714
118532000 0.0680839393211 -0.675877649956
118541500 0.0690446804517 -0.67682733053
118551000 0.0700645470371 -0.676533514237
118560500 0.0705918448602 -0.676419376021
118570000 0.0682026834118 -0.676274760418
118579500 0.0683317289295 -0.677038459353
118589000 0.069247819578 -0.677785333636
118598500 0.0703911479303 -0.677573887429
118608000 0.0702245506768 -0.677452786157
118617500 0.0678607311441 -0.677139309334
118627000 0.0685246240069 -0.678178912116
118636500 0.0695990325743 -0.678688279418
118646000 0.0707163504957 -0.678476876669
118655500 0.0696452513235 -0.678326000158
118665000 0.0678791609778 -0.678390144447
118674500 0.0688179134732 -0.679641292695
118684000 0.0695611127265 -0.679642938972
118693500 0.0707889036178 -0.679447793274
118703000 0.0690722888535 -0.679231817543
118712500 0.0679242501248 -0.67960737407
118722000 0.0687454256597 -0.68064790218
118731500 0.0696954457068 -0.68053352619
118741000 0.0704863612784 -0.680461061717
118750500 0.0682415151937 -0.680083631182
118760000 0.0680960331069 -0.680708404128
118769500 0.0687413357108 -0.6816261146
118779000 0.069851610468 -0.68151081567
118788500 0.07000188365 -0.681393325983
118798000 0.0677862794054 -0.680854514201
118807500 0.0682083927245 -0.681958648575
118817000 0.0689476666879 -0.682734892032
118826500 0.0701162103299 -0.682501805559
118836000 0.0695514298096 -0.682312999523
118845500 0.0676670150544 -0.682137994332
118855000 0.0683424062965 -0.683294075043
118864500 0.0690246593258 -0.683465847599
118874000 0.0703058605495 -0.683571791364
118883500 0.0689108397163 -0.683223054718
118893000 0.06755515653 -0.683260179396
118902500 0.0683560594681 -0.684418143426
118912000 0.0693089887445 -0.684551996447
118921500 0.0701166614947 -0.684636527663
118931000 0.0680472475954 -0.683975738852
118940500 0.0677668911089 -0.684546981254
118950000 0.0684087259275 -0.685625627676
118959500 0.0705694123237 -0.686486438934
118969000 0.0696815756433 -0.685882012578
118978500 0.0691628140703 -0.686238429022
118988000 0.0689453472998 -0.686710006195
118997500 0.0698067598533 -0.687336124477
119007000 0.0701247047265 -0.68734047705
119016500 0.0692189603747 -0.68678129539
119026000 0.0688639648534 -0.68735347093
119035500 0.0689428930973 -0.687902388918
119045000 0.0700168900225 -0.688513588299
119054500 0.0698942416885 -0.688336914414
119064000 0.0692420018533 -0.688036306139
119073500 0.0685406470245 -0.68849734803
119083000 0.0691900735662 -0.6890966523
119092500 0.0701339355101 -0.689619909309
119102000 0.0696672452398 -0.689379216597
119111500 0.0691094987875 -0.689418435238
119121000 0.0683238974467 -0.68978985217
119130500 0.0691884301533 -0.690400120716
119140000 0.0699897568633 -0.6908505222
119149500 0.0692162914414 -0.6902915575
119159000 0.0687126488819 -0.690509018749
119168500 0.0684086433804 -0.690950607444
119178000 0.0690570965962 -0.691615370562
119187500 0.0695597800357 -0.691734823466
119197000 0.0687988540392 -0.691112371555
119206500 0.0683432824073 -0.691611085818
119216000 0.0681546266781 -0.692110202942
119225500 0.0691156757468 -0.692927709039
119235000 0.0692743933107 -0.692757409214
119244500 0.0685931315957 -0.692361305192
119254000 0.0679016413084 -0.692848277256
119263500 0.0682750689027 -0.693438697101
119273000 0.0693238171055 -0.693987925828
119282500 0.0690323457578 -0.693808836555
119292000 0.0685092100684 -0.693752529618
119301500 0.0676976780908 -0.69404412085
119311000 0.0682733532229 -0.694779221456
119320500 0.0690973003966 -0.695246042721
119330000 0.0684737426164 -0.694753766406
119339500 0.0680396049911 -0.694911279705
119349000 0.0675842887448 -0.695334659843
119358500 0.0682368229971 -0.696093314464
119368000 0.0686384198639 -0.696241457477
119377500 0.067934363693 -0.695592281444
119387000 0.0676073680946 -0.696003828285
119396500 0.0673825018917 -0.696421692943
119406000 0.0681875182262 -0.697310004566
119415500 0.068185524434 -0.697231440368
119425000 0.0677066961395 -0.696754381458
119434500 0.0671116802852 -0.697183931173
119444000 0.067361838449 -0.697872262938
119453500 0.0681515098613 -0.698500457863
119463000 0.0679394538518 -0.698444982445
119472500 0.0674845952501 -0.698261390372
119482000 0.0667388564126 -0.698479008579
119491500 0.0673692150031 -0.699266331988
119501000 0.0681024951321 -0.699919389973
119510500 0.067553313507 -0.699365474381
119520000 0.0671903537242 -0.699455600584
119529500 0.0666234567367 -0.699819045508
119539000 0.0671300286896 -0.700582487147
119548500 0.0676634601069 -0.700865458567
119558000 0.0670355828577 -0.700263081825
119567500 0.0667113313663 -0.700629572048
119577000 0.066226738428 -0.700943827188
119586500 0.0669375684727 -0.701809453485
119596000 0.0672176203649 -0.701899849907
119605500 0.0666228780797 -0.701341338457
119615000 0.0660135848111 -0.701568616808
119624500 0.0661690814463 -0.702353569815
119634000 0.0668010259868 -0.703152502773
119643500 0.0668060529405 -0.70313742107
119653000 0.0663746595175 -0.702853311533
119662500 0.0657135217793 -0.703124374883
119672000 0.0659459352886 -0.70390415504
119681500 0.0667204912635 -0.704585570614
119691000 0.0663849108037 -0.704154536125
119700500 0.0659466533346 -0.704267831316
119710000 0.0653435401267 -0.704467566356
119719500 0.0657749586697 -0.705244945957
119729000 0.0663867449208 -0.705734143368
119738500 0.0657782041745 -0.705150513698
119748000 0.0654166205753 -0.705400771722
119757500 0.0649588308563 -0.705578139946
119767000 0.0656318931198 -0.706696840861
119776500 0.0657035597375 -0.706775805244
119786000 0.0652742924103 -0.706173260775
119795500 0.064755649508 -0.706428952129
119805000 0.0647885776606 -0.707192584789
119814500 0.0653344961044 -0.708087472093
119824000 0.0651902308337 -0.70787889055
119833500 0.0650475645209 -0.707620477905
119843000 0.0643209181009 -0.707895430241
119852500 0.0645337728994 -0.708591246662
119862000 0.0650941727792 -0.709390175535
119871500 0.0648425042248 -0.709017920437
119881000 0.0645271059046 -0.709073598301
119890500 0.063816081626 -0.709312479279
119900000 0.0641074924218 -0.710095350142
119909500 0.063769682005 -0.711384722977
119919000 0.0643080009037 -0.712006058049
119928500 0.0643734259083 -0.711872371077
119938000 0.0635532593885 -0.711167643721
119947500 0.0633263386831 -0.711602110725
119957000 0.0634075392773 -0.712809161347
119966500 0.0639689538794 -0.713443546592
119976000 0.0639845931407 -0.713269103545
119985500 0.0629576266373 -0.712459015539
119995000 0.0628263772256 -0.713283643981
120004500 0.0629775627156 -0.714045675058
120014000 0.0634777119676 -0.714585510533
120023500 0.0634527047123 -0.714438521485
120033000 0.0622191408868 -0.713625992655
120042500 0.0621307199989 -0.71472035009
120052000 0.0624992431021 -0.715416813335
120061500 0.0627964152953 -0.71567257576
120071000 0.0624943905197 -0.715401660098
120080500 0.0617227327814 -0.715110164098
120090000 0.0616456090158 -0.716242311528
120099500 0.0620792283914 -0.716889331654
120109000 0.062166331487 -0.716797794537
120118500 0.0616451480078 -0.716157801152
120128000 0.0613255763537 -0.716498266372
120137500 0.0611812335084 -0.717638493985
120147000 0.0617299667012 -0.718256760285
120156500 0.0617364051539 -0.718139608629
120166000 0.0607991296497 -0.717270262627
120175500 0.0606244745016 -0.71798446068
120185000 0.0607119242248 -0.718847747676
120194500 0.0611041627923 -0.719534764582
120204000 0.0610959606134 -0.719473977068
120213500 0.0600268195536 -0.718575889075
120223000 0.0599241675476 -0.719631416441
120232500 0.0601071560725 -0.72035882952
120242000 0.060399786551 -0.720664123591
120251500 0.0601684355407 -0.72034047541
120261000 0.0595107276744 -0.719917483902
120270500 0.0593484542265 -0.72109928155
120280000 0.0596051534403 -0.721662986933
120289500 0.0596833458505 -0.721653420958
120299000 0.0592731375994 -0.721154546556
120308500 0.0588236012437 -0.721319550983
120318000 0.0585650058429 -0.722535489535
120327500 0.0589844136136 -0.723181444266
120337000 0.0590952592671 -0.723128108001
120346500 0.0583428253564 -0.722326096876
120356000 0.0581194617775 -0.723012241856
120365500 0.0580319532934 -0.723829554873
120375000 0.0584493557384 -0.724496896668
120384500 0.0584566994163 -0.724537130031
120394000 0.0575721142313 -0.723592059844
120403500 0.0573667582295 -0.724506551194
120413000 0.0574392972523 -0.725214890627
120422500 0.0576240253053 -0.725571563345
120432000 0.0575456894782 -0.72536741152
120441500 0.0568584978016 -0.724833180273
120451000 0.0566062361894 -0.725863529194
120460500 0.0567219194182 -0.726588332329
120470000 0.0568176123758 -0.7265577345
120479500 0.056559562598 -0.726186450733
120489000 0.0560490214242 -0.726218066963
120498500 0.0557094926697 -0.727397636488
120508000 0.0559651223089 -0.728059596127
120517500 0.0561051105157 -0.728055231455
120527000 0.0555757365876 -0.727375258836
120536500 0.0553149310157 -0.727905631225
120546000 0.0551308089551 -0.728742564216
120555500 0.0554428774355 -0.729450536274
120565000 0.0554528592132 -0.729420250348
120574500 0.0546253100764 -0.728498148035
120584000 0.0544145984505 -0.72930150724
120593500 0.0543224143059 -0.730095922706
120603000 0.0545152497599 -0.730563059537
120612500 0.0543787831217 -0.73049238882
120622000 0.0537261054237 -0.729745669507
120631500 0.0535001901947 -0.730800050582
120641000 0.0535936566901 -0.731455487241
120650500 0.0536142362954 -0.731558489857
120660000 0.0534623705973 -0.731302927843
120669500 0.0530694879057 -0.731196088566
120679000 0.0526595015582 -0.732340512753
120688500 0.0527298443104 -0.732923412912
120698000 0.0527799396998 -0.732892636553
120707500 0.0523675857565 -0.732237023386
120717000 0.0520715994842 -0.732711350057
120726500 0.0517792370146 -0.73354056361
120736000 0.05193321448 -0.7343289105
120745500 0.0519442581662 -0.734333510187
120755000 0.0512648892079 -0.733301018407
120764500 0.0510925380443 -0.73413105876
120774000 0.0508346113161 -0.734947991528
120783500 0.0509833870234 -0.735413102929
120793000 0.0510295342859 -0.735469610256
120802500 0.0504468770431 -0.734752876148
120812000 0.0500727359489 -0.735658812317
120821500 0.050007396119 -0.736233090857
120831000 0.0501027110596 -0.736407731307
120840500 0.0500550238228 -0.736227572079
120850000 0.0495997307051 -0.73596382104
120859500 0.0495718832394 -0.737070997538
120869000 0.0493775051537 -0.736311551188
120878500 0.0493311371835 -0.736592391602
120888000 0.0487670051611 -0.73685540871
120897500 0.0484424105769 -0.737614054945
120907000 0.0487335956052 -0.738373754164
120916500 0.0485655762143 -0.737522003328
120926000 0.0480615284435 -0.737626185284
120935500 0.0477285099367 -0.738112301045
120945000 0.047555496155 -0.73897595529
120954500 0.0476286288617 -0.73941650441
120964000 0.0475562310509 -0.738736733453
120973500 0.047057844424 -0.738871754334
120983000 0.046725147112 -0.739496676907
120992500 0.0466185172079 -0.740267020498
121002000 0.046627201539 -0.740153444285
121011500 0.0466549576291 -0.740073646282
121021000 0.0459354664042 -0.740144702943
121030500 0.0456050097807 -0.740921843096
121040000 0.0456921284878 -0.74158474814
121049500 0.0456062784595 -0.741001734544
121059000 0.0454542345701 -0.741201199176
121068500 0.0449254131575 -0.741361952407
121078000 0.0445079969403 -0.742013260566
121087500 0.0447170121738 -0.742931777276
121097000 0.0445860704875 -0.742141237181
121106500 0.0441749777236 -0.742278427476
121116000 0.0438204840002 -0.742727030301
121125500 0.0435972945291 -0.743552056813
121135000 0.0437656666472 -0.744114970677
121144500 0.0436732072566 -0.743379015882
121154000 0.0432684639359 -0.743474153449
121163500 0.0429208343069 -0.744059332588
121173000 0.0426706941175 -0.744749612795
121182500 0.0426488968335 -0.744813796894
121192000 0.042657110365 -0.744626075883
121201500 0.0419430975849 -0.744676670959
121211000 0.0414997115352 -0.745376098238
121220500 0.0415046119125 -0.746113689801
121230000 0.0414845286713 -0.745566569876
121239500 0.0413827312591 -0.745836787022
121249000 0.0408756598594 -0.745945651532
121258500 0.0404000634731 -0.746580276516
121268000 0.0404973754135 -0.747513585142
121277500 0.0404315580423 -0.746698845858
121287000 0.0401436528204 -0.746895218022
121296500 0.0396837321838 -0.747255487147
121306000 0.0393527992475 -0.747995147404
121315500 0.0393730201637 -0.748610489238
121325000 0.039349995874 -0.747846545779
121334500 0.0389675809609 -0.747983424772
121344000 0.0385466001012 -0.748495590407
121353500 0.0381469207244 -0.749047019644
121363000 0.0381639183151 -0.749329559796
121372500 0.0382508215113 -0.749122234964
121382000 0.0376251152657 -0.749134044542
121391500 0.0372042993021 -0.749844257414
121401000 0.0370738630466 -0.750482209279
121410500 0.0371231644051 -0.750107923703
121420000 0.0370471274477 -0.750338542422
121429500 0.0364690154696 -0.750359889276
121439000 0.0360014331611 -0.750914425567
121448500 0.0359879124659 -0.751766735951
121458000 0.0359576982951 -0.75107770127
121467500 0.0357251433222 -0.751233235998
121477000 0.0352052569693 -0.751580122969
121486500 0.0346731042349 -0.752242571008
121496000 0.0347257597662 -0.752913676452
121505500 0.034804774902 -0.752138241862
121515000 0.0344597911326 -0.752385148645
121524500 0.0340209796201 -0.752799028396
121534000 0.0335362262635 -0.753285883877
121543500 0.0335501748306 -0.753687297585
121553000 0.0335143370068 -0.75337086937
121562500 0.0329501544648 -0.753297112018
121572000 0.032540262073 -0.753941446396
121581500 0.0322712504887 -0.754646191732
121591000 0.0323191840642 -0.754473797666
121600500 0.0323793844146 -0.75458175294
121610000 0.0318003061123 -0.754550495998
121619500 0.0313280988459 -0.755066306679
121629000 0.0311753820839 -0.755917027026
121638500 0.0312714273927 -0.755282832814
121648000 0.0310632040632 -0.755479885294
121657500 0.03050687719 -0.755713008272
121667000 0.0298542200643 -0.756308216917
121676500 0.0298322516174 -0.756990156791
121686000 0.0299745729142 -0.756302568279
121695500 0.029617710767 -0.756482810947
121705000 0.0291776566151 -0.756851139446
121714500 0.028596205938 -0.757332104391
121724000 0.028495661475 -0.757900247053
121733500 0.0287025446971 -0.75759941733
121743000 0.0281213579895 -0.757540177359
121752500 0.0275571163975 -0.758051553592
121762000 0.0271763144015 -0.758593518311
121771500 0.0272665903808 -0.758542940066
121781000 0.0273572916763 -0.758717303956
121790500 0.0267911081726 -0.758671983304
121800000 0.0263511820539 -0.75907801242
121809500 0.0260943766798 -0.758761133793
121819000 0.0256503405861 -0.759107194249
121828500 0.0256423233158 -0.759481639703
121838000 0.0258185359256 -0.759024989653
121847500 0.0253285825951 -0.75920173208
121857000 0.0246766479713 -0.759616541499
121866500 0.0243543901326 -0.760092184544
121876000 0.0244813218074 -0.760040303138
121885500 0.0245460105212 -0.75990316638
121895000 0.0237850787288 -0.760270922482
121904500 0.0231944521213 -0.760676608123
121914000 0.0229848098372 -0.76138943907
121923500 0.0231811921516 -0.760984256065
121933000 0.0230374724912 -0.760924280546
121942500 0.0223534944309 -0.761415240281
121952000 0.0218280227892 -0.761745556225
121961500 0.0215133716344 -0.762567258904
121971000 0.0218030317316 -0.762041892922
121980500 0.0214702218849 -0.762048380954
121990000 0.0207901649279 -0.762597782802
121999500 0.0203483036345 -0.762858689014
122009000 0.0203065943195 -0.76337249113
122018500 0.0206065233307 -0.762965471655
122028000 0.0200458746706 -0.763096397488
122037500 0.019358939137 -0.763366756049
122047000 0.0190045018415 -0.763774359191
122056500 0.0189967935878 -0.763910993924
122066000 0.0190896807308 -0.763786055896
122075500 0.0183339705931 -0.763995638477
122085000 0.0177227577819 -0.764446176919
122094500 0.0174821680733 -0.765029025304
122104000 0.0177520866967 -0.764907046883
122113500 0.0176762227635 -0.764754792583
122123000 0.0170558370743 -0.7651353018
122132500 0.0164169292889 -0.765326799176
122142000 0.0160299034619 -0.76607430117
122151500 0.0163629553761 -0.765707392402
122161000 0.015980551621 -0.765686610955
122170500 0.0152985550825 -0.766133019988
122180000 0.014735754902 -0.766291863415
122189500 0.0146076778439 -0.766802229312
122199000 0.0149169038822 -0.766519738334
122208500 0.0144548653758 -0.766635564541
122218000 0.013821060103 -0.76692019627
122227500 0.0133614071579 -0.767197277894
122237000 0.0133951699246 -0.767508310783
122246500 0.0135469091107 -0.767411440893
122256000 0.0128440985082 -0.767461244061
122265500 0.0122256948382 -0.767831961119
122275000 0.0118210292881 -0.768277129583
122284500 0.0120035161787 -0.768172731486
122294000 0.0120222052906 -0.768192493449
122303500 0.0112978742375 -0.768596526519
122313000 0.0106365967377 -0.768696074372
122322500 0.0101996221063 -0.769356410852
122332000 0.0104469541658 -0.769119121779
122341500 0.0101518152509 -0.769136873726
122351000 0.00954424032423 -0.769497056489
122360500 0.00903648349587 -0.769538755386
122370000 0.0088128765594 -0.770101955519
122379500 0.00908045012539 -0.769914280416
122389000 0.00867224242613 -0.769951608344
122398500 0.00804551522415 -0.770165808895
122408000 0.00752933341856 -0.770339304778
122417500 0.00744572163271 -0.770691593867
122427000 0.00759219650857 -0.770671418037
122436500 0.00703834894644 -0.770782642532
122446000 0.00637682664147 -0.771046668984
122455500 0.00602142697599 -0.771369396967
122465000 0.00610237642933 -0.771470220306
122474500 0.00612802227077 -0.771385629296
122484000 0.00547911890977 -0.771665313115
122493500 0.00484976884048 -0.771695702971
122503000 0.00430418162269 -0.772289614789
122512500 0.00457380011664 -0.772157688261
122522000 0.00437200484771 -0.772210449064
122531500 0.00361767926172 -0.772538361835
122541000 0.00303528433803 -0.772478090158
122550500 0.00282312196119 -0.773009124687
122560000 0.00313688971066 -0.772926096171
122569500 0.00268681316716 -0.772952289926
122579000 0.00208356409795 -0.77310318882
122588500 0.00163095493578 -0.773162861907
122598000 0.00140436233784 -0.773544403621
122607500 0.00153089922295 -0.773603331935
122617000 0.000974416405458 -0.773705469322
122626500 0.000357146507648 -0.773929130481
122636000 -7.51921558912e-05 -0.77409977687
122645500 4.4333883598e-06 -0.77424087104
122655000 0.000103879966037 -0.77431140064
122664500 -0.00058686058733 -0.7745631311
122674000 -0.00112395055437 -0.774489501071
122683500 -0.00161289284965 -0.774863958566
122693000 -0.00144471986489 -0.77487136293
122702500 -0.00162785959208 -0.775044865047
122712000 -0.00237051647177 -0.775263749402
122721500 -0.00291631209969 -0.775210208863
122731000 -0.00329680927543 -0.77571230001
122740500 -0.00297981196374 -0.775724733715
122750000 -0.00337246920157 -0.775780559881
122759500 -0.0037292194119 -0.775602419247
122769000 -0.00430797611775 -0.776042546134
122778500 -0.0045560519848 -0.775961486502
122788000 -0.00523147745585 -0.776280404738
122797500 -0.00508245611081 -0.776285967224
122807000 -0.00555891617451 -0.776559359135
122816500 -0.00582974739022 -0.776536757164
122826000 -0.00620314218351 -0.776593208203
122835500 -0.0066340005202 -0.77683172657
122845000 -0.00654407025943 -0.776856301677
122854500 -0.00718512682175 -0.777145161383
122864000 -0.0075429238758 -0.777099216758
122873500 -0.00802758282681 -0.777285735349
122883000 -0.00819700957156 -0.777604996962
122892500 -0.00824433487638 -0.777573614935
122902000 -0.00889419809499 -0.777870200327
122911500 -0.00899914909946 -0.777724827518
122921000 -0.00949935101008 -0.777907212086
122930500 -0.00978308629403 -0.778146700245
122940000 -0.0099082160277 -0.777997953428
122949500 -0.0105452618259 -0.778400008975
122959000 -0.0107183001759 -0.778286310603
122968500 -0.011352720833 -0.778623331432
122978000 -0.0113368563344 -0.778726853665
122987500 -0.0117663844063 -0.778880908453
122997000 -0.011960206327 -0.778984640271
123006500 -0.012253701671 -0.7789710811
123016000 -0.0127468129078 -0.779159214535
123025500 -0.0126960931461 -0.779186180108
123035000 -0.0132860244574 -0.779430466389
123044500 -0.0136934741041 -0.779432916052
123054000 -0.0142218253666 -0.779491458691
123063500 -0.0144620292336 -0.779766748856
123073000 -0.0144996980399 -0.779751415739
123082500 -0.0151048703366 -0.780112940767
123092000 -0.015241345667 -0.779896822644
123101500 -0.0156786194608 -0.780001929572
123111000 -0.0159276349023 -0.780324006763
123120500 -0.0160044529369 -0.780276855902
123130000 -0.0166735815116 -0.780565688302
123139500 -0.0167996169964 -0.780443131751
123149000 -0.0174729474514 -0.780663779035
123158500 -0.0175497264419 -0.780769714693
123168000 -0.0179329346323 -0.780831545768
123177500 -0.0182552619296 -0.781002648209
123187000 -0.0185380887486 -0.781011346763
123196500 -0.0189846826588 -0.781225773094
123206000 -0.0191134861267 -0.781352997008
123215500 -0.0195533046778 -0.781434342185
123225000 -0.0198911731391 -0.781509911564
123234500 -0.0203689400562 -0.781513423862
123244000 -0.0207232266885 -0.781719262944
123253500 -0.020754438685 -0.781744408127
123263000 -0.0213897937118 -0.782070039031
123272500 -0.0214784063069 -0.781939248108
123282000 -0.0218925054151 -0.781988922648
123291500 -0.0222542776715 -0.782262374477
123301000 -0.0223375927091 -0.782283086742
123310500 -0.0230397200694 -0.782582589395
123320000 -0.0232283178569 -0.782374435788
123329500 -0.0237661839756 -0.782524280455
123339000 -0.0238052252951 -0.782764096916
123348500 -0.024188038239 -0.782835460793
123358000 -0.0245187983758 -0.7830174269
123367500 -0.0246592390725 -0.782983988929
123377000 -0.025057518587 -0.783055577011
123386500 -0.0252609548409 -0.783256534177
123396000 -0.0257610071661 -0.783294905524
123405500 -0.0261498239229 -0.783382989254
123415000 -0.0264872998432 -0.783348890922
123424500 -0.0269854034051 -0.783580432896
123434000 -0.0270229830665 -0.783593160344
123443500 -0.0276357423184 -0.783897569069
123453000 -0.0277224029465 -0.783857539177
123462500 -0.0281018409747 -0.783811711989
123472000 -0.028475292151 -0.784077857471
123481500 -0.0285453010323 -0.784116919232
123491000 -0.0292139624095 -0.784327796391
123500500 -0.0294480146077 -0.784205035429
123510000 -0.0299567193323 -0.784166028374
123519500 -0.0301193293729 -0.784439965024
123529000 -0.0304390613422 -0.784442697514
123538500 -0.0308565816996 -0.784634137796
123548000 -0.0310197303786 -0.784576681429
123557500 -0.0314057952624 -0.784672280568
123567000 -0.0316620897185 -0.784884453872
123576500 -0.032051677248 -0.784923337714
123586000 -0.0324614215446 -0.785002943561
123595500 -0.0327372003961 -0.784921800378
123605000 -0.0332732208269 -0.78508487372
123614500 -0.0332759808943 -0.785129228265
123624000 -0.0338204982979 -0.78535247222
123633500 -0.034014035991 -0.785274541172
123643000 -0.0343526130756 -0.785268136293
123652500 -0.0348303939389 -0.785441399487
123662000 -0.0349062877494 -0.785470330741
123671500 -0.0355917378081 -0.785712879621
123681000 -0.0358403398753 -0.785525064511
123690500 -0.0362840602081 -0.785577404541
123700000 -0.0365855379645 -0.785828516855
123709500 -0.0370039372059 -0.785697489267
123719000 -0.037156336312 -0.785831694575
123728500 -0.0378142741432 -0.785880152503
123738000 -0.0381346284967 -0.785829174903
123747500 -0.0381443757038 -0.785849832296
123757000 -0.0386221419733 -0.786181606631
123766500 -0.0389395232986 -0.786290636827
123776000 -0.0392644095547 -0.786389324765
123785500 -0.0396213971403 -0.786406237377
123795000 -0.0397451376247 -0.786253517506
123804500 -0.0400395488242 -0.786705867279
123814000 -0.0404677028123 -0.78677787451
123823500 -0.0410786104546 -0.786618319115
123833000 -0.0411979089842 -0.786494625008
123842500 -0.0414499843999 -0.786509693932
123852000 -0.0418269347676 -0.786762033081
123861500 -0.0422814691013 -0.786981245105
123871000 -0.0425320968536 -0.786837197471
123880500 -0.0426690469838 -0.786719080061
123890000 -0.0432332624969 -0.78681991675
123899500 -0.0434818755835 -0.787033170109
123909000 -0.0441682773324 -0.787120223025
123918500 -0.0443700271369 -0.786997287976
123928000 -0.0444232671476 -0.787004830996
123937500 -0.0448913603723 -0.787256461547
123947000 -0.0452636284222 -0.78734157958
123956500 -0.0455330799274 -0.787530740447
123966000 -0.0458476042922 -0.787532078749
123975500 -0.0460027618988 -0.787299789232
123985000 -0.0464282341364 -0.787700728294
123994500 -0.0468791447039 -0.787774012211
124004000 -0.0475220107494 -0.787513288081
124013500 -0.0476152545799 -0.787433866495
124023000 -0.0477944026579 -0.787455284685
124032500 -0.0482520392252 -0.787727820705
124042000 -0.048741702196 -0.787913195251
124051500 -0.0489414588371 -0.787829988719
124061000 -0.0490639970394 -0.787742198831
124070500 -0.0495796183461 -0.787762012483
124080000 -0.0499256337252 -0.787979528166
124089500 -0.0505589901035 -0.788106489872
124099000 -0.0508227408415 -0.788021036954
124108500 -0.0508280432597 -0.788041340596
124118000 -0.0512675513335 -0.788252490714
124127500 -0.0517014762743 -0.78823030544
124137000 -0.0520854514737 -0.788378161177
124146500 -0.0523547835824 -0.788274263675
124156000 -0.0523976667732 -0.788085865395
124165500 -0.0529247965945 -0.788466136644
124175000 -0.0534255210067 -0.788402656587
124184500 -0.0539264490332 -0.788301288266
124194000 -0.053987635122 -0.788345578274
124203500 -0.0542047973566 -0.788367199087
124213000 -0.0547840865086 -0.78860069938
124222500 -0.0552626938301 -0.788763312528
124232000 -0.05541009662 -0.788728473821
124241500 -0.0555955645822 -0.788649093369
124251000 -0.0559750740926 -0.788535715089
124260500 -0.0564092295726 -0.788743210563
124270000 -0.0570403567918 -0.788846469902
124279500 -0.0572714762021 -0.788760983977
124289000 -0.0572314526295 -0.788773919259
124298500 -0.0576435555373 -0.788847672599
124308000 -0.0581328166447 -0.78886810021
124317500 -0.0585055868863 -0.789109399034
124327000 -0.0587763094611 -0.789016790402
124336500 -0.0587575174573 -0.788775962395
124346000 -0.0592791242304 -0.788996380987
124355500 -0.0598484746635 -0.78901368577
124365000 -0.0603955465998 -0.788865180662
124374500 -0.0604667448921 -0.788823758134
124384000 -0.0606574323727 -0.788823712666
124393500 -0.0612017376086 -0.78908807196
124403000 -0.0616983683377 -0.789205665923
124412500 -0.0618877735729 -0.789239513465
124422000 -0.0620246392147 -0.789089477406
124431500 -0.0623395360717 -0.78896208198
124441000 -0.0628723014856 -0.789150271334
124450500 -0.0634896014942 -0.789163387649
124460000 -0.0637360319782 -0.789049704689
124469500 -0.0637186553296 -0.789084673692
124479000 -0.0641082727646 -0.789099687829
124488500 -0.064647500905 -0.78912911916
124498000 -0.0651334073702 -0.789411447304
124507500 -0.0654165529459 -0.789355075274
124517000 -0.0653946628871 -0.789200094786
124526500 -0.0658741798296 -0.789412320507
124536000 -0.0663886106916 -0.789374861618
124545500 -0.0668780359473 -0.78926679863
124555000 -0.0668567122883 -0.789292778294
124564500 -0.0670013224178 -0.789260628276
124574000 -0.0675852486664 -0.789301435317
124583500 -0.0681064939441 -0.789330616728
124593000 -0.0683130345779 -0.789432847471
124602500 -0.0684550368595 -0.789363407363
124612000 -0.0686783733227 -0.789153545267
124621500 -0.0693151362987 -0.789315094786
124631000 -0.0699759237878 -0.789366061676
124640500 -0.0702281123554 -0.78922501716
124650000 -0.0700494201513 -0.789223063343
124659500 -0.0707201791598 -0.789522777193
124669000 -0.0707314621727 -0.789350073858
124678500 -0.0713228964523 -0.789535363809
124688000 -0.0717902175382 -0.789339018794
124697500 -0.0721764041364 -0.789209483533
124707000 -0.0723827598737 -0.789383158587
124716500 -0.0725415234517 -0.789228838942
124726000 -0.0731483507936 -0.789271770558
124735500 -0.073505997255 -0.789395679902
124745000 -0.0738010071724 -0.789481228829
124754500 -0.0739400989287 -0.789441431438
124764000 -0.0741647283103 -0.789335166844
124773500 -0.0746958379113 -0.789324661984
124783000 -0.0751620198673 -0.789239444443
124792500 -0.0754675319323 -0.78908367822
124802000 -0.0754639420885 -0.789127658337
124811500 -0.0757815947068 -0.789242679274
124821000 -0.0763435965573 -0.789117225977
124830500 -0.0767744260514 -0.78934839816
124840000 -0.0770880852944 -0.789305829249
124849500 -0.0770830297649 -0.789102263964
124859000 -0.0776106543424 -0.789284118824
124868500 -0.0781468971708 -0.789043715113
124878000 -0.0785004093695 -0.788983894269
124887500 -0.078649891169 -0.78914088256
124897000 -0.0787425402043 -0.789058443843
124906500 -0.079306505292 -0.789055540065
124916000 -0.0796866951323 -0.789176816217
124925500 -0.0800101578571 -0.789234830317
124935000 -0.0801794359926 -0.789138291975
124944500 -0.0803407797468 -0.789043831642
124954000 -0.0808924903714 -0.788979160388
124963500 -0.0813372134267 -0.788937962873
124973000 -0.0816499630652 -0.788805392821
124982500 -0.0816686853173 -0.788802378088
124992000 -0.081963406598 -0.788931671122
125001500 -0.0824945293346 -0.78875080904
125011000 -0.0829078534565 -0.788940387796
125020500 -0.0831889308503 -0.788981824985
125030000 -0.0831850261824 -0.788811010383
125039500 -0.0836177941827 -0.789033879732
125049000 -0.0841418336824 -0.788636539672
125058500 -0.0845000785244 -0.788493900101
125068000 -0.0847071869381 -0.788696777241
125077500 -0.0847562726979 -0.788550466176
125087000 -0.0852811399492 -0.788611047314
125096500 -0.0857249279897 -0.788663028951
125106000 -0.0860667900494 -0.788681717606
125115500 -0.0861980258197 -0.788691633764
125125000 -0.0862975439675 -0.788656540537
125134500 -0.0869462613215 -0.788538804157
125144000 -0.0873606232677 -0.788369935661
125153500 -0.0876200734302 -0.788273337737
125163000 -0.0876232597309 -0.788380335008
125172500 -0.0879119311815 -0.78843588787
125182000 -0.0884469669018 -0.788226271528
125191500 -0.088914047196 -0.78838679715
125201000 -0.089189770529 -0.788436950803
125210500 -0.0891894815674 -0.788275632729
125220000 -0.089586645962 -0.788414734903
125229500 -0.0900329391382 -0.787995522082
125239000 -0.0904424901055 -0.787961981636
125248500 -0.0906440264671 -0.788101058544
125258000 -0.0906683805507 -0.78796409429
125267500 -0.0911536271045 -0.788031792576
125277000 -0.0916786082089 -0.78796194207
125286500 -0.0920394235221 -0.788017580811
125296000 -0.0921537630522 -0.78807617711
125305500 -0.0922286672325 -0.788069964411
125315000 -0.0928565350045 -0.787977512877
125324500 -0.0932813602897 -0.787749623508
125334000 -0.0934674306128 -0.787742612361
125343500 -0.0935690131169 -0.78780873316
125353000 -0.0937777102984 -0.787810994942
125362500 -0.0941930563486 -0.787501047819
125372000 -0.0947198250589 -0.787691397571
125381500 -0.0950222180705 -0.787686374458
125391000 -0.0950393088484 -0.78751611098
125400500 -0.0953392790329 -0.787786838232
125410000 -0.0959125049539 -0.787364218526
125419500 -0.0963844477025 -0.787257067036
125429000 -0.0965412868649 -0.787466633584
125438500 -0.0965604877792 -0.787387037148
125448000 -0.0970520781467 -0.787445277175
125457500 -0.0975292224207 -0.787199894169
125467000 -0.0978974550368 -0.787220053005
125476500 -0.0981070375615 -0.787368179757
125486000 -0.0981523091148 -0.78733432378
125495500 -0.0987017557126 -0.787165607615
125505000 -0.0990331404259 -0.787002613832
125514500 -0.0993650556714 -0.786985281282
125524000 -0.0994758936689 -0.787149838985
125533500 -0.0996038379778 -0.787112432594
125543000 -0.10001536996 -0.786829306626
125552500 -0.100523293431 -0.786961735623
125562000 -0.100790529927 -0.786939832262
125571500 -0.100763232202 -0.786888533458
125581000 -0.101074115817 -0.787115537675
125590500 -0.10152664576 -0.786641909005
125600000 -0.10191653038 -0.786538240495
125609500 -0.101729714837 -0.78680035244
125619000 -0.1023496415 -0.786668752897
125628500 -0.102700508446 -0.786677596591
125638000 -0.102829924451 -0.786725043527
125647500 -0.102880444821 -0.786758151135
125657000 -0.103444966422 -0.786491595169
125666500 -0.103912453026 -0.786256153264
125676000 -0.104134252852 -0.786221707021
125685500 -0.104246932201 -0.786401863846
125695000 -0.10446567374 -0.786471137776
125704500 -0.104931724606 -0.786127122371
125714000 -0.105390961676 -0.786188090863
125723500 -0.105601854632 -0.786361186374
125733000 -0.105629056821 -0.78629890047
125742500 -0.105958494973 -0.786313375068
125752000 -0.106388132459 -0.785954700548
125761500 -0.10677271971 -0.785780424762
125771000 -0.106859282458 -0.786020754363
125780500 -0.106920128378 -0.785930700091
125790000 -0.107365225428 -0.785813232476
125799500 -0.107890073369 -0.785611916989
125809000 -0.108214785032 -0.785642907363
125818500 -0.108383499578 -0.785714848987
125828000 -0.108514207025 -0.785787214882
125837500 -0.108981211869 -0.785432875866
125847000 -0.10943189553 -0.785223976632
125856500 -0.109691302784 -0.785274078046
125866000 -0.109877659594 -0.785427163433
125875500 -0.110031527753 -0.785526250088
125885000 -0.110442816596 -0.785103560804
125894500 -0.11095077103 -0.785163972443
125904000 -0.111227800347 -0.785266634425
125913500 -0.111243787373 -0.785168445008
125923000 -0.111518730694 -0.785301932487
125932500 -0.111929137656 -0.784850183714
125942000 -0.112312970369 -0.784710001861
125951500 -0.11242795764 -0.784946568438
125961000 -0.112494691471 -0.784866112144
125970500 -0.112894753851 -0.784815320634
125980000 -0.113408852093 -0.784545000482
125989500 -0.113785384438 -0.784522059951
125999000 -0.113990931747 -0.784686892326
126008500 -0.114019354262 -0.784720813685
126018000 -0.114353723535 -0.784430465602
126027500 -0.114779332826 -0.784193448664
126037000 -0.115105393291 -0.78425336141
126046500 -0.11523672017 -0.784395250072
126056000 -0.115359960669 -0.784496484575
126065500 -0.115748092855 -0.784138912413
126075000 -0.116276728468 -0.784090390687
126084500 -0.116590636242 -0.784055196693
126094000 -0.116582399364 -0.784046209557
126103500 -0.116913455746 -0.784111538789
126113000 -0.117265469117 -0.783687576682
126122500 -0.117650655425 -0.783512377997
126132000 -0.11781858211 -0.783791952873
126141500 -0.117878846703 -0.783792080492
126151000 -0.118256938903 -0.783726281412
126160500 -0.118639246536 -0.783427265862
126170000 -0.119058133733 -0.783374592651
126179500 -0.119260412118 -0.783620239842
126189000 -0.119318666631 -0.783633793469
126198500 -0.119666587984 -0.783329889128
126208000 -0.120091381242 -0.783040187967
126217500 -0.120400513622 -0.783001846959
126227000 -0.120586160429 -0.783115680238
126236500 -0.120644497469 -0.783282136517
126246000 -0.121009036613 -0.782958630008
126255500 -0.121512992731 -0.782863265575
126265000 -0.121854788277 -0.782906957714
126274500 -0.121857405068 -0.782884814332
126284000 -0.122136873643 -0.783045233846
126293500 -0.122488991237 -0.782558931909
126303000 -0.122848280327 -0.782309325376
126312500 -0.123063445729 -0.78262589286
126322000 -0.123193640712 -0.782527761994
126331500 -0.123532078551 -0.782586966338
126341000 -0.123870673713 -0.782213355688
126350500 -0.124320748348 -0.782122902374
126360000 -0.124520053565 -0.782390896548
126369500 -0.124542794125 -0.782349385164
126379000 -0.124923444395 -0.782127000194
126388500 -0.125201483756 -0.781753453581
126398000 -0.125479852537 -0.781787689043
126407500 -0.125724744752 -0.781986078064
126417000 -0.125859993798 -0.78204022437
126426500 -0.126175418373 -0.781678557153
126436000 -0.126620399279 -0.781560438544
126445500 -0.126947375648 -0.781618907523
126455000 -0.127083233999 -0.78160985011
126464500 -0.127302660887 -0.781747968979
126474000 -0.12750853729 -0.781245117583
126483500 -0.127844092809 -0.781116920575
126493000 -0.128150228417 -0.781345092193
126502500 -0.128249691548 -0.781241305795
126512000 -0.12845925641 -0.78132867218
126521500 -0.128782508662 -0.780989468084
126531000 -0.129239965353 -0.780861051854
126540500 -0.129434530154 -0.781047272597
126550000 -0.129537455795 -0.781072982835
126559500 -0.129875853637 -0.780730926118
126569000 -0.130187040028 -0.78079411786
126578500 -0.130316494736 -0.780753847574
126588000 -0.130658301565 -0.780791602002
126597500 -0.130954668151 -0.780628745213
126607000 -0.131214443521 -0.780415319637
126616500 -0.131539164587 -0.780638026273
126626000 -0.131697136068 -0.780398462753
126635500 -0.131945689616 -0.780271009912
126645000 -0.132182920276 -0.780101437507
126654500 -0.132453274037 -0.780014219892
126664000 -0.13280911887 -0.780251232673
126673500 -0.13292912104 -0.78026062828
126683000 -0.133226574768 -0.780105417964
126692500 -0.133507879244 -0.779848861768
126702000 -0.133882615266 -0.77972861438
126711500 -0.134103168932 -0.779670521412
126721000 -0.134186697802 -0.779788811485
126730500 -0.134459552378 -0.779734956946
126740000 -0.134737904668 -0.779429869657
126749500 -0.135090167761 -0.779460087518
126759000 -0.135284482029 -0.779418823638
126768500 -0.135559639149 -0.779464706364
126778000 -0.135840932002 -0.779406902056
126787500 -0.13607810081 -0.779182155344
126797000 -0.136391520919 -0.779361478706
126806500 -0.136542760913 -0.779202711018
126816000 -0.136734168143 -0.778978644359
126825500 -0.136977084052 -0.778828999672
126835000 -0.137199699535 -0.778729115282
126844500 -0.137546847428 -0.778915876404
126854000 -0.13771864989 -0.778986057368
126863500 -0.13797756794 -0.778853847517
126873000 -0.138310018642 -0.778680095669
126882500 -0.138685017642 -0.77853436095
126892000 -0.138868395909 -0.778494460168
126901500 -0.138915270243 -0.778670674018
126911000 -0.139182915747 -0.778535137079
126920500 -0.139424497316 -0.778244776053
126930000 -0.139809409561 -0.778205463364
126939500 -0.139987221776 -0.77812141337
126949000 -0.140299243032 -0.778169638699
126958500 -0.140536684433 -0.778068782655
126968000 -0.140726546015 -0.77780128518
126977500 -0.141165540657 -0.777978494165
126987000 -0.141250225854 -0.777804743896
126996500 -0.141442677813 -0.777682420146
127006000 -0.141687407901 -0.77759819237
127015500 -0.141965455877 -0.77739792515
127025000 -0.142373993962 -0.777692813657
127034500 -0.142481629627 -0.777624062214
127044000 -0.142708913112 -0.777559311495
127053500 -0.142968427368 -0.77734591727
127063000 -0.1433487304 -0.777179726685
127072500 -0.143585799399 -0.777296273515
127082000 -0.143660414642 -0.777427621177
127091500 -0.143907788937 -0.777348672574
127101000 -0.144107585435 -0.777008671488
127110500 -0.144430929206 -0.77696368508
127120000 -0.144621641621 -0.776940315812
127129500 -0.144880877224 -0.776987583372
127139000 -0.145131729599 -0.776887819397
127148500 -0.145331103053 -0.77665307369
127158000 -0.145756899905 -0.776806558089
127167500 -0.145855808372 -0.77662497386
127177000 -0.146027894536 -0.776494857317
127186500 -0.146248962631 -0.776437962009
127196000 -0.146455827045 -0.776270784785
127205500 -0.146882810429 -0.776515504189
127215000 -0.147060576117 -0.776420463778
127224500 -0.147260995946 -0.776296133125
127234000 -0.14744054893 -0.776103721337
127243500 -0.147815773984 -0.775959670848
127253000 -0.148112857311 -0.775968671443
127262500 -0.148200906973 -0.776112048819
127272000 -0.148448383606 -0.776029541743
127281500 -0.148679060505 -0.775800080684
127291000 -0.149025482628 -0.7757116443
127300500 -0.149129478932 -0.775612031732
127310000 -0.14936623031 -0.775777177244
127319500 -0.149655849822 -0.775805360195
127329000 -0.14992798754 -0.775452220312
127338500 -0.150313578482 -0.775476699495
127348000 -0.150347796501 -0.775303525556
127357500 -0.150574171471 -0.775347718835
127367000 -0.150784156599 -0.775294998639
127376500 -0.150975839227 -0.775057466591
127386000 -0.151468187654 -0.77532695033
127395500 -0.151563506815 -0.775250511885
127405000 -0.151760796997 -0.775085402977
127414500 -0.152014331303 -0.774986019169
127424000 -0.152318907098 -0.774738036155
127433500 -0.152654868549 -0.774841836996
127443000 -0.152714258769 -0.774966200201
127452500 -0.1529829402 -0.774770993288
127462000 -0.153128229461 -0.774522252164
127471500 -0.153466335415 -0.774455416573
127481000 -0.153712587038 -0.77452524955
127490500 -0.153924480189 -0.774654609461
127500000 -0.154209836297 -0.774620066769
127509500 -0.154326093663 -0.774473139973
127519000 -0.154442120677 -0.774268101246
127528500 -0.154734027915 -0.774097726965
127538000 -0.155132712813 -0.774416780315
127547500 -0.155247933689 -0.774487583749
127557000 -0.155577486182 -0.774373020819
127566500 -0.155667610191 -0.773984211459
127576000 -0.156017453394 -0.773844148201
127585500 -0.156225554243 -0.773958959884
127595000 -0.156377795817 -0.7740512124
127604500 -0.156600253773 -0.773940405984
127614000 -0.15679740872 -0.773631290562
127623500 -0.157256427406 -0.773623470863
127633000 -0.157339018237 -0.773587405149
127642500 -0.157628626312 -0.773653312164
127652000 -0.157846692645 -0.773515847887
127661500 -0.15810670544 -0.773273867562
127671000 -0.158505861643 -0.773381598482
127680500 -0.158569330355 -0.773441469043
127690000 -0.158853102925 -0.77345744746
127699500 -0.158909759038 -0.773212336671
127709000 -0.159097118487 -0.772970216687
127718500 -0.159535962864 -0.773260253154
127728000 -0.159711344133 -0.773282975562
127737500 -0.160081790154 -0.773264321921
127747000 -0.160144445024 -0.772912544854
127756500 -0.160466917424 -0.772686678925
127766000 -0.160702492991 -0.772714509801
127775500 -0.160893249639 -0.772842680376
127785000 -0.161160941379 -0.772913017385
127794500 -0.161322928528 -0.772692777586
127804000 -0.16172694017 -0.772508964693
127813500 -0.161859360214 -0.772532122191
127823000 -0.162143168074 -0.772698976489
127832500 -0.162380514413 -0.772589946999
127842000 -0.162558548443 -0.772343169714
127851500 -0.162928079012 -0.772325063762
127861000 -0.162972913827 -0.772358123347
127870500 -0.163305876951 -0.772397109802
127880000 -0.163393461197 -0.772250288843
127889500 -0.163660710849 -0.772074035042
127899000 -0.164221723401 -0.772291337932
127908500 -0.164338773716 -0.772306036152
127918000 -0.164615549481 -0.772219640324
127927500 -0.164633098325 -0.771989816134
127937000 -0.16493465378 -0.771724469663
127946500 -0.165233782041 -0.77183164222
127956000 -0.165368670247 -0.772049205245
127965500 -0.165614210984 -0.771939151866
127975000 -0.165744367999 -0.771659081868
127984500 -0.166131078115 -0.77147710271
127994000 -0.166350254086 -0.771584460794
128003500 -0.166622483112 -0.771711992425
128013000 -0.166906996995 -0.771521349991
128022500 -0.167037609755 -0.771267199354
128032000 -0.167486087463 -0.771314489723
128041500 -0.167545508882 -0.771343173609
128051000 -0.167850496212 -0.771401357661
128060500 -0.167940015336 -0.771228663239
128070000 -0.168160296402 -0.770992879213
128079500 -0.168677609946 -0.771189600949
128089000 -0.168910335972 -0.771265240585
128098500 -0.169188597134 -0.771150730644
128108000 -0.169208089731 -0.770948957522
128117500 -0.169496646183 -0.770642057312
128127000 -0.169811196606 -0.770776597652
128136500 -0.169974062566 -0.770976977308
128146000 -0.170308246608 -0.770983530988
128155500 -0.170386817676 -0.770807069848
128165000 -0.170730765067 -0.770511557906
128174500 -0.170920904965 -0.77057627649
128184000 -0.17124586799 -0.770746911139
128193500 -0.171512383059 -0.770653379178
128203000 -0.171674443446 -0.770401710583
128212500 -0.172038134011 -0.770300629242
128222000 -0.172102599787 -0.770406687153
128231500 -0.172405414545 -0.770407099787
128241000 -0.172502369813 -0.770324563604
128250500 -0.172790692606 -0.770213620517
128260000 -0.173390941458 -0.770260225761
128269500 -0.173508188142 -0.770289340268
128279000 -0.173782734036 -0.770270971048
128288500 -0.173815209876 -0.7701017632
128298000 -0.174082901531 -0.769833308927
128307500 -0.174529095865 -0.769933682825
128317000 -0.174629921214 -0.770055635952
128326500 -0.174931788415 -0.77001748347
128336000 -0.175005934433 -0.769818542799
128345500 -0.175282355013 -0.769542454245
128355000 -0.17557801008 -0.769708930503
128364500 -0.175935045352 -0.76987311043
128374000 -0.176149758479 -0.769791064555
128383500 -0.176215562774 -0.769574788765
128393000 -0.176643202176 -0.769441256194
128402500 -0.176736949435 -0.769503242327
128412000 -0.177063676232 -0.769582070027
128421500 -0.177141228111 -0.76944858234
128431000 -0.177332024319 -0.769315786937
128440500 -0.177878995572 -0.769275049386
128450000 -0.178009427785 -0.76939875066
128459500 -0.178104399854 -0.769165320255
128469000 -0.178405326511 -0.769153806508
128478500 -0.178809172087 -0.769230670781
128488000 -0.179215694334 -0.769587147236
128497500 -0.179104329457 -0.769431740201
128507000 -0.179443743121 -0.768864775848
128516500 -0.179725996128 -0.768885833016
128526000 -0.180212619039 -0.769112012964
128535500 -0.180301279869 -0.769351887649
128545000 -0.180412469697 -0.7690777678
128554500 -0.180676574497 -0.76860416926
128564000 -0.180912563109 -0.76872327013
128573500 -0.181494641703 -0.768976609476
128583000 -0.181374875119 -0.769044792478
128592500 -0.181604798674 -0.768624712523
128602000 -0.181970047167 -0.768325034601
128611500 -0.182301435985 -0.768489724086
128621000 -0.182956077291 -0.768821286509
128630500 -0.182707525314 -0.76885423997
128640000 -0.182895899192 -0.768357694484
128649500 -0.183258345246 -0.768214904421
128659000 -0.183550321219 -0.768340641625
128668500 -0.184007167076 -0.768658460716
128678000 -0.18385155753 -0.768574954342
128687500 -0.184029156312 -0.768042018842
128697000 -0.184283588026 -0.768028910429
128706500 -0.184800438548 -0.768123806335
128716000 -0.184982911644 -0.768368339344
128725500 -0.18502971246 -0.768118135166
128735000 -0.185245094529 -0.767705367703
128744500 -0.185499341864 -0.767765999954
128754000 -0.186238864382 -0.767930916643
128763500 -0.186143636918 -0.768246380543
128773000 -0.186324805401 -0.767973007978
128782500 -0.186557751647 -0.76761394792
128792000 -0.186820743069 -0.767607503677
128801500 -0.187586222082 -0.767938543624
128811000 -0.187325417784 -0.767973097198
128820500 -0.187529508864 -0.767462355322
128830000 -0.187724011482 -0.7673134608
128839500 -0.188060167084 -0.767366092932
128849000 -0.188801077124 -0.767753982868
128858500 -0.188617936064 -0.767702746733
128868000 -0.188761237775 -0.767198727446
128877500 -0.189039092906 -0.767196146615
128887000 -0.189518711251 -0.767210981804
128896500 -0.18983944751 -0.767590304292
128906000 -0.189819944696 -0.76744053593
128915500 -0.189973065188 -0.767000488525
128925000 -0.19026752716 -0.767042810285
128934500 -0.190863615414 -0.76704550146
128944000 -0.190922520498 -0.767409874999
128953500 -0.191088797115 -0.767060595706
128963000 -0.191274559038 -0.766709377884
128972500 -0.191594239734 -0.766785827518
128982000 -0.192359638594 -0.766927275803
128991500 -0.192243613918 -0.767167151005
129001000 -0.19230066899 -0.766826723685
129010500 -0.192588924922 -0.766662624867
129020000 -0.192883723179 -0.766602030183
129029500 -0.193568522279 -0.766830578216
129039000 -0.193404078176 -0.766873695201
129048500 -0.193476674626 -0.766424040853
129058000 -0.19379740405 -0.76632724374
129067500 -0.194195128522 -0.766234696889
129077000 -0.194697199801 -0.766571765045
129086500 -0.194747518752 -0.766490342719
129096000 -0.194803193255 -0.766022834954
129105500 -0.195081888867 -0.766064938892
129115000 -0.195738875945 -0.766028538522
129124500 -0.195935831183 -0.766418974231
129134000 -0.196008955643 -0.766169755644
129143500 -0.196193233306 -0.765856705415
129153000 -0.196449315952 -0.765851837869
129162500 -0.197207668001 -0.7659766044
129172000 -0.197229208987 -0.766268386526
129181500 -0.197268123236 -0.765908280533
129191000 -0.197382313405 -0.76566704388
129200500 -0.197645780609 -0.765652602546
129210000 -0.198510394069 -0.765837112675
129219500 -0.198417986179 -0.76597243464
129229000 -0.198463959379 -0.765531162709
129238500 -0.198693439117 -0.765483702699
129248000 -0.199116716373 -0.765393321624
129257500 -0.199750492909 -0.765686988549
129267000 -0.199771367565 -0.765696895654
129276500 -0.199798075527 -0.765222868735
129286000 -0.200039632443 -0.765242636525
129295500 -0.200550786482 -0.765211310975
129305000 -0.200929978348 -0.76558166786
129314500 -0.201037073192 -0.76540710864
129324000 -0.201112539052 -0.765046079326
129333500 -0.201339897709 -0.765039488574
129343000 -0.20200521207 -0.765035640968
129352500 -0.202159799772 -0.765268143138
129362000 -0.2022090652 -0.765018145234
129371500 -0.202490207399 -0.764813739435
129381000 -0.202781034271 -0.764791147474
129390500 -0.203475206365 -0.764816245314
129400000 -0.203544802 -0.765078952015
129409500 -0.203908302881 -0.765127703785
129419000 -0.204050811115 -0.764962571289
129428500 -0.204285299111 -0.764845440001
129438000 -0.204572417791 -0.764869430394
129447500 -0.204937907409 -0.76458797587
129457000 -0.205188644044 -0.764864824337
129466500 -0.205461590181 -0.76456031338
129476000 -0.205639399113 -0.764562047885
129485500 -0.205714084901 -0.764524541085
129495000 -0.206399733201 -0.764366857718
129504500 -0.206477504596 -0.764573246093
129514000 -0.206843779417 -0.764296929107
129523500 -0.207100961508 -0.764337144109
129533000 -0.206978119709 -0.764177771945
129542500 -0.207739038537 -0.764319965129
129552000 -0.207787919613 -0.764359401375
129561500 -0.2081258854 -0.764069091025
129571000 -0.208386714157 -0.764147048409
129580500 -0.208391094941 -0.763919286826
129590000 -0.209058828052 -0.764095939971
129599500 -0.209144405443 -0.763964636904
129609000 -0.209389583164 -0.763824279109
129618500 -0.209713171768 -0.763794639519
129628000 -0.210047746157 -0.763575414055
129637500 -0.210393307901 -0.763800386608
129647000 -0.210635499678 -0.763552788391
129656500 -0.210888695188 -0.763576822827
129666000 -0.211120957473 -0.763584019859
129675500 -0.211649365109 -0.763435267962
129685000 -0.211824564712 -0.763642886116
129694500 -0.211974917073 -0.763301713401
129704000 -0.212287205629 -0.763363384589
129713500 -0.212255239705 -0.763294352961
129723000 -0.212878234777 -0.763309710826
129732500 -0.21307769015 -0.763367335334
129742000 -0.213267994373 -0.763065926175
129751500 -0.213688191704 -0.763116869196
129761000 -0.213659594852 -0.762895735116
129770500 -0.214351141625 -0.763043082844
129780000 -0.214470596121 -0.762922817175
129789500 -0.214720816695 -0.762840443584
129799000 -0.215260209756 -0.762867547502
129808500 -0.215278142366 -0.762670685425
129818000 -0.215723399528 -0.762878290262
129827500 -0.215902265587 -0.76265781137
129837000 -0.216144310317 -0.762598495167
129846500 -0.21631416219 -0.762581635705
129856000 -0.216806877915 -0.762399986778
129865500 -0.217072774522 -0.76258570249
129875000 -0.217211712805 -0.762295592776
129884500 -0.217581780057 -0.762303995122
129894000 -0.217419679082 -0.762215213676
129903500 -0.218208328875 -0.762173773068
129913000 -0.21830229105 -0.762197087425
129922500 -0.218618568461 -0.761981479923
129932000 -0.219001194122 -0.761992645246
129941500 -0.218945938755 -0.761823673057
129951000 -0.219698446617 -0.761831949068
129960500 -0.219818794993 -0.761780519391
129970000 -0.220123569291 -0.761589200354
129979500 -0.220489713086 -0.761556711263
129989000 -0.220916724263 -0.761590119093
129998500 -0.221381104796 -0.76103978117
130008000 -0.22247720463 -0.764075730222
130017500 -0.222793631774 -0.763360362408
130027000 -0.222922622377 -0.76341563934
130036500 -0.223176923024 -0.763415899767
130046000 -0.223275785205 -0.763099995778
130055500 -0.223768264252 -0.763036415303
130065000 -0.22388579971 -0.762960235019
130074500 -0.224484356782 -0.76293111905
130084000 -0.224654348646 -0.762770026364
130093500 -0.225165571305 -0.762713232162
130103000 -0.224797970688 -0.76274598733
130112500 -0.225552833624 -0.762750943214
130122000 -0.225623941651 -0.762729778464
130131500 -0.225910766768 -0.762537972268
130141000 -0.226053622653 -0.762474202397
130150500 -0.226903001849 -0.762516058151
130160000 -0.226861971232 -0.762441455351
130169500 -0.227184049817 -0.762230253135
130179000 -0.227087808113 -0.762032075341
130188500 -0.227897349741 -0.762041783397
130198000 -0.228012359429 -0.762028038418
130207500 -0.2282416579 -0.761919492672
130217000 -0.22841052206 -0.761782476971
130226500 -0.22898634296 -0.761738384778
130236000 -0.228928164849 -0.761861959658
130245500 -0.229257737463 -0.761731366884
130255000 -0.229666867911 -0.761484043427
130264500 -0.229885398156 -0.76174692567
130274000 -0.230219025523 -0.761582385189
130283500 -0.230362171839 -0.761815924149
130293000 -0.230998839108 -0.761491105367
130302500 -0.231156918249 -0.761281354589
130312000 -0.231621887525 -0.761284850238
130321500 -0.231652311687 -0.761037651168
130331000 -0.23212170503 -0.760747310502
130340500 -0.231997900274 -0.760823096641
130350000 -0.232745418191 -0.760855242915
130359500 -0.233150100189 -0.760974806557
130369000 -0.233243958661 -0.760789025322
130378500 -0.233862069472 -0.760832577069
130388000 -0.23398382579 -0.760482356101
130397500 -0.234441111296 -0.760475795626
130407000 -0.234522364116 -0.760601444553
130416500 -0.235249746648 -0.760472280349
130426000 -0.235332596061 -0.760326109042
130435500 -0.235645470008 -0.760178540979
130445000 -0.235661002649 -0.760325699963
130454500 -0.236435856851 -0.759954574755
130464000 -0.236587121656 -0.759923474027
130473500 -0.236783732832 -0.759894989944
130483000 -0.236812529647 -0.759653470343
130492500 -0.237400888464 -0.759582345575
130502000 -0.237502821003 -0.759542040814
130511500 -0.237861912328 -0.759256419395
130521000 -0.238281340955 -0.759026227391
130530500 -0.23852935078 -0.759065509387
130540000 -0.238819840721 -0.758985677992
130549500 -0.239133469604 -0.75868977821
130559000 -0.239484659596 -0.758723246442
130568500 -0.239482713661 -0.758662567237
130578000 -0.240042285641 -0.758565251952
130587500 -0.240366684808 -0.75835529305
130597000 -0.241132292458 -0.758337391356
130606500 -0.240711514843 -0.758158028048
130616000 -0.241267863888 -0.758177588438
130625500 -0.241550163168 -0.757759081435
130635000 -0.241853651451 -0.757656791107
130644500 -0.241908938303 -0.757534262976
130654000 -0.242599980137 -0.757473256124
130663500 -0.242796509502 -0.757458863386
130673000 -0.243086906394 -0.757304246856
130682500 -0.243119350598 -0.757339923241
130692000 -0.243627404397 -0.757240977374
130701500 -0.243788115685 -0.756849048244
130711000 -0.244029728045 -0.756890211264
130720500 -0.24431407247 -0.756759573014
130730000 -0.24472330113 -0.756705619772
130739500 -0.245052204634 -0.756681954328
130749000 -0.245242080888 -0.756367262779
130758500 -0.245707366983 -0.756191154875
130768000 -0.246011130655 -0.756234204308
130777500 -0.246311552093 -0.756025234869
130787000 -0.246669244011 -0.755820749895
130796500 -0.246920011418 -0.75566482853
130806000 -0.246991217592 -0.755618891508
130815500 -0.247319376499 -0.755631675323
130825000 -0.247731622965 -0.755296987629
130834500 -0.247918120524 -0.75498957787
130844000 -0.248058527685 -0.755098732347
130853500 -0.248639314738 -0.754981538117
130863000 -0.248952384768 -0.75477085528
130872500 -0.249254892007 -0.754759499171
130882000 -0.249342685182 -0.754858449609
130891500 -0.249954779648 -0.754726537905
130901000 -0.250161323701 -0.754339494561
130910500 -0.250386331897 -0.754321465107
130920000 -0.250604246567 -0.754160620215
130929500 -0.251143897112 -0.753933788691
130939000 -0.251216412773 -0.753721530779
130948500 -0.25166512475 -0.753601113529
130958000 -0.251817564984 -0.753678891803
130967500 -0.252221141682 -0.753668799531
130977000 -0.25255639202 -0.752775755188
130986500 -0.252717435 -0.753512468463
130996000 -0.253201658154 -0.753112641348
131005500 -0.253311737056 -0.753110974123
131015000 -0.253518782331 -0.752942253701
131024500 -0.253918069705 -0.752816115028
131034000 -0.254245302781 -0.752848430609
131043500 -0.254417714878 -0.75272365839
131053000 -0.255013037347 -0.75249291607
131062500 -0.255179909017 -0.752277586027
131072000 -0.255294733471 -0.752228967195
131081500 -0.255635947839 -0.752194683691
131091000 -0.256262976655 -0.751947809776
131100500 -0.256512350491 -0.751618042747
131110000 -0.25666635006 -0.75143303968
131119500 -0.256492303395 -0.751642238616
131129000 -0.257429581846 -0.751290649076
131138500 -0.25762616038 -0.751227582182
131148000 -0.257827337443 -0.750888443561
131157500 -0.258026451526 -0.750946519907
131167000 -0.25873739605 -0.750658737963
131176500 -0.258766928094 -0.750623210061
131186000 -0.259088522338 -0.750473527168
131195500 -0.259319989191 -0.750403247609
131205000 -0.259837736591 -0.750400525502
131214500 -0.259989585832 -0.750237336809
131224000 -0.260288246104 -0.750227215778
131233500 -0.260627351662 -0.74978102208
131243000 -0.260921577331 -0.749611868879
131252500 -0.261089037479 -0.749621179339
131262000 -0.261506361847 -0.749377359203
131271500 -0.261900965561 -0.74903848275
131281000 -0.261967249817 -0.749230418911
131290500 -0.262552551105 -0.749133074693
131300000 -0.262930086618 -0.748848208007
131309500 -0.263916121202 -0.748252578355
131319000 -0.264220862521 -0.74788884596
131328500 -0.264612923386 -0.747696767802
131338000 -0.264562269511 -0.747730388442
131347500 -0.264716423729 -0.747516814053
131357000 -0.265199966132 -0.747284209455
131366500 -0.265321568846 -0.747175951709
131376000 -0.265755277202 -0.746990614441
131385500 -0.266310348732 -0.746865372798
131395000 -0.266638464126 -0.746653606972
131404500 -0.266813002207 -0.746576037986
131414000 -0.266883575619 -0.746658013705
131423500 -0.267420445188 -0.746254895196
131433000 -0.267758685408 -0.745934230192
131442500 -0.267932523581 -0.74598859441
131452000 -0.268292116256 -0.746104747215
131461500 -0.268825711891 -0.745534048867
131471000 -0.269101772086 -0.745391216175
131480500 -0.269161980741 -0.745243926786
131490000 -0.269451995646 -0.745170871078
131499500 -0.270010741566 -0.744979576795
131509000 -0.270055799551 -0.744856910289
131518500 -0.270230609642 -0.744892510144
131528000 -0.270592031361 -0.744594793033
131537500 -0.270870751071 -0.74444185947
131547000 -0.271087100963 -0.744493839383
131556500 -0.271521782604 -0.744160501476
131566000 -0.271714634956 -0.743818815906
131575500 -0.272131121145 -0.743939331968
131585000 -0.272089797562 -0.743765879183
131594500 -0.272598115338 -0.743577155437
131604000 -0.273048666886 -0.743118686946
131613500 -0.272681831424 -0.743552698881
131623000 -0.273695654871 -0.742765296101
131632500 -0.274038639253 -0.742667571913
131642000 -0.273956787289 -0.74256543172
131651500 -0.274133327047 -0.742488019287
131661000 -0.274581731003 -0.74218050494
131670500 -0.274962091688 -0.742002260361
131680000 -0.275242574549 -0.742008725541
131689500 -0.275402081556 -0.742035409481
131699000 -0.275979943939 -0.741928395404
131708500 -0.275745880384 -0.74205588775
131718000 -0.276149221252 -0.741627952817
131727500 -0.276436519815 -0.741457067112
131737000 -0.276946582604 -0.741094131674
131746500 -0.277087597109 -0.741127681471
131756000 -0.277368171946 -0.741152921592
131765500 -0.277853448328 -0.740963930416
131775000 -0.278087299597 -0.740643496475
131784500 -0.278152997567 -0.740643149929
131794000 -0.278549519971 -0.740226046437
131803500 -0.278953807396 -0.740067700638
131813000 -0.279301974045 -0.73982876087
131822500 -0.279465914606 -0.739708110737
131832000 -0.279845754073 -0.739535504632
131841500 -0.280086302418 -0.739419949861
131851000 -0.28025448023 -0.739220663183
131860500 -0.280600855239 -0.739205239764
131870000 -0.281058694833 -0.738938809299
131879500 -0.281267881668 -0.738825676087
131889000 -0.281456074671 -0.738677966358
131898500 -0.281934723441 -0.738463203327
131908000 -0.28221687338 -0.738182015305
131917500 -0.282406882057 -0.738095295221
131927000 -0.282532801822 -0.738136378513
131936500 -0.282959299714 -0.737786449055
131946000 -0.283232254147 -0.737753614565
131955500 -0.283341015509 -0.737657399068
131965000 -0.283795508863 -0.737618772282
131974500 -0.284177431274 -0.737408333972
131984000 -0.284141071864 -0.737206528136
131993500 -0.284507156007 -0.736931617037
132003000 -0.284851026339 -0.736647391914
132012500 -0.285240580561 -0.736473725121
132022000 -0.285310411933 -0.736867191627
132031500 -0.285840919097 -0.736207160177
132041000 -0.285980437933 -0.736006139587
132050500 -0.286206185226 -0.736021627529
132060000 -0.286387320664 -0.73608498037
132069500 -0.28691590716 -0.735620807993
132079000 -0.28724146597 -0.7354258593
132088500 -0.287489145122 -0.735444252367
132098000 -0.287853766613 -0.735240069245
132107500 -0.288553680019 -0.734957405052
132117000 -0.287955685933 -0.734765634827
132126500 -0.28830192135 -0.734892638841
132136000 -0.288699342283 -0.734490825633
132145500 -0.289030585391 -0.734284164045
132155000 -0.28915011504 -0.731311617874
132164500 -0.289557225879 -0.734146850514
132174000 -0.29010848561 -0.733813279133
132183500 -0.290265772968 -0.733597655011
132193000 -0.29043461931 -0.73362206872
132202500 -0.290875803331 -0.733388018262
132212000 -0.291090223873 -0.733077216125
132221500 -0.291279268252 -0.733111579653
132231000 -0.29157892106 -0.732991533464
132240500 -0.292028881588 -0.732672749283
132250000 -0.292296782486 -0.732416614762
132259500 -0.292566354251 -0.731521891084
132269000 -0.293091666852 -0.731302921625
132278500 -0.293188130074 -0.731223778956
132288000 -0.293223921233 -0.731087506711
132297500 -0.293829554003 -0.730693788725
132307000 -0.294348301181 -0.730488293425
132316500 -0.294458900001 -0.730423612782
132326000 -0.294622031347 -0.730346228348
132335500 -0.294862206328 -0.730382168275
132345000 -0.295406208851 -0.72994942711
132354500 -0.295602882326 -0.729877790252
132364000 -0.29574116161 -0.729629372263
132373500 -0.295823892279 -0.729348735416
132383000 -0.296345035186 -0.729087427532
132392500 -0.296765447772 -0.728869719336
132402000 -0.296677298086 -0.728638323469
132411500 -0.296662609228 -0.728974452582
132421000 -0.297038616037 -0.729117796449
132430500 -0.297499285745 -0.728923739096
132440000 -0.297761119829 -0.728577071068
132449500 -0.297970285017 -0.728187105847
132459000 -0.298313273666 -0.727876905243
132468500 -0.298827285049 -0.727399837224
132478000 -0.29896731361 -0.727429139087
132487500 -0.299067254161 -0.727262149223
132497000 -0.299317377957 -0.727242455318
132506500 -0.300080952891 -0.726614428001
132516000 -0.299960704716 -0.726663118584
132525500 -0.300128130337 -0.726605576735
132535000 -0.300492478999 -0.72656374336
132544500 -0.301097311763 -0.726020810319
132554000 -0.300668939421 -0.726212126285
132563500 -0.301163945382 -0.725721723769
132573000 -0.301271664022 -0.72577109122
132582500 -0.301960621837 -0.72537375608
132592000 -0.302272161182 -0.725297347269
132601500 -0.302376695445 -0.72528748609
132611000 -0.3024522158 -0.725266992718
132620500 -0.302886541382 -0.724845663527
132630000 -0.303348301104 -0.724566915989
132639500 -0.303407476223 -0.724434855684
132649000 -0.303468575343 -0.72424755255
132658500 -0.303963494792 -0.724147263912
132668000 -0.304472163076 -0.723738409282
132677500 -0.304543793299 -0.723787554888
132687000 -0.304607734058 -0.723602660658
132696500 -0.30606937379 -0.722896232131
132706000 -0.305688011275 -0.723113214463
132715500 -0.305635653736 -0.723136057781
132725000 -0.305103102916 -0.723727919076
132734500 -0.30588753876 -0.722874242474
132744000 -0.306849965823 -0.722619061271
132753500 -0.306825526483 -0.722467059839
132763000 -0.306859749978 -0.722176228199
132772500 -0.306943820774 -0.721957442194
132782000 -0.307550626919 -0.721685822702
132791500 -0.30789734009 -0.721646878683
132801000 -0.307918789103 -0.721711959966
132810500 -0.308173423199 -0.721464349782
132820000 -0.308702869569 -0.721023011588
132829500 -0.309127123361 -0.72094635661
132839000 -0.309094111234 -0.720788912315
132848500 -0.3091248189 -0.720886074415
132858000 -0.30958153019 -0.720751644555
132867500 -0.310155872891 -0.72033986717
132877000 -0.310091429025 -0.719840138567
132886500 -0.310340573672 -0.720169650453
132896000 -0.310767077018 -0.71975109638
132905500 -0.311380569476 -0.719495071525
132915000 -0.311466522807 -0.719561887916
132924500 -0.311458882957 -0.719399516477
132934000 -0.3123543544 -0.719234132808
132943500 -0.312492235151 -0.71888127285
132953000 -0.312608511665 -0.718629277874
132962500 -0.312567636976 -0.718612621237
132972000 -0.312995283545 -0.718400891098
132981500 -0.313745766675 -0.717172451176
132991000 -0.313678320126 -0.717827186731
133000500 -0.313755453482 -0.717721539091
133010000 -0.314019274719 -0.717726982398
133019500 -0.314630449923 -0.717308701086
133029000 -0.314931240016 -0.717141766061
133038500 -0.314821458309 -0.716929566827
133048000 -0.315123727726 -0.716957577914
133057500 -0.315688435954 -0.715976826918
133067000 -0.315849969364 -0.716681890525
133076500 -0.316088153829 -0.716276020688
133086000 -0.316303754738 -0.71622583135
133095500 -0.31679254995 -0.715937867733
133105000 -0.317224811733 -0.715679573891
133114500 -0.317114619157 -0.715508946301
133124000 -0.317334301892 -0.715484909865
133133500 -0.317795148038 -0.715200155146
133143000 -0.318372635791 -0.714832467866
133152500 -0.318617439718 -0.71493513767
133162000 -0.318612756539 -0.715067651315
133171500 -0.318867528626 -0.71457103753
133181000 -0.319473785284 -0.714061293279
133190500 -0.31964914117 -0.714089532712
133200000 -0.319579579437 -0.714191880787
133209500 -0.320498949623 -0.714130663621
133219000 -0.320471991285 -0.713935132389
133228500 -0.320892390395 -0.713817462258
133238000 -0.320904049457 -0.713834452428
133247500 -0.321618807287 -0.713383451791
133257000 -0.321724568069 -0.712958995235
133266500 -0.321897096999 -0.712879712886
133276000 -0.322311317492 -0.712793300545
133285500 -0.322612504627 -0.712339487833
133295000 -0.32267636983 -0.71213209024
133304500 -0.322931377619 -0.712410848477
133314000 -0.323328348444 -0.711984082755
133323500 -0.323766580963 -0.711312985995
133333000 -0.323770574535 -0.711476473804
133342500 -0.324002699233 -0.711640545698
133352000 -0.324404367795 -0.711081558045
133361500 -0.324924937321 -0.710663412521
133371000 -0.324991135042 -0.710458232399
133380500 -0.325006884135 -0.71087208956
133390000 -0.325390509865 -0.710231454655
133399500 -0.325948114183 -0.70995101254
133409000 -0.325976946117 -0.710304499075
133418500 -0.32623532097 -0.709989080675
133428000 -0.326764046619 -0.709502030108
133437500 -0.327055903319 -0.709214674046
133447000 -0.327350518312 -0.709226435191
133456500 -0.327219687452 -0.709137883119
133466000 -0.327587868651 -0.709047365614
133475500 -0.328022951477 -0.7090203176
133485000 -0.328186231947 -0.708570599545
133494500 -0.328393198305 -0.70850502983
133504000 -0.328572943483 -0.708266363898
133513500 -0.329031177877 -0.708067831825
133523000 -0.329292448228 -0.707558615458
133532500 -0.32942342617 -0.707485332861
133542000 -0.329439061649 -0.707892404952
133551500 -0.330096448585 -0.707218752344
133561000 -0.330431456884 -0.706677406631
133570500 -0.330524626513 -0.706709562207
133580000 -0.330756062533 -0.707075696705
133589500 -0.331183978191 -0.706242275426
133599000 -0.331929649101 -0.704786394239
133608500 -0.33175669098 -0.705906739408
133618000 -0.331862629471 -0.706211826141
133627500 -0.332316986135 -0.705460043923
133637000 -0.33264268961 -0.705137822192
133646500 -0.332887144334 -0.705196485366
133656000 -0.333118182805 -0.705499112521
133665500 -0.333388301803 -0.704806274628
133675000 -0.333925976749 -0.704368552481
133684500 -0.333998188177 -0.704152222406
133694000 -0.334120593845 -0.704328707075
133703500 -0.334468674687 -0.703948717075
133713000 -0.334943394984 -0.703925110081
133722500 -0.335050973347 -0.703478131765
133732000 -0.33518700466 -0.703207277795
133741500 -0.335405817803 -0.703224773034
133751000 -0.335618193772 -0.702405405077
133760500 -0.336243960265 -0.70246687699
133770000 -0.336224704705 -0.702334752121
133779500 -0.336625898601 -0.702532593512
133789000 -0.336822331101 -0.70207008556
133798500 -0.337047033725 -0.701749914465
133808000 -0.337187334025 -0.701619565695
133817500 -0.337405721315 -0.702218582074
133827000 -0.337735492924 -0.70175039361
133836500 -0.338086375054 -0.701379440533
133846000 -0.338305017871 -0.701256315335
133855500 -0.338584201821 -0.701053949554
133865000 -0.33918998702 -0.700020510112
133874500 -0.339383840809 -0.69977932242
133884000 -0.339497578826 -0.700009366032
133893500 -0.339738754487 -0.700043420722
133903000 -0.340141062457 -0.699511655304
133912500 -0.340295104198 -0.699213715195
133922000 -0.340585957084 -0.698766637528
133931500 -0.3406335956 -0.699037888781
133941000 -0.341202425023 -0.69868566082
133950500 -0.3414853679 -0.698316496745
133960000 -0.341543686128 -0.697860489539
133969500 -0.341753254781 -0.697893375551
133979000 -0.342205098501 -0.697989013885
133988500 -0.342815291696 -0.698185718413
133998000 -0.343019204391 -0.697165369229
134007500 -0.343134330922 -0.69693715008
134017000 -0.343483511016 -0.697237514513
134026500 -0.343668018168 -0.696554206384
134036000 -0.343898915806 -0.696052294756
134045500 -0.344017350245 -0.696004158684
134055000 -0.344399913305 -0.696475923055
134064500 -0.344657341919 -0.695588591622
134074000 -0.344877519592 -0.694973535461
134083500 -0.345131836559 -0.695069626625
134093000 -0.345376722299 -0.695504285203
134102500 -0.345684470272 -0.694882373876
134112000 -0.346190548236 -0.694425223296
134121500 -0.346346058663 -0.6941766177
134131000 -0.346600738213 -0.694483673584
134140500 -0.346833548035 -0.694015546477
134150000 -0.347004637668 -0.693477408471
134159500 -0.34747294118 -0.693523298068
134169000 -0.347744822621 -0.693740207169
134178500 -0.34794980453 -0.693488386395
134188000 -0.34829733492 -0.692965275487
134197500 -0.348678258232 -0.692649183754
134207000 -0.348771730173 -0.692501796367
134216500 -0.349133322952 -0.692294701075
134226000 -0.349214119736 -0.691961112063
134235500 -0.349553407276 -0.691564300696
134245000 -0.349705440332 -0.691937795113
134254500 -0.350099236469 -0.691520054622
134264000 -0.350462218896 -0.69127972785
134273500 -0.350649130232 -0.6910081967
134283000 -0.350783430313 -0.690660756157
134292500 -0.350989855699 -0.690660272191
134302000 -0.351241049805 -0.690261121127
134311500 -0.351467850767 -0.690016687659
134321000 -0.350779952755 -0.689066973852
134330500 -0.351894080591 -0.689567338763
134340000 -0.3521793705 -0.689358399822
134349500 -0.352565240297 -0.689049686683
134359000 -0.352743590276 -0.688487485242
134368500 -0.352585015409 -0.689145786755
134378000 -0.353191521299 -0.688621713964
134387500 -0.353353476245 -0.688143313276
134397000 -0.353719115998 -0.687773362541
134406500 -0.353986221399 -0.687560774063
134416000 -0.354215919369 -0.687528522311
134425500 -0.354329215821 -0.686947278125
134435000 -0.354841650787 -0.686657562294
134444500 -0.354990500705 -0.686638309703
134454000 -0.355417434722 -0.6864618073
134463500 -0.355529084438 -0.686092888868
134473000 -0.35582729155 -0.685825079846
134482500 -0.356102427117 -0.685623631016
134492000 -0.35637055917 -0.685548834105
134501500 -0.356550991224 -0.68515256629
134511000 -0.35686891419 -0.684899490221
134520500 -0.356927083116 -0.684445684445
134530000 -0.35738700864 -0.684396220368
134539500 -0.357530762758 -0.684230129358
134549000 -0.357788431936 -0.683873711442
134558500 -0.358132487596 -0.683584976957
134568000 -0.358255680603 -0.683526209816
134577500 -0.358534636884 -0.683473894341
134587000 -0.358750580383 -0.683124643604
134596500 -0.358902433556 -0.682753142095
134606000 -0.359442102814 -0.682653148941
134615500 -0.359550228553 -0.682685525785
134625000 -0.359733363334 -0.682129470596
134634500 -0.359920484441 -0.681729556091
134644000 -0.360334533954 -0.681578904328
134653500 -0.360533280191 -0.681572193374
134663000 -0.360937986922 -0.680770971385
134672500 -0.361000019073 -0.680624000658
134682000 -0.361119934932 -0.680622962725
134691500 -0.361569023081 -0.680527378971
134701000 -0.361613609506 -0.680118002952
134710500 -0.361907619022 -0.679718789125
134720000 -0.362184584138 -0.679374609407
134729500 -0.362432493424 -0.679521866328
134739000 -0.362642807125 -0.679001738255
134748500 -0.362784641229 -0.678714830926
134758000 -0.362879293019 -0.678412746387
134767500 -0.363246174812 -0.677907483111
134777000 -0.363717348791 -0.678375644953
134786500 -0.36398879913 -0.677954897266
134796000 -0.364092015092 -0.677640657909
134805500 -0.364202850422 -0.677458497355
134815000 -0.364379482787 -0.677242373068
134824500 -0.364692675286 -0.676872195861
134834000 -0.365032032641 -0.676476222465
134843500 -0.365341925642 -0.676580479281
134853000 -0.36576562406 -0.676343409424
134862500 -0.364894253385 -0.677581143276
134872000 -0.364713449385 -0.678485064694
134881500 -0.366353855309 -0.675260427443
134891000 -0.366612432083 -0.675077458292
134900500 -0.366604843621 -0.674510655726
134910000 -0.366931012443 -0.674202737828
134919500 -0.367106884234 -0.674153224713
134929000 -0.367508027657 -0.674008413676
134938500 -0.367640201782 -0.67369796502
134948000 -0.367767236128 -0.673395613807
134957500 -0.368001297451 -0.673126945979
134967000 -0.368343962326 -0.673205557454
134976500 -0.368444885282 -0.672703886144
134986000 -0.368659594375 -0.672234634677
134995500 -0.368805527667 -0.672200619808
135005000 -0.369207009058 -0.672097887772
135014500 -0.369329992473 -0.671900307323
135024000 -0.369536949848 -0.67171720269
135033500 -0.369713013199 -0.671167671723
135043000 -0.370236725706 -0.671068212115
135052500 -0.370343071719 -0.670930800705
135062000 -0.370314758436 -0.670616476313
135071500 -0.370560564118 -0.669912064457
135081000 -0.370877929232 -0.670029311144
135090500 -0.371369463973 -0.669846091841
135100000 -0.371444675383 -0.669506439315
135109500 -0.371149247932 -0.669042840532
135119000 -0.371281536742 -0.668519439873
135128500 -0.371793445071 -0.668816852188
135138000 -0.372416676783 -0.66896245267
135147500 -0.372327269329 -0.668044850768
135157000 -0.372146355133 -0.667362099101
135166500 -0.372660559499 -0.667813256205
135176000 -0.373331130652 -0.667730904085
135185500 -0.373332825606 -0.667134918613
135195000 -0.372963321684 -0.666400517194
135204500 -0.373572649676 -0.666482490846
135214000 -0.374100064755 -0.666595332797
135223500 -0.374428350921 -0.666140400911
135233000 -0.373724423442 -0.665371649447
135242500 -0.374446692269 -0.665551205546
135252000 -0.375041586974 -0.665548808399
135261500 -0.375454461346 -0.665259940407
135271000 -0.375000042632 -0.664303901305
135280500 -0.374693665972 -0.663988735489
135290000 -0.375885144198 -0.66454982533
135299500 -0.37617656538 -0.664264552334
135309000 -0.375926439748 -0.663447665832
135318500 -0.375911252083 -0.66304356625
135328000 -0.376606975554 -0.66314838222
135337500 -0.377212786694 -0.663016539346
135347000 -0.376993163487 -0.662411271266
135356500 -0.376917056448 -0.662000744916
135366000 -0.377638416539 -0.66227566999
135375500 -0.378298853113 -0.662141967549
135385000 -0.378145565762 -0.661631467443
135394500 -0.377784299314 -0.661003866789
135404000 -0.37830421682 -0.66084680347
135413500 -0.379145505027 -0.661105028938
135423000 -0.379131493935 -0.660476072952
135432500 -0.378559539459 -0.659853467896
135442000 -0.37966967491 -0.659351779566
135451500 -0.379996708311 -0.659763620475
135461000 -0.380114820114 -0.659407788038
135470500 -0.37960911491 -0.658723522274
135480000 -0.380036675417 -0.658750869665
135489500 -0.38074276289 -0.658707406054
135499000 -0.381187177274 -0.659778844439
135508500 -0.380513077794 -0.657779081368
135518000 -0.380944775803 -0.657425784167
135527500 -0.38164645227 -0.657362925162
135537000 -0.381963909602 -0.656937254252
135546500 -0.381257385991 -0.656486349018
135556000 -0.380802259569 -0.656282717114
135565500 -0.381637596199 -0.656211066784
135575000 -0.382506134987 -0.656233672685
135584500 -0.382462944602 -0.655774475398
135594000 -0.382321065965 -0.655470337793
135603500 -0.383197610083 -0.655216176927
135613000 -0.383785457743 -0.655077524146
135622500 -0.383718618035 -0.654468033189
135632000 -0.383240485234 -0.654054056501
135641500 -0.384116501682 -0.654085414424
135651000 -0.38469012059 -0.653857134936
135660500 -0.384627870476 -0.652996348914
135670000 -0.383938656588 -0.65209711459
135679500 -0.384709420672 -0.65203827587
135689000 -0.385245932074 -0.653390693359
135698500 -0.385680268755 -0.65224202193
135708000 -0.385065084063 -0.651877250884
135717500 -0.385534353111 -0.65190872679
135727000 -0.386315428129 -0.651679178934
135736500 -0.386504748594 -0.651362813058
135746000 -0.385992365246 -0.650832502786
135755500 -0.386330009955 -0.650650190673
135765000 -0.387118500679 -0.650528494804
135774500 -0.387516481387 -0.650177464933
135784000 -0.387134512342 -0.649609848365
135793500 -0.387095383486 -0.64918085013
135803000 -0.387772017203 -0.649330768487
135812500 -0.388466671592 -0.649338659381
135822000 -0.388086290557 -0.648673593101
135831500 -0.387816326274 -0.648375362836
135841000 -0.388739230827 -0.648285066655
135850500 -0.389281874779 -0.647983610556
135860000 -0.388984807795 -0.647387303106
135869500 -0.388569451889 -0.6470777473
135879000 -0.389507663116 -0.646910404228
135888500 -0.390029976107 -0.646705213202
135898000 -0.390012072497 -0.646458813075
135907500 -0.389437373394 -0.64601862029
135917000 -0.390193006918 -0.645813323441
135926500 -0.390874767592 -0.645553290319
135936000 -0.391085336195 -0.645371474185
135945500 -0.390412694054 -0.645048797517
135955000 -0.390970321542 -0.644873532242
135964500 -0.391690869566 -0.644710933853
135974000 -0.391823938472 -0.644209717898
135983500 -0.391368502592 -0.643815769543
135993000 -0.391637792946 -0.643436448503
136002500 -0.392377688834 -0.643245866275
136012000 -0.392902203832 -0.642825265477
136021500 -0.392328009716 -0.642496713071
136031000 -0.392485794861 -0.642400640156
136040500 -0.393288521525 -0.642180839444
136050000 -0.393926192064 -0.641883987264
136059500 -0.393256961962 -0.64087759449
136069000 -0.393371370951 -0.64075164581
136078500 -0.39350872635 -0.64014589562
136088000 -0.393660166193 -0.640094321841
136097500 -0.394152074155 -0.639763072173
136107000 -0.394287928398 -0.639528414499
136116500 -0.39452325592 -0.639115700022
136126000 -0.394456623705 -0.638936366755
136135500 -0.394960745574 -0.638514105444
136145000 -0.395224805911 -0.638311200658
136154500 -0.39542403172 -0.637932011092
136164000 -0.3952394676 -0.637483077266
136173500 -0.395808118045 -0.637089871171
136183000 -0.395981931921 -0.636963363161
136192500 -0.396205566251 -0.636304587434
136202000 -0.396058067885 -0.636237963705
136211500 -0.396569883281 -0.636119015609
136221000 -0.396905463255 -0.635842148556
136230500 -0.397134153112 -0.635669256142
136240000 -0.397104977525 -0.635151869665
136249500 -0.397436137226 -0.635104312048
136259000 -0.397699190889 -0.634541798183
136268500 -0.397964938035 -0.634315026877
136278000 -0.397980259228 -0.633972429082
136287500 -0.398015363433 -0.633724578306
136297000 -0.398152385543 -0.6326843508
136306500 -0.398455838178 -0.633110855974
136316000 -0.398532689784 -0.632614667334
136325500 -0.398780415787 -0.632334606591
136335000 -0.399461366897 -0.632088303895
136344500 -0.399734959867 -0.63186873116
136354000 -0.39972041584 -0.631942672987
136363500 -0.399860494087 -0.631290641246
136373000 -0.400345822354 -0.630799871608
136382500 -0.400390634129 -0.630511371838
136392000 -0.4006881291 -0.630373125875
136401500 -0.400552083551 -0.630018855457
136411000 -0.400923627018 -0.629484710808
136420500 -0.40131112412 -0.629198311069
136430000 -0.401676016278 -0.628908847885
136439500 -0.401413235273 -0.628512212692
136449000 -0.401900986037 -0.628306653531
136458500 -0.402125889324 -0.62785867329
136468000 -0.402174200493 -0.62742140728
136477500 -0.401792940031 -0.627049593508
136487000 -0.398191677567 -0.627309261291
136496500 -0.402610086619 -0.626535964727
136506000 -0.383613285168 -0.59429585227
136515500 -0.403167865324 -0.625931558271
136525000 -0.40336552107 -0.625823946689
136534500 -0.403772359487 -0.625226369829
136544000 -0.403871996799 -0.625191828754
136553500 -0.404035883107 -0.62465146138
136563000 -0.404120039171 -0.624314925041
136572500 -0.404482595962 -0.623891368012
136582000 -0.404695481589 -0.623794055842
136591500 -0.404870818719 -0.623486759393
136601000 -0.404645931783 -0.623160163011
136610500 -0.405250207914 -0.622642324571
136620000 -0.405345125575 -0.622427818508
136629500 -0.40558819865 -0.622017024398
136639000 -0.405321694967 -0.621763780167
136648500 -0.405806212861 -0.621469131577
136658000 -0.406001660851 -0.620979368798
136667500 -0.40630767436 -0.620781089244
136677000 -0.405972622295 -0.620351980157
136686500 -0.406482980617 -0.620009737189
136696000 -0.406555659839 -0.619589356646
136705500 -0.406871554437 -0.619228352144
136715000 -0.406761454038 -0.618911238537
136724500 -0.407122042465 -0.618598718055
136734000 -0.407298996995 -0.61817431751
136743500 -0.40760990396 -0.618020588185
136753000 -0.407428320498 -0.617528396942
136762500 -0.407606387859 -0.617261693936
136772000 -0.407846857196 -0.616837161943
136781500 -0.408021477991 -0.616686367756
136791000 -0.408117883787 -0.616221691591
136800500 -0.408310238587 -0.615977561921
136810000 -0.408452875417 -0.615455531078
136819500 -0.408545845166 -0.61525292976
136829000 -0.408700222075 -0.614713835625
136838500 -0.408670794431 -0.614482283804
136848000 -0.409093971115 -0.614193587474
136857500 -0.409390334858 -0.613768032225
136867000 -0.409409972606 -0.613406898208
136876500 -0.409198645622 -0.612977296547
136886000 -0.409683955289 -0.612912796006
136895500 -0.40985349721 -0.612335545258
136905000 -0.409957316353 -0.61205568551
136914500 -0.409746964884 -0.611689393281
136924000 -0.410106499248 -0.611327735426
136933500 -0.410271286445 -0.610724660084
136943000 -0.410535539859 -0.610451449515
136952500 -0.410447546182 -0.610527509654
136962000 -0.41072419068 -0.609858510757
136971500 -0.410856302949 -0.609330661464
136981000 -0.411192716884 -0.609193823278
136990500 -0.411063180526 -0.608753186189
137000000 -0.411298514655 -0.608591764765
