! Calibrated averaged scanner-service zoom
# Hz S RI R 50
420000000 -0.204480878392 -0.243159679938
420010000 -0.205006877122 -0.237729172621
420020000 -0.204245660539 -0.242141332192
420030000 -0.195363245485 -0.240962340236
420040000 -0.202523840129 -0.240373689034
420050000 -0.204935268789 -0.211908175879
420060000 -0.201314518202 -0.238457582826
420070000 -0.200405828216 -0.235232083926
420080000 -0.183182246431 -0.23510668148
420090000 -0.192822371789 -0.236079497444
420100000 -0.199236636788 -0.240958547274
420110000 -0.19541918854 -0.23657524981
420120000 -0.189573452362 -0.239898535132
420130000 -0.19732099614 -0.241072626537
420140000 -0.188044684598 -0.23612759238
420150000 -0.194755932142 -0.240013596137
420160000 -0.190417617228 -0.236283588166
420170000 -0.198136971533 -0.23495470701
420180000 -0.194766845901 -0.235309985849
420190000 -0.186629255561 -0.235389341745
420200000 -0.197187530586 -0.231039442423
420210000 -0.195875947563 -0.239166282084
420220000 -0.196767471494 -0.238733540542
420230000 -0.192372104277 -0.235723093521
420240000 -0.192486672954 -0.233841341494
420250000 -0.196335523946 -0.234979082982
420260000 -0.197615450059 -0.233875628539
420270000 -0.191995341812 -0.233356955902
420280000 -0.195479417167 -0.239059094084
420290000 -0.193841323744 -0.236300919464
420300000 -0.191116111772 -0.235789721273
420310000 -0.191060208091 -0.235341640826
420320000 -0.191974508707 -0.234397995529
420330000 -0.190851384967 -0.233306079609
420340000 -0.190641719612 -0.234041689614
420350000 -0.19159169446 -0.232162533026
420360000 -0.190348717822 -0.233899984381
420370000 -0.191060047314 -0.236282578202
420380000 -0.190555668287 -0.23541157473
420390000 -0.192154196783 -0.231754731479
420400000 -0.191276278803 -0.230150193646
420410000 -0.189274231618 -0.234663498643
420420000 -0.190538643126 -0.232912290218
420430000 -0.187349374776 -0.233454617616
420440000 -0.191621066866 -0.232597474043
420450000 -0.190359436574 -0.233617442248
420460000 -0.192616229698 -0.232526729333
420470000 -0.19050755114 -0.23187903086
420480000 -0.188980263205 -0.23318228646
420490000 -0.192577841344 -0.234224482666
420500000 -0.190898671683 -0.234618598239
420510000 -0.186750769135 -0.230492076165
420520000 -0.188655680661 -0.234106908264
420530000 -0.190242916243 -0.227620610049
420540000 -0.188990121047 -0.232613603355
420550000 -0.18724921866 -0.228452684726
420560000 -0.185775254804 -0.228167332043
420570000 -0.188515526816 -0.230038933214
420580000 -0.186219498902 -0.229914153222
420590000 -0.183731545032 -0.229768721865
420600000 -0.184165914612 -0.227172333361
420610000 -0.185052058555 -0.234047835132
420620000 -0.185354203714 -0.229725776598
420630000 -0.18445285668 -0.229496502249
420640000 -0.186663570016 -0.229251693993
420650000 -0.187451473124 -0.230331992057
420660000 -0.184900769081 -0.231030170931
420670000 -0.187449475852 -0.228812048827
420680000 -0.187298327028 -0.227062883218
420690000 -0.184095604921 -0.227605182901
420700000 -0.184205906825 -0.23080605529
420710000 -0.185896072298 -0.227865787353
420720000 -0.185368175965 -0.228994794611
420730000 -0.186209402011 -0.227621307822
420740000 -0.18522244711 -0.227006389907
420750000 -0.186028740696 -0.227542884393
420760000 -0.171680333558 -0.233804508231
420770000 -0.191137360231 -0.222567038341
420780000 -0.18757518953 -0.231426014263
420790000 -0.176711667325 -0.215889459807
420800000 -0.185036754531 -0.23319524491
420810000 -0.185613246351 -0.224487486313
420820000 -0.175927582842 -0.228845951397
420830000 -0.185541645972 -0.229909168885
420840000 -0.179001632637 -0.227786635629
420850000 -0.182078079431 -0.226714624888
420860000 -0.176261209846 -0.230294971735
420870000 -0.184086189847 -0.230241114818
420880000 -0.190638921958 -0.232406087504
420890000 -0.179862858177 -0.221077318334
420900000 -0.175766878641 -0.232864055028
420910000 -0.179443611432 -0.232173795072
420920000 -0.176648723975 -0.226494416678
420930000 -0.177222125952 -0.22775939013
420940000 -0.181588714506 -0.227788504592
420950000 -0.182683665118 -0.224039979724
420960000 -0.179125744069 -0.229195443416
420970000 -0.180089156491 -0.226617916252
420980000 -0.181647534888 -0.22507039862
420990000 -0.180792968258 -0.225770600977
421000000 -0.179717159916 -0.223980585607
421010000 -0.176443993143 -0.224998054961
421020000 -0.178464616779 -0.224297468736
421030000 -0.181910370762 -0.226113464013
421040000 -0.176729499989 -0.228010283177
421050000 -0.177775850153 -0.222441358889
421060000 -0.178225936179 -0.226510166743
421070000 -0.176020179938 -0.222310141679
421080000 -0.178585716671 -0.2243825786
421090000 -0.180000505216 -0.224346854126
421100000 -0.178327347032 -0.223165343348
421110000 -0.174730062588 -0.223895500647
421120000 -0.174663464621 -0.224598797051
421130000 -0.176305089823 -0.220113447556
421140000 -0.175038648655 -0.224432686706
421150000 -0.175287040598 -0.221362229716
421160000 -0.17420100553 -0.22352182157
421170000 -0.176545371777 -0.220192548244
421180000 -0.171948723929 -0.221252279738
421190000 -0.173169727426 -0.223220149281
421200000 -0.174311970729 -0.221061107629
421210000 -0.175969763924 -0.221882551493
421220000 -0.174866108381 -0.220805692155
421230000 -0.176354004757 -0.222019568544
421240000 -0.173925245152 -0.223226345778
421250000 -0.176344241284 -0.223338856586
421260000 -0.172581491995 -0.222470042016
421270000 -0.17394456826 -0.221244005925
421280000 -0.172273760786 -0.219972370485
421290000 -0.17440313382 -0.219223363154
421300000 -0.171155848339 -0.22270447235
421310000 -0.173600602592 -0.219976404037
421320000 -0.173733995224 -0.220072249977
421330000 -0.171452785467 -0.22136806244
421340000 -0.173623641875 -0.21809181884
421350000 -0.169763912683 -0.221652914191
421360000 -0.172696005931 -0.221483539783
421370000 -0.167646762107 -0.219702560686
421380000 -0.172539546518 -0.219624702376
421390000 -0.171096065955 -0.218433022796
421400000 -0.169403389832 -0.22008742495
421410000 -0.169842972652 -0.217853835744
421420000 -0.16917313354 -0.21853715551
421430000 -0.166808469555 -0.220049979179
421440000 -0.168028253068 -0.220165952106
421450000 -0.169787793062 -0.218444119769
421460000 -0.170611376161 -0.221298053437
421470000 -0.169779560989 -0.219803657537
421480000 -0.168569924723 -0.218473450434
421490000 -0.168812603746 -0.219409936516
421500000 -0.167562547451 -0.219408687267
421510000 -0.168228666363 -0.218383383487
421520000 -0.167064568058 -0.2205946866
421530000 -0.168563734994 -0.21986392131
421540000 -0.166499094269 -0.216691506677
421550000 -0.167655975223 -0.218060510279
421560000 -0.165988485852 -0.218880145695
421570000 -0.167249970966 -0.217046154949
421580000 -0.167515662879 -0.217113348591
421590000 -0.165099462502 -0.215146928534
421600000 -0.165206341595 -0.21627090301
421610000 -0.166380461421 -0.216710556615
421620000 -0.165162672542 -0.219050931441
421630000 -0.164604586584 -0.217402816871
421640000 -0.16620300467 -0.217545758279
421650000 -0.167399578637 -0.216029104169
421660000 -0.165173968421 -0.218289003094
421670000 -0.165155108414 -0.217557118205
421680000 -0.164280210765 -0.216580773536
421690000 -0.163678148138 -0.216784011645
421700000 -0.164111440934 -0.216584558717
421710000 -0.163830282098 -0.21623583518
421720000 -0.163696534377 -0.215110757973
421730000 -0.162438027719 -0.214985305257
421740000 -0.163385265324 -0.216103221484
421750000 -0.162778090222 -0.215037112523
421760000 -0.163207815379 -0.214206788662
421770000 -0.162017427182 -0.216143976391
421780000 -0.161991201342 -0.214699292754
421790000 -0.161330077083 -0.214961952051
421800000 -0.162617567609 -0.21502256736
421810000 -0.162069078658 -0.214072733
421820000 -0.160606199079 -0.215452523356
421830000 -0.160691430296 -0.214088779802
421840000 -0.161403365527 -0.213989810782
421850000 -0.16072796821 -0.214596061118
421860000 -0.16064005352 -0.21308568579
421870000 -0.157910685671 -0.214751559354
421880000 -0.160175396037 -0.214071168914
421890000 -0.158351938012 -0.212906959736
421900000 -0.159154012432 -0.214323115134
421910000 -0.158682332672 -0.215029744828
421920000 -0.159442306286 -0.213105418642
421930000 -0.160376868247 -0.212190175543
421940000 -0.157745266107 -0.211210082152
421950000 -0.15702963666 -0.212520212391
421960000 -0.157387699121 -0.21169351888
421970000 -0.157942458134 -0.211546059658
421980000 -0.155535760206 -0.21217993834
421990000 -0.156007900502 -0.212259171515
422000000 -0.155573317339 -0.212789019919
422010000 -0.155352957606 -0.211542420445
422020000 -0.15274227357 -0.210677097677
422030000 -0.155834584699 -0.211663310052
422040000 -0.153412546324 -0.212063022215
422050000 -0.154956722645 -0.209174997418
422060000 -0.153388410749 -0.212566962243
422070000 -0.1544365511 -0.210678153368
422080000 -0.153969990964 -0.211852842041
422090000 -0.154182718279 -0.211448713543
422100000 -0.154121671451 -0.210945547339
422110000 -0.152642040087 -0.211201258823
422120000 -0.152825058984 -0.213096868202
422130000 -0.151403373379 -0.209350410908
422140000 -0.153550213152 -0.209809276348
422150000 -0.151314900458 -0.209105724384
422160000 -0.150085720934 -0.205927606616
422170000 -0.15213486824 -0.208665861654
422180000 -0.152028310749 -0.207904016682
422190000 -0.150885523204 -0.212287481018
422200000 -0.148584086871 -0.211108762531
422210000 -0.154362548525 -0.209519936448
422220000 -0.148510167334 -0.208625380014
422230000 -0.150579766934 -0.210224938304
422240000 -0.1501265491 -0.209534733213
422250000 -0.152064594525 -0.209012997084
422260000 -0.150852503879 -0.210587407892
422270000 -0.147165043078 -0.210043944126
422280000 -0.146909630504 -0.206559381572
422290000 -0.151602912661 -0.206923775472
422300000 -0.150785893622 -0.208584412701
422310000 -0.144737844399 -0.208113026617
422320000 -0.148503896581 -0.20925506419
422330000 -0.146545609231 -0.20768444459
422340000 -0.144569659999 -0.207429428837
422350000 -0.149407890039 -0.20862082059
422360000 -0.145925087447 -0.208894130763
422370000 -0.148826708274 -0.208612265444
422380000 -0.146503797995 -0.207782067832
422390000 -0.146102617473 -0.206144685253
422400000 -0.142932027403 -0.206758617694
422410000 -0.142893623003 -0.211117607759
422420000 -0.148139698371 -0.208340654681
422430000 -0.143695794317 -0.207823893362
422440000 -0.145247251024 -0.210968966183
422450000 -0.142821740511 -0.212780198215
422460000 -0.143930148773 -0.205983404158
422470000 -0.141136114012 -0.207501302287
422480000 -0.139588226569 -0.205170399367
422490000 -0.141141970748 -0.20816341467
422500000 -0.140975026741 -0.206807069127
422510000 -0.141780452433 -0.206483311619
422520000 -0.143213389608 -0.205387053639
422530000 -0.143923978612 -0.208102204247
422540000 -0.141714476222 -0.209686377259
422550000 -0.147493262778 -0.205228939493
422560000 -0.142377989396 -0.208041777335
422570000 -0.139257887337 -0.203503482513
422580000 -0.140344147491 -0.20393841796
422590000 -0.144827577226 -0.203686321074
422600000 -0.141830623456 -0.206996251288
422610000 -0.14144929596 -0.205931704509
422620000 -0.141704531899 -0.205117323202
422630000 -0.140222500905 -0.206149118819
422640000 -0.140280561626 -0.204222993922
422650000 -0.140030424337 -0.205168827378
422660000 -0.140867936046 -0.204533999508
422670000 -0.138173063374 -0.204680405158
422680000 -0.13888830213 -0.204782648067
422690000 -0.139772758977 -0.205027477568
422700000 -0.139393701918 -0.204992305143
422710000 -0.138701483157 -0.205748363666
422720000 -0.137791314316 -0.205521266611
422730000 -0.137667936671 -0.206442848832
422740000 -0.137295004884 -0.204012165813
422750000 -0.137801860487 -0.204150914426
422760000 -0.137080268322 -0.204557851602
422770000 -0.136449245621 -0.204117032998
422780000 -0.137292108734 -0.204074351319
422790000 -0.136186035655 -0.2034698986
422800000 -0.135687487354 -0.202942757748
422810000 -0.137046581413 -0.203756231551
422820000 -0.137081567312 -0.204156388932
422830000 -0.136155781169 -0.203274449482
422840000 -0.136629154679 -0.204342171161
422850000 -0.13546945944 -0.205058080929
422860000 -0.133841617227 -0.204502680971
422870000 -0.134684331872 -0.20256427721
422880000 -0.134202450167 -0.204663697344
422890000 -0.131473045343 -0.203381254741
422900000 -0.132880869829 -0.203746668056
422910000 -0.133976018835 -0.201547599263
422920000 -0.132899174158 -0.202711067435
422930000 -0.133309683758 -0.202878073388
422940000 -0.131743855699 -0.202247448136
422950000 -0.131269918242 -0.202403538188
422960000 -0.133682255363 -0.199548437819
422970000 -0.132266792876 -0.203464133776
422980000 -0.131316622359 -0.201815497332
422990000 -0.131062915382 -0.20398874177
423000000 -0.13055927828 -0.204900874264
423010000 -0.131800091752 -0.202211635777
423020000 -0.127066288246 -0.199815847319
423030000 -0.12943684091 -0.202603662278
423040000 -0.129823777964 -0.206520570125
423050000 -0.131158935218 -0.20283803638
423060000 -0.130693936753 -0.200913972785
423070000 -0.127848929859 -0.201408381341
423080000 -0.128895129908 -0.201331847663
423090000 -0.125269619469 -0.20132178725
423100000 -0.128761308208 -0.20002178359
423110000 -0.131911760445 -0.201791378041
423120000 -0.12833304039 -0.200821462647
423130000 -0.129690646827 -0.202773787756
423140000 -0.129988947656 -0.202875941061
423150000 -0.127895337437 -0.201401917653
423160000 -0.127718251833 -0.202689386094
423170000 -0.127842598966 -0.200239263874
423180000 -0.12595449084 -0.200071904461
423190000 -0.128352817002 -0.200361177841
423200000 -0.124340257105 -0.200634903771
423210000 -0.125647442421 -0.202809081973
423220000 -0.126593701455 -0.200481819351
423230000 -0.124494535331 -0.201251341941
423240000 -0.125060494487 -0.203110378362
423250000 -0.123163332604 -0.199289081027
423260000 -0.119810821278 -0.207688613151
423270000 -0.123585780703 -0.20130223783
423280000 -0.125907824532 -0.199473061517
423290000 -0.128176544555 -0.20044972515
423300000 -0.124814133196 -0.19876264073
423310000 -0.125397589077 -0.201354396861
423320000 -0.122578071241 -0.200571412863
423330000 -0.123775645096 -0.198841881037
423340000 -0.12308622468 -0.198181030022
423350000 -0.122228160127 -0.199813613031
423360000 -0.1225459803 -0.199176976617
423370000 -0.121835168311 -0.200254782164
423380000 -0.12315654203 -0.197005439196
423390000 -0.122558992956 -0.196446071074
423400000 -0.124299562421 -0.200559035671
423410000 -0.120273019656 -0.199362457353
423420000 -0.122760112289 -0.20021950974
423430000 -0.120781824472 -0.201677256166
423440000 -0.123080406531 -0.198191733448
423450000 -0.119551656421 -0.197480148915
423460000 -0.11990307277 -0.199496530585
423470000 -0.11980088063 -0.197068942977
423480000 -0.120084461813 -0.199470538354
423490000 -0.119723385977 -0.198413764711
423500000 -0.118667995454 -0.198360922326
423510000 -0.11959754675 -0.197636239877
423520000 -0.117560535947 -0.198976442278
423530000 -0.117296987512 -0.1977279941
423540000 -0.11756122155 -0.198149158072
423550000 -0.117852635219 -0.197913078396
423560000 -0.11759806161 -0.197320076499
423570000 -0.117005471716 -0.197586914947
423580000 -0.116836352755 -0.197486331764
423590000 -0.116755054792 -0.197870868753
423600000 -0.116848103327 -0.197675380167
423610000 -0.116414846466 -0.198663371933
423620000 -0.116668209225 -0.197701245079
423630000 -0.116945792832 -0.197194276142
423640000 -0.117783555413 -0.198989324083
423650000 -0.11568096112 -0.197866056874
423660000 -0.114649748464 -0.197983553268
423670000 -0.11491560615 -0.196768295257
423680000 -0.114897709594 -0.1976153379
423690000 -0.114440654724 -0.196244274328
423700000 -0.1147873706 -0.197005898797
423710000 -0.113066580793 -0.197065667704
423720000 -0.11436316568 -0.196388555301
423730000 -0.114242219671 -0.198144217517
423740000 -0.112393109443 -0.196911143254
423750000 -0.113234850457 -0.196816746836
423760000 -0.113805969427 -0.197001520332
423770000 -0.111636689041 -0.196360146489
423780000 -0.112249915532 -0.196222175552
423790000 -0.112116366606 -0.196380734638
423800000 -0.109821279607 -0.196815215462
423810000 -0.110813242912 -0.196111691759
423820000 -0.111275480589 -0.195960386523
423830000 -0.110514262936 -0.195966846973
423840000 -0.110925727432 -0.19641884886
423850000 -0.10956265856 -0.195346358464
423860000 -0.109931298234 -0.196143206741
423870000 -0.109005517924 -0.195427807698
423880000 -0.109943815748 -0.194688108488
423890000 -0.108453412126 -0.196037509704
423900000 -0.109679466136 -0.195784980471
423910000 -0.110457544255 -0.195030642864
423920000 -0.109197733166 -0.194384420261
423930000 -0.10808228912 -0.194397629553
423940000 -0.108445682216 -0.194155616852
423950000 -0.10742138447 -0.194416304255
423960000 -0.107627623042 -0.1956316329
423970000 -0.107364408317 -0.195205616587
423980000 -0.108058143477 -0.193969517101
423990000 -0.106834098908 -0.194097257436
424000000 -0.106106755043 -0.194107405261
424010000 -0.105431701878 -0.19491828881
424020000 -0.106048945885 -0.195195775821
424030000 -0.105577471944 -0.19521121881
424040000 -0.106164875522 -0.195815862465
424050000 -0.105271744532 -0.193465662386
424060000 -0.106130989036 -0.194950475532
424070000 -0.104421213028 -0.196104181869
424080000 -0.104980968358 -0.193758918576
424090000 -0.103605616102 -0.195120315881
424100000 -0.100224142517 -0.194693089917
424110000 -0.104286140067 -0.195290440875
424120000 -0.104011535313 -0.195417230702
424130000 -0.104242810812 -0.193874484466
424140000 -0.103029775232 -0.194225017263
424150000 -0.102841719428 -0.195110320525
424160000 -0.103857663933 -0.194237304099
424170000 -0.101381631415 -0.19484424977
424180000 -0.101961423769 -0.193136962265
424190000 -0.104155340723 -0.193301233191
424200000 -0.102956065536 -0.194465362155
424210000 -0.0952859215223 -0.19419827459
424220000 -0.102212174713 -0.195282613935
424230000 -0.0993962424128 -0.196540246544
424240000 -0.100362635592 -0.196126115426
424250000 -0.0993041013074 -0.197191377818
424260000 -0.0992231980223 -0.195317428559
424270000 -0.101156927803 -0.192804838549
424280000 -0.100807346128 -0.193674334304
424290000 -0.0994355189187 -0.194162404103
424300000 -0.0979088386224 -0.192685653262
424310000 -0.0985480454337 -0.192776219221
424320000 -0.0978487856399 -0.193297282853
424330000 -0.0979038641925 -0.192655730534
424340000 -0.0992750612694 -0.192630566583
424350000 -0.0973800987987 -0.191741415946
424360000 -0.0977939636793 -0.193409006489
424370000 -0.0976824376008 -0.192982715363
424380000 -0.0973911827544 -0.192572772629
424390000 -0.0972144390884 -0.191803309171
424400000 -0.0965158194861 -0.192469113677
424410000 -0.0970811234664 -0.192884482122
424420000 -0.094413768773 -0.192542012739
424430000 -0.0956139170188 -0.193268918212
424440000 -0.0956634479629 -0.192720962966
424450000 -0.0957721460438 -0.191853762045
424460000 -0.0938553593657 -0.192094971117
424470000 -0.0947781343252 -0.192307080982
424480000 -0.0941382787939 -0.19192032022
424490000 -0.0945697567169 -0.192545613607
424500000 -0.0940953914697 -0.192071098957
424510000 -0.0939479956482 -0.191548228929
424520000 -0.0937611995792 -0.192636622819
424530000 -0.0927742878486 -0.192060468802
424540000 -0.0930658244671 -0.191878452736
424550000 -0.0925148823597 -0.19218479151
424560000 -0.0930310230502 -0.191809835568
424570000 -0.0926376741254 -0.19291573772
424580000 -0.0926662839863 -0.191241836595
424590000 -0.0921099645487 -0.192777688529
424600000 -0.0930665037177 -0.191803997729
424610000 -0.090999259172 -0.192397305189
424620000 -0.0907645660664 -0.191839055362
424630000 -0.0909664502218 -0.19129939289
424640000 -0.0911376078257 -0.191663772163
424650000 -0.0898963933378 -0.190975897642
424660000 -0.0903053592075 -0.190074479003
424670000 -0.0900960190464 -0.191245562017
424680000 -0.0891059161582 -0.191790233175
424690000 -0.0887039917962 -0.191607835509
424700000 -0.0884608210874 -0.1914798343
424710000 -0.0887208631673 -0.192403641447
424720000 -0.0893160213463 -0.191076401619
424730000 -0.0881511577655 -0.191589109577
424740000 -0.0875758821261 -0.191544523151
424750000 -0.0877876464011 -0.19128751452
424760000 -0.0879844013502 -0.190865398146
424770000 -0.0887483228319 -0.190332625612
424780000 -0.0873822432999 -0.191982545988
424790000 -0.0864461677132 -0.190080477823
424800000 -0.0867211628786 -0.191891574736
424810000 -0.0868063241398 -0.190815825795
424820000 -0.086144411996 -0.190498097601
424830000 -0.0874523381705 -0.189517567062
424840000 -0.0869180068029 -0.191217183669
424850000 -0.0855362703561 -0.190268796107
424860000 -0.0846565362171 -0.190719260839
424870000 -0.0848085125703 -0.190759522206
424880000 -0.0853398162769 -0.190994339709
424890000 -0.0838977951591 -0.190415162762
424900000 -0.0849735013631 -0.190756657538
424910000 -0.0842966043199 -0.191854308319
424920000 -0.084880139217 -0.191067257564
424930000 -0.0844843654708 -0.189795920077
424940000 -0.0820998135782 -0.189696681247
424950000 -0.0829382240438 -0.187836558536
424960000 -0.082240733829 -0.190087018998
424970000 -0.0823906936024 -0.190063531866
424980000 -0.0821192539385 -0.190366237125
424990000 -0.0806879645859 -0.190712141432
425000000 -0.080883775896 -0.189968803396
425010000 -0.0802728950539 -0.188787568014
425020000 -0.0809562487062 -0.189934312029
425030000 -0.080078707698 -0.190930287942
425040000 -0.0811805595498 -0.190267557548
425050000 -0.0807578467412 -0.192216491832
425060000 -0.0785118279108 -0.189531157061
425070000 -0.0797325403905 -0.189487946497
425080000 -0.0807808199541 -0.189950658835
425090000 -0.0787543725873 -0.190054488046
425100000 -0.0787225513832 -0.189719195477
425110000 -0.0783473402722 -0.190355567854
425120000 -0.0783392536025 -0.189797425373
425130000 -0.0777870594002 -0.188741972671
425140000 -0.0777017218458 -0.188959510148
425150000 -0.0766153471016 -0.190355318452
425160000 -0.0770744052743 -0.189280440304
425170000 -0.0763105305494 -0.190205386705
425180000 -0.0755154480909 -0.189223982073
425190000 -0.0761357379219 -0.188437313772
425200000 -0.0755039366757 -0.189290515963
425210000 -0.0761542306818 -0.188658318833
425220000 -0.0756054604926 -0.189231134605
425230000 -0.0757759495045 -0.189532437123
425240000 -0.0742429337058 -0.189489924254
425250000 -0.0740524237122 -0.189260465719
425260000 -0.0742270497053 -0.189080429847
425270000 -0.0743729499682 -0.189283302213
425280000 -0.0739877937 -0.188877310491
425290000 -0.0732964880263 -0.189045175567
425300000 -0.0749240142634 -0.189833764846
425310000 -0.0732156196305 -0.187897167042
425320000 -0.0723088303475 -0.189750658811
425330000 -0.0723725669409 -0.188730922582
425340000 -0.0721065772432 -0.189017206882
425350000 -0.0728645089445 -0.188951350414
425360000 -0.0719839201745 -0.189647599858
425370000 -0.0728740112841 -0.189749060952
425380000 -0.0706548749437 -0.189560545219
425390000 -0.0709752600537 -0.188884036765
425400000 -0.0718741463982 -0.187698261
425410000 -0.0706079255219 -0.188557809186
425420000 -0.0710489261299 -0.187914562025
425430000 -0.0705839803224 -0.187400496091
425440000 -0.0690786377922 -0.187571439211
425450000 -0.069060338329 -0.186533436114
425460000 -0.069563373615 -0.187672955275
425470000 -0.0684811061177 -0.187583350169
425480000 -0.0720400096547 -0.188408908083
425490000 -0.0700513501302 -0.187196972914
425500000 -0.0694071287076 -0.188218431264
425510000 -0.0694444992874 -0.188087597675
425520000 -0.0663970150847 -0.186398585686
425530000 -0.0686524439121 -0.189120492257
425540000 -0.0666114471928 -0.189071700961
425550000 -0.0671827936279 -0.189590729193
425560000 -0.0660390847562 -0.188526265653
425570000 -0.0650485185482 -0.18853497571
425580000 -0.0655579220158 -0.188085223595
425590000 -0.0676224542866 -0.189297854993
425600000 -0.0628109906521 -0.187662710642
425610000 -0.0666412413809 -0.186888903527
425620000 -0.0667520227343 -0.187708086859
425630000 -0.0636932987277 -0.188561224239
425640000 -0.0665231482952 -0.187770071065
425650000 -0.0646677735756 -0.187262060299
425660000 -0.064419396239 -0.187734472846
425670000 -0.0640773521416 -0.19058107365
425680000 -0.0631914845397 -0.187580125294
425690000 -0.0627279537452 -0.18744551231
425700000 -0.0633376927406 -0.187364000297
425710000 -0.0641367516735 -0.188661546803
425720000 -0.0620119967521 -0.187875293066
425730000 -0.0634552966416 -0.188092599213
425740000 -0.0619376398324 -0.187274603993
425750000 -0.0635530291356 -0.187585988343
425760000 -0.0634497281793 -0.188374531465
425770000 -0.0614074130922 -0.185963055104
425780000 -0.06214725078 -0.188095304478
425790000 -0.0611177328353 -0.18796538654
425800000 -0.0604804496868 -0.188017161467
425810000 -0.0605521939165 -0.18802740172
425820000 -0.059671453061 -0.187734793404
425830000 -0.0601642170518 -0.186171687728
425840000 -0.0595568923722 -0.186946663503
425850000 -0.0590278264086 -0.186707262033
425860000 -0.0585981056961 -0.186145886266
425870000 -0.0598645453193 -0.186244371787
425880000 -0.0570390723834 -0.187541024477
425890000 -0.0591607771813 -0.18800370849
425900000 -0.0586214423691 -0.186277244043
425910000 -0.0580464768951 -0.18717179782
425920000 -0.058759164008 -0.187637348143
425930000 -0.0576958557841 -0.187812336916
425940000 -0.0572690897145 -0.1875242536
425950000 -0.0570270760384 -0.187342717899
425960000 -0.0567207897206 -0.187261818906
425970000 -0.056944342236 -0.186783939593
425980000 -0.0568135085882 -0.187346136337
425990000 -0.0556663900324 -0.187157492081
426000000 -0.054768430555 -0.187467045852
426010000 -0.0567440298597 -0.187892214534
426020000 -0.05520925972 -0.186437139325
426030000 -0.0540458915706 -0.186587441088
426040000 -0.0537762424867 -0.187792670135
426050000 -0.0533750263904 -0.187604351563
426060000 -0.0537331952263 -0.187227390878
426070000 -0.0541633185474 -0.185644347007
426080000 -0.053595583769 -0.186330078969
426090000 -0.0544818053442 -0.186025846507
426100000 -0.0522438551434 -0.186775789413
426110000 -0.0521476257696 -0.186801402526
426120000 -0.0528611149972 -0.187455198324
426130000 -0.051818157541 -0.185735661068
426140000 -0.0524720772332 -0.185332916251
426150000 -0.0517202252923 -0.186129696154
426160000 -0.0507802497826 -0.185642411654
426170000 -0.0504597197854 -0.18619521126
426180000 -0.0509917877071 -0.186966893372
426190000 -0.0518469649575 -0.185242308505
426200000 -0.0495361250316 -0.185568116113
426210000 -0.0492933812604 -0.185341163348
426220000 -0.0503870877494 -0.186294257476
426230000 -0.0489032157839 -0.185171023946
426240000 -0.0495266777029 -0.185001875998
426250000 -0.0495616278414 -0.185870405804
426260000 -0.0490979910501 -0.188851890088
426270000 -0.0494441341913 -0.187854144809
426280000 -0.0486178902938 -0.187662368388
426290000 -0.0480392476705 -0.188052836362
426300000 -0.0486811077303 -0.186178104457
426310000 -0.0467981321995 -0.186010539963
426320000 -0.0472397950022 -0.186553385483
426330000 -0.0456880185254 -0.187293112197
426340000 -0.0472638253909 -0.184637613053
426350000 -0.0481862937743 -0.185201383244
426360000 -0.0451363973583 -0.184253326189
426370000 -0.046779277503 -0.185991014325
426380000 -0.0465875301962 -0.187253796547
426390000 -0.0474858804934 -0.187767198716
426400000 -0.0433051811664 -0.186463151823
426410000 -0.045451470928 -0.183637583289
426420000 -0.0431762577032 -0.185501378272
426430000 -0.0458775614528 -0.184757114272
426440000 -0.0462744035266 -0.185992125879
426450000 -0.0441250607449 -0.183696449194
426460000 -0.0414599700844 -0.18585018814
426470000 -0.0439143114781 -0.187785301056
426480000 -0.0410490738164 -0.184080372175
426490000 -0.0410873807193 -0.187524237464
426500000 -0.0435320485739 -0.185715112688
426510000 -0.0410374334669 -0.186317788747
426520000 -0.04277452415 -0.186991883929
426530000 -0.0409976496124 -0.184462168743
426540000 -0.0400850215676 -0.185981402609
426550000 -0.0418378534514 -0.185432724939
426560000 -0.0404015740678 -0.18611503889
426570000 -0.040864904226 -0.187550588007
426580000 -0.0410685280464 -0.18775715993
426590000 -0.0429855668465 -0.186234720281
426600000 -0.0405116319865 -0.185546977268
426610000 -0.0367121403039 -0.182490230583
426620000 -0.0372202004274 -0.18416399023
426630000 -0.0395726382468 -0.184056202528
426640000 -0.0387268491203 -0.186293733157
426650000 -0.0394218437819 -0.186421955937
426660000 -0.0379636432747 -0.187111181131
426670000 -0.0377359319698 -0.186428927841
426680000 -0.0378569205935 -0.185388775358
426690000 -0.0373177231941 -0.187221915817
426700000 -0.0360074889685 -0.18464160007
426710000 -0.0377726492632 -0.185071995973
426720000 -0.0362716709186 -0.186237575538
426730000 -0.0370966913138 -0.186995151173
426740000 -0.0348727186469 -0.184927473898
426750000 -0.0353378614572 -0.18410002188
426760000 -0.0340407222713 -0.187653031575
426770000 -0.0360427402262 -0.185459019718
426780000 -0.0333790600723 -0.18558719833
426790000 -0.0348889001325 -0.185779928424
426800000 -0.0352547933544 -0.185705285321
426810000 -0.0345498857823 -0.186361902832
426820000 -0.0345298988038 -0.185672091445
426830000 -0.03403811856 -0.18566414919
426840000 -0.0339026061089 -0.18647942362
426850000 -0.0341363719141 -0.185878856916
426860000 -0.0330842516288 -0.186260569104
426870000 -0.0323930683866 -0.18478362615
426880000 -0.0326824344793 -0.186625821214
426890000 -0.0320585368596 -0.185495116108
426900000 -0.0320497245145 -0.185572295509
426910000 -0.0321085894071 -0.184877991321
426920000 -0.0327736902784 -0.185984754756
426930000 -0.0316800337136 -0.185791900215
426940000 -0.0304757306057 -0.184494038978
426950000 -0.030537889692 -0.187812181748
426960000 -0.0307852640414 -0.185058014112
426970000 -0.0302182335655 -0.186266799985
426980000 -0.0310490323625 -0.187277400034
426990000 -0.0292125298231 -0.186529655437
427000000 -0.0291390750281 -0.185822510218
427010000 -0.0287075917169 -0.18703869962
427020000 -0.0288020789351 -0.186937805793
427030000 -0.0293227435625 -0.187067919868
427040000 -0.027836473175 -0.187519216533
427050000 -0.0289672724366 -0.187082017723
427060000 -0.0285458637497 -0.185936815061
427070000 -0.0274559105857 -0.188609290017
427080000 -0.025905331195 -0.186733758036
427090000 -0.0275432285619 -0.186985588982
427100000 -0.0275945574393 -0.186230444179
427110000 -0.0269111495587 -0.187210624738
427120000 -0.0249951045382 -0.186771146035
427130000 -0.0252917422675 -0.185026108142
427140000 -0.026204703661 -0.187665138424
427150000 -0.0252651495752 -0.185416259162
427160000 -0.0252701225322 -0.186806640331
427170000 -0.0258437437753 -0.187440113284
427180000 -0.0244959023011 -0.187251434355
427190000 -0.0217531090695 -0.187820011239
427200000 -0.0234121912609 -0.185975289675
427210000 -0.0239694307032 -0.187746618772
427220000 -0.023381243914 -0.187365575111
427230000 -0.0235194686318 -0.185647226115
427240000 -0.0217023214351 -0.186745601713
427250000 -0.0234125229121 -0.187142627525
427260000 -0.0220047494146 -0.185944003097
427270000 -0.0207745652534 -0.185776282517
427280000 -0.02037306018 -0.18634770419
427290000 -0.0217470595872 -0.186857866868
427300000 -0.0240131003253 -0.1858785022
427310000 -0.0209704683383 -0.187187688909
427320000 -0.0207801906184 -0.187744359792
427330000 -0.0203972317774 -0.186069049536
427340000 -0.019938293504 -0.1873834306
427350000 -0.0199727862654 -0.186425030772
427360000 -0.0198886551258 -0.186246478561
427370000 -0.0197084921708 -0.186970084492
427380000 -0.0186097038415 -0.187230792773
427390000 -0.0187249856693 -0.18792381439
427400000 -0.0179997507855 -0.186517996706
427410000 -0.0193230246852 -0.186451303405
427420000 -0.0187297899746 -0.18865121997
427430000 -0.016509480432 -0.186698530864
427440000 -0.0180028690542 -0.185647311026
427450000 -0.0164631061708 -0.187680288887
427460000 -0.016552530753 -0.187683460952
427470000 -0.0171817579248 -0.188806545508
427480000 -0.0150144861456 -0.188426540493
427490000 -0.0153487676947 -0.187759998073
427500000 -0.0149885532321 -0.187988995954
427510000 -0.0148211439839 -0.188253929296
427520000 -0.0155318421578 -0.187521879437
427530000 -0.0158823386931 -0.188435292564
427540000 -0.016117086244 -0.189248274568
427550000 -0.0172091525901 -0.187565318388
427560000 -0.0156173295242 -0.188642236428
427570000 -0.0145129682527 -0.187397792448
427580000 -0.0123041070361 -0.187638135403
427590000 -0.0138753377226 -0.187962252754
427600000 -0.0127524633551 -0.188011847809
427610000 -0.0133859876466 -0.186701176482
427620000 -0.0136427173006 -0.188328765034
427630000 -0.0125165186338 -0.18684348882
427640000 -0.0118102690258 -0.18736994535
427650000 -0.01206316686 -0.187418101249
427660000 -0.0121309870369 -0.187418993714
427670000 -0.0119780071597 -0.188990522934
427680000 -0.0122289233046 -0.187973905869
427690000 -0.0111830372402 -0.18752176867
427700000 -0.0105953509901 -0.188005460906
427710000 -0.010336016868 -0.187112867741
427720000 -0.0101414038082 -0.188005681048
427730000 -0.00961558255954 -0.187275015038
427740000 -0.0087825200398 -0.187733911435
427750000 -0.0086801976911 -0.187510822929
427760000 -0.00853659326832 -0.187950429506
427770000 -0.00835327762221 -0.188379555864
427780000 -0.00898235631797 -0.189713002414
427790000 -0.00788303946286 -0.188469746968
427800000 -0.00828779358653 -0.188335408668
427810000 -0.00709443627878 -0.189299207336
427820000 -0.0068072271644 -0.188249763223
427830000 -0.00745326919943 -0.188169461132
427840000 -0.00695613284681 -0.188164688445
427850000 -0.00731274832365 -0.188011445057
427860000 -0.00574373913947 -0.187970837764
427870000 -0.00671319465478 -0.187168716738
427880000 -0.00629054432612 -0.188619086186
427890000 -0.0057927426472 -0.188603425658
427900000 -0.00662379769218 -0.191016788609
427910000 -0.00532520034651 -0.189418086902
427920000 -0.00517215481004 -0.188324877927
427930000 -0.00448044532158 -0.188380808543
427940000 -0.00476076811206 -0.188285461796
427950000 -0.00462883184245 -0.188465939759
427960000 -0.00336838691677 -0.186997944085
427970000 -0.00396941767233 -0.189350225996
427980000 -0.00237313464789 -0.189322125528
427990000 -0.00257343120115 -0.18869234711
428000000 -0.00208549789921 -0.188708544581
428010000 -0.0037492654091 -0.190158247633
428020000 -0.00236442108067 -0.189058327648
428030000 -0.00261251914137 -0.189765372429
428040000 -0.00235464666146 -0.188884764545
428050000 -0.00135417407876 -0.188598980054
428060000 -0.00254204463537 -0.190064244235
428070000 -0.000628856331071 -0.18992636298
428080000 -0.000913331938664 -0.188895616376
428090000 -0.00087366678233 -0.189637671078
428100000 0.000411940973307 -0.189381756071
428110000 -0.0013688696909 -0.189227809289
428120000 -0.000357050113126 -0.189227990412
428130000 0.00139597646076 -0.189697494915
428140000 0.00141200105276 -0.189797160081
428150000 0.000553884570141 -0.189988221864
428160000 -0.000238571733907 -0.189576710816
428170000 0.0011892134163 -0.190247415633
428180000 0.00075617582314 -0.190132101354
428190000 0.00192381111356 -0.189684588931
428200000 0.00208193224033 -0.189881399165
428210000 0.00256776759582 -0.190151400972
428220000 0.00201261704696 -0.190434121045
428230000 0.00317268577943 -0.189014211245
428240000 0.00336233034751 -0.189522508228
428250000 0.00248377486186 -0.19013914179
428260000 0.00299252228508 -0.191862800981
428270000 0.0036426714669 -0.190032334391
428280000 0.00396302646994 -0.189400962679
428290000 0.00314688105231 -0.190222857133
428300000 0.00327532639631 -0.190114583742
428310000 0.00509703844662 -0.190356525262
428320000 0.00419737128239 -0.191108570985
428330000 0.0051591972616 -0.190519616867
428340000 0.00523356147815 -0.189160522578
428350000 0.00673400014991 -0.190052228985
428360000 0.00527246463765 -0.190580447783
428370000 0.00593456964757 -0.189852205835
428380000 0.00571870658208 -0.188618206729
428390000 0.00626002615718 -0.189981538797
428400000 0.00834491640972 -0.192673212915
428410000 0.00684095604142 -0.19193659562
428420000 0.00711546527634 -0.191546419479
428430000 0.00800171523635 -0.190980179489
428440000 0.00871541347363 -0.190682120456
428450000 0.00826669200322 -0.191383667622
428460000 0.00848081824822 -0.190853820274
428470000 0.00864020281033 -0.18989650141
428480000 0.0102315310227 -0.189886690072
428490000 0.0089922335036 -0.190139691171
428500000 0.00876571627961 -0.191320197125
428510000 0.00978651597914 -0.191099325021
428520000 0.00964802206036 -0.190913316358
428530000 0.0101711422406 -0.191881561882
428540000 0.0105142631729 -0.19144605042
428550000 0.0105360618845 -0.19079493069
428560000 0.0108804281187 -0.190962900763
428570000 0.0105311266578 -0.191040782409
428580000 0.0121888375817 -0.191533930887
428590000 0.0122841833622 -0.190997750734
428600000 0.012484523537 -0.191128249364
428610000 0.0121213800841 -0.191815062817
428620000 0.0127341341761 -0.19173036628
428630000 0.0135192510886 -0.190905445642
428640000 0.0132093390136 -0.19153293921
428650000 0.013828541442 -0.191181933049
428660000 0.0125909646177 -0.190954783329
428670000 0.0140861483661 -0.192810901576
428680000 0.0142438569112 -0.191560056227
428690000 0.0144916328806 -0.190944224432
428700000 0.0144893140713 -0.192453101105
428710000 0.0165686496386 -0.192015064406
428720000 0.0153741923324 -0.191368557783
428730000 0.014927499707 -0.191651423853
428740000 0.0176742042727 -0.190691925215
428750000 0.0142239902221 -0.190316672895
428760000 0.0167751105916 -0.192323478639
428770000 0.0159524081496 -0.192650587855
428780000 0.0159552381169 -0.192847940843
428790000 0.0165358994001 -0.192773800177
428800000 0.0167760700786 -0.192176801348
428810000 0.0177390873186 -0.193451825883
428820000 0.0202991678179 -0.193118934752
428830000 0.0171158585483 -0.193714448173
428840000 0.0186223884758 -0.193808296973
428850000 0.0176467717594 -0.191806521711
428860000 0.019605264753 -0.193896327688
428870000 0.0185619611456 -0.191809222303
428880000 0.0212368469356 -0.193115295797
428890000 0.0181137572667 -0.19088035661
428900000 0.0184205089822 -0.194109706661
428910000 0.0216830390154 -0.192904473372
428920000 0.0210360273744 -0.194991469686
428930000 0.0196102372861 -0.192488348069
428940000 0.0221771902985 -0.195315182576
428950000 0.0205761304012 -0.193757911367
428960000 0.0206106974113 -0.191514240471
428970000 0.0207291820926 -0.192972070433
428980000 0.0213288701798 -0.195856328032
428990000 0.0227654806265 -0.196046390087
429000000 0.0280013553981 -0.189690039274
429010000 0.0203277678948 -0.193617584031
429020000 0.0222124287366 -0.193784162605
429030000 0.0208374105972 -0.195746524875
429040000 0.0215622921598 -0.19404215902
429050000 0.0225088339663 -0.194516021612
429060000 0.0220134219778 -0.194746535209
429070000 0.0232179080317 -0.193145515081
429080000 0.0243746951925 -0.196609609321
429090000 0.0225186112972 -0.194439337475
429100000 0.0243071889967 -0.195812719112
429110000 0.0240384151703 -0.196646466195
429120000 0.0243320725959 -0.196335150869
429130000 0.0230224596387 -0.195493717306
429140000 0.0242822815673 -0.194579554969
429150000 0.0250817294453 -0.195435639958
429160000 0.0258267203283 -0.195838772417
429170000 0.0247265954484 -0.195731203845
429180000 0.0256699181428 -0.196062832778
429190000 0.0261811314514 -0.195656297283
429200000 0.0247698566882 -0.195429808847
429210000 0.0255069831528 -0.195225067916
429220000 0.0254922743884 -0.19683580193
429230000 0.0265080329564 -0.196682177751
429240000 0.026525157011 -0.196551915672
429250000 0.0264853011724 -0.196399854019
429260000 0.0272139561084 -0.196178252307
429270000 0.0270732626656 -0.197582627653
429280000 0.0281731306084 -0.19712207999
429290000 0.0267778728295 -0.19614175211
429300000 0.0285063446444 -0.195833767473
429310000 0.028200082898 -0.195984302723
429320000 0.0272031761477 -0.196987461055
429330000 0.0289707993681 -0.196538579963
429340000 0.0289412290601 -0.195979650059
429350000 0.0296266931787 -0.197228594957
429360000 0.0291279135881 -0.196539233186
429370000 0.0303139623197 -0.197330260397
429380000 0.0293391854094 -0.197922069817
429390000 0.0300055305079 -0.196959756088
429400000 0.0297564203829 -0.196537907188
429410000 0.0304404521199 -0.196051576744
429420000 0.0314763031456 -0.197075089691
429430000 0.0306344154432 -0.1971899493
429440000 0.0307485475055 -0.197839466008
429450000 0.0315725173043 -0.196800086438
429460000 0.0315631733486 -0.196870599432
429470000 0.0308219538503 -0.19775582831
429480000 0.0318701268313 -0.197938296079
429490000 0.0328185864042 -0.197875516362
429500000 0.0309508460538 -0.197440849478
429510000 0.0327811450983 -0.197619022706
429520000 0.0332841751717 -0.198572932645
429530000 0.0337258644521 -0.198376984591
429540000 0.0310841571596 -0.197773977409
429550000 0.0333037711433 -0.198709482268
429560000 0.0331178911034 -0.198400702853
429570000 0.0335889835622 -0.199133010776
429580000 0.0351701690614 -0.199063126567
429590000 0.0346091555862 -0.199558830708
429600000 0.0356690385756 -0.198171020574
429610000 0.0346901253727 -0.197922278875
429620000 0.0364698001736 -0.200554784
429630000 0.0343836456161 -0.197783635029
429640000 0.0369633461959 -0.198233527216
429650000 0.033736743918 -0.198652573765
429660000 0.036029469913 -0.200464208729
429670000 0.036506102325 -0.200425726896
429680000 0.0358478596674 -0.198909765352
429690000 0.0356385253509 -0.196349282211
429700000 0.0376484725343 -0.198248369778
429710000 0.0357340770542 -0.200456299595
429720000 0.037073448975 -0.198093760076
429730000 0.0373227610743 -0.199231597188
429740000 0.0380202716843 -0.200792745969
429750000 0.0369659267437 -0.198720770649
429760000 0.0375891757266 -0.200957994561
429770000 0.0362182941234 -0.199445051603
429780000 0.0363153654641 -0.199881809492
429790000 0.0384266631955 -0.200948988599
429800000 0.0386874040658 -0.199913912055
429810000 0.0383461945534 -0.198869873155
429820000 0.03992012473 -0.197960026501
429830000 0.0395892666461 -0.2002908688
429840000 0.0408446178102 -0.200247149086
429850000 0.0398150816197 -0.200315280137
429860000 0.0400287365313 -0.198745033444
429870000 0.0404638981417 -0.199337444242
429880000 0.040656322735 -0.200517263761
429890000 0.0413172370617 -0.199207467625
429900000 0.0427142651347 -0.200127816767
429910000 0.0401752488603 -0.200780962502
429920000 0.04177729346 -0.199803089202
429930000 0.0424098962838 -0.200645128329
429940000 0.0416010131679 -0.201401622389
429950000 0.0419651092287 -0.201005537624
429960000 0.0426178702891 -0.20135893174
429970000 0.0423934366123 -0.200175653735
429980000 0.0420567219461 -0.200501719764
429990000 0.0424945659144 -0.198528040976
430000000 0.0446236115815 -0.199860827113
430010000 0.0443248654856 -0.199870248547
430020000 0.0438932209124 -0.200492962855
430030000 0.0442524681311 -0.200568624008
430040000 0.0436507480705 -0.201234092525
430050000 0.0431371193098 -0.202130718505
430060000 0.0449258894734 -0.201313669754
430070000 0.0450663604304 -0.201462500235
430080000 0.0443743563628 -0.201272489906
430090000 0.0460899935753 -0.201553122765
430100000 0.0455380285674 -0.201597170219
430110000 0.046064189837 -0.201449801626
430120000 0.0459821522017 -0.2017545911
430130000 0.0471308406025 -0.203039389186
430140000 0.0455110615713 -0.201184032116
430150000 0.0468342829796 -0.201277487725
430160000 0.0464592005503 -0.201905591912
430170000 0.0475659987641 -0.201147839652
430180000 0.047350260102 -0.20176223991
430190000 0.04700011442 -0.201522133558
430200000 0.0473211534539 -0.201649264657
430210000 0.0478446770894 -0.20252810022
430220000 0.0480286079365 -0.201674098996
430230000 0.048660497342 -0.20230634949
430240000 0.0481531545344 -0.203178681417
430250000 0.049201609913 -0.203252746834
430260000 0.048766758039 -0.203315838016
430270000 0.0493801979493 -0.203205069868
430280000 0.0493192619256 -0.202279521049
430290000 0.0499833770727 -0.202712227026
430300000 0.0512991635476 -0.202999577527
430310000 0.0504125592455 -0.202169166552
430320000 0.0505972475714 -0.202765880096
430330000 0.0511133540386 -0.202944760966
430340000 0.050192527327 -0.202860644593
430350000 0.0512433578708 -0.202885188667
430360000 0.0512430099788 -0.202951313919
430370000 0.0516942285125 -0.203270413989
430380000 0.0518782251517 -0.202533970554
430390000 0.0511501375209 -0.204117275137
430400000 0.0524672545484 -0.203674401292
430410000 0.052135906667 -0.204393982888
430420000 0.0501401828878 -0.203346763789
430430000 0.0533362488575 -0.202686466608
430440000 0.0513304358383 -0.204098787229
430450000 0.0512335079483 -0.204666731101
430460000 0.0525516450699 -0.203798911337
430470000 0.0533357042111 -0.205323725379
430480000 0.0554556035698 -0.203493966553
430490000 0.0539562432197 -0.20352620136
430500000 0.0534785834081 -0.203947371867
430510000 0.0550342570512 -0.204491297676
430520000 0.0544590502317 -0.204669102493
430530000 0.0548792031123 -0.205166800968
430540000 0.0555125715467 -0.20690127408
430550000 0.0547914640953 -0.203924875427
430560000 0.0555381556213 -0.202668270939
430570000 0.0563851126268 -0.205532512329
430580000 0.0565850707936 -0.206526942466
430590000 0.0562281685962 -0.204961639428
430600000 0.0574521367259 -0.204754127215
430610000 0.0556805363211 -0.206353611763
430620000 0.0551840222772 -0.203918013842
430630000 0.0572290502601 -0.205832449102
430640000 0.0580243160198 -0.207288177642
430650000 0.0577511328658 -0.205035706372
430660000 0.057994238332 -0.205447345878
430670000 0.0570705698701 -0.205237270394
430680000 0.0566623352561 -0.207210229353
430690000 0.0568799924976 -0.206355375315
430700000 0.0569228832702 -0.207895548591
430710000 0.0587834612091 -0.207777255912
430720000 0.0586805879828 -0.20530790605
430730000 0.0585107351972 -0.206876924695
430740000 0.0583349261662 -0.207901323872
430750000 0.0595724470986 -0.206718533685
430760000 0.0604492937037 -0.206048140708
430770000 0.0604149349883 -0.207242000672
430780000 0.0609448180753 -0.206355885851
430790000 0.0596194880339 -0.207377917534
430800000 0.0615860168567 -0.206810613028
430810000 0.0615837106927 -0.207458771081
430820000 0.06059314204 -0.207658498626
430830000 0.0607183559345 -0.207630117488
430840000 0.0619576939034 -0.208312889007
430850000 0.0615683729274 -0.208824346974
430860000 0.0623931660119 -0.207455501382
430870000 0.0619800439217 -0.207769916656
430880000 0.06355788989 -0.207723784416
430890000 0.0630966683167 -0.207792439644
430900000 0.0637908284533 -0.209151757664
430910000 0.0632157364691 -0.208535007432
430920000 0.0632945524357 -0.207954432683
430930000 0.063621763993 -0.208595194016
430940000 0.0638680246972 -0.208310289115
430950000 0.0641435192585 -0.209179714268
430960000 0.0634744973016 -0.209464343828
430970000 0.0635087665475 -0.209541107016
430980000 0.0646849168216 -0.209478910226
430990000 0.0647931792922 -0.209069412339
431000000 0.0643906251901 -0.210462440004
431010000 0.0669920982685 -0.211113930788
431020000 0.0683573423714 -0.210529523753
431030000 0.0682697642047 -0.211004710395
431040000 0.0675478952597 -0.21172271863
431050000 0.0683162277886 -0.210999954578
431060000 0.0683163669703 -0.210755214624
431070000 0.0682050876415 -0.212114976409
431080000 0.0691148798936 -0.212182957973
431090000 0.0693022106812 -0.211459897274
431100000 0.0681524084443 -0.211832218752
431110000 0.0687544257626 -0.212282581845
431120000 0.0699224171554 -0.212188119425
431130000 0.0696493202848 -0.212089477832
431140000 0.0694567533812 -0.212139021827
431150000 0.0698485825596 -0.212090914577
431160000 0.0702123118806 -0.212640940914
431170000 0.0701319258633 -0.21190820872
431180000 0.0700169388187 -0.211919850686
431190000 0.0714074892198 -0.211694353389
431200000 0.0711412080379 -0.210795374619
431210000 0.0704099499204 -0.212225804933
431220000 0.0718790659148 -0.21215555996
431230000 0.0717869658224 -0.213945760833
431240000 0.0722671846692 -0.213025898929
431250000 0.072723317812 -0.211956118704
431260000 0.0727256222466 -0.213288803167
431270000 0.0710984356512 -0.211744205823
431280000 0.0734042979839 -0.214473285243
431290000 0.0717352175713 -0.21435335791
431300000 0.074776884984 -0.213771079199
431310000 0.0746181025903 -0.213212907657
431320000 0.0734980425989 -0.213951118053
431330000 0.0736234590593 -0.21407498913
431340000 0.075253252624 -0.213083234313
431350000 0.0744362835005 -0.213843157208
431360000 0.0746505937749 -0.212517328934
431370000 0.0744187646734 -0.215570017736
431380000 0.0767346743783 -0.212239788772
431390000 0.074851641673 -0.213001457679
431400000 0.0752830334181 -0.214091873506
431410000 0.0772722906466 -0.213642069933
431420000 0.0775180649894 -0.214212609815
431430000 0.0775661041158 -0.212854068178
431440000 0.0757778679119 -0.214166198374
431450000 0.0772554614323 -0.215350382104
431460000 0.0763619977259 -0.213943154412
431470000 0.0755972918497 -0.21428391721
431480000 0.0780083794478 -0.215112184397
431490000 0.0781838505125 -0.215869160142
431500000 0.0789345444904 -0.217083924074
431510000 0.0773670248361 -0.215108141595
431520000 0.0773258624377 -0.215428898713
431530000 0.0797155621562 -0.215582122402
431540000 0.0779759242071 -0.2152665007
431550000 0.0779892528205 -0.214576758865
431560000 0.0793003938624 -0.215033598078
431570000 0.0777723834483 -0.215771295363
431580000 0.0799692401737 -0.215055092587
431590000 0.0816350837275 -0.218494231072
431600000 0.0753866779353 -0.215183626886
431610000 0.0803103063452 -0.217759335977
431620000 0.0806781976836 -0.217931335766
431630000 0.0804609624338 -0.216909346567
431640000 0.0816188602674 -0.215053959116
431650000 0.0815029023074 -0.214597170131
431660000 0.0801529490517 -0.214426161584
431670000 0.0807725003093 -0.215696739633
431680000 0.0811727987229 -0.215263707563
431690000 0.0823984860924 -0.216007532769
431700000 0.0827101224507 -0.215917721441
431710000 0.08268685531 -0.218338226483
431720000 0.0851340197604 -0.215875377843
431730000 0.0830777762221 -0.219728380715
431740000 0.0869313552719 -0.216886265495
431750000 0.0832743969344 -0.216866798546
431760000 0.0840350221857 -0.216617809952
431770000 0.0848702890876 -0.216782835847
431780000 0.084809627153 -0.216847885113
431790000 0.0843346067234 -0.218178918946
431800000 0.084718992593 -0.217044613938
431810000 0.0834527609639 -0.217016781685
431820000 0.0851035671001 -0.216848849927
431830000 0.0838122149196 -0.217750185691
431840000 0.0844512095563 -0.217633691697
431850000 0.0843174624295 -0.218372526742
431860000 0.0853930031049 -0.218507510158
431870000 0.0849109706782 -0.217459618232
431880000 0.0861291266475 -0.218523942604
431890000 0.0864205090749 -0.217057343582
431900000 0.0847082587572 -0.218886495968
431910000 0.0854065965382 -0.218857579915
431920000 0.086156851863 -0.218874579065
431930000 0.0870000616436 -0.217782461108
431940000 0.0867752798218 -0.218624409927
431950000 0.0869663903334 -0.218802027093
431960000 0.0877955014553 -0.217578426642
431970000 0.0883387379852 -0.220507072912
431980000 0.0876136108244 -0.219381770776
431990000 0.0866836892179 -0.218997090046
432000000 0.0890711561802 -0.219353556263
432010000 0.0867878161104 -0.219681809738
432020000 0.0878999116977 -0.218784295848
432030000 0.0880388142412 -0.219103800701
432040000 0.0887356450619 -0.21889851202
432050000 0.0872976776549 -0.218598188117
432060000 0.0874340544418 -0.221007104619
432070000 0.0873545703909 -0.219092321015
432080000 0.0872367309443 -0.220114147458
432090000 0.0885935958975 -0.219812821072
432100000 0.0887077488761 -0.219555957402
432110000 0.0900108864966 -0.217776405107
432120000 0.0891174442027 -0.217031460603
432130000 0.0899733144371 -0.219557602481
432140000 0.0889970589626 -0.219766017565
432150000 0.088282363038 -0.217982197918
432160000 0.0877410064413 -0.218664355082
432170000 0.0886604864618 -0.219134943912
432180000 0.0889989990552 -0.219476179539
432190000 0.0895385649896 -0.219918537892
432200000 0.0918801015952 -0.221917326318
432210000 0.0911392399734 -0.221218283173
432220000 0.0894471025762 -0.219479957053
432230000 0.0924723033969 -0.220040002702
432240000 0.0926722985731 -0.217661064555
432250000 0.0913272449876 -0.222458421795
432260000 0.0924311173969 -0.222091320098
432270000 0.0942097532102 -0.222193150192
432280000 0.0940136169393 -0.221245976144
432290000 0.0927630795988 -0.21864014573
432300000 0.0936180737172 -0.219114541654
432310000 0.0936755195379 -0.221512125735
432320000 0.0936951827531 -0.221027574794
432330000 0.094438259958 -0.221190420164
432340000 0.0931846910393 -0.221437895023
432350000 0.0925014853232 -0.218836189674
432360000 0.0966580650378 -0.222497796797
432370000 0.0946002657795 -0.220650189747
432380000 0.0951965840575 -0.224847311663
432390000 0.0938541723923 -0.223276967627
432400000 0.0966799621428 -0.223644041846
432410000 0.0960909483588 -0.223780410697
432420000 0.0929848132014 -0.218798463521
432430000 0.0970287377997 -0.220647407997
432440000 0.0980070814101 -0.22566766213
432450000 0.0970102962493 -0.222326240778
432460000 0.0953664674762 -0.218558610131
432470000 0.094318018337 -0.225522466242
432480000 0.0975535255503 -0.222479622187
432490000 0.0955554092602 -0.223349205212
432500000 0.0966485111156 -0.223742217895
432510000 0.0990794117002 -0.224258837642
432520000 0.0963863562127 -0.224693311238
432530000 0.0990986966579 -0.22372207515
432540000 0.0994980950583 -0.223292510879
432550000 0.0954231314113 -0.226071997466
432560000 0.098959602462 -0.222711913863
432570000 0.100110747245 -0.221612575647
432580000 0.099120322638 -0.223641678536
432590000 0.0980206914628 -0.225660252326
432600000 0.100733311693 -0.224434353979
432610000 0.100055052128 -0.225106025807
432620000 0.100379446073 -0.225934047989
432630000 0.10057642002 -0.224821417888
432640000 0.101097098433 -0.223038723245
432650000 0.0998680701397 -0.224873065983
432660000 0.0998158117803 -0.22541468377
432670000 0.101301687311 -0.225160360535
432680000 0.100840276154 -0.225954660092
432690000 0.101644621628 -0.226418593381
432700000 0.101586958542 -0.22592347072
432710000 0.100486126879 -0.225804257946
432720000 0.101287879226 -0.224303034492
432730000 0.102130273815 -0.225090511327
432740000 0.101699786839 -0.226055868324
432750000 0.102076276135 -0.225839541385
432760000 0.102824670424 -0.226471436191
432770000 0.102964330564 -0.225484486182
432780000 0.103583473884 -0.226992921
432790000 0.103018102057 -0.2263492331
432800000 0.102754796278 -0.225851000906
432810000 0.102205954421 -0.227921147488
432820000 0.103121281549 -0.228502798775
432830000 0.104289488074 -0.226821825016
432840000 0.103473337397 -0.228283663722
432850000 0.103347650502 -0.226557974778
432860000 0.10378282024 -0.228183113261
432870000 0.104219374186 -0.228067546827
432880000 0.104373568174 -0.228254200629
432890000 0.104888136648 -0.227615893996
432900000 0.104480147064 -0.228368112039
432910000 0.10633397637 -0.227819004305
432920000 0.103980535741 -0.229185919566
432930000 0.10470503606 -0.227234595009
432940000 0.107583951565 -0.228090353744
432950000 0.104858921703 -0.230817232107
432960000 0.107984208443 -0.229062579297
432970000 0.105131012737 -0.228908646973
432980000 0.10787089721 -0.228615319949
432990000 0.104946274255 -0.229899908769
433000000 0.104290356139 -0.229985677026
433010000 0.107293950422 -0.231740360144
433020000 0.106451657191 -0.227347344204
433030000 0.110869631126 -0.230762303251
433040000 0.108014631458 -0.231954099903
433050000 0.108129548643 -0.229526459711
433060000 0.108163570587 -0.227343495912
433070000 0.107799048885 -0.230288664169
433080000 0.107474263159 -0.227280873842
433090000 0.106561648526 -0.230521188017
433100000 0.109688227965 -0.229029775007
433110000 0.106738504602 -0.233269186631
433120000 0.113442257005 -0.230238371324
433130000 0.111890406815 -0.230514522873
433140000 0.113421332096 -0.231990340483
433150000 0.110623281496 -0.229531309523
433160000 0.11076015906 -0.228923509132
433170000 0.112736299562 -0.231234140056
433180000 0.112090335413 -0.23242217227
433190000 0.11074615421 -0.231780032696
433200000 0.111307895956 -0.232600367854
433210000 0.110206098278 -0.228704012513
433220000 0.112053892256 -0.229052507938
433230000 0.112314782372 -0.232049204725
433240000 0.111120202281 -0.232655438139
433250000 0.110288545646 -0.229883925881
433260000 0.112260595716 -0.232377146832
433270000 0.112250897244 -0.231544195517
433280000 0.110243791639 -0.230776045077
433290000 0.112832589371 -0.22945806125
433300000 0.123386091748 -0.236609878549
433310000 0.108187610071 -0.23259409193
433320000 0.1139691585 -0.235322001082
433330000 0.115601152602 -0.235624411829
433340000 0.0997003897604 -0.219787966408
433350000 0.113456086883 -0.229597408028
433360000 0.114442191614 -0.231857500996
433370000 0.116339557562 -0.232716263125
433380000 0.114061151698 -0.231799613287
433390000 0.116352526975 -0.232977463748
433400000 0.115661488922 -0.232099781631
433410000 0.115764552183 -0.232924548174
433420000 0.115922078832 -0.233355327317
433430000 0.115188068066 -0.23341343852
433440000 0.115737307197 -0.233601730657
433450000 0.116087363688 -0.234622306815
433460000 0.117061813205 -0.233856656689
433470000 0.116317766174 -0.233621774512
433480000 0.116963584397 -0.234031246855
433490000 0.116718147193 -0.234640539618
433500000 0.116195922365 -0.234365029085
433510000 0.117133139092 -0.234315163694
433520000 0.116896682192 -0.234709890196
433530000 0.117190902915 -0.234591072442
433540000 0.118203458461 -0.236541819098
433550000 0.117557186019 -0.234859025542
433560000 0.117622431516 -0.235438127496
433570000 0.118646815547 -0.23560838411
433580000 0.118637137578 -0.236002585994
433590000 0.11875378353 -0.235378929485
433600000 0.119212164809 -0.236660820964
433610000 0.118826894918 -0.236864222214
433620000 0.119579416751 -0.235987112138
433630000 0.118658899468 -0.235924094212
433640000 0.119344867811 -0.2355600571
433650000 0.119756622444 -0.236036173671
433660000 0.119563272303 -0.23753282517
433670000 0.120800052955 -0.236723396011
433680000 0.120064726412 -0.235907016214
433690000 0.119823819867 -0.237591029484
433700000 0.12059085015 -0.237997549073
433710000 0.12043069936 -0.237500000288
433720000 0.121140554001 -0.237981812916
433730000 0.120512002162 -0.237639939515
433740000 0.122210831201 -0.237481800627
433750000 0.121229707132 -0.238671779289
433760000 0.121222745764 -0.23781054966
433770000 0.12255179282 -0.238351177414
433780000 0.121414106256 -0.236992709782
433790000 0.122328452941 -0.238230285163
433800000 0.122236397838 -0.237828685633
433810000 0.122100654985 -0.237493822538
433820000 0.120683116671 -0.238511556748
433830000 0.123403347374 -0.239336310949
433840000 0.119352608303 -0.239220520331
433850000 0.120796376261 -0.239301347664
433860000 0.126054505329 -0.238355256847
433870000 0.126715665573 -0.238035873464
433880000 0.124118047747 -0.239593008762
433890000 0.120951115738 -0.238541081897
433900000 0.124670117857 -0.238354353758
433910000 0.123278963347 -0.241022599462
433920000 0.124046231347 -0.24103421422
433930000 0.126559058577 -0.237362569427
433940000 0.125330406295 -0.239739621337
433950000 0.123737911216 -0.240225706541
433960000 0.12392559213 -0.23894841081
433970000 0.126923784293 -0.239300139076
433980000 0.125115672557 -0.238516958347
433990000 0.12603712227 -0.238885771847
434000000 0.124154144318 -0.239965198599
434010000 0.127609522385 -0.239808389933
434020000 0.126987226306 -0.239789312302
434030000 0.126531441111 -0.239200551272
434040000 0.125566899277 -0.240361521763
434050000 0.128232122902 -0.239228981477
434060000 0.127080287195 -0.240924322113
434070000 0.125782117072 -0.239834275732
434080000 0.126008895645 -0.239107200692
434090000 0.129144908477 -0.240867580373
434100000 0.129011598539 -0.239797086609
434110000 0.127080231881 -0.236194583483
434120000 0.125853017588 -0.235709372241
434130000 0.130207853361 -0.237333097362
434140000 0.129006562082 -0.240628926753
434150000 0.128231643412 -0.239887727047
434160000 0.127901483789 -0.242461752515
434170000 0.128779779041 -0.240772836059
434180000 0.128482942234 -0.240731778642
434190000 0.127985307627 -0.241241620841
434200000 0.129280393541 -0.242199281325
434210000 0.123158443017 -0.243904525266
434220000 0.131121513374 -0.240215940177
434230000 0.129192406835 -0.238795515585
434240000 0.129048524992 -0.241603158184
434250000 0.129171180961 -0.242281083109
434260000 0.130881699387 -0.240576497672
434270000 0.13152294099 -0.244235826387
434280000 0.130949216889 -0.24171453122
434290000 0.131349948328 -0.242231868603
434300000 0.131289919233 -0.243468155238
434310000 0.131438704316 -0.241533755479
434320000 0.130435036194 -0.241825366357
434330000 0.132536580549 -0.242171376397
434340000 0.132739785615 -0.24323316204
434350000 0.13192166507 -0.243263661885
434360000 0.131984743176 -0.244164684636
434370000 0.132962214438 -0.242831562458
434380000 0.133284466431 -0.243716868996
434390000 0.133632381407 -0.2426320531
434400000 0.133954167676 -0.242579312099
434410000 0.134109043572 -0.24333545933
434420000 0.133899280921 -0.243168098253
434430000 0.134065607079 -0.24400349912
434440000 0.133957875025 -0.244234839372
434450000 0.133694045632 -0.244918067074
434460000 0.134678667677 -0.244827548509
434470000 0.134981734208 -0.243769204298
434480000 0.135367927956 -0.245400469881
434490000 0.135071594028 -0.244514193218
434500000 0.134075859462 -0.244086034778
434510000 0.135486853999 -0.243681299281
434520000 0.135458078547 -0.244759933142
434530000 0.135840801458 -0.244374329065
434540000 0.137005196363 -0.243995291738
434550000 0.134557091072 -0.24401804351
434560000 0.135927251324 -0.241214351713
434570000 0.13496542871 -0.243703556366
434580000 0.136326438704 -0.245036179233
434590000 0.137178105231 -0.246606898193
434600000 0.136361613172 -0.245234176489
434610000 0.138525716846 -0.24621883504
434620000 0.13905225763 -0.245779527893
434630000 0.13782381934 -0.247122116749
434640000 0.138502975235 -0.244350930146
434650000 0.138402427884 -0.245083623563
434660000 0.137383339076 -0.246516544693
434670000 0.136519382413 -0.244933189944
434680000 0.138739932593 -0.246041119596
434690000 0.139376272572 -0.248108944846
434700000 0.139273239061 -0.24714054066
434710000 0.139931524398 -0.247504413945
434720000 0.139257292288 -0.247682732573
434730000 0.138487844723 -0.249611947278
434740000 0.137666044027 -0.247825522913
434750000 0.140013352168 -0.248194603953
434760000 0.139170134319 -0.248377814477
434770000 0.139977259205 -0.249361462109
434780000 0.141230975466 -0.249925508953
434790000 0.141273923477 -0.2472187269
434800000 0.141473085532 -0.248261399545
434810000 0.142719556018 -0.248211498092
434820000 0.142105602206 -0.247206254001
434830000 0.141090471 -0.25175317174
434840000 0.141055840741 -0.248581421685
434850000 0.142534891986 -0.249508227472
434860000 0.140733067434 -0.249470359168
434870000 0.142334952927 -0.250487672612
434880000 0.142311391745 -0.250875739553
434890000 0.142227388872 -0.249800127475
434900000 0.142470653959 -0.250964115675
434910000 0.141607715057 -0.252286026467
434920000 0.146220401526 -0.253798810241
434930000 0.144506117582 -0.252718381479
434940000 0.144126022618 -0.25339332492
434950000 0.142199552268 -0.247251548566
434960000 0.142944340714 -0.253452382922
434970000 0.14414500183 -0.250869508109
434980000 0.144372288166 -0.253471460496
434990000 0.144486658485 -0.250721849695
435000000 0.144700131455 -0.252226323855
435010000 0.143957424708 -0.253493306613
435020000 0.143218975471 -0.253719094473
435030000 0.143833125415 -0.252850487768
435040000 0.141716281327 -0.250932494268
435050000 0.144987687516 -0.253691427568
435060000 0.146005085365 -0.254379592996
435070000 0.148330949665 -0.256001394949
435080000 0.145219795629 -0.254753691949
435090000 0.146740463746 -0.253486250869
435100000 0.146461595058 -0.256530786349
435110000 0.144812176555 -0.255326244629
435120000 0.146315845149 -0.255763795055
435130000 0.14634921412 -0.255672725925
435140000 0.146528497808 -0.254448499341
435150000 0.146089909626 -0.255834494641
435160000 0.14586489718 -0.256017299128
435170000 0.146812798143 -0.256179493357
435180000 0.147283160413 -0.256649654108
435190000 0.147227350112 -0.255835561233
435200000 0.14794373315 -0.255372335469
435210000 0.147718989429 -0.256443166098
435220000 0.147602089729 -0.255735703796
435230000 0.147564644668 -0.256881269622
435240000 0.14799094539 -0.255985478564
435250000 0.148135699138 -0.256903474586
435260000 0.147465688938 -0.257582728605
435270000 0.148255140633 -0.256802641689
435280000 0.148025081508 -0.256777974291
435290000 0.148192749191 -0.257207176275
435300000 0.148244556841 -0.257290565616
435310000 0.148041656094 -0.257838226433
435320000 0.148844826711 -0.2572477708
435330000 0.149363961967 -0.25696123002
435340000 0.150141964662 -0.257410153509
435350000 0.149182018788 -0.258105573296
435360000 0.150363478995 -0.25898408822
435370000 0.150457469398 -0.258204179116
435380000 0.1510355372 -0.259305807001
435390000 0.151111898635 -0.258853529193
435400000 0.15134498702 -0.258189775365
435410000 0.150733538408 -0.258052513275
435420000 0.151022285649 -0.259256074617
435430000 0.151217264412 -0.25858211728
435440000 0.152461273943 -0.258557383094
435450000 0.151992172302 -0.258754684366
435460000 0.149700295108 -0.260241842291
435470000 0.151470018743 -0.259535222989
435480000 0.152092003014 -0.259233236261
435490000 0.154760901029 -0.261147496401
435500000 0.153380941109 -0.258101525066
435510000 0.152795423491 -0.260720481844
435520000 0.152905621468 -0.260249450418
435530000 0.154230884425 -0.258943694513
435540000 0.152852385585 -0.260619085318
435550000 0.152150061212 -0.259715296239
435560000 0.152802615106 -0.258899689308
435570000 0.153081389101 -0.260741767228
435580000 0.153328945719 -0.261559189962
435590000 0.154009461735 -0.261533999139
435600000 0.154532438855 -0.261483920826
435610000 0.154596838994 -0.260692232125
435620000 0.153831977069 -0.260604512997
435630000 0.153926635196 -0.259637242151
435640000 0.154578419156 -0.260698296584
435650000 0.155175287505 -0.261396337131
435660000 0.155288660704 -0.26127518494
435670000 0.154974997549 -0.260924656888
435680000 0.155811189085 -0.260673820605
435690000 0.154692423872 -0.262133206657
435700000 0.154764630581 -0.262450841197
435710000 0.154741800919 -0.261656657717
435720000 0.15416265153 -0.262611779666
435730000 0.156392445211 -0.261548431535
435740000 0.155046120009 -0.262660523663
435750000 0.15653580187 -0.262232572434
435760000 0.157530080504 -0.261512448387
435770000 0.155758833457 -0.263756621369
435780000 0.155977184646 -0.262425537216
435790000 0.157041999935 -0.262763628742
435800000 0.156766241386 -0.264302083368
435810000 0.157081676285 -0.263218615806
435820000 0.157773935805 -0.263818905803
435830000 0.15663100346 -0.265052532636
435840000 0.157175139089 -0.263396596317
435850000 0.157360398881 -0.263953908763
435860000 0.156930285877 -0.263197057368
435870000 0.1577841798 -0.264131716366
435880000 0.158084286485 -0.265007165981
435890000 0.15900634131 -0.265807819829
435900000 0.157642690311 -0.264940131274
435910000 0.15837630773 -0.265494002147
435920000 0.158498617068 -0.265865429776
435930000 0.159240776093 -0.265486826141
435940000 0.158639938404 -0.264838498388
435950000 0.158892022668 -0.264752727065
435960000 0.159431106808 -0.265192430708
435970000 0.159158397881 -0.26640037292
435980000 0.159368230384 -0.26606185794
435990000 0.160044375707 -0.266634770742
436000000 0.158926272927 -0.267303908025
436010000 0.159993844435 -0.267390529356
436020000 0.159451574491 -0.266474035254
436030000 0.158810609056 -0.267628850622
436040000 0.160323959514 -0.266253341423
436050000 0.160079981137 -0.266692221919
436060000 0.160661624309 -0.267243279163
436070000 0.159485359677 -0.267080807817
436080000 0.159691982354 -0.267460556623
436090000 0.160226448073 -0.267401175332
436100000 0.160509705454 -0.26727646823
436110000 0.161158477968 -0.267954327789
436120000 0.159821406864 -0.268385299428
436130000 0.161141174438 -0.269589284497
436140000 0.160503846652 -0.268562881126
436150000 0.160697546792 -0.268956322986
436160000 0.162000271608 -0.269025970749
436170000 0.162327655873 -0.268553710008
436180000 0.162129274321 -0.268984179074
436190000 0.162017125659 -0.269700873671
436200000 0.16105644308 -0.269761860841
436210000 0.162358773791 -0.270289142021
436220000 0.160996439417 -0.269039574985
436230000 0.160910676309 -0.269078123577
436240000 0.16369081555 -0.269506789581
436250000 0.160371519303 -0.271954505101
436260000 0.162521853167 -0.270841114884
436270000 0.164158645566 -0.271431765337
436280000 0.162737350966 -0.271398129347
436290000 0.162608647176 -0.269472958253
436300000 0.162657068387 -0.269159163245
436310000 0.162274454825 -0.272220168139
436320000 0.163575405359 -0.273486271339
436330000 0.164308205059 -0.273076669332
436340000 0.162822140267 -0.270457527302
436350000 0.164313628257 -0.271799859677
436360000 0.16471145225 -0.271161616463
436370000 0.164615569189 -0.273600479087
436380000 0.163658014148 -0.273299173284
436390000 0.163976769046 -0.270884462578
436400000 0.164788818341 -0.27353145146
436410000 0.161939449561 -0.270094755149
436420000 0.165543443668 -0.273403794178
436430000 0.165851730576 -0.273800168436
436440000 0.165603615485 -0.271885158272
436450000 0.164914698197 -0.273911673531
436460000 0.164046284608 -0.273933935522
436470000 0.16562996868 -0.275317025697
436480000 0.165275399547 -0.274188015918
436490000 0.164609153548 -0.273449701731
436500000 0.166988702394 -0.274279212179
436510000 0.164316103239 -0.276134676145
436520000 0.165256319621 -0.274421701906
436530000 0.165152409654 -0.274294594987
436540000 0.167584841516 -0.275549447122
436550000 0.167382632123 -0.275211457805
436560000 0.166035462371 -0.275979603275
436570000 0.164808735457 -0.273762320429
436580000 0.167182205155 -0.276585834759
436590000 0.165789542073 -0.275355631025
436600000 0.165709159724 -0.274315575466
436610000 0.166069325433 -0.275914054524
436620000 0.168362727247 -0.275220989786
436630000 0.168010517932 -0.275739373986
436640000 0.167730716573 -0.275671172405
436650000 0.168065615408 -0.27721986594
436660000 0.168154334171 -0.275771137039
436670000 0.168423490759 -0.276944659486
436680000 0.167632835313 -0.27796230975
436690000 0.168180907406 -0.27708985425
436700000 0.168526275539 -0.277164000862
436710000 0.16728149659 -0.277339361964
436720000 0.169370986317 -0.276595054972
436730000 0.168011233932 -0.278549506946
436740000 0.169773721648 -0.2768607154
436750000 0.169435373662 -0.277823990457
436760000 0.169852545676 -0.279111294407
436770000 0.17063082912 -0.279525157696
436780000 0.169489892907 -0.278527357417
436790000 0.171314674112 -0.279402117014
436800000 0.169774715265 -0.278339587779
436810000 0.169339661704 -0.277811729371
436820000 0.169881246183 -0.278952778675
436830000 0.170499766931 -0.278636953551
436840000 0.171200619694 -0.280479822956
436850000 0.170743012505 -0.279178364495
436860000 0.171587669576 -0.279756323652
436870000 0.170821648873 -0.279259003683
436880000 0.172215165232 -0.280619103332
436890000 0.170510719665 -0.280157254034
436900000 0.17210821104 -0.280640986742
436910000 0.171465492506 -0.280424936212
436920000 0.171125119093 -0.280301212646
436930000 0.171402296178 -0.28085553172
436940000 0.171700869399 -0.281724654769
436950000 0.173149484823 -0.281787120445
436960000 0.172441887411 -0.28177111924
436970000 0.172406855075 -0.281435201429
436980000 0.173275575029 -0.280779594195
436990000 0.172182355354 -0.281064898653
437000000 0.172508396839 -0.282106747335
437010000 0.175298220252 -0.277918209622
437020000 0.174995288515 -0.277765502791
437030000 0.174865479322 -0.279153569921
437040000 0.176489259061 -0.278786786743
437050000 0.175947205899 -0.280808645467
437060000 0.174920306055 -0.28019285064
437070000 0.177225795636 -0.280075940644
437080000 0.175459117178 -0.280880927561
437090000 0.177155416599 -0.278458333414
437100000 0.178720383918 -0.279695046509
437110000 0.174890298081 -0.280790469015
437120000 0.176864309305 -0.279223700097
437130000 0.177854039174 -0.280233149478
437140000 0.178610550192 -0.279131082756
437150000 0.177294176478 -0.282045438327
437160000 0.179136358805 -0.280353535958
437170000 0.178591946446 -0.280825858987
437180000 0.180537223398 -0.280915677126
437190000 0.181907308386 -0.281680117398
437200000 0.178194756562 -0.278214055902
437210000 0.178402067748 -0.28268932966
437220000 0.177913159945 -0.281206630493
437230000 0.179704534207 -0.28297895879
437240000 0.180589906997 -0.283332443293
437250000 0.179991533119 -0.277203143745
437260000 0.181475817573 -0.279059230001
437270000 0.180353930159 -0.27776338037
437280000 0.180188870386 -0.279953622942
437290000 0.177928674002 -0.28305635842
437300000 0.181625081979 -0.28295794178
437310000 0.18107642945 -0.284300171939
437320000 0.18226641376 -0.283142581305
437330000 0.180417690256 -0.283182033067
437340000 0.18136601964 -0.28245133054
437350000 0.181154354086 -0.282322293851
437360000 0.181112419706 -0.284115765872
437370000 0.181488185073 -0.282960871965
437380000 0.180445077075 -0.281410136028
437390000 0.180801689192 -0.282714398979
437400000 0.180793516711 -0.28358618365
437410000 0.181179123299 -0.287144891795
437420000 0.183215921116 -0.285607753375
437430000 0.18241376551 -0.285968840513
437440000 0.183859472286 -0.286096180434
437450000 0.183910289207 -0.285460430473
437460000 0.182789968519 -0.285831209992
437470000 0.183516000328 -0.284377802341
437480000 0.183914706284 -0.284920333407
437490000 0.184016224358 -0.285652097253
437500000 0.183727466633 -0.286991924544
437510000 0.184109070738 -0.285603639599
437520000 0.184810736987 -0.285741638727
437530000 0.185945854676 -0.286279405957
437540000 0.185401152777 -0.286434408727
437550000 0.185661718617 -0.286335011654
437560000 0.185776657474 -0.2855097241
437570000 0.185541292985 -0.285254056768
437580000 0.184993597958 -0.286742935173
437590000 0.186183403802 -0.286817598329
437600000 0.185832866695 -0.286842870348
437610000 0.185985591174 -0.287690902355
437620000 0.186630278255 -0.28812275976
437630000 0.187104423737 -0.28778641441
437640000 0.186225360329 -0.288063875777
437650000 0.187677824474 -0.287628417079
437660000 0.187456625307 -0.287986639687
437670000 0.187227209712 -0.287908552449
437680000 0.187587983349 -0.288848086074
437690000 0.188101321362 -0.289499508667
437700000 0.187440918279 -0.288803078373
437710000 0.186736372559 -0.289578162304
437720000 0.188768398948 -0.290160980875
437730000 0.189268195102 -0.290401105209
437740000 0.188003957544 -0.2894348769
437750000 0.189524576823 -0.289122356888
437760000 0.189064633653 -0.289799459171
437770000 0.189332390178 -0.289579521133
437780000 0.188205188986 -0.291248118945
437790000 0.188551933786 -0.289575800312
437800000 0.188856857456 -0.291094360179
437810000 0.189262113246 -0.291532815102
437820000 0.189843956712 -0.29128523119
437830000 0.190473300191 -0.291132804244
437840000 0.189251242642 -0.291699472446
437850000 0.189609259927 -0.292400128396
437860000 0.189845199556 -0.291991802207
437870000 0.191036532812 -0.291836400613
437880000 0.1893497098 -0.290773951199
437890000 0.19046614066 -0.292417791241
437900000 0.191643165907 -0.29146457139
437910000 0.190345747203 -0.291124668742
437920000 0.191775676398 -0.290615738385
437930000 0.191962944581 -0.292198050745
437940000 0.192520794307 -0.293562032032
437950000 0.190592581726 -0.293759997751
437960000 0.191687647971 -0.292626500941
437970000 0.192856789489 -0.292227494072
437980000 0.191293120781 -0.293149167699
437990000 0.191518892924 -0.292538198868
438000000 0.19266749198 -0.295437562236
438010000 0.191394727845 -0.296704341193
438020000 0.190832233656 -0.297526670544
438030000 0.190854849194 -0.29542254444
438040000 0.189397695781 -0.296685368989
438050000 0.191121266073 -0.294438423423
438060000 0.191922389507 -0.297672305954
438070000 0.191422710206 -0.296231730872
438080000 0.191985967706 -0.297222393406
438090000 0.188952370785 -0.296652614298
438100000 0.190773939898 -0.29734008629
438110000 0.192493894728 -0.295307742834
438120000 0.193020595614 -0.298278438692
438130000 0.191111739374 -0.297402988795
438140000 0.19142502825 -0.296176288101
438150000 0.192957862336 -0.298482148808
438160000 0.19208042968 -0.298465057614
438170000 0.193459403622 -0.297832324104
438180000 0.193257017792 -0.298151317822
438190000 0.193157110166 -0.297754175677
438200000 0.192469401854 -0.298063817907
438210000 0.193905187601 -0.298712620277
438220000 0.193128729144 -0.298079149742
438230000 0.193508072003 -0.299148977245
438240000 0.194193498268 -0.299574640351
438250000 0.193729381579 -0.298463250845
438260000 0.196781688065 -0.298884108109
438270000 0.193840848382 -0.299504475223
438280000 0.19227405671 -0.29904833875
438290000 0.195128704391 -0.297936140379
438300000 0.194935967203 -0.301711894136
438310000 0.193730511754 -0.302129743385
438320000 0.196299344187 -0.300264188995
438330000 0.195909457622 -0.301247715485
438340000 0.195090973897 -0.302004846669
438350000 0.196763521728 -0.30033394646
438360000 0.194770568813 -0.30095850767
438370000 0.194906692994 -0.299210360212
438380000 0.198560375486 -0.300029158687
438390000 0.194941454175 -0.300850689322
438400000 0.193557542881 -0.299765633448
438410000 0.197537405595 -0.302658007244
438420000 0.195319210049 -0.301655798154
438430000 0.196655793052 -0.302774624906
438440000 0.196772653777 -0.3026412769
438450000 0.196503888586 -0.301816180004
438460000 0.196720761202 -0.302487130801
438470000 0.19652206624 -0.302543823631
438480000 0.197012738604 -0.301904262532
438490000 0.198157645219 -0.302621472222
438500000 0.198848202791 -0.302708228087
438510000 0.196918231635 -0.30290411526
438520000 0.197383137095 -0.303086376723
438530000 0.198611089426 -0.302790956282
438540000 0.197637348465 -0.303001843382
438550000 0.198122762884 -0.303840239068
438560000 0.199530738024 -0.304146393067
438570000 0.199143362349 -0.304614090008
438580000 0.197713634158 -0.303902334586
438590000 0.19960490402 -0.305074450839
438600000 0.199920904765 -0.303444563106
438610000 0.198785714964 -0.304452351587
438620000 0.199133967093 -0.304428918302
438630000 0.201152911512 -0.303929739985
438640000 0.199607369975 -0.305997712106
438650000 0.200710002051 -0.305142787269
438660000 0.199031779877 -0.304833429678
438670000 0.199039658489 -0.305389176312
438680000 0.198803289099 -0.305300960905
438690000 0.19989989788 -0.305985843417
438700000 0.200842195792 -0.306558177343
438710000 0.201443890955 -0.305579453487
438720000 0.201178820709 -0.305442396242
438730000 0.202257085257 -0.307548646794
438740000 0.202002508499 -0.308375192514
438750000 0.199028606368 -0.308018144181
438760000 0.200976179403 -0.305526945048
438770000 0.202143834569 -0.306980170789
438780000 0.199398346343 -0.307485459189
438790000 0.20118263258 -0.307070814679
438800000 0.20325577759 -0.307180687029
438810000 0.200623553146 -0.308054211681
438820000 0.202022784267 -0.309169245763
438830000 0.203244939855 -0.307061223476
438840000 0.202714513533 -0.307653117269
438850000 0.201766023213 -0.308979785183
438860000 0.203276668644 -0.308589611596
438870000 0.202529814472 -0.308869019654
438880000 0.203166435024 -0.307532902128
438890000 0.204480803906 -0.309556313726
438900000 0.205563805171 -0.310101760423
438910000 0.205005767301 -0.310054884745
438920000 0.205284997168 -0.309722522299
438930000 0.20466406796 -0.311947179777
438940000 0.20322581078 -0.309904548443
438950000 0.20309969792 -0.310000374488
438960000 0.20244670846 -0.309652736773
438970000 0.205960110436 -0.310918597541
438980000 0.203289251238 -0.310193008257
438990000 0.205002817142 -0.310342897939
439000000 0.205494111777 -0.31073786142
439010000 0.203809680657 -0.310450373896
439020000 0.203801190223 -0.311439732634
439030000 0.205843227917 -0.312581385243
439040000 0.205311921328 -0.310553595733
439050000 0.205169199366 -0.311552606496
439060000 0.205484696183 -0.311887416831
439070000 0.206345295628 -0.3121381322
439080000 0.203478139556 -0.309977683078
439090000 0.203340975415 -0.31480770704
439100000 0.20348070333 -0.308621599312
439110000 0.208685648585 -0.311699557209
439120000 0.205720759587 -0.310963716999
439130000 0.20347536286 -0.313189447771
439140000 0.204744295843 -0.311277417144
439150000 0.204598134408 -0.311132161555
439160000 0.204037486497 -0.311619818859
439170000 0.206894184344 -0.312986149834
439180000 0.205641360042 -0.313458343741
439190000 0.205698241543 -0.312010059895
439200000 0.206787380244 -0.313416608327
439210000 0.208014329216 -0.311707657815
439220000 0.205328970609 -0.316647652888
439230000 0.209519720493 -0.313892500363
439240000 0.203002489517 -0.312849111204
439250000 0.2058664644 -0.31579539107
439260000 0.206337426445 -0.312463964441
439270000 0.206109233563 -0.316126674846
439280000 0.208333966513 -0.314707262573
439290000 0.207711771016 -0.31372964425
439300000 0.20886885091 -0.3146452354
439310000 0.208323957148 -0.31533680143
439320000 0.209934282223 -0.315370178691
439330000 0.209058699197 -0.31473411203
439340000 0.207586103191 -0.316277930822
439350000 0.209152502663 -0.314672185053
439360000 0.209533028069 -0.31517649155
439370000 0.209239472848 -0.314961431213
439380000 0.210185763812 -0.315874593202
439390000 0.210387927783 -0.31526036585
439400000 0.208957863314 -0.317328164739
439410000 0.209782638826 -0.316102341723
439420000 0.209380133964 -0.315438947356
439430000 0.211200870986 -0.316231622074
439440000 0.212076690421 -0.318463936114
439450000 0.210494826533 -0.316545950444
439460000 0.210577685246 -0.31684117312
439470000 0.210834785839 -0.317455837578
439480000 0.210729966465 -0.317669617121
439490000 0.21096757687 -0.318264920406
439500000 0.212365585249 -0.317537891557
439510000 0.209985647165 -0.317608205704
439520000 0.211965469905 -0.318040355553
439530000 0.20947787335 -0.317634821252
439540000 0.213082318129 -0.317229151125
439550000 0.212367413281 -0.320673195591
439560000 0.211662454341 -0.317487385753
439570000 0.211838295943 -0.317860757104
439580000 0.211680619174 -0.319743350832
439590000 0.211294129285 -0.321267959138
439600000 0.210908223672 -0.318123035404
439610000 0.213249390312 -0.318653421681
439620000 0.213690436304 -0.319386911914
439630000 0.214458060585 -0.321063901577
439640000 0.210523453184 -0.324314873046
439650000 0.213020955261 -0.319872994511
439660000 0.21276679672 -0.318724912585
439670000 0.212648995319 -0.319431625007
439680000 0.213075586353 -0.320296098838
439690000 0.212474914111 -0.319875269641
439700000 0.214419207771 -0.323309895946
439710000 0.215086396531 -0.324338783551
439720000 0.218675988799 -0.321020579797
439730000 0.214748931752 -0.321110215599
439740000 0.213307227393 -0.324660085279
439750000 0.212973553475 -0.321007031921
439760000 0.216065749551 -0.320719730896
439770000 0.214121897944 -0.321931353173
439780000 0.21643151553 -0.320876718882
439790000 0.214810306044 -0.324067793746
439800000 0.214450894872 -0.323289801667
439810000 0.216286763474 -0.322798599573
439820000 0.215820681892 -0.322715378605
439830000 0.216778000962 -0.325288380854
439840000 0.217442770077 -0.323266429416
439850000 0.21458044142 -0.324731718478
439860000 0.215759349848 -0.323873079435
439870000 0.216484889778 -0.323645122603
439880000 0.215078522349 -0.322933604062
439890000 0.217316141618 -0.323352731564
439900000 0.217027606538 -0.323998458194
439910000 0.214937028906 -0.323416663377
439920000 0.217064580213 -0.32426634805
439930000 0.220460701993 -0.328470077228
439940000 0.21629812473 -0.322348778183
439950000 0.216838456296 -0.322890992403
439960000 0.218011272121 -0.326975362132
439970000 0.21630995206 -0.325433146139
439980000 0.218772554329 -0.324810087737
439990000 0.218219488782 -0.326291657065
440000000 0.216301938145 -0.32586482648
440010000 0.219324880704 -0.325810744825
440020000 0.217412911172 -0.326568587186
440030000 0.217573953204 -0.325901913994
440040000 0.219893670774 -0.324104938671
440050000 0.216156362445 -0.327790870103
440060000 0.215478634087 -0.325085596642
440070000 0.217014204226 -0.328664446154
440080000 0.218281904617 -0.328023447487
440090000 0.218496636854 -0.326793906628
440100000 0.219758299895 -0.327793220977
440110000 0.219204689936 -0.329149012099
440120000 0.220634830866 -0.328627207096
440130000 0.219043531108 -0.328669099044
440140000 0.21933485703 -0.328308423019
440150000 0.219787239788 -0.329724165385
440160000 0.219686763577 -0.328673869559
440170000 0.22025560764 -0.329774464055
440180000 0.220658922822 -0.329656001976
440190000 0.219206600524 -0.3285753607
440200000 0.22097878695 -0.329973999535
440210000 0.219789088664 -0.329926307534
440220000 0.220602434924 -0.330962771724
440230000 0.221094766474 -0.330876627014
440240000 0.220808747596 -0.330755056683
440250000 0.221320037474 -0.330459570458
440260000 0.22092827473 -0.330469346027
440270000 0.221588853631 -0.330358707198
440280000 0.221512253069 -0.331129641806
440290000 0.220999349558 -0.331140809359
440300000 0.222151982207 -0.332679800352
440310000 0.221260391064 -0.332021267439
440320000 0.220880353297 -0.33301245103
440330000 0.222766700904 -0.333091229375
440340000 0.221532579377 -0.331757872205
440350000 0.221233031837 -0.332987679287
440360000 0.222422235545 -0.333505650711
440370000 0.223284209827 -0.33371423721
440380000 0.223502757992 -0.334091232488
440390000 0.223940061847 -0.33016764062
440400000 0.22496753596 -0.335404838336
440410000 0.222761810872 -0.335034889743
440420000 0.222205219834 -0.332493562108
440430000 0.223459980178 -0.334272780866
440440000 0.223553809444 -0.335076791078
440450000 0.221858204291 -0.334693031137
440460000 0.221827452235 -0.332982838102
440470000 0.223277639669 -0.334878646312
440480000 0.226279206168 -0.335528993774
440490000 0.224327214402 -0.335992321141
440500000 0.224715888429 -0.335162458405
440510000 0.228680464683 -0.336121162397
440520000 0.224833571096 -0.336999001641
440530000 0.223759292387 -0.333814165846
440540000 0.225228575311 -0.336906816826
440550000 0.213377975614 -0.328476132406
440560000 0.224172649455 -0.339081582694
440570000 0.226961846623 -0.336317189074
440580000 0.225184543038 -0.33915819237
440590000 0.227367607915 -0.335385315156
440600000 0.223474139048 -0.33605914664
440610000 0.224264059829 -0.337819868495
440620000 0.228331094938 -0.336268094733
440630000 0.225324491302 -0.336722128126
440640000 0.22582536043 -0.338402952489
440650000 0.226843928748 -0.337271477329
440660000 0.224952346122 -0.338488755973
440670000 0.225963075515 -0.338035815504
440680000 0.226468274872 -0.339402015195
440690000 0.227095975841 -0.339596325092
440700000 0.226858726581 -0.338121736252
440710000 0.226666285471 -0.337772979934
440720000 0.22582191037 -0.339473923958
440730000 0.22645160287 -0.338080065443
440740000 0.227447858132 -0.341089548685
440750000 0.226063455732 -0.33956340408
440760000 0.226290547852 -0.339552010772
440770000 0.228390711666 -0.338078644764
440780000 0.22917839986 -0.339296313436
440790000 0.227130674253 -0.340419839807
440800000 0.227803402936 -0.339442915064
440810000 0.22787392757 -0.3395976492
440820000 0.227377848963 -0.340974972026
440830000 0.228568135635 -0.341194825685
440840000 0.228146496975 -0.341163301426
440850000 0.229340957816 -0.340723606722
440860000 0.231182570381 -0.341104071157
440870000 0.230258351912 -0.3424290843
440880000 0.226613301702 -0.339947829308
440890000 0.228659983078 -0.34275929754
440900000 0.230116230815 -0.341553826957
440910000 0.229379166544 -0.341713327193
440920000 0.228631642562 -0.341056786162
440930000 0.227752778025 -0.341817514568
440940000 0.227724238 -0.341612166995
440950000 0.229635510149 -0.340700987911
440960000 0.229416143193 -0.342382071819
440970000 0.230210367176 -0.341521551935
440980000 0.231111985551 -0.34310293293
440990000 0.230090173321 -0.343356111053
441000000 0.230746627578 -0.342558214449
441010000 0.230339055338 -0.34369283115
441020000 0.231013029666 -0.343796356222
441030000 0.230148902893 -0.343858495719
441040000 0.230497521152 -0.344586814275
441050000 0.230328786881 -0.345185546091
441060000 0.229799217253 -0.344969066736
441070000 0.230684976663 -0.345909572048
441080000 0.22924784488 -0.344457306439
441090000 0.232981404596 -0.34590003861
441100000 0.23082067941 -0.345875372508
441110000 0.231732506727 -0.347733544089
441120000 0.232552969797 -0.346123760866
441130000 0.232500795652 -0.34695352066
441140000 0.231194343846 -0.347600594439
441150000 0.232570528802 -0.346117763248
441160000 0.231638696205 -0.347190902127
441170000 0.232487226116 -0.347137294034
441180000 0.23203114859 -0.347093752149
441190000 0.233126145659 -0.346334227164
441200000 0.231365972563 -0.346769055288
441210000 0.233048611558 -0.348491079877
441220000 0.233109901513 -0.348510326193
441230000 0.23306890661 -0.348267157087
441240000 0.234476195088 -0.348288358004
441250000 0.234076803835 -0.349538744347
441260000 0.233671191017 -0.348913705607
441270000 0.233787513826 -0.348586409907
441280000 0.233025980712 -0.349123765134
441290000 0.233235323876 -0.349756015223
441300000 0.232582736078 -0.350713626062
441310000 0.239194746647 -0.356854557777
441320000 0.234905536255 -0.348828589589
441330000 0.233460126238 -0.350360215382
441340000 0.235425315016 -0.350141448512
441350000 0.234148423222 -0.351798627858
441360000 0.235331168682 -0.350745803649
441370000 0.233384813124 -0.351106363829
441380000 0.234737907727 -0.351671237494
441390000 0.234149074672 -0.352608460421
441400000 0.234268245039 -0.352171471195
441410000 0.235313279734 -0.352947789123
441420000 0.235640575618 -0.352105623185
441430000 0.235422067956 -0.352255381387
441440000 0.234455726516 -0.350667302736
441450000 0.235890250365 -0.352663501653
441460000 0.235565129368 -0.352877187992
441470000 0.23645787483 -0.351187238373
441480000 0.237439185177 -0.35470646303
441490000 0.23578062264 -0.35475534334
441500000 0.23677642817 -0.354855240618
441510000 0.237304188254 -0.355322103594
441520000 0.236956600941 -0.353825067992
441530000 0.236779540821 -0.35446952102
441540000 0.23640777345 -0.353577701399
441550000 0.23530503634 -0.35389812457
441560000 0.236605067202 -0.355704604935
441570000 0.237627615733 -0.355879395611
441580000 0.23875038816 -0.357004694081
441590000 0.23575132999 -0.357414130534
441600000 0.237126720667 -0.356193705718
441610000 0.239472391026 -0.355926915875
441620000 0.235769750238 -0.354694344618
441630000 0.238717867524 -0.357950791983
441640000 0.238458693257 -0.357274468744
441650000 0.239913191173 -0.359116338544
441660000 0.238982247089 -0.357934297497
441670000 0.236767536532 -0.3586672793
441680000 0.235992907103 -0.358009105786
441690000 0.239791821702 -0.35679855963
441700000 0.238409574707 -0.358301736959
441710000 0.234614551059 -0.352525343839
441720000 0.239831881631 -0.355955946816
441730000 0.245851656503 -0.35255789475
441740000 0.243686883729 -0.358610145157
441750000 0.239804378076 -0.359295904447
441760000 0.236458288302 -0.357912032753
441770000 0.240380972652 -0.360701947568
441780000 0.239393311338 -0.358555716362
441790000 0.24055904457 -0.358409059451
441800000 0.239216541177 -0.35887427849
441810000 0.238240646888 -0.359191109184
441820000 0.238220277333 -0.361456191467
441830000 0.239317329171 -0.361910676553
441840000 0.238565673513 -0.360640459925
441850000 0.238840504402 -0.359618169469
441860000 0.240260690094 -0.361204302514
441870000 0.24148266996 -0.360646967938
441880000 0.24015244983 -0.359315517649
441890000 0.241139626131 -0.360774397296
441900000 0.241245500113 -0.360863718421
441910000 0.240419220571 -0.36017594334
441920000 0.238424588561 -0.361277725405
441930000 0.23957349756 -0.361909302029
441940000 0.240340818888 -0.363261060465
441950000 0.240736845286 -0.361945857179
441960000 0.241377606446 -0.361601323356
441970000 0.23934136126 -0.363073093539
441980000 0.241677058849 -0.362978245324
441990000 0.235749320951 -0.350981503776
442000000 0.239831597755 -0.362850440339
442010000 0.241310485729 -0.363876585814
442020000 0.241936878856 -0.363569760475
442030000 0.242147959761 -0.363659542463
442040000 0.240842542868 -0.36412243232
442050000 0.241616255859 -0.365784005874
442060000 0.241205350179 -0.365255245076
442070000 0.242453052975 -0.364863381841
442080000 0.242767016472 -0.365802071597
442090000 0.241835521045 -0.36547352695
442100000 0.243159245661 -0.365859031146
442110000 0.239079350978 -0.366139214825
442120000 0.247496139874 -0.363015936822
442130000 0.243834252054 -0.365617975343
442140000 0.244197726352 -0.36313480335
442150000 0.242080743199 -0.364405834726
442160000 0.242483681153 -0.36501728328
442170000 0.24007283981 -0.359113465305
442180000 0.243451485714 -0.368369443677
442190000 0.243621525526 -0.365582141135
442200000 0.243008137362 -0.365879548031
442210000 0.237892348584 -0.367559207253
442220000 0.24599092202 -0.369357430835
442230000 0.238993511952 -0.366578794131
442240000 0.243827762895 -0.368917032588
442250000 0.241126424818 -0.368483224891
442260000 0.241955788983 -0.369332200289
442270000 0.25706838828 -0.370466318045
442280000 0.243125388945 -0.372349754023
442290000 0.240939724501 -0.370450841554
442300000 0.249812742087 -0.377580141382
442310000 0.237131903178 -0.368395231359
442320000 0.253424065772 -0.376038376472
442330000 0.241933469943 -0.368514336572
442340000 0.251742482327 -0.364925155667
442350000 0.250531399147 -0.368504192693
442360000 0.236277428812 -0.373720171377
442370000 0.260011022009 -0.36948455341
442380000 0.248503759982 -0.366930012304
442390000 0.248539967361 -0.365923544887
442400000 0.251701749251 -0.351960761594
442410000 0.241497646095 -0.38356636852
442420000 0.242714761629 -0.365321635759
442430000 0.255603639119 -0.378032105482
442440000 0.249439550288 -0.370043253505
442450000 0.250991107425 -0.367794280059
442460000 0.249597851992 -0.385771412074
442470000 0.250529792409 -0.368717642424
442480000 0.2382735671 -0.375926279932
442490000 0.253824251191 -0.357765688556
442500000 0.243717485297 -0.375897805844
442510000 0.24840999967 -0.378550612725
442520000 0.238249284706 -0.367958718069
442530000 0.240476643908 -0.375677255113
442540000 0.256753875372 -0.378496012712
442550000 0.251073309789 -0.37682730899
442560000 0.249971865071 -0.375014900835
442570000 0.260530833741 -0.370320120669
442580000 0.254019878024 -0.372553361695
442590000 0.2341270434 -0.370749592941
442600000 0.249231358009 -0.374332755495
442610000 0.265372686463 -0.376469715525
442620000 0.250539751037 -0.377728202103
442630000 0.252764197895 -0.376271036226
442640000 0.250368925328 -0.37704482124
442650000 0.24707674577 -0.369130811514
442660000 0.247604887668 -0.371952234693
442670000 0.253186037069 -0.372121650725
442680000 0.245200587202 -0.376344174273
442690000 0.24914234314 -0.374411289081
442700000 0.239065271363 -0.383888226838
442710000 0.26240256778 -0.380878921485
442720000 0.24864173041 -0.375441473815
442730000 0.244643028733 -0.379727840317
442740000 0.24911325361 -0.379261693395
442750000 0.252317796262 -0.378593064468
442760000 0.249923240172 -0.380344681618
442770000 0.252849887253 -0.383177453619
442780000 0.246042475414 -0.380858253572
442790000 0.249179352346 -0.379162563701
442800000 0.252567265675 -0.379507477349
442810000 0.24792896378 -0.379071308805
442820000 0.251952689182 -0.380096538735
442830000 0.250315761732 -0.381001831104
442840000 0.243087063134 -0.374555727837
442850000 0.248222573321 -0.38316262624
442860000 0.252181663936 -0.379500866764
442870000 0.250926612976 -0.379861728501
442880000 0.252849974665 -0.383261322625
442890000 0.25162758628 -0.373277263124
442900000 0.24904999421 -0.379571438899
442910000 0.251016142784 -0.38063107904
442920000 0.252614266892 -0.382137274928
442930000 0.251119850105 -0.383231363196
442940000 0.249727822492 -0.380462481968
442950000 0.25070244531 -0.382942577687
442960000 0.248831527919 -0.378955149165
442970000 0.250683808638 -0.382684753168
442980000 0.252856610932 -0.381028361766
442990000 0.25187191052 -0.383861180842
443000000 0.253244424229 -0.383005451004
443010000 0.254199881701 -0.382452051856
443020000 0.254228504301 -0.379969394302
443030000 0.249876705123 -0.382771570308
443040000 0.253847736516 -0.381712608518
443050000 0.253939712767 -0.384415704386
443060000 0.2526865853 -0.384338767991
443070000 0.252617949988 -0.381648147981
443080000 0.252409361561 -0.384910703037
443090000 0.250982491419 -0.382882364094
443100000 0.249948448701 -0.384672272453
443110000 0.250986429656 -0.38530804926
443120000 0.251640931423 -0.386975932038
443130000 0.256172524594 -0.384116291132
443140000 0.253096627998 -0.384221086855
443150000 0.251716594811 -0.383184862451
443160000 0.252772574543 -0.384417671747
443170000 0.252942122709 -0.38412641166
443180000 0.254051559907 -0.385825624073
443190000 0.253119736509 -0.384677363306
443200000 0.252453939554 -0.38649995073
443210000 0.255446946542 -0.388249159444
443220000 0.254334812806 -0.386257135111
443230000 0.253695747381 -0.387672677797
443240000 0.25152788425 -0.387437595862
443250000 0.255260687517 -0.388832582207
443260000 0.252471823608 -0.386097416924
443270000 0.251667829754 -0.386929016552
443280000 0.254266492217 -0.387645029959
443290000 0.253106510604 -0.388226900852
443300000 0.254093177847 -0.388175771608
443310000 0.254339318881 -0.389113606016
443320000 0.253999379866 -0.38870400518
443330000 0.255101543943 -0.389116866055
443340000 0.255008276347 -0.388150891689
443350000 0.254202958004 -0.389352366217
443360000 0.252882926259 -0.389119851587
443370000 0.255078418788 -0.391096752481
443380000 0.255291248658 -0.390151053223
443390000 0.258017350308 -0.389582423968
443400000 0.254481583746 -0.391342001546
443410000 0.255258094471 -0.392550963846
443420000 0.256308415041 -0.391745446018
443430000 0.256074764404 -0.389715860234
443440000 0.255513217633 -0.391378604529
443450000 0.25585081386 -0.392204251502
443460000 0.255467527708 -0.392420671261
443470000 0.255209087137 -0.391752747482
443480000 0.255406067581 -0.391370855725
443490000 0.256405033081 -0.393471668056
443500000 0.255596359581 -0.392919693911
443510000 0.254833124558 -0.393599232987
443520000 0.256189515497 -0.391978690401
443530000 0.256240855629 -0.395055218598
443540000 0.256238615067 -0.394145645033
443550000 0.256863987867 -0.394429535065
443560000 0.256760168017 -0.394475796416
443570000 0.256693737344 -0.394025133519
443580000 0.256316231387 -0.395508786101
443590000 0.256343662722 -0.39485581138
443600000 0.255970101692 -0.395587641214
443610000 0.255402739204 -0.396857638044
443620000 0.257375807011 -0.396364620128
443630000 0.258016867301 -0.397260617338
443640000 0.256790670234 -0.396975203469
443650000 0.257228432875 -0.39713079702
443660000 0.256769610347 -0.396339682303
443670000 0.257774025497 -0.39722872008
443680000 0.258292995062 -0.398708084955
443690000 0.258815817079 -0.397183821768
443700000 0.258502055819 -0.397630009355
443710000 0.257765014718 -0.397509432904
443720000 0.258212575206 -0.398952438346
443730000 0.259096371603 -0.398458416612
443740000 0.258004546028 -0.39862140925
443750000 0.259591037657 -0.397885547406
443760000 0.259716563031 -0.398867684554
443770000 0.258347019595 -0.399306972855
443780000 0.256443340823 -0.400894238634
443790000 0.258993133677 -0.398709717998
443800000 0.258839763371 -0.398991946979
443810000 0.259525271678 -0.398732526734
443820000 0.259124909913 -0.398514739236
443830000 0.259747655171 -0.398723964195
443840000 0.260455146563 -0.401436571354
443850000 0.259004084878 -0.400376598423
443860000 0.259417191006 -0.399993541604
443870000 0.258063065424 -0.399051599455
443880000 0.259825414077 -0.403886514245
443890000 0.259237290893 -0.401949479876
443900000 0.258163502271 -0.401717873789
443910000 0.258034032069 -0.403246402182
443920000 0.258933994138 -0.402846645702
443930000 0.261624803765 -0.402279825517
443940000 0.258371148003 -0.401176944594
443950000 0.259167125628 -0.404534082075
443960000 0.259427272996 -0.402666450992
443970000 0.25799721851 -0.404015166655
443980000 0.259047011849 -0.402608712913
443990000 0.260647147858 -0.40532092912
444000000 0.260657300506 -0.404503525912
444010000 0.260015399725 -0.405679551866
444020000 0.261374634284 -0.405871773161
444030000 0.260139869098 -0.403461453679
444040000 0.257564766399 -0.406492334856
444050000 0.260197616882 -0.405163389494
444060000 0.258488502819 -0.405581427002
444070000 0.261235698637 -0.40677706335
444080000 0.261154021269 -0.407339218709
444090000 0.261259197823 -0.407171966983
444100000 0.255209175752 -0.407501607987
444110000 0.261553295986 -0.411002381782
444120000 0.261269457245 -0.407355504564
444130000 0.260328973539 -0.407388515357
444140000 0.263315645307 -0.405456280418
444150000 0.260843531613 -0.401059239941
444160000 0.258623808 -0.406018795322
444170000 0.266212364829 -0.404851754563
444180000 0.26386387299 -0.406493848421
444190000 0.260936580995 -0.408111603454
444200000 0.261346153003 -0.408521103122
444210000 0.257028204377 -0.407377773655
444220000 0.258628962552 -0.410413749461
444230000 0.26018076331 -0.411799067597
444240000 0.260909548318 -0.408930074067
444250000 0.260154954214 -0.409381979222
444260000 0.262256957445 -0.410062628321
444270000 0.259691458967 -0.410760813993
444280000 0.26118935261 -0.411026113661
444290000 0.261169267517 -0.410220035206
444300000 0.261532065794 -0.40921575178
444310000 0.262291226185 -0.409847872571
444320000 0.262206247007 -0.411279446668
444330000 0.261029561416 -0.411749502398
444340000 0.261166235431 -0.411211157249
444350000 0.261343479475 -0.411382822511
444360000 0.261774486088 -0.411164333693
444370000 0.261908835892 -0.412164515007
444380000 0.260787031801 -0.412549835486
444390000 0.261446139022 -0.41241951132
444400000 0.2619863413 -0.413326144095
444410000 0.262344939103 -0.411972133777
444420000 0.263057657718 -0.414953771563
444430000 0.261678647582 -0.414901062979
444440000 0.262520868788 -0.414447365741
444450000 0.264990203927 -0.414466525512
444460000 0.262315094983 -0.41470887188
444470000 0.262182121133 -0.414763573676
444480000 0.262498092086 -0.413633851809
444490000 0.263096378507 -0.415396639382
444500000 0.261497403929 -0.415762148709
444510000 0.261551818296 -0.415637076876
444520000 0.263532332143 -0.415431376787
444530000 0.263581060114 -0.416366502433
444540000 0.263346811931 -0.416978103402
444550000 0.264004459584 -0.417121565043
444560000 0.262880586918 -0.416974220032
444570000 0.261775321187 -0.417655300208
444580000 0.263738488549 -0.417918186501
444590000 0.263640638644 -0.418075344257
444600000 0.263096916699 -0.416695261099
444610000 0.262286002346 -0.416577879931
444620000 0.263521225633 -0.420112242017
444630000 0.265383714084 -0.417909938791
444640000 0.264297559851 -0.418117257873
444650000 0.264491653122 -0.418536592956
444660000 0.263075342732 -0.419117485105
444670000 0.263137042427 -0.420656838176
444680000 0.264626682055 -0.418874944196
444690000 0.263159324216 -0.419819369414
444700000 0.264974838636 -0.419862173887
444710000 0.26425857403 -0.418846489851
444720000 0.265009407779 -0.420086106774
444730000 0.265049292503 -0.42194287199
444740000 0.264330798297 -0.420157365736
444750000 0.264010638041 -0.422027241163
444760000 0.264747974243 -0.421507555081
444770000 0.264324339929 -0.42096961388
444780000 0.26409901954 -0.421252386718
444790000 0.26621934124 -0.421028133884
444800000 0.265456117735 -0.421511395933
444810000 0.26362708291 -0.421163411089
444820000 0.264745815733 -0.421233064388
444830000 0.265849643814 -0.421960285011
444840000 0.263901299362 -0.424074418289
444850000 0.264184713628 -0.424010044277
444860000 0.267611750833 -0.422918964214
444870000 0.264208922593 -0.422796009192
444880000 0.265507213138 -0.423629873318
444890000 0.265177480601 -0.424566683841
444900000 0.263537408706 -0.425144754836
444910000 0.260838096986 -0.420982682931
444920000 0.263758385412 -0.419127346097
444930000 0.267880476368 -0.427644740822
444940000 0.265550439736 -0.421993837343
444950000 0.265426460032 -0.421386489785
444960000 0.267640926269 -0.423627289126
444970000 0.26421095076 -0.425637324182
444980000 0.265795310522 -0.426368169151
444990000 0.264689636664 -0.426122552959
445000000 0.26444850836 -0.426159741246
445010000 0.264953639772 -0.427067537125
445020000 0.265217027887 -0.424523460931
445030000 0.260226842156 -0.427889254071
445040000 0.271618735658 -0.429957669566
445050000 0.264221460667 -0.432412112313
445060000 0.269826249394 -0.426568063371
445070000 0.266254448964 -0.428636140816
445080000 0.263847081906 -0.426235121958
445090000 0.264815723938 -0.430024420025
445100000 0.267666350205 -0.428934540192
445110000 0.263336573162 -0.429389492776
445120000 0.266241376331 -0.430374902528
445130000 0.266054741274 -0.429513461253
445140000 0.264535809121 -0.430727372731
445150000 0.263800472614 -0.429463621197
445160000 0.265246321389 -0.431226662895
445170000 0.264425724165 -0.430915264611
445180000 0.265086182137 -0.431187572702
445190000 0.264690287361 -0.431877011174
445200000 0.266106113435 -0.430929269504
445210000 0.266889325221 -0.431599740785
445220000 0.265501711138 -0.431725023686
445230000 0.265769647939 -0.432182211343
445240000 0.265462659754 -0.431888153342
445250000 0.2660540649 -0.432142170479
445260000 0.264897240499 -0.431691874428
445270000 0.265533935393 -0.432100248328
445280000 0.265035977659 -0.43208361914
445290000 0.266225068014 -0.433843429604
445300000 0.265264572159 -0.432633162706
445310000 0.265609512046 -0.433476270682
445320000 0.265467723252 -0.434424175817
445330000 0.266021240733 -0.434032285643
445340000 0.266699239051 -0.435541952126
445350000 0.264958873337 -0.43459260438
445360000 0.265577539726 -0.43594329192
445370000 0.266369285424 -0.435202858581
445380000 0.265046129215 -0.435428730472
445390000 0.266949828814 -0.436290967874
445400000 0.266014799759 -0.43655815
445410000 0.265431075087 -0.436386715419
445420000 0.265179421334 -0.437272354202
445430000 0.265894226864 -0.436230297981
445440000 0.266131735794 -0.437731490986
445450000 0.265241723679 -0.438092513445
445460000 0.265828925566 -0.436515644623
445470000 0.265807261828 -0.437392082281
445480000 0.266078341414 -0.438762920081
445490000 0.265329678813 -0.438560855766
445500000 0.26753296472 -0.438867674586
445510000 0.266669663397 -0.437963182912
445520000 0.26744408982 -0.439589259124
445530000 0.266320736813 -0.43942267891
445540000 0.268040094504 -0.439195295987
445550000 0.266280197815 -0.43973948552
445560000 0.265066255004 -0.439465233879
445570000 0.268167813842 -0.440733835732
445580000 0.267015074101 -0.440548461449
445590000 0.266754336834 -0.440255532224
445600000 0.266627607498 -0.441254001403
445610000 0.266397175724 -0.441104644667
445620000 0.265668177113 -0.442590695156
445630000 0.26605162549 -0.443317607625
445640000 0.263950047318 -0.442252428846
445650000 0.26613149801 -0.443505609941
445660000 0.266587292577 -0.443086101089
445670000 0.265463466208 -0.442075443844
445680000 0.266797963768 -0.441489144817
445690000 0.267522413953 -0.442120673074
445700000 0.266196715936 -0.443900855105
445710000 0.265982711159 -0.444169945958
445720000 0.271524546389 -0.444365358962
445730000 0.264517007401 -0.443587680853
445740000 0.265951195899 -0.445276561188
445750000 0.264284389416 -0.445376783054
445760000 0.266424028111 -0.447233131289
445770000 0.263675690187 -0.442946227166
445780000 0.264349482163 -0.44709527408
445790000 0.265390159713 -0.444429474961
445800000 0.266711954581 -0.445828129867
445810000 0.266770784083 -0.446138374589
445820000 0.266166141741 -0.445530365805
445830000 0.265900877962 -0.444905517931
445840000 0.266508692108 -0.447398138013
445850000 0.265575576393 -0.445391981628
445860000 0.265723691709 -0.449736260022
445870000 0.265554353113 -0.443762321294
445880000 0.265173187463 -0.450459362556
445890000 0.268430530112 -0.447160305078
445900000 0.26664623315 -0.444394615611
445910000 0.263126807168 -0.446600786429
445920000 0.267165205761 -0.447751656824
445930000 0.268028935724 -0.4513657743
445940000 0.266913887429 -0.44816722998
445950000 0.267392703412 -0.451120602904
445960000 0.266488184296 -0.450324563189
445970000 0.267062547096 -0.449586361983
445980000 0.265869529409 -0.450611458974
445990000 0.267620959429 -0.451801962616
446000000 0.26784532938 -0.451202736852
446010000 0.266536440405 -0.452505639861
446020000 0.266981056748 -0.451614781193
446030000 0.267241976507 -0.452537316452
446040000 0.267772142044 -0.452539885762
446050000 0.266394752626 -0.453050916168
446060000 0.266668504095 -0.452883110261
446070000 0.267180058716 -0.452568864186
446080000 0.267109564158 -0.452839751096
446090000 0.267113817683 -0.453239864569
446100000 0.266275578101 -0.453312541508
446110000 0.266583195151 -0.454875942689
446120000 0.266440167361 -0.453405920985
446130000 0.2675601129 -0.454609577458
446140000 0.267507759545 -0.454759045175
446150000 0.26801826179 -0.454318924034
446160000 0.267625420183 -0.455939795693
446170000 0.266987289634 -0.455039234207
446180000 0.266543025821 -0.455882473582
446190000 0.266673647203 -0.455167336807
446200000 0.266553925117 -0.455140022822
446210000 0.268064761836 -0.454407139949
446220000 0.268854231948 -0.4557291371
446230000 0.266567832315 -0.456065154851
446240000 0.266764449306 -0.45708615023
446250000 0.26756268288 -0.457154085485
446260000 0.266408870518 -0.457611882801
446270000 0.268558158642 -0.45824934056
446280000 0.266986211819 -0.457846109259
446290000 0.267624589053 -0.45741755056
446300000 0.267459395173 -0.457902254387
446310000 0.267015353874 -0.456502714327
446320000 0.262718841043 -0.453017962879
446330000 0.267193576618 -0.458438616791
446340000 0.268016232218 -0.460002898023
446350000 0.267799869397 -0.459710033809
446360000 0.267396706453 -0.45966246197
446370000 0.268397058702 -0.459155868032
446380000 0.266177143007 -0.459609047489
446390000 0.267492712167 -0.460895748105
446400000 0.266531743928 -0.460623321013
446410000 0.26773439296 -0.460347203555
446420000 0.267464655179 -0.461608543565
446430000 0.266640963097 -0.461474307145
446440000 0.266515314794 -0.460747565064
446450000 0.268342770502 -0.461365943106
446460000 0.267508792845 -0.462043473978
446470000 0.26741154776 -0.462427246545
446480000 0.267152224827 -0.462884416926
446490000 0.267187987013 -0.462296776368
446500000 0.268680247788 -0.461142952454
446510000 0.266867183169 -0.461909638311
446520000 0.266858573572 -0.463476008728
446530000 0.266706731033 -0.463114928152
446540000 0.26875486353 -0.463947566014
446550000 0.26683988919 -0.464159258889
446560000 0.267028006982 -0.465826776209
446570000 0.268099444081 -0.464840546943
446580000 0.268570735639 -0.464552494056
446590000 0.265929452809 -0.46364026072
446600000 0.270160447412 -0.467783540204
446610000 0.269575290265 -0.465889807437
446620000 0.268265467052 -0.465410080341
446630000 0.268101142536 -0.467076467624
446640000 0.26920289519 -0.464428161842
446650000 0.265684088729 -0.465993496806
446660000 0.266752402392 -0.4671358166
446670000 0.268883456552 -0.467651680732
446680000 0.267834222971 -0.466137640912
446690000 0.269742058204 -0.469242320158
446700000 0.267718648074 -0.467912984598
446710000 0.269503555153 -0.473696228669
446720000 0.271625222063 -0.469575969954
446730000 0.267761348968 -0.465398351143
446740000 0.270428134268 -0.469068746998
446750000 0.268362661521 -0.467327554684
446760000 0.266850397058 -0.469771942561
446770000 0.265301168115 -0.468185771367
446780000 0.266245674497 -0.47062738837
446790000 0.267607695974 -0.468410382574
446800000 0.268410028322 -0.46957691494
446810000 0.266698880112 -0.469288362388
446820000 0.267764330164 -0.470066496517
446830000 0.268809524395 -0.47008624814
446840000 0.266604516603 -0.470017661341
446850000 0.268705864692 -0.471596371147
446860000 0.268149011994 -0.471529237157
446870000 0.269161053008 -0.471857878777
446880000 0.267873122919 -0.473242933493
446890000 0.268112293723 -0.471534056394
446900000 0.26790347749 -0.473644377645
446910000 0.269143154754 -0.470039226499
446920000 0.266381980887 -0.47104880721
446930000 0.266314213008 -0.471937877676
446940000 0.267663556464 -0.471372588329
446950000 0.267542129364 -0.472306004577
446960000 0.267099439121 -0.472238004177
446970000 0.266542250111 -0.472719652088
446980000 0.267677639213 -0.472741439394
446990000 0.266784285635 -0.473011680066
447000000 0.266858872923 -0.473547245473
447010000 0.267245626591 -0.474284187558
447020000 0.267482355619 -0.474196820805
447030000 0.267582745888 -0.473744035083
447040000 0.267137142759 -0.475484920521
447050000 0.266576380362 -0.474384575994
447060000 0.267994829539 -0.474325828675
447070000 0.267436890649 -0.47554831232
447080000 0.267090025303 -0.474663856563
447090000 0.26684839774 -0.4751198024
447100000 0.266302154498 -0.476717277351
447110000 0.266064166243 -0.474302986268
447120000 0.266338831537 -0.475650464546
447130000 0.268395970611 -0.47645451532
447140000 0.267569040961 -0.476323074945
447150000 0.268151123554 -0.475921311452
447160000 0.267353620072 -0.477300276076
447170000 0.267524179327 -0.477328725259
447180000 0.2656545753 -0.476438867551
447190000 0.267825588572 -0.478379196227
447200000 0.266809892776 -0.478611287203
447210000 0.268709505753 -0.479135568808
447220000 0.267202743188 -0.477758524776
447230000 0.268136825892 -0.479657704598
447240000 0.26566857227 -0.481469805615
447250000 0.267072851914 -0.47852022243
447260000 0.266868701854 -0.478386669931
447270000 0.267243289303 -0.48046534566
447280000 0.265552174467 -0.478588686784
447290000 0.268255293765 -0.481404681328
447300000 0.265466882109 -0.480880123805
447310000 0.26968623698 -0.480718827646
447320000 0.266472823612 -0.480115760996
447330000 0.265003167234 -0.479517252757
447340000 0.26716419923 -0.480198104647
447350000 0.267205974406 -0.480269687276
447360000 0.268210938056 -0.482991529903
447370000 0.269142233556 -0.481635766093
447380000 0.26843705945 -0.478161806782
447390000 0.264056172122 -0.481379247358
447400000 0.264776818878 -0.480142925849
447410000 0.267558954656 -0.481838142833
447420000 0.269658609356 -0.481640827963
447430000 0.266625071955 -0.48251900642
447440000 0.26657256237 -0.483383115847
447450000 0.268381346276 -0.481909975616
447460000 0.265403193753 -0.484743649598
447470000 0.267494846126 -0.483406244776
447480000 0.268879235511 -0.484435190806
447490000 0.267239572935 -0.485595513653
447500000 0.266191261333 -0.484523060215
447510000 0.266460175596 -0.48499796465
447520000 0.269632269347 -0.483585489838
447530000 0.266486887916 -0.488218147793
447540000 0.269579146242 -0.4864641056
447550000 0.264178257289 -0.485599028746
447560000 0.274556529868 -0.48540447287
447570000 0.265551188208 -0.48838434007
447580000 0.269633371522 -0.488355086386
447590000 0.26391666045 -0.482945372068
447600000 0.2662544237 -0.486081991432
447610000 0.267869498598 -0.486188699681
447620000 0.266993098293 -0.486977007423
447630000 0.268453853178 -0.486163873353
447640000 0.266625076658 -0.48595892176
447650000 0.268757701991 -0.487013818217
447660000 0.268714426646 -0.489811860571
447670000 0.266900707734 -0.488644391506
447680000 0.266753932935 -0.488320342242
447690000 0.267459677971 -0.486847242689
447700000 0.26844600957 -0.488835048436
447710000 0.267284973873 -0.488875269163
447720000 0.266675449526 -0.489034935527
447730000 0.265967587259 -0.489036210327
447740000 0.268185731371 -0.489275907006
447750000 0.268905862472 -0.487803857228
447760000 0.271278670551 -0.487867745445
447770000 0.268205620857 -0.491427466108
447780000 0.264660398483 -0.491428376112
447790000 0.267219227133 -0.491555706947
447800000 0.26538571593 -0.49067926593
447810000 0.267135431998 -0.492516394519
447820000 0.267656336196 -0.492688794491
447830000 0.266513618812 -0.492312634067
447840000 0.267170044546 -0.492906000434
447850000 0.266538792384 -0.492609733867
447860000 0.266711066433 -0.493363033579
447870000 0.26765975869 -0.491225141846
447880000 0.265534007763 -0.493318054008
447890000 0.265757574538 -0.492759767551
447900000 0.268207782617 -0.492865927669
447910000 0.266723088311 -0.491834192592
447920000 0.267498019696 -0.494447757634
447930000 0.267085713233 -0.493165256478
447940000 0.267739712843 -0.49491546493
447950000 0.266378742518 -0.494288864555
447960000 0.266828095215 -0.495245064792
447970000 0.266729371004 -0.495329502183
447980000 0.26589771097 -0.49590541654
447990000 0.266516921148 -0.495698990763
448000000 0.268349370778 -0.494984592715
448010000 0.266749968354 -0.496075477599
448020000 0.265085590844 -0.495954176291
448030000 0.266935032198 -0.496761646325
448040000 0.265589108192 -0.496168065569
448050000 0.267624672375 -0.495675122953
448060000 0.266022155406 -0.496383900816
448070000 0.266815237229 -0.497313606915
448080000 0.266255334657 -0.495856983229
448090000 0.266455368062 -0.497619057492
448100000 0.266996168025 -0.498175955557
448110000 0.266118646654 -0.498222468226
448120000 0.267112417065 -0.498173466597
448130000 0.268718574086 -0.498983827038
448140000 0.266279258302 -0.496910706335
448150000 0.266435352976 -0.49661466985
448160000 0.263938175153 -0.497249823208
448170000 0.266235468106 -0.498630620834
448180000 0.267066764493 -0.499180402607
448190000 0.265525472364 -0.4997338328
448200000 0.266907523112 -0.499112730379
448210000 0.267554624063 -0.497777972432
448220000 0.267259928798 -0.498574342013
448230000 0.265215688556 -0.499668990163
448240000 0.266704770978 -0.500950028799
448250000 0.265853017289 -0.49975547509
448260000 0.265681810199 -0.498597226473
448270000 0.265044788524 -0.500403348677
448280000 0.265176537176 -0.501604160875
448290000 0.265972060104 -0.500820738607
448300000 0.265963923135 -0.502594464515
448310000 0.263421548086 -0.501633198613
448320000 0.26426966694 -0.502773518333
448330000 0.264747835812 -0.50076316795
448340000 0.265580746756 -0.503193542731
448350000 0.265595373037 -0.503592736742
448360000 0.265437386985 -0.501584539349
448370000 0.2653999415 -0.503190215385
448380000 0.265958299487 -0.503915823205
448390000 0.267075134275 -0.502674926607
448400000 0.265851653118 -0.50424618631
448410000 0.267534865974 -0.502880548359
448420000 0.264959470488 -0.502291957625
448430000 0.264853636875 -0.504403975034
448440000 0.265735688733 -0.504047906517
448450000 0.264943299875 -0.504412664764
448460000 0.265574770497 -0.504508536544
448470000 0.265468915435 -0.504524032593
448480000 0.266217077894 -0.505404324072
448490000 0.255993451099 -0.502859829811
448500000 0.270018958136 -0.504560728097
448510000 0.264675281841 -0.504130118661
448520000 0.263548424358 -0.505563209356
448530000 0.265408091398 -0.505287834278
448540000 0.264908670922 -0.506569867897
448550000 0.265122354521 -0.506071805428
448560000 0.265832794915 -0.506416947218
448570000 0.26474955126 -0.507308816268
448580000 0.266118148146 -0.506904601344
448590000 0.265675243305 -0.506951119113
448600000 0.266126958133 -0.507759738769
448610000 0.265324145125 -0.50737543938
448620000 0.264916860547 -0.506831485386
448630000 0.265408526947 -0.507578251839
448640000 0.266419119479 -0.50760273023
448650000 0.266377129896 -0.508224757522
448660000 0.264452376189 -0.508197665195
448670000 0.264878756499 -0.508078278541
448680000 0.265442888267 -0.508898745647
448690000 0.26508390952 -0.509323666726
448700000 0.266196216484 -0.509911385566
448710000 0.26543263933 -0.510061012394
448720000 0.264834132212 -0.510786469709
448730000 0.265487970302 -0.51030809714
448740000 0.265732390102 -0.509528085943
448750000 0.265822016064 -0.51016853006
448760000 0.264557404944 -0.510843652971
448770000 0.264274826719 -0.512341950668
448780000 0.264361906739 -0.509516523089
448790000 0.264115925975 -0.510174958391
448800000 0.264358684532 -0.512181146651
448810000 0.264327413271 -0.510165136443
448820000 0.263739075352 -0.513877746104
448830000 0.264977942053 -0.51193571166
448840000 0.267011976909 -0.513807540822
448850000 0.263938501881 -0.512828353713
448860000 0.266689939317 -0.512917248586
448870000 0.266710029183 -0.510411103866
448880000 0.265715974242 -0.51255440931
448890000 0.264804303641 -0.513435048619
448900000 0.265628852579 -0.514552383145
448910000 0.265249466134 -0.514659432041
448920000 0.263957699229 -0.513755580343
448930000 0.265949714438 -0.51528626022
448940000 0.265712686109 -0.515508880745
448950000 0.264844498419 -0.514720760726
448960000 0.264363724403 -0.515376651879
448970000 0.263488179995 -0.513353327246
448980000 0.26480059585 -0.516332071838
448990000 0.263407588058 -0.515002850438
449000000 0.265203796276 -0.516314258762
449010000 0.265566470959 -0.519907187036
449020000 0.264802325942 -0.518053120908
449030000 0.266157585876 -0.520096319511
449040000 0.266262472279 -0.518743275919
449050000 0.266628997237 -0.519552085947
449060000 0.265635575972 -0.51980814916
449070000 0.267001260808 -0.519968507789
449080000 0.266742600464 -0.517644802258
449090000 0.264819999975 -0.517298264697
449100000 0.266948717025 -0.520773125069
449110000 0.267189615203 -0.519840651696
449120000 0.265783427866 -0.521557044858
449130000 0.265686173288 -0.521774565512
449140000 0.26605431365 -0.522539198977
449150000 0.266162944994 -0.522058701517
449160000 0.26515059833 -0.522951449557
449170000 0.265868742115 -0.522943078872
449180000 0.266363019396 -0.522558843201
449190000 0.265610449938 -0.522256004493
449200000 0.265359365195 -0.523229618518
449210000 0.264206088316 -0.52214739205
449220000 0.264337124942 -0.522083864932
449230000 0.266262803314 -0.523769909368
449240000 0.26598936934 -0.52415170669
449250000 0.264459455505 -0.524300525155
449260000 0.26586524648 -0.524250856815
449270000 0.26608387228 -0.524813884633
449280000 0.266085184772 -0.526052415141
449290000 0.265912217478 -0.525830466165
449300000 0.265822133846 -0.5253683911
449310000 0.265468871675 -0.526678968002
449320000 0.266385007249 -0.525518939346
449330000 0.265810352833 -0.524206877417
449340000 0.265728646637 -0.522915960756
449350000 0.266232706288 -0.525062877844
449360000 0.264826315952 -0.526362656301
449370000 0.263743902556 -0.526796101673
449380000 0.265255979373 -0.52642180768
449390000 0.264275638853 -0.52564826302
449400000 0.265264032789 -0.527757410669
449410000 0.264271753251 -0.527088412532
449420000 0.264528433919 -0.527765603645
449430000 0.26483402257 -0.528219301894
449440000 0.264258221241 -0.527789144159
449450000 0.264743680898 -0.527966519424
449460000 0.264333565967 -0.52856785751
449470000 0.264871464287 -0.529977072454
449480000 0.264522958811 -0.52817776819
449490000 0.26390225196 -0.528553327418
449500000 0.264623738291 -0.528446006998
449510000 0.265153712675 -0.529221000182
449520000 0.264235395016 -0.529885485089
449530000 0.263628519002 -0.530408875416
449540000 0.263237549907 -0.529103740208
449550000 0.262359559336 -0.530237537561
449560000 0.261861498713 -0.529143329259
449570000 0.259655011792 -0.530395517268
449580000 0.262881944873 -0.529165598119
449590000 0.26381923104 -0.530035084996
449600000 0.264365549771 -0.529767019857
449610000 0.264500717594 -0.531708985732
449620000 0.264313969534 -0.531618876476
449630000 0.264395117988 -0.531362452477
449640000 0.26459441809 -0.531231136786
449650000 0.263286261402 -0.532905411532
449660000 0.264705628299 -0.532384616004
449670000 0.268012013893 -0.533247116768
449680000 0.265049510963 -0.533694673811
449690000 0.266069267602 -0.533350497484
449700000 0.26332561608 -0.533211052209
449710000 0.264883538112 -0.532661748769
449720000 0.264296612745 -0.532956393814
449730000 0.265922956665 -0.533930488431
449740000 0.263910523639 -0.535264487852
449750000 0.262485021651 -0.532032674457
449760000 0.26514070796 -0.534951956831
449770000 0.262458944749 -0.535458376674
449780000 0.261908523969 -0.535253076539
449790000 0.263845285135 -0.533340323012
449800000 0.265101516258 -0.53515921772
449810000 0.262675871348 -0.536603220705
449820000 0.265148042324 -0.535954648831
449830000 0.264298259029 -0.535078125394
449840000 0.264996880288 -0.536854504031
449850000 0.263145017272 -0.539008599883
449860000 0.261087067648 -0.536723310942
449870000 0.258919858861 -0.535897710435
449880000 0.26318321776 -0.53816097065
449890000 0.2629902562 -0.537073352085
449900000 0.263729435189 -0.539892886583
449910000 0.26187077683 -0.539224745404
449920000 0.262549769024 -0.538404178494
449930000 0.261388755281 -0.5358033527
449940000 0.261956993835 -0.538741761984
449950000 0.261938944962 -0.540073039028
449960000 0.262642139765 -0.538355107242
449970000 0.262380878764 -0.538957323537
449980000 0.262174017714 -0.53914798546
449990000 0.263508661445 -0.538667206037
450000000 0.264045564558 -0.540468741888
