! Calibrated averaged scanner-service zoom
# Hz S RI R 50
902000000 0.554012563998 -0.561187730081
902013000 0.550949264023 -0.558595307566
902026000 0.550688778255 -0.560485536591
902039000 0.551520559489 -0.559159122545
902052000 0.551072545031 -0.555805976753
902065000 0.554628890304 -0.558173288307
902078000 0.551407461617 -0.558195032343
902091000 0.548969497908 -0.55826434872
902104000 0.548086876596 -0.55566396089
902117000 0.553568637249 -0.55741400627
902130000 0.552983901674 -0.557459957402
902143000 0.551830554202 -0.553869383262
902156000 0.550894549214 -0.554777497381
902169000 0.550180548627 -0.557255936322
902182000 0.550317212459 -0.557050975502
902195000 0.551014347038 -0.55670112427
902208000 0.551470472934 -0.55651282816
902221000 0.549798475349 -0.556151000979
902234000 0.550850039175 -0.557108762334
902247000 0.550991761724 -0.559635464533
902260000 0.552559694528 -0.558257144459
902273000 0.548965768451 -0.558260060971
902286000 0.550659816413 -0.558989067254
902299000 0.550106994618 -0.557545029696
902312000 0.548446182849 -0.55720155712
902325000 0.552387285609 -0.557146415714
902338000 0.551840069657 -0.55652951035
902351000 0.552260431958 -0.555085842717
902364000 0.551405661462 -0.555634092735
902377000 0.554228718522 -0.55835675243
902390000 0.550245882316 -0.558273247562
902403000 0.549711334931 -0.558449036853
902416000 0.548458348122 -0.557001817818
902429000 0.548809251648 -0.556360194666
902442000 0.550880438806 -0.556829909904
902455000 0.55158103965 -0.557501945241
902468000 0.549310311908 -0.554366312599
902481000 0.548409225153 -0.557570093993
902494000 0.550424752993 -0.558325532378
902507000 0.552506181647 -0.557150455795
902520000 0.554340930545 -0.557770121193
902533000 0.55156446614 -0.556441018301
902546000 0.548997122137 -0.557545511693
902559000 0.546341109795 -0.555445752889
902572000 0.549033016508 -0.556013693032
902585000 0.544723141112 -0.559247831329
902598000 0.548248112118 -0.558681033142
902611000 0.550559326298 -0.561956509381
902624000 0.552089243617 -0.559236038325
902637000 0.554874123884 -0.55618416044
902650000 0.553951031887 -0.558416900822
902663000 0.556046892133 -0.559336458813
902676000 0.552708216815 -0.559950938779
902689000 0.551117190766 -0.557073393573
902702000 0.550633303799 -0.556780663564
902715000 0.550636915017 -0.558375640469
902728000 0.551769047001 -0.556984383065
902741000 0.550051273537 -0.557045741757
902754000 0.548843807314 -0.556010709555
902767000 0.550839725638 -0.558126931121
902780000 0.550089034873 -0.560766787057
902793000 0.550091158845 -0.561109260032
902806000 0.533511129853 -0.574278929764
902819000 0.549118715152 -0.559406726376
902832000 0.548815857858 -0.556808894144
902845000 0.547255743375 -0.559969748333
902858000 0.550450911918 -0.559323410988
902871000 0.55142189135 -0.558171708152
902884000 0.551436252632 -0.558114204447
902897000 0.550627899219 -0.554462954499
902910000 0.551291969403 -0.557389120289
902923000 0.54722963831 -0.557391035554
902936000 0.550647381225 -0.560242577308
902949000 0.552629584882 -0.559620502464
902962000 0.552671450879 -0.558003497681
902975000 0.550443753324 -0.557592563016
902988000 0.54992469243 -0.557404988636
903001000 0.550194405068 -0.557237998504
903014000 0.550979473075 -0.557226524434
903027000 0.555134432977 -0.558155468465
903040000 0.559582332271 -0.560504605374
903053000 0.556792692432 -0.557038591943
903066000 0.555886620615 -0.555205533814
903079000 0.554432023288 -0.555110760867
903092000 0.549715032914 -0.554413811357
903105000 0.549449709576 -0.553200321132
903118000 0.549128365612 -0.553870308497
903131000 0.551083451133 -0.554894715931
903144000 0.548586097711 -0.556844355751
903157000 0.550263300244 -0.558058607385
903170000 0.547476707454 -0.556653686536
903183000 0.548471045877 -0.55464390109
903196000 0.548646637837 -0.557094808994
903209000 0.548166750492 -0.558727688927
903222000 0.548915089565 -0.559075138386
903235000 0.551193691832 -0.559106562306
903248000 0.550041413797 -0.555212690395
903261000 0.552010979198 -0.558462352419
903274000 0.551169615554 -0.557330411367
903287000 0.550475043514 -0.557444476131
903300000 0.551008574329 -0.558575456359
903313000 0.548459215869 -0.561103711763
903326000 0.549897645094 -0.55760920405
903339000 0.549264233252 -0.557836530046
903352000 0.549266819427 -0.56176007633
903365000 0.550242598984 -0.561514740299
903378000 0.551736314855 -0.558723551366
903391000 0.54895493547 -0.554800188675
903404000 0.548345939796 -0.555339809517
903417000 0.546826613772 -0.556054390349
903430000 0.551559029643 -0.55676387955
903443000 0.554000799212 -0.556425054786
903456000 0.54980305839 -0.556522679655
903469000 0.546174731184 -0.557760830357
903482000 0.596868399411 -0.509377550571
903495000 0.549370340932 -0.553301864727
903508000 0.549147798895 -0.555705302837
903521000 0.551670729008 -0.556150511514
903534000 0.550120239072 -0.555394937826
903547000 0.548323126058 -0.555828681378
903560000 0.547318262162 -0.558022656005
903573000 0.547945408828 -0.554984062991
903586000 0.548219507829 -0.553665463852
903599000 0.547156701473 -0.555514357945
903612000 0.549523481587 -0.555500570851
903625000 0.546813116798 -0.558399632535
903638000 0.550328142326 -0.558176771261
903651000 0.550935041807 -0.557877825426
903664000 0.550334558121 -0.558144866833
903677000 0.549075495817 -0.558234194151
903690000 0.551294426193 -0.559379991616
903703000 0.550536210405 -0.557084261246
903716000 0.550947689095 -0.557014979072
903729000 0.546749071089 -0.555604892565
903742000 0.546755550483 -0.556196532603
903755000 0.550085385634 -0.556568275488
903768000 0.547534117134 -0.557729844405
903781000 0.548853478656 -0.559958284163
903794000 0.548328061818 -0.558733224953
903807000 0.548079256259 -0.557963264865
903820000 0.550064196575 -0.556695363174
903833000 0.548009180739 -0.558037233218
903846000 0.547994932017 -0.558521951097
903859000 0.545956159676 -0.556342801014
903872000 0.547025203628 -0.557953514662
903885000 0.547850159185 -0.558046682029
903898000 0.548674815885 -0.55749484492
903911000 0.549033612643 -0.55730121494
903924000 0.548111975436 -0.558478559957
903937000 0.550086897016 -0.559085711805
903950000 0.548920507178 -0.557746565784
903963000 0.551477663495 -0.559341922198
903976000 0.548695412423 -0.559175478647
903989000 0.543851175077 -0.555713696846
904002000 0.550350536553 -0.555688186972
904015000 0.553829837067 -0.556289684609
904028000 0.549715022405 -0.557253311069
904041000 0.547094388652 -0.561195079233
904054000 0.549297415096 -0.561932914744
904067000 0.547926722118 -0.559966127902
904080000 0.547769899974 -0.558614234735
904093000 0.549483913414 -0.557577345417
904106000 0.548458355729 -0.556606954088
904119000 0.54910289772 -0.556726394503
904132000 0.547732558452 -0.555945872865
904145000 0.547574378093 -0.554560032099
904158000 0.54510428319 -0.554504078873
904171000 0.543480019187 -0.558394105528
904184000 0.545885456689 -0.556138814391
904197000 0.545687874188 -0.557824671061
904210000 0.547514648369 -0.554694774937
904223000 0.548204336779 -0.556019143974
904236000 0.548829360555 -0.558150292186
904249000 0.547541482636 -0.561238747859
904262000 0.550457117345 -0.558767206396
904275000 0.552441631973 -0.558150341373
904288000 0.549394007858 -0.55992721819
904301000 0.550266336803 -0.557589306619
904314000 0.54928492482 -0.557084615763
904327000 0.549446458832 -0.554668876867
904340000 0.549573142369 -0.55456081985
904353000 0.548262914086 -0.554608220911
904366000 0.546807475489 -0.552900414651
904379000 0.548517469299 -0.55434084369
904392000 0.544235426888 -0.556043372094
904405000 0.547872482348 -0.557164695013
904418000 0.551588974759 -0.553359106162
904431000 0.552240817478 -0.556599094729
904444000 0.548328235661 -0.557117128227
904457000 0.548102821355 -0.558126422559
904470000 0.548988675932 -0.557784380009
904483000 0.549995229951 -0.558674053038
904496000 0.548979797754 -0.558550100718
904509000 0.548417981748 -0.557030741518
904522000 0.549612036481 -0.55696956458
904535000 0.551591848693 -0.557280164077
904548000 0.549736303767 -0.557472904461
904561000 0.549210446131 -0.560607696429
904574000 0.546217056941 -0.556945524688
904587000 0.548492419193 -0.555253822424
904600000 0.548470812205 -0.555445537613
904613000 0.549974961256 -0.557944346494
904626000 0.550278414994 -0.558299990744
904639000 0.549845175401 -0.559164791954
904652000 0.544266267616 -0.5576717446
904665000 0.548926952276 -0.558202985866
904678000 0.546443478759 -0.557483625521
904691000 0.545916844674 -0.56064832989
904704000 0.545727037005 -0.559902627346
904717000 0.549972644702 -0.559561151234
904730000 0.551123616491 -0.561146983247
904743000 0.551280356686 -0.560983810405
904756000 0.552319104143 -0.556389625591
904769000 0.549607173745 -0.555547218961
904782000 0.545630795354 -0.556450022217
904795000 0.549054120959 -0.557932446815
904808000 0.54755077598 -0.55772061685
904821000 0.547833652782 -0.557603800738
904834000 0.543655611325 -0.560170419279
904847000 0.543695001592 -0.559492993554
904860000 0.54317154868 -0.558016897244
904873000 0.544860619313 -0.558389418304
904886000 0.547003853107 -0.557506224102
904899000 0.549208450549 -0.560298618804
904912000 0.55043838116 -0.559172939594
904925000 0.546384258994 -0.559260080618
904938000 0.54528059488 -0.559864274298
904951000 0.545073473942 -0.555814921029
904964000 0.546523722004 -0.556329486378
904977000 0.545971659816 -0.553748531402
904990000 0.550400016718 -0.557224796942
905003000 0.54972672078 -0.559373711169
905016000 0.546227067929 -0.558578232021
905029000 0.546342743982 -0.560072651764
905042000 0.547252719625 -0.560462539711
905055000 0.548186268372 -0.560034802162
905068000 0.547920636583 -0.556924568037
905081000 0.546036518434 -0.556326794747
905094000 0.548275428484 -0.556596906195
905107000 0.547657186009 -0.558224691959
905120000 0.549245227125 -0.55911184023
905133000 0.546181839151 -0.557819781953
905146000 0.544324077647 -0.556903198049
905159000 0.54855254509 -0.558629455623
905172000 0.547860304219 -0.558703464918
905185000 0.546227444282 -0.559727983591
905198000 0.545931347212 -0.555116554732
905211000 0.546640795709 -0.556580315246
905224000 0.547367012648 -0.559293666222
905237000 0.547251827378 -0.555053968577
905250000 0.544381006572 -0.555195979911
905263000 0.546427751271 -0.554552165469
905276000 0.545567961936 -0.556244543945
905289000 0.546450077762 -0.556982855942
905302000 0.547511393929 -0.558292789135
905315000 0.548506981081 -0.555994094569
905328000 0.544591719803 -0.557438317682
905341000 0.545852649379 -0.555222337109
905354000 0.547200804862 -0.559275977317
905367000 0.546945431346 -0.561542311251
905380000 0.545418200515 -0.559528585531
905393000 0.546029575871 -0.556095103099
905406000 0.545081783721 -0.554904705493
905419000 0.543007196738 -0.556342908851
905432000 0.540760608618 -0.557120034677
905445000 0.545258374419 -0.558850680302
905458000 0.544277496187 -0.557709170132
905471000 0.544843048164 -0.557319914123
905484000 0.546261191717 -0.556646171489
905497000 0.548174235614 -0.557282213294
905510000 0.550324740211 -0.556939654857
905523000 0.546251929313 -0.554178592526
905536000 0.547348555362 -0.556938636283
905549000 0.544084296296 -0.557771200143
905562000 0.545500225197 -0.558385469997
905575000 0.545377066326 -0.55848025758
905588000 0.548732296072 -0.556277503119
905601000 0.547365082211 -0.557078727713
905614000 0.544453893932 -0.55641927657
905627000 0.542109937357 -0.557136570162
905640000 0.54641373228 -0.557966973399
905653000 0.547507973369 -0.557463609359
905666000 0.549396376787 -0.560629505812
905679000 0.549929194324 -0.5567389242
905692000 0.549036662951 -0.556609967716
905705000 0.545125905487 -0.556662336301
905718000 0.546197018229 -0.55532227947
905731000 0.545095017346 -0.555701947984
905744000 0.544948807153 -0.557497023165
905757000 0.547249779605 -0.552841761348
905770000 0.549889076974 -0.556553027027
905783000 0.546357569491 -0.557138002068
905796000 0.548759249742 -0.558282333816
905809000 0.548131095038 -0.557713457379
905822000 0.54506047967 -0.555928786063
905835000 0.545729840667 -0.555393284597
905848000 0.542034230224 -0.552411019364
905861000 0.544907504638 -0.555475537535
905874000 0.543817088404 -0.558318119831
905887000 0.543018560242 -0.556632519975
905900000 0.546756921139 -0.556616252486
905913000 0.548357843615 -0.553820742648
905926000 0.549662303401 -0.554074168287
905939000 0.545881701082 -0.558790227364
905952000 0.545724081538 -0.559561004284
905965000 0.541731882258 -0.558795913051
905978000 0.543225897461 -0.556188887403
905991000 0.541473796443 -0.555426970989
906004000 0.541750810594 -0.557439896848
906017000 0.545581147473 -0.558344184332
906030000 0.546532029843 -0.562829459111
906043000 0.543881381045 -0.561108484939
906056000 0.545457177505 -0.560504348101
906069000 0.544515957742 -0.559251985357
906082000 0.549325237955 -0.557525853563
906095000 0.549299503785 -0.556316157413
906108000 0.549413491165 -0.553893690538
906121000 0.544812811194 -0.557283962877
906134000 0.544421324594 -0.556441853143
906147000 0.540961999706 -0.557049987167
906160000 0.542870973176 -0.555355220829
906173000 0.545792888526 -0.551691356532
906186000 0.542120693547 -0.555602363727
906199000 0.545879946193 -0.555231658964
906212000 0.546535932791 -0.554766715553
906225000 0.540875106885 -0.558220910912
906238000 0.544344804664 -0.5586678906
906251000 0.542705439513 -0.55694769388
906264000 0.546238709966 -0.557216534821
906277000 0.543508138112 -0.555920333585
906290000 0.54424280359 -0.555647401816
906303000 0.546867268783 -0.555315727263
906316000 0.547163881478 -0.557650580172
906329000 0.547303106226 -0.560116027961
906342000 0.547965230698 -0.55718955616
906355000 0.548980842894 -0.562166957869
906368000 0.54712031579 -0.55932484697
906381000 0.547443884571 -0.560455262519
906394000 0.545292637293 -0.558719560712
906407000 0.544588896106 -0.557486843191
906420000 0.544174511895 -0.559832125877
906433000 0.544717533469 -0.561890190191
906446000 0.543043983391 -0.559802291597
906459000 0.545762065474 -0.558213197779
906472000 0.556709991833 -0.551594489186
906485000 0.560580315766 -0.544516948867
906498000 0.566410023639 -0.547102896664
906511000 0.557421610375 -0.553482991375
906524000 0.550531326307 -0.557602787133
906537000 0.544987413253 -0.555485186068
906550000 0.54384632662 -0.553345937383
906563000 0.543852613422 -0.558392604872
906576000 0.547176809228 -0.559775253768
906589000 0.546727958217 -0.560522408754
906602000 0.548329289109 -0.560005825159
906615000 0.54844686048 -0.55913750553
906628000 0.551340037697 -0.55531357767
906641000 0.549222417168 -0.55426338407
906654000 0.548876821514 -0.556023651093
906667000 0.546951177437 -0.554207739692
906680000 0.546330792569 -0.558898802157
906693000 0.546833061721 -0.559256179529
906706000 0.546409460277 -0.555158666847
906719000 0.546856575829 -0.556923386659
906732000 0.544724405168 -0.558463833193
906745000 0.545198447427 -0.55957967719
906758000 0.544828609597 -0.560559739581
906771000 0.541472552366 -0.557755294024
906784000 0.542889067572 -0.557196809555
906797000 0.54151548015 -0.554253258012
906810000 0.544932897953 -0.55309811042
906823000 0.542518716264 -0.555860567768
906836000 0.542231298454 -0.562885734929
906849000 0.545378997594 -0.55837363586
906862000 0.543973812504 -0.556331695375
906875000 0.546358083215 -0.556686833054
906888000 0.546369320802 -0.555262027919
906901000 0.548178653297 -0.555409481045
906914000 0.546454152553 -0.558726472668
906927000 0.545294206709 -0.557163185483
906940000 0.54478828709 -0.555405612461
906953000 0.54562842841 -0.557453305168
906966000 0.546310815354 -0.556991717265
906979000 0.553499552226 -0.556065338541
906992000 0.548407063653 -0.556922632186
907005000 0.542026048725 -0.557938699477
907018000 0.545922782474 -0.556868035807
907031000 0.548001009117 -0.557216001494
907044000 0.549854903692 -0.554793940781
907057000 0.547723494388 -0.554762655882
907070000 0.546272917597 -0.556854063912
907083000 0.54386388877 -0.557892203234
907096000 0.543615166396 -0.559595580348
907109000 0.541848523398 -0.557359823741
907122000 0.540953235331 -0.559010583245
907135000 0.543045531776 -0.557433601521
907148000 0.543135489521 -0.559948574531
907161000 0.546003903066 -0.556395366022
907174000 0.541974226395 -0.558898626197
907187000 0.545179345425 -0.557205691066
907200000 0.54571011868 -0.557100867239
907213000 0.545496975238 -0.557191291004
907226000 0.548532099565 -0.554574226653
907239000 0.542662590758 -0.553810962592
907252000 0.544262722567 -0.554210519335
907265000 0.550141614211 -0.55865100685
907278000 0.547310794439 -0.558114870604
907291000 0.547520626686 -0.555635977514
907304000 0.547931364755 -0.558006298894
907317000 0.549999782017 -0.557827688355
907330000 0.550363245493 -0.560507365058
907343000 0.54467515006 -0.558093407125
907356000 0.541895514503 -0.554756591223
907369000 0.540705981796 -0.555621604299
907382000 0.542643655383 -0.555209635523
907395000 0.544667745514 -0.556165398224
907408000 0.546421772598 -0.557396178937
907421000 0.546698508501 -0.554154636404
907434000 0.541121995046 -0.553407428783
907447000 0.544679673566 -0.553632247855
907460000 0.540338665608 -0.557734335506
907473000 0.540152599869 -0.556251271482
907486000 0.539216885556 -0.552710602794
907499000 0.539725818514 -0.554301935213
907512000 0.541665307711 -0.552481233174
907525000 0.542816684179 -0.552018659761
907538000 0.544087687664 -0.555386282269
907551000 0.544741734623 -0.555964385237
907564000 0.544342123879 -0.55675321822
907577000 0.54232192157 -0.553496732242
907590000 0.544858315088 -0.553333608094
907603000 0.542401197146 -0.553390306941
907616000 0.541027513347 -0.559106120322
907629000 0.539882657071 -0.556247692584
907642000 0.540548225536 -0.558479831866
907655000 0.542353052374 -0.555870399703
907668000 0.54354314218 -0.550311969704
907681000 0.544253757182 -0.551264675828
907694000 0.544600346467 -0.551493488141
907707000 0.541416186146 -0.555249903952
907720000 0.541499494678 -0.554779341743
907733000 0.540774012117 -0.554835629119
907746000 0.543833628264 -0.555958474459
907759000 0.54461923057 -0.558407973339
907772000 0.545645520921 -0.561255022213
907785000 0.543779176698 -0.561405891428
907798000 0.541167154652 -0.559035887139
907811000 0.542835461669 -0.555881294871
907824000 0.54341434932 -0.554236855922
907837000 0.543592199158 -0.557266949435
907850000 0.543277648021 -0.556932811222
907863000 0.545314826566 -0.556415637224
907876000 0.546277347115 -0.557551685206
907889000 0.5424993594 -0.555631769906
907902000 0.54389639326 -0.558386378427
907915000 0.542195498794 -0.555913607808
907928000 0.540672189561 -0.555475336534
907941000 0.543651236782 -0.556243694328
907954000 0.545132441361 -0.55639328266
907967000 0.543969746353 -0.554105990831
907980000 0.541682082134 -0.553085053775
907993000 0.541010706505 -0.555759279458
908006000 0.542555945002 -0.559366895805
908019000 0.544376617197 -0.55870648196
908032000 0.545350574507 -0.556908890552
908045000 0.544113239087 -0.556509397102
908058000 0.542808972273 -0.554669056456
908071000 0.543801805841 -0.556009571263
908084000 0.541501282665 -0.552446389766
908097000 0.547561341147 -0.555815408376
908110000 0.544281897028 -0.553950823426
908123000 0.549048826874 -0.557776551312
908136000 0.550739415463 -0.556694304086
908149000 0.546386845529 -0.55354341457
908162000 0.544906735186 -0.555252046602
908175000 0.543948847413 -0.552886328131
908188000 0.540312747869 -0.551590833959
908201000 0.5421783255 -0.550179513748
908214000 0.541561681899 -0.554921988465
908227000 0.542833326187 -0.553166109637
908240000 0.542532083718 -0.552570983348
908253000 0.539711896509 -0.553028376603
908266000 0.541758837326 -0.552052672775
908279000 0.543188756783 -0.551556095996
908292000 0.542060075014 -0.553518680111
908305000 0.543787469026 -0.557822005679
908318000 0.54345990348 -0.557788391862
908331000 0.54111118848 -0.559098655051
908344000 0.54629490505 -0.559062075105
908357000 0.54777223401 -0.558489591232
908370000 0.545028436801 -0.560323409901
908383000 0.539951137366 -0.555545070102
908396000 0.538192535206 -0.554319332845
908409000 0.543335711323 -0.549403825124
908422000 0.545537074723 -0.548247759038
908435000 0.542852287415 -0.552707745513
908448000 0.543948668297 -0.556221452963
908461000 0.543064932662 -0.557875836552
908474000 0.542806437554 -0.556841649535
908487000 0.539120571316 -0.55756858756
908500000 0.537334221128 -0.556786486459
908513000 0.536673765785 -0.555358592758
908526000 0.541577771973 -0.556255952246
908539000 0.545631487862 -0.555538901971
908552000 0.543796605162 -0.557142391611
908565000 0.543573105516 -0.555843001086
908578000 0.543265096364 -0.55584161239
908591000 0.543746574588 -0.560773949688
908604000 0.542836355042 -0.560050825367
908617000 0.545892340051 -0.556437999129
908630000 0.540545618967 -0.553466655709
908643000 0.541269029747 -0.554877472154
908656000 0.540049991305 -0.55625721936
908669000 0.538118931858 -0.555685737869
908682000 0.538384820657 -0.556043895406
908695000 0.540880413158 -0.557381118611
908708000 0.542789329285 -0.560895616253
908721000 0.544948744154 -0.555696488788
908734000 0.548398421625 -0.559221934051
908747000 0.547639830484 -0.556996519078
908760000 0.54178090949 -0.558925771949
908773000 0.544860447542 -0.556663631594
908786000 0.545467964694 -0.553712358033
908799000 0.545431725269 -0.5549996958
908812000 0.539441702954 -0.558857670716
908825000 0.541131476625 -0.559814904066
908838000 0.542861655373 -0.556891346085
908851000 0.544217965588 -0.556579375505
908864000 0.542269171005 -0.554810969656
908877000 0.542651876074 -0.553374021747
908890000 0.542664167099 -0.555711818221
908903000 0.541513494061 -0.559560504612
908916000 0.542888881678 -0.557223845338
908929000 0.540580041019 -0.556735504027
908942000 0.543890993486 -0.557874518073
908955000 0.53934970701 -0.555075647018
908968000 0.544476823624 -0.555630498795
908981000 0.543807564111 -0.553350953352
908994000 0.54251690764 -0.556436763919
909007000 0.541187219684 -0.557288923341
909020000 0.547872538021 -0.555766468092
909033000 0.545548871458 -0.554869907074
909046000 0.542390426428 -0.554932780056
909059000 0.539510152863 -0.555494561319
909072000 0.543213122419 -0.557901853527
909085000 0.544262328685 -0.56109820879
909098000 0.54976695848 -0.560489683417
909111000 0.548304945333 -0.560121528084
909124000 0.549686653676 -0.55423607726
909137000 0.546135299201 -0.555114952832
909150000 0.539575652658 -0.555260617617
909163000 0.538398813268 -0.554281156186
909176000 0.539764607465 -0.556542757203
909189000 0.542966498872 -0.558098861357
909202000 0.544724652125 -0.555438665939
909215000 0.5412139008 -0.555632494671
909228000 0.54135235671 -0.55327762466
909241000 0.54555693647 -0.55294882922
909254000 0.545386612466 -0.554983288373
909267000 0.54421605954 -0.555704665649
909280000 0.541998621926 -0.556019835726
909293000 0.541326761725 -0.554870876794
909306000 0.539118786906 -0.556409084456
909319000 0.537169989187 -0.557648912565
909332000 0.538539848989 -0.552803884833
909345000 0.541857050905 -0.555874149045
909358000 0.538417196964 -0.557843778578
909371000 0.538492438091 -0.557099558284
909384000 0.545021199764 -0.556453393394
909397000 0.544393492016 -0.556212452337
909410000 0.54510011182 -0.556894683032
909423000 0.540935821623 -0.555958441693
909436000 0.543561432947 -0.555633231591
909449000 0.543977049508 -0.553081434353
909462000 0.54459551646 -0.55235532186
909475000 0.544296375482 -0.551786690051
909488000 0.546005421272 -0.552411041423
909501000 0.544105127816 -0.548177318383
909514000 0.542189990618 -0.549203042179
909527000 0.538847778798 -0.548318097316
909540000 0.537843459816 -0.551248560631
909553000 0.540745534094 -0.554782224558
909566000 0.543550367145 -0.560123785589
909579000 0.544855755507 -0.558716814325
909592000 0.54284297376 -0.556490663601
909605000 0.5394236868 -0.555988769949
909618000 0.53782287326 -0.554687876464
909631000 0.537152812847 -0.557662713961
909644000 0.541374130276 -0.558726433273
909657000 0.543959691478 -0.556343136742
909670000 0.542215469857 -0.558581134291
909683000 0.53774307231 -0.558801169585
909696000 0.543835219967 -0.555760375858
909709000 0.545724460979 -0.557511736216
909722000 0.545196701341 -0.560829537716
909735000 0.540384272072 -0.554816679925
909748000 0.538258624433 -0.554703214513
909761000 0.544229339819 -0.558694103245
909774000 0.544674797963 -0.557791484466
909787000 0.548890169713 -0.559417909547
909800000 0.562800650515 -0.553921640085
909813000 0.557760730818 -0.535525465058
909826000 0.614739936374 -0.548851614936
909839000 0.569318849626 -0.540859293714
909852000 0.545635370995 -0.552901812812
909865000 0.545642235074 -0.549162141402
909878000 0.546639418471 -0.550403189741
909891000 0.54889688899 -0.556108482533
909904000 0.546366221929 -0.555589323185
909917000 0.539311306091 -0.548598096218
909930000 0.544666864403 -0.529806729431
909943000 0.544962262167 -0.533871184926
909956000 0.547992965963 -0.532009182464
909969000 0.564799296145 -0.545403342404
909982000 0.512209787914 -0.499958639405
909995000 0.469816498062 -0.593839036411
910008000 0.439670132195 -0.561349053999
910021000 0.497559566858 -0.555242093032
910034000 0.502614453717 -0.546024013374
910047000 0.530832248882 -0.562984741614
910060000 0.554013941191 -0.555088817857
910073000 0.538297576301 -0.554712338356
910086000 0.534087434701 -0.551024670947
910099000 0.540352015207 -0.55069790301
910112000 0.539881306701 -0.556499360056
910125000 0.537499269273 -0.557708842953
910138000 0.54124583506 -0.561265429886
910151000 0.544478314924 -0.557975961693
910164000 0.547710401496 -0.55553419709
910177000 0.545630644263 -0.553730094362
910190000 0.549596082014 -0.55294285554
910203000 0.545776631625 -0.552846652035
910216000 0.529092893857 -0.558426773404
910229000 0.50805356979 -0.570176783278
910242000 0.526077211045 -0.556764083967
910255000 0.535213554611 -0.548639918794
910268000 0.539285381024 -0.554127290118
910281000 0.542485172097 -0.561694403501
910294000 0.542613314363 -0.560274835308
910307000 0.539799810395 -0.555915699942
910320000 0.539787546949 -0.551738733473
910333000 0.534902379448 -0.554589624245
910346000 0.53381966328 -0.550385072332
910359000 0.539147714809 -0.548527429456
910372000 0.541145138334 -0.549202415014
910385000 0.541431123861 -0.554723202315
910398000 0.543479338686 -0.554593954873
910411000 0.541226152977 -0.556622263122
910424000 0.539193277093 -0.558284649475
910437000 0.539411146666 -0.55679959909
910450000 0.53607385295 -0.551571825871
910463000 0.539799942007 -0.550183752837
910476000 0.542930764328 -0.554860457552
910489000 0.542565598474 -0.554585616612
910502000 0.539631422038 -0.55561768761
910515000 0.539856023372 -0.549869838283
910528000 0.54094008189 -0.549741719208
910541000 0.54160496027 -0.551292192933
910554000 0.540534242868 -0.553461030267
910567000 0.538982125543 -0.551497306611
910580000 0.540406313595 -0.551711782178
910593000 0.537237751753 -0.549013603171
910606000 0.54362312386 -0.553740234466
910619000 0.53881665116 -0.555991992856
910632000 0.546851028913 -0.5541338971
910645000 0.547347029429 -0.55131331249
910658000 0.537181939365 -0.548521352752
910671000 0.547745537922 -0.549920028673
910684000 0.545856280107 -0.553882304428
910697000 0.54705629718 -0.551531519513
910710000 0.542389848024 -0.554225117659
910723000 0.540858708332 -0.552012062736
910736000 0.537765305261 -0.551472196822
910749000 0.539509040957 -0.551252215985
910762000 0.544086306672 -0.550545339371
910775000 0.544197509637 -0.553740911123
910788000 0.544205026902 -0.554122891827
910801000 0.546075650288 -0.553213901047
910814000 0.541000326327 -0.550754887675
910827000 0.541667183413 -0.555963035528
910840000 0.538664308456 -0.553047170401
910853000 0.537324779475 -0.554356440992
910866000 0.537007612881 -0.555953773849
910879000 0.536159421222 -0.553333787505
910892000 0.535852796926 -0.55288266905
910905000 0.537207214235 -0.549338857461
910918000 0.540311310969 -0.55063060418
910931000 0.543390769707 -0.550565123226
910944000 0.545372871632 -0.550304781839
910957000 0.547832677603 -0.550110448939
910970000 0.538863956929 -0.552347752603
910983000 0.542515283596 -0.552615969845
910996000 0.542501588765 -0.551871471131
911009000 0.542004745234 -0.552970886172
911022000 0.543457000018 -0.554077140905
911035000 0.544805528616 -0.551465739489
911048000 0.541107336527 -0.55208401771
911061000 0.540372883392 -0.55340694964
911074000 0.539983376149 -0.55296713877
911087000 0.538841228034 -0.554574386198
911100000 0.538480923517 -0.556627597553
911113000 0.540199430305 -0.554756893288
911126000 0.539951344786 -0.553124824247
911139000 0.540502350956 -0.553962564191
911152000 0.539988685343 -0.554558103652
911165000 0.542531903973 -0.555350824994
911178000 0.542692188811 -0.560226741144
911191000 0.541493200719 -0.555870289486
911204000 0.541898651585 -0.556653760493
911217000 0.542248485421 -0.555943829682
911230000 0.542873218097 -0.551269774674
911243000 0.544370623876 -0.550897623993
911256000 0.543578492212 -0.553509879888
911269000 0.541825168908 -0.555970978346
911282000 0.539703581596 -0.553339286864
911295000 0.538039066816 -0.552629445959
911308000 0.543217086416 -0.555433569457
911321000 0.545859203067 -0.552829348772
911334000 0.542328592088 -0.556274412556
911347000 0.542017812324 -0.55313746549
911360000 0.540065172616 -0.551393152281
911373000 0.541739847082 -0.552711131882
911386000 0.540143216398 -0.553885784199
911399000 0.539154227153 -0.553838321524
911412000 0.539540840496 -0.553933534176
911425000 0.539802673296 -0.55151013128
911438000 0.540173361359 -0.554782424882
911451000 0.539828255325 -0.554713239162
911464000 0.540211772303 -0.558277882353
911477000 0.541797010326 -0.553183314132
911490000 0.540202917112 -0.55248139207
911503000 0.542529780985 -0.547038306622
911516000 0.541858334222 -0.547287462191
911529000 0.543713474037 -0.548030614657
911542000 0.541025738101 -0.552547730865
911555000 0.538889162025 -0.554788777787
911568000 0.536758236771 -0.555871849801
911581000 0.538912854946 -0.554426268893
911594000 0.536863854062 -0.550972855588
911607000 0.537199707631 -0.551559431179
911620000 0.538730484173 -0.554149159744
911633000 0.540301920296 -0.555524326029
911646000 0.536595693279 -0.554242263016
911659000 0.539518687901 -0.553982780089
911672000 0.541438192067 -0.552117732147
911685000 0.541579419001 -0.553606054242
911698000 0.541366961813 -0.552778597547
911711000 0.538467129891 -0.554118670693
911724000 0.533481940881 -0.558615002696
911737000 0.538142340362 -0.553349517958
911750000 0.538518118487 -0.550568645466
911763000 0.541947822581 -0.551560729617
911776000 0.540796801947 -0.553982552905
911789000 0.541935551475 -0.555841755456
911802000 0.541721771576 -0.555682909676
911815000 0.538879990467 -0.55158239042
911828000 0.542709523375 -0.550574199034
911841000 0.543806460458 -0.551057395835
911854000 0.538957424197 -0.549296165818
911867000 0.536159789629 -0.54898326523
911880000 0.53811774954 -0.549127039982
911893000 0.535515197003 -0.551874603152
911906000 0.536315227634 -0.554515561801
911919000 0.536334995532 -0.555608765945
911932000 0.535050166608 -0.555484288706
911945000 0.537306243563 -0.55234684058
911958000 0.539750050466 -0.552471103212
911971000 0.542451736897 -0.551036640947
911984000 0.54399741379 -0.549893857146
911997000 0.544090219663 -0.553203978896
912010000 0.543867583166 -0.550718515476
912023000 0.54402295078 -0.549553960737
912036000 0.541501481167 -0.549675548826
912049000 0.540265363873 -0.551508791381
912062000 0.541684458596 -0.551907653704
912075000 0.542677391384 -0.552668133824
912088000 0.540942723652 -0.55445647088
912101000 0.537929851933 -0.557747414496
912114000 0.5406063515 -0.552404162731
912127000 0.541717395178 -0.548846458419
912140000 0.538752030673 -0.552282102327
912153000 0.540857783638 -0.552124174436
912166000 0.54144430079 -0.553109015522
912179000 0.537401857753 -0.555916699971
912192000 0.537208084569 -0.554747812093
912205000 0.537336539157 -0.554208461535
912218000 0.540949064879 -0.55791018026
912231000 0.538384120474 -0.55739709287
912244000 0.535071975699 -0.559367341269
912257000 0.537867691341 -0.559561075682
912270000 0.539456262137 -0.55642266777
912283000 0.540079750926 -0.5538512325
912296000 0.544118964944 -0.553301795921
912309000 0.542766629915 -0.556299103551
912322000 0.54589120231 -0.553117898758
912335000 0.543759509907 -0.551193174698
912348000 0.539768155161 -0.554725660617
912361000 0.541827076144 -0.552492352857
912374000 0.534024153082 -0.547789686917
912387000 0.530052176794 -0.545852093041
912400000 0.536679847502 -0.550557640889
912413000 0.544348492546 -0.554413641697
912426000 0.539228866939 -0.554623412303
912439000 0.536452266912 -0.554577272668
912452000 0.535960440725 -0.551489151007
912465000 0.542239749564 -0.54987188061
912478000 0.54326399091 -0.552137010428
912491000 0.540428045081 -0.548999791269
912504000 0.539911004011 -0.550864652401
912517000 0.534303227853 -0.553245986033
912530000 0.535268935999 -0.557174345394
912543000 0.538067449303 -0.553248792005
912556000 0.541376776261 -0.552782239847
912569000 0.541510579142 -0.551791784783
912582000 0.544633472629 -0.55270795336
912595000 0.542868493451 -0.556074845776
912608000 0.540814658037 -0.554968297688
912621000 0.538899484042 -0.552705631436
912634000 0.541977419836 -0.554001888574
912647000 0.539811351807 -0.552221814123
912660000 0.541369098523 -0.553853943799
912673000 0.53959874705 -0.551806046933
912686000 0.538026730551 -0.555165128039
912699000 0.538295998447 -0.552580345383
912712000 0.53715296717 -0.55237846738
912725000 0.538458763003 -0.552978608
912738000 0.539754915122 -0.555162848719
912751000 0.53801787106 -0.552518039261
912764000 0.54044405432 -0.553082405989
912777000 0.539824078333 -0.55044615362
912790000 0.537473229884 -0.554905603121
912803000 0.538692621289 -0.551801131746
912816000 0.542731889537 -0.554798002415
912829000 0.540752361367 -0.556666763061
912842000 0.537974680382 -0.554832718852
912855000 0.541383565757 -0.553626375926
912868000 0.538341065785 -0.553310490658
912881000 0.538284789081 -0.554862401982
912894000 0.539565393769 -0.555871806495
912907000 0.539437242231 -0.555761305657
912920000 0.539138008051 -0.555171239683
912933000 0.539732392776 -0.555938413844
912946000 0.5395298177 -0.555666952058
912959000 0.536694492898 -0.557142490257
912972000 0.537201545507 -0.555843054009
912985000 0.538752956027 -0.55396569835
912998000 0.540779565649 -0.552580685311
913011000 0.543462140982 -0.552983212863
913024000 0.548473258538 -0.553804138153
913037000 0.543797355782 -0.549912886172
913050000 0.539990875787 -0.551418616566
913063000 0.5404357955 -0.556600519261
913076000 0.538087996311 -0.557097092419
913089000 0.537993353241 -0.553930243211
913102000 0.53751308929 -0.55375265785
913115000 0.538306270914 -0.551010905092
913128000 0.536793892659 -0.552994457808
913141000 0.539462276885 -0.553039639189
913154000 0.541557157506 -0.55043813747
913167000 0.53970450957 -0.55058979743
913180000 0.541438806668 -0.553331654853
913193000 0.54256532185 -0.554727831265
913206000 0.539084524406 -0.555308505706
913219000 0.537531034937 -0.551759953189
913232000 0.537382392273 -0.553859531902
913245000 0.53426983877 -0.552748535466
913258000 0.534813540203 -0.553042038106
913271000 0.539947718294 -0.552643414637
913284000 0.540722032741 -0.552517061877
913297000 0.540547325247 -0.553612731797
913310000 0.540777683896 -0.55488858987
913323000 0.538763058742 -0.555466439506
913336000 0.536441412926 -0.556388097708
913349000 0.537994749574 -0.55572766795
913362000 0.537309850481 -0.557328243065
913375000 0.541447814566 -0.556702128703
913388000 0.541112150088 -0.55338718921
913401000 0.542494967809 -0.553854993251
913414000 0.543945171125 -0.557650984594
913427000 0.544959508646 -0.552384119879
913440000 0.538919732481 -0.552765545359
913453000 0.541804877345 -0.554551549584
913466000 0.54303893248 -0.553639457414
913479000 0.542209125057 -0.55179424068
913492000 0.540586439377 -0.554856318949
913505000 0.543865585414 -0.555672795176
913518000 0.543888958804 -0.55375258173
913531000 0.54329994438 -0.553816596962
913544000 0.53956115008 -0.553908628153
913557000 0.538153800315 -0.554198791773
913570000 0.540197311197 -0.557186624493
913583000 0.540830101018 -0.55392851123
913596000 0.539896834375 -0.553434338632
913609000 0.539681347864 -0.55471888322
913622000 0.540649193339 -0.554744334652
913635000 0.542439057903 -0.552507607719
913648000 0.541927481312 -0.554541055863
913661000 0.540504066997 -0.553348376562
913674000 0.541231748021 -0.547634299817
913687000 0.539821233241 -0.549931869749
913700000 0.544053779732 -0.55355995225
913713000 0.540497375284 -0.556620536288
913726000 0.542367566334 -0.555880003584
913739000 0.538354174516 -0.559125289949
913752000 0.539856803781 -0.553620985963
913765000 0.540957581161 -0.55378383499
913778000 0.544920338915 -0.555411906252
913791000 0.544487692122 -0.557460069803
913804000 0.544995428126 -0.55283630101
913817000 0.540396562968 -0.551015844833
913830000 0.540857733506 -0.548632444104
913843000 0.53905125428 -0.55072144267
913856000 0.539950542155 -0.554687803272
913869000 0.541234887172 -0.555630363063
913882000 0.543480630753 -0.558578923237
913895000 0.541171616709 -0.556765494499
913908000 0.53853086673 -0.55377946225
913921000 0.542546420207 -0.553054766371
913934000 0.544459151415 -0.552406728834
913947000 0.543754181869 -0.553236945894
913960000 0.541577722007 -0.550475585083
913973000 0.539393782008 -0.551666613301
913986000 0.540022128831 -0.555019790541
913999000 0.53849960989 -0.555728707592
914012000 0.534651474273 -0.556003007511
914025000 0.535278317388 -0.553586202143
914038000 0.536040768676 -0.552009032423
914051000 0.537059567112 -0.555396806528
914064000 0.537805600393 -0.553877955143
914077000 0.540165709565 -0.553362948132
914090000 0.541416054666 -0.556283066223
914103000 0.543465762777 -0.558244751763
914116000 0.541714316085 -0.555836215711
914129000 0.540403325884 -0.550077762058
914142000 0.536911147966 -0.549637798632
914155000 0.540465572304 -0.552407783733
914168000 0.537864819107 -0.553000037079
914181000 0.540276062106 -0.552798468038
914194000 0.543284282788 -0.550453240767
914207000 0.538734149805 -0.551321761955
914220000 0.542586114619 -0.551139489067
914233000 0.539886687342 -0.550476839031
914246000 0.539494636432 -0.551450281623
914259000 0.54055207381 -0.550596214097
914272000 0.540928647695 -0.553551815248
914285000 0.540363999649 -0.55455984606
914298000 0.539681539877 -0.549733180689
914311000 0.539743470023 -0.551804009304
914324000 0.535148033927 -0.548839273688
914337000 0.533885747818 -0.550441545741
914350000 0.538273121085 -0.55034329021
914363000 0.541037108019 -0.555953037231
914376000 0.541847868371 -0.554951219443
914389000 0.539506792847 -0.551716241377
914402000 0.537834258402 -0.553021534275
914415000 0.541529835717 -0.552716644751
914428000 0.53819910036 -0.551596666906
914441000 0.538810467928 -0.550272775729
914454000 0.540564531392 -0.551275932064
914467000 0.538839628122 -0.552255554826
914480000 0.536100179779 -0.554208770043
914493000 0.540216512109 -0.555843826934
914506000 0.542318472169 -0.554621910899
914519000 0.541426821738 -0.552600022025
914532000 0.545055238906 -0.554713103698
914545000 0.544194989618 -0.554298177835
914558000 0.540128250488 -0.551195643491
914571000 0.54217264061 -0.550841503801
914584000 0.539178655513 -0.55364282559
914597000 0.538208399611 -0.556555442966
914610000 0.537963056174 -0.55513328283
914623000 0.535046191719 -0.553600345653
914636000 0.537385838564 -0.55252015643
914649000 0.537289354826 -0.552022740945
914662000 0.534744806781 -0.553427710923
914675000 0.537079441204 -0.551907203993
914688000 0.535775761835 -0.553367197908
914701000 0.536423272441 -0.552750211395
914714000 0.538303634959 -0.552170966701
914727000 0.537081396314 -0.552979945819
914740000 0.538250562413 -0.553615169764
914753000 0.542865458493 -0.551600731639
914766000 0.54179288786 -0.553029575971
914779000 0.537835307774 -0.549077563596
914792000 0.539600600075 -0.550989497655
914805000 0.539658449463 -0.552897837303
914818000 0.541240268852 -0.552059050682
914831000 0.542668105875 -0.55304406649
914844000 0.540315950755 -0.552945405747
914857000 0.542066402393 -0.552286370078
914870000 0.539872170755 -0.553358385306
914883000 0.540439276235 -0.550967673178
914896000 0.541105770512 -0.55096076546
914909000 0.541461249055 -0.551793890932
914922000 0.540236193002 -0.552408712723
914935000 0.537014921673 -0.549313605213
914948000 0.53565959595 -0.551658168254
914961000 0.539296630587 -0.550020694271
914974000 0.542545048359 -0.549869309037
914987000 0.540027902699 -0.550083616272
915000000 0.535432355282 -0.553621920519
915013000 0.537249841253 -0.55394571288
915026000 0.542022037882 -0.556891923605
915039000 0.558732691727 -0.556422357369
915052000 0.538938174591 -0.551058227885
915065000 0.536401802647 -0.552767675672
915078000 0.536248116828 -0.556091126742
915091000 0.537043965471 -0.554931597534
915104000 0.538210065985 -0.55173903855
915117000 0.538550502731 -0.549142388499
915130000 0.536555460821 -0.546881612125
915143000 0.539433638206 -0.550047609331
915156000 0.538666852225 -0.552274863892
915169000 0.537962104784 -0.554862525293
915182000 0.541968816609 -0.553411683913
915195000 0.543263239404 -0.552689881429
915208000 0.541112479505 -0.552310730708
915221000 0.541421348494 -0.553214534222
915234000 0.538307043938 -0.554300939352
915247000 0.54011741738 -0.556493718471
915260000 0.537562683347 -0.552723107336
915273000 0.539348780388 -0.552864338409
915286000 0.540227571837 -0.553257613283
915299000 0.541445033312 -0.552630819961
915312000 0.541778931025 -0.552027531411
915325000 0.542546552594 -0.550152849556
915338000 0.545134204973 -0.548922617463
915351000 0.544231020731 -0.550504176075
915364000 0.541077023498 -0.552752446692
915377000 0.539848274689 -0.555023297854
915390000 0.538563993651 -0.554907787826
915403000 0.538479119332 -0.55206322543
915416000 0.53832143775 -0.556500895345
915429000 0.54049175322 -0.550966774935
915442000 0.538816334681 -0.552683090573
915455000 0.538798005119 -0.556105648788
915468000 0.53786910135 -0.55502579724
915481000 0.537509401109 -0.552643499947
915494000 0.539887587915 -0.551827893776
915507000 0.539865603659 -0.55054184662
915520000 0.54276503898 -0.550642825137
915533000 0.541635466231 -0.556417551642
915546000 0.542029918166 -0.554741156471
915559000 0.539057138709 -0.552490028843
915572000 0.535570668063 -0.552098164874
915585000 0.536486616659 -0.555246184135
915598000 0.540966042115 -0.55190323161
915611000 0.537961932434 -0.552088922948
915624000 0.539018480631 -0.55474815346
915637000 0.539562919931 -0.555233988265
915650000 0.538186472019 -0.555441311605
915663000 0.534907077192 -0.553283692307
915676000 0.537538574767 -0.551923519673
915689000 0.539095410077 -0.549023826162
915702000 0.541681870459 -0.550747496717
915715000 0.539799005656 -0.554737008231
915728000 0.539829752227 -0.551294323125
915741000 0.539357645173 -0.552154405234
915754000 0.539679379876 -0.551114222672
915767000 0.538031834853 -0.551169212003
915780000 0.541019332142 -0.550260472499
915793000 0.539753936338 -0.552267228694
915806000 0.536739133576 -0.554689053115
915819000 0.538067852661 -0.554001463741
915832000 0.53775997288 -0.552987671833
915845000 0.537035836537 -0.552915554764
915858000 0.538440282392 -0.554103517865
915871000 0.540033129053 -0.551393493364
915884000 0.538567155021 -0.549993174867
915897000 0.539350831245 -0.550751730141
915910000 0.54068662195 -0.54967430623
915923000 0.542360425063 -0.552210361608
915936000 0.539157489435 -0.553871047196
915949000 0.539125914952 -0.553508609567
915962000 0.538544540806 -0.553557191476
915975000 0.537304131982 -0.557118620149
915988000 0.536927362218 -0.554239087928
916001000 0.537246702012 -0.55149354066
916014000 0.536587302389 -0.551215161114
916027000 0.539661124008 -0.552054953072
916040000 0.538920321497 -0.554169720806
916053000 0.542957241897 -0.553778816447
916066000 0.542232572875 -0.552325054645
916079000 0.541603908439 -0.553879023822
916092000 0.541909951977 -0.551491819875
916105000 0.539992932628 -0.55176509981
916118000 0.536067371126 -0.550436188616
916131000 0.537046662894 -0.547640753159
916144000 0.536653261803 -0.549181808329
916157000 0.537510141177 -0.550781247133
916170000 0.540416813343 -0.553072260454
916183000 0.541585225755 -0.551904847326
916196000 0.537758931986 -0.552664205953
916209000 0.537249123794 -0.555295260565
916222000 0.538397536937 -0.553143418505
916235000 0.541105822967 -0.551896212076
916248000 0.540137177186 -0.548877969336
916261000 0.538149379247 -0.550635167752
916274000 0.539072955978 -0.554341025301
916287000 0.538622844173 -0.553357164139
916300000 0.537892297825 -0.556007365852
916313000 0.538801763658 -0.558134577678
916326000 0.540525275972 -0.555844393958
916339000 0.541599062833 -0.55436797811
916352000 0.539224232355 -0.548781954762
916365000 0.539312235254 -0.550964202763
916378000 0.537846693572 -0.550014371996
916391000 0.541031645169 -0.550634300258
916404000 0.545350019419 -0.550569189445
916417000 0.54216968055 -0.550822731026
916430000 0.537501843378 -0.553238639922
916443000 0.539305600128 -0.552579572059
916456000 0.539429410172 -0.553624645643
916469000 0.543729422912 -0.552410588206
916482000 0.534099753775 -0.51108964683
916495000 0.540445410063 -0.551396729296
916508000 0.542701194937 -0.551497504881
916521000 0.542050460738 -0.553294261866
916534000 0.538975950476 -0.552894745727
916547000 0.540488881244 -0.552691545807
916560000 0.539787343511 -0.554713243645
916573000 0.537701264231 -0.554616766445
916586000 0.536989977817 -0.553461901007
916599000 0.53640346536 -0.552191349647
916612000 0.536861043718 -0.550030832769
916625000 0.538091908736 -0.551801989295
916638000 0.539431814753 -0.555327809825
916651000 0.53737674598 -0.553933539917
916664000 0.536233990196 -0.551256655998
916677000 0.538895591923 -0.549422534563
916690000 0.538571276927 -0.553353787152
916703000 0.54111465277 -0.556538957932
916716000 0.538679500271 -0.552729275805
916729000 0.539070821131 -0.552023991173
916742000 0.539990174839 -0.553558844859
916755000 0.53841944081 -0.555585385197
916768000 0.53878423524 -0.553683762171
916781000 0.536269592974 -0.553214321465
916794000 0.534716101563 -0.550512123022
916807000 0.53463498256 -0.548729534072
916820000 0.533972322763 -0.550581582412
916833000 0.539282901146 -0.551989401907
916846000 0.542333816359 -0.552799146995
916859000 0.538329765902 -0.551676311122
916872000 0.536317631779 -0.551264398354
916885000 0.537145670514 -0.551460778286
916898000 0.539350407002 -0.550786268827
916911000 0.53927670621 -0.55511051633
916924000 0.535689175909 -0.553671426812
916937000 0.538210288466 -0.551184635664
916950000 0.538862616645 -0.550125870127
916963000 0.543763481387 -0.548631449422
916976000 0.54168677721 -0.550625648669
916989000 0.5422067297 -0.552380226018
917002000 0.540615153553 -0.550889066468
917015000 0.542721436834 -0.551530497889
917028000 0.541019028618 -0.553118298096
917041000 0.538876571993 -0.550960732017
917054000 0.540827767754 -0.551363115796
917067000 0.536828832685 -0.551366105419
917080000 0.536541083435 -0.548806852623
917093000 0.536089987175 -0.549064076663
917106000 0.536357383484 -0.550962284229
917119000 0.538283441854 -0.552992422756
917132000 0.538600625569 -0.554976726681
917145000 0.538249198025 -0.551926883445
917158000 0.538461991769 -0.552755255925
917171000 0.537533907196 -0.550661876134
917184000 0.536680563306 -0.549268928222
917197000 0.53847306354 -0.549641387425
917210000 0.54201313813 -0.553779382481
917223000 0.543024990888 -0.552616743521
917236000 0.540375213744 -0.552648337434
917249000 0.539739162723 -0.55349404813
917262000 0.540546645637 -0.552341498115
917275000 0.538703253782 -0.552113679582
917288000 0.538798665315 -0.548046997496
917301000 0.539626646885 -0.54507492137
917314000 0.536253844229 -0.549372041144
917327000 0.536224972525 -0.552469318237
917340000 0.53792931291 -0.552978797805
917353000 0.538074954327 -0.553619278204
917366000 0.541308126616 -0.555164348601
917379000 0.538359551365 -0.552945836094
917392000 0.538327233185 -0.554153043752
917405000 0.537699617583 -0.549261438967
917418000 0.536094477638 -0.548205583632
917431000 0.537643742127 -0.552949475495
917444000 0.537852407511 -0.552890404244
917457000 0.536974504898 -0.550846291341
917470000 0.534631198873 -0.551328613784
917483000 0.534672297769 -0.551213838358
917496000 0.537261248697 -0.55192967669
917509000 0.535977972739 -0.552313403215
917522000 0.536954389523 -0.553772076446
917535000 0.536086017824 -0.551413110997
917548000 0.537186284842 -0.554481341092
917561000 0.540327979376 -0.555861757101
917574000 0.538680272004 -0.556113856178
917587000 0.539066847634 -0.550489616221
917600000 0.538147665136 -0.551907758854
917613000 0.538840640968 -0.548879615932
917626000 0.539133995719 -0.547083755797
917639000 0.539792689678 -0.549707092296
917652000 0.540814902872 -0.548954282013
917665000 0.539982321605 -0.546759775534
917678000 0.540763583075 -0.546956284606
917691000 0.538183818493 -0.551259641405
917704000 0.53850015806 -0.552766559655
917717000 0.538855123187 -0.550919737714
917730000 0.543108207718 -0.553246712478
917743000 0.542528964392 -0.555227676205
917756000 0.539592819544 -0.55517502513
917769000 0.538691739198 -0.551450661314
917782000 0.539011990683 -0.552106074038
917795000 0.539944529166 -0.548193967766
917808000 0.538735962178 -0.547194018506
917821000 0.537107958955 -0.546299927676
917834000 0.537409204128 -0.551144845311
917847000 0.539079743652 -0.553185424919
917860000 0.541417950656 -0.554787010217
917873000 0.541159350807 -0.553551694849
917886000 0.543112834735 -0.554145071207
917899000 0.54444418576 -0.556127910665
917912000 0.540151186318 -0.554549626345
917925000 0.540982140513 -0.552667611941
917938000 0.541362324923 -0.552871758853
917951000 0.540647694505 -0.549546091834
917964000 0.541606421972 -0.550585292886
917977000 0.539888959079 -0.552389899773
917990000 0.538388305561 -0.55402787876
918003000 0.541779499293 -0.553138407388
918016000 0.539582027262 -0.551690262862
918029000 0.539448945526 -0.550647570694
918042000 0.539347378857 -0.549897591757
918055000 0.540689523208 -0.550585122355
918068000 0.541978975112 -0.551319263114
918081000 0.541601495575 -0.551726216469
918094000 0.539284320017 -0.554690113103
918107000 0.534935553738 -0.554110599577
918120000 0.535253743478 -0.555437003202
918133000 0.538318820042 -0.549530703805
918146000 0.539481071392 -0.553777455451
918159000 0.5381916781 -0.554469695824
918172000 0.537600124731 -0.552189962138
918185000 0.540330185363 -0.554768211067
918198000 0.542187963157 -0.556022380213
918211000 0.53958419189 -0.549736843489
918224000 0.537891428253 -0.546635695735
918237000 0.538369218389 -0.549262147729
918250000 0.537972147942 -0.551350983105
918263000 0.538014863698 -0.554104241293
918276000 0.536900778027 -0.54944140674
918289000 0.537988263834 -0.553160014246
918302000 0.536874274785 -0.555459871503
918315000 0.536431649372 -0.556448357943
918328000 0.537304669025 -0.555584407608
918341000 0.539089819531 -0.552865531582
918354000 0.543361094803 -0.553665915928
918367000 0.54302578622 -0.549836464299
918380000 0.538434789785 -0.55258168708
918393000 0.536818306002 -0.552579225806
918406000 0.53640090605 -0.552323785002
918419000 0.538056987472 -0.553251297674
918432000 0.535444099886 -0.553792664565
918445000 0.535538051699 -0.551921785585
918458000 0.53677459092 -0.554230947554
918471000 0.539967004197 -0.553581216782
918484000 0.539594574567 -0.555529976443
918497000 0.540499568381 -0.552198828658
918510000 0.541836538154 -0.553279021866
918523000 0.538555112109 -0.55282169501
918536000 0.536404282071 -0.550801257924
918549000 0.537228328741 -0.549751321489
918562000 0.539560116505 -0.551844594206
918575000 0.540203998436 -0.549793464037
918588000 0.5433843889 -0.554800720266
918601000 0.543349494154 -0.555729052879
918614000 0.540450509653 -0.555342655765
918627000 0.536032218804 -0.552417461865
918640000 0.538262416288 -0.553355805773
918653000 0.538837758245 -0.554591591888
918666000 0.536165743997 -0.555405871497
918679000 0.539745327253 -0.555751349758
918692000 0.537569173404 -0.553613703127
918705000 0.53658587163 -0.551601941257
918718000 0.538353273358 -0.55049543061
918731000 0.541201317389 -0.548511316198
918744000 0.543670350589 -0.551985458703
918757000 0.5408911387 -0.552182027645
918770000 0.538596571177 -0.55204435599
918783000 0.541822909817 -0.552508986537
918796000 0.540010169223 -0.546423989315
918809000 0.537438780967 -0.549478338062
918822000 0.533931722839 -0.552810728042
918835000 0.533291258205 -0.553128679145
918848000 0.536455528215 -0.552064897723
918861000 0.53552121643 -0.549391251434
918874000 0.537302941111 -0.547788344512
918887000 0.537282311016 -0.548909136871
918900000 0.538407294124 -0.54695011595
918913000 0.537031642802 -0.548685530268
918926000 0.53870250854 -0.552624332803
918939000 0.537877115859 -0.551964181993
918952000 0.539764325024 -0.553342466613
918965000 0.542493417885 -0.557538305446
918978000 0.542901942269 -0.553800865136
918991000 0.542935776402 -0.551534851455
919004000 0.544356187799 -0.55133508775
919017000 0.54135854713 -0.553323729557
919030000 0.538827462115 -0.553794042268
919043000 0.539031317687 -0.553408598336
919056000 0.534878316152 -0.549821745196
919069000 0.52914897312 -0.556957054877
919082000 0.525541272045 -0.563546119768
919095000 0.528306865278 -0.56074854536
919108000 0.53478270065 -0.556243399624
919121000 0.538386683387 -0.551541734731
919134000 0.53792597743 -0.549717629739
919147000 0.539820592756 -0.547800886042
919160000 0.540595040703 -0.552224094059
919173000 0.540986273954 -0.552214324286
919186000 0.539577088563 -0.55240927482
919199000 0.533997069613 -0.555334814193
919212000 0.537621352837 -0.55238350516
919225000 0.540138670537 -0.548433497159
919238000 0.538630463361 -0.54705037945
919251000 0.540375563629 -0.549138519077
919264000 0.541705956677 -0.549192918195
919277000 0.538042058702 -0.545868495243
919290000 0.546345048353 -0.550769322287
919303000 0.53869620053 -0.552430237531
919316000 0.537722468088 -0.553392738104
919329000 0.539520415115 -0.55243365193
919342000 0.539445863808 -0.549719399015
919355000 0.537858193847 -0.550278828441
919368000 0.538142411778 -0.549503504532
919381000 0.534924282631 -0.549683811169
919394000 0.537350017998 -0.551937488329
919407000 0.537019904715 -0.553361185772
919420000 0.533490640457 -0.556416854188
919433000 0.533812749238 -0.556378423688
919446000 0.534008836193 -0.554073574891
919459000 0.534057185944 -0.555275970364
919472000 0.537131374558 -0.551097478009
919485000 0.5439566559 -0.551369345276
919498000 0.540112914882 -0.552310330337
919511000 0.542024198195 -0.551795735394
919524000 0.538978614308 -0.549289183096
919537000 0.540026578919 -0.551729618574
919550000 0.541220220232 -0.55173690316
919563000 0.539754594261 -0.551012462432
919576000 0.540399646703 -0.55252165988
919589000 0.538065232379 -0.552170996961
919602000 0.537683069362 -0.549714576817
919615000 0.539039079396 -0.551532833405
919628000 0.541594171899 -0.551242691434
919641000 0.540989633225 -0.550273266615
919654000 0.538170339664 -0.552095189536
919667000 0.540378974291 -0.549915981055
919680000 0.541895690564 -0.551655038947
919693000 0.540301376031 -0.551266996947
919706000 0.542132660576 -0.552020496177
919719000 0.541415606491 -0.553922087168
919732000 0.542473920638 -0.552663567998
919745000 0.536958106379 -0.556006457537
919758000 0.540142510605 -0.550623020635
919771000 0.54108917695 -0.547470177982
919784000 0.538758037977 -0.547859043987
919797000 0.54064930269 -0.549241188086
919810000 0.539718846284 -0.551723748461
919823000 0.542090772381 -0.553314312355
919836000 0.540446568177 -0.553819523316
919849000 0.542165242464 -0.550811066423
919862000 0.538983887043 -0.54976431659
919875000 0.53645075711 -0.553076160195
919888000 0.532175813979 -0.554623812334
919901000 0.535909910735 -0.552598422377
919914000 0.540806257381 -0.554619507829
919927000 0.542753104395 -0.551061489907
919940000 0.538626674887 -0.551579472137
919953000 0.539866831203 -0.548959553583
919966000 0.539146848801 -0.550229000648
919979000 0.539498454055 -0.551455334282
919992000 0.539247131359 -0.550968740445
920005000 0.538707336649 -0.549722675433
920018000 0.538344685301 -0.550657889976
920031000 0.539976841983 -0.552985949107
920044000 0.535014975529 -0.550667978408
920057000 0.536187276087 -0.550146042637
920070000 0.536535333313 -0.549450379545
920083000 0.539842102444 -0.548886410695
920096000 0.537616756743 -0.550469455119
920109000 0.533663320579 -0.555318203381
920122000 0.531342968607 -0.554880133603
920135000 0.538497702864 -0.54889189104
920148000 0.54148899651 -0.5492049435
920161000 0.538765919608 -0.549864567164
920174000 0.542990171561 -0.551205027897
920187000 0.54151480645 -0.552078720735
920200000 0.534828187956 -0.552536820214
920213000 0.537064084973 -0.552774406594
920226000 0.538114026818 -0.553317959196
920239000 0.537767301169 -0.549212252836
920252000 0.537621108919 -0.55199638748
920265000 0.535296546831 -0.54961955856
920278000 0.536188582077 -0.553448922458
920291000 0.538937275809 -0.556714415354
920304000 0.538159304627 -0.552355092721
920317000 0.538622297354 -0.55371577156
920330000 0.539748933534 -0.550639556234
920343000 0.537316119704 -0.548367243216
920356000 0.535607247539 -0.552197121529
920369000 0.538008385547 -0.555382064927
920382000 0.53913322 -0.552367843395
920395000 0.539555606815 -0.55395566323
920408000 0.54389450099 -0.553013198933
920421000 0.541422261794 -0.552552280767
920434000 0.542747765331 -0.552200816835
920447000 0.538610472731 -0.552368336641
920460000 0.537567119992 -0.555479756579
920473000 0.536964151639 -0.554186043698
920486000 0.536182268332 -0.552556689923
920499000 0.538785317608 -0.552269304934
920512000 0.536343244247 -0.553700245558
920525000 0.535785905548 -0.553898357697
920538000 0.534964635855 -0.555251809113
920551000 0.534422916634 -0.557740056168
920564000 0.537935922859 -0.552618249225
920577000 0.539254912893 -0.546561875774
920590000 0.541531253572 -0.548980412398
920603000 0.540181848653 -0.551997661909
920616000 0.541196839813 -0.552705926852
920629000 0.539807826312 -0.555173158114
920642000 0.536479617457 -0.553445757119
920655000 0.536560872831 -0.552088347633
920668000 0.537977330092 -0.549183877045
920681000 0.538776513224 -0.550550270247
920694000 0.541109413646 -0.549600651984
920707000 0.54205449178 -0.550305233734
920720000 0.543603386724 -0.550459181893
920733000 0.542246793241 -0.549768901992
920746000 0.538949665231 -0.550445410507
920759000 0.538533656058 -0.550600935361
920772000 0.540041488626 -0.551494324222
920785000 0.534804951674 -0.55115382113
920798000 0.533568116751 -0.552556563018
920811000 0.53180800287 -0.549869023249
920824000 0.531441338164 -0.556684002352
920837000 0.53872296718 -0.551340689691
920850000 0.5392144392 -0.552098439165
920863000 0.537466279291 -0.555688730149
920876000 0.536476206814 -0.555465385199
920889000 0.53388946834 -0.553337830171
920902000 0.537583954418 -0.552240023734
920915000 0.534585301361 -0.550613505611
920928000 0.537774208897 -0.553502147392
920941000 0.538203822713 -0.553637318854
920954000 0.536399373014 -0.551134412152
920967000 0.534065105407 -0.55106544612
920980000 0.537831898697 -0.550892356663
920993000 0.534871183072 -0.549275496988
921006000 0.540923584967 -0.549760177858
921019000 0.53828598866 -0.549210618049
921032000 0.540077701878 -0.550046291462
921045000 0.53948503036 -0.550602744603
921058000 0.543392757625 -0.554207434095
921071000 0.542344565144 -0.55341903795
921084000 0.538457674567 -0.55004180865
921097000 0.539458789698 -0.553405475057
921110000 0.538155291577 -0.551630967732
921123000 0.537323816177 -0.552428339997
921136000 0.538520721454 -0.552184961348
921149000 0.539076415669 -0.551664545372
921162000 0.539504571631 -0.551251451704
921175000 0.54356627973 -0.557224487247
921188000 0.541072161384 -0.554070190259
921201000 0.538402625598 -0.55645913832
921214000 0.5385600116 -0.554860997477
921227000 0.536359063701 -0.553388746459
921240000 0.540427532177 -0.552195698476
921253000 0.535793271858 -0.553729666571
921266000 0.539376688483 -0.555947840075
921279000 0.535754562223 -0.553680836326
921292000 0.539461762865 -0.548787774033
921305000 0.538771683747 -0.548158514931
921318000 0.536907582039 -0.54774536117
921331000 0.535658730517 -0.549560410016
921344000 0.537453990897 -0.549510726736
921357000 0.5345490865 -0.553144051761
921370000 0.537704592758 -0.550129096465
921383000 0.537535125754 -0.547343789027
921396000 0.536765223021 -0.549213529722
921409000 0.533587062534 -0.547112450058
921422000 0.534455213054 -0.553781673703
921435000 0.537166845226 -0.556286298255
921448000 0.538039683711 -0.557184422061
921461000 0.536081257161 -0.551052761446
921474000 0.536729821474 -0.548881109528
921487000 0.53677676298 -0.550546828801
921500000 0.533887673921 -0.553203064028
921513000 0.534885222026 -0.550185471777
921526000 0.538960531853 -0.553094918021
921539000 0.537828439916 -0.556689991228
921552000 0.54159793958 -0.555517453467
921565000 0.540283736791 -0.553868918077
921578000 0.537654651103 -0.551997528692
921591000 0.540195563615 -0.548693058762
921604000 0.538993277474 -0.549621330069
921617000 0.536208106672 -0.551234011778
921630000 0.535614871335 -0.551846110572
921643000 0.540829343229 -0.554211717276
921656000 0.541352270687 -0.552211988867
921669000 0.535307131211 -0.554745624447
921682000 0.536397210487 -0.553743749489
921695000 0.535703890617 -0.55567291449
921708000 0.535851642647 -0.556846933983
921721000 0.538287030149 -0.557070590422
921734000 0.538168875956 -0.552603775494
921747000 0.536572644296 -0.553382887138
921760000 0.533789671924 -0.549088389872
921773000 0.537183934916 -0.55145696757
921786000 0.538778735956 -0.551158006452
921799000 0.537846437352 -0.553251132154
921812000 0.536005263145 -0.551001953947
921825000 0.537212533098 -0.552781214631
921838000 0.538568891107 -0.551203183327
921851000 0.536851776377 -0.552113799527
921864000 0.536867951505 -0.553060906703
921877000 0.536587270044 -0.552708415426
921890000 0.539533889165 -0.55052517685
921903000 0.539091410579 -0.549407886684
921916000 0.541821673519 -0.548143745266
921929000 0.54079725585 -0.551863503326
921942000 0.539816520995 -0.553517976686
921955000 0.536498324225 -0.55532921922
921968000 0.535895872526 -0.552055310787
921981000 0.539944342418 -0.551496851093
921994000 0.541240676961 -0.551938884691
922007000 0.540552603141 -0.550540116182
922020000 0.53979759868 -0.551065261323
922033000 0.539281296023 -0.551254092603
922046000 0.537352744231 -0.550061784035
922059000 0.544584642491 -0.553296719355
922072000 0.543471823569 -0.557993399133
922085000 0.544788037449 -0.557668973492
922098000 0.536645272337 -0.551718625498
922111000 0.536863366875 -0.55315585939
922124000 0.538446096177 -0.556107468992
922137000 0.537922734406 -0.553303702739
922150000 0.538961328061 -0.554885431059
922163000 0.540701237404 -0.555357670387
922176000 0.536023594196 -0.552795123219
922189000 0.533597916821 -0.554309611161
922202000 0.535715228882 -0.553623296576
922215000 0.538252099428 -0.553124967299
922228000 0.540596173902 -0.552014612551
922241000 0.539680073847 -0.551495156629
922254000 0.540410698443 -0.5514549489
922267000 0.540043119744 -0.550529754578
922280000 0.540041560251 -0.552961784898
922293000 0.542381085874 -0.553817279358
922306000 0.542136189152 -0.554050302737
922319000 0.536031082378 -0.554426831693
922332000 0.535484899711 -0.555835773464
922345000 0.538567055031 -0.556132709949
922358000 0.541288139833 -0.558512291357
922371000 0.540473921556 -0.552424677163
922384000 0.538501905015 -0.552489007622
922397000 0.537110421753 -0.551070713962
922410000 0.535746742584 -0.551118417061
922423000 0.536159845441 -0.547971982674
922436000 0.540653759797 -0.547517933371
922449000 0.539848417574 -0.5495518434
922462000 0.540130286948 -0.550295998857
922475000 0.539666806638 -0.554565934831
922488000 0.535140700526 -0.552990962477
922501000 0.534432232828 -0.553014160185
922514000 0.53459531087 -0.552402349722
922527000 0.538759048288 -0.551792238138
922540000 0.539276969293 -0.551552628203
922553000 0.539380685909 -0.55100509473
922566000 0.541182083439 -0.55159323309
922579000 0.53905417815 -0.553274680485
922592000 0.538832653784 -0.551079965697
922605000 0.537713992803 -0.552224557429
922618000 0.541059110338 -0.550519395487
922631000 0.539516165054 -0.55115185024
922644000 0.538708660649 -0.550893372358
922657000 0.537583586664 -0.550768302819
922670000 0.536015589268 -0.551182345225
922683000 0.537070974321 -0.549742752684
922696000 0.536800057586 -0.549664684046
922709000 0.542279218696 -0.549703132048
922722000 0.540419399895 -0.549534291607
922735000 0.536446908803 -0.549464648107
922748000 0.539173427825 -0.551122975035
922761000 0.53697163643 -0.551413705646
922774000 0.535262580201 -0.553387141583
922787000 0.537953303646 -0.550606401266
922800000 0.536989757359 -0.549966357325
922813000 0.535039153597 -0.55069644672
922826000 0.537842347795 -0.551481313674
922839000 0.535059830745 -0.55125823506
922852000 0.534774906529 -0.554498335912
922865000 0.53130341032 -0.553554047792
922878000 0.532856839811 -0.552538959181
922891000 0.537053899278 -0.551957758146
922904000 0.541112949823 -0.551042564762
922917000 0.542144748909 -0.549408766593
922930000 0.536224349642 -0.547690721447
922943000 0.537920561335 -0.547746619961
922956000 0.538633250788 -0.551692710513
922969000 0.538216144333 -0.552422008397
922982000 0.532995079772 -0.573855809295
922995000 0.54025381328 -0.549893150366
923008000 0.538546298238 -0.551644424939
923021000 0.533747483636 -0.55030331556
923034000 0.536512449654 -0.551413144183
923047000 0.537137707413 -0.554450716394
923060000 0.540087775424 -0.556240150121
923073000 0.541626155288 -0.553447279706
923086000 0.53822068315 -0.555406843177
923099000 0.538642186859 -0.554696397205
923112000 0.534741700717 -0.546250115871
923125000 0.537010618543 -0.550330806327
923138000 0.53460687272 -0.550770184314
923151000 0.541091724681 -0.554496877504
923164000 0.538940226965 -0.556965738345
923177000 0.542596470598 -0.558690641635
923190000 0.539942911696 -0.552622829261
923203000 0.53826034216 -0.550939117084
923216000 0.537044705307 -0.554955827015
923229000 0.537834083283 -0.554206784774
923242000 0.540346085989 -0.555525685536
923255000 0.542118841976 -0.555277078192
923268000 0.539502951247 -0.556828480627
923281000 0.536774277796 -0.559056843382
923294000 0.540886743096 -0.553523235985
923307000 0.541058297191 -0.55050115092
923320000 0.539597788075 -0.554165489407
923333000 0.537087896115 -0.557321389602
923346000 0.537725595217 -0.553594397771
923359000 0.53808360654 -0.550479101615
923372000 0.538881326512 -0.548996411109
923385000 0.538481640538 -0.551044965608
923398000 0.538859495789 -0.550928212308
923411000 0.537119039571 -0.546592147488
923424000 0.537130999649 -0.54873197916
923437000 0.536724545999 -0.549974108046
923450000 0.535082186472 -0.55393321593
923463000 0.539472358722 -0.554503699725
923476000 0.538377706929 -0.55395078588
923489000 0.536274128705 -0.554997670755
923502000 0.535950408056 -0.55432223208
923515000 0.537086660418 -0.548630910269
923528000 0.53967786104 -0.550575719265
923541000 0.540595578194 -0.553756744736
923554000 0.539235941333 -0.550791291773
923567000 0.536351051314 -0.551144329535
923580000 0.536857432695 -0.550144510486
923593000 0.53584451487 -0.554275072885
923606000 0.539164121548 -0.552978171932
923619000 0.540306622205 -0.552538077925
923632000 0.540656390961 -0.552080863149
923645000 0.539309918331 -0.552869799949
923658000 0.538378766836 -0.552368618873
923671000 0.539222934267 -0.553150860319
923684000 0.541095334671 -0.552500785612
923697000 0.534576886125 -0.550204964214
923710000 0.535330709982 -0.547285404673
923723000 0.534660309374 -0.550861823047
923736000 0.537528734337 -0.552066567368
923749000 0.535592098599 -0.551613677048
923762000 0.536748805502 -0.551980733021
923775000 0.538202392971 -0.556335195413
923788000 0.534523519165 -0.553340842506
923801000 0.53792715426 -0.55355305158
923814000 0.537528830031 -0.554425438149
923827000 0.538876316056 -0.553439796494
923840000 0.535683417777 -0.554114989872
923853000 0.536688288082 -0.557398242876
923866000 0.536819437974 -0.558600027592
923879000 0.539470155155 -0.553503477992
923892000 0.534342519522 -0.555649503369
923905000 0.531743912528 -0.555586362316
923918000 0.534046314059 -0.552537405132
923931000 0.534000417109 -0.550087020182
923944000 0.535390748978 -0.555559071552
923957000 0.5370991166 -0.5551775832
923970000 0.538758610871 -0.556263897895
923983000 0.537536357905 -0.556097231903
923996000 0.538030362057 -0.552730739446
924009000 0.537292339546 -0.553351103467
924022000 0.535386428744 -0.550478295097
924035000 0.540950299286 -0.550453437647
924048000 0.536064865933 -0.549449468624
924061000 0.542595460442 -0.551718750725
924074000 0.542677707659 -0.550397896152
924087000 0.53871162546 -0.552360440861
924100000 0.538770608973 -0.554880979635
924113000 0.540471787683 -0.552806978401
924126000 0.54205304582 -0.555650773074
924139000 0.539263988012 -0.556023683853
924152000 0.535953584778 -0.556135450832
924165000 0.538906846965 -0.554979432518
924178000 0.538978359897 -0.553122154188
924191000 0.536977516964 -0.55435357299
924204000 0.538595746944 -0.553066837894
924217000 0.538401910949 -0.554925917956
924230000 0.537318876252 -0.553763527365
924243000 0.534128563251 -0.553018865716
924256000 0.533917365914 -0.552472681007
924269000 0.534555732066 -0.553057110806
924282000 0.535956943608 -0.552779854122
924295000 0.534671352331 -0.552605876074
924308000 0.534585143866 -0.554622956125
924321000 0.535610405271 -0.551742443531
924334000 0.530585239117 -0.552161461065
924347000 0.533200344195 -0.549668750397
924360000 0.534654860707 -0.554439502762
924373000 0.532935738135 -0.554185417152
924386000 0.535800963523 -0.551933908418
924399000 0.535688342839 -0.552158491569
924412000 0.535794494275 -0.550694974672
924425000 0.53778433684 -0.553335279648
924438000 0.53692197289 -0.553787537062
924451000 0.539289645423 -0.552279656551
924464000 0.537298666508 -0.54967218656
924477000 0.538060436127 -0.547738813734
924490000 0.53464179134 -0.550351423311
924503000 0.535635952364 -0.550961967482
924516000 0.535944391033 -0.551998921021
924529000 0.535436442227 -0.552228299079
924542000 0.534710655437 -0.551272980813
924555000 0.534328047033 -0.553015496389
924568000 0.534185077827 -0.556171693954
924581000 0.535108872095 -0.554429318462
924594000 0.530965856089 -0.55234206581
924607000 0.532576298128 -0.551303228317
924620000 0.535114329561 -0.550684564709
924633000 0.537725106653 -0.551470754913
924646000 0.534474643245 -0.55828608487
924659000 0.534870315736 -0.553072517371
924672000 0.538930882562 -0.554679377119
924685000 0.540585261373 -0.551448285448
924698000 0.539997093837 -0.551783606753
924711000 0.538832490167 -0.549278734032
924724000 0.536898652191 -0.546009251041
924737000 0.541221287975 -0.552354451312
924750000 0.541779672228 -0.557006120096
924763000 0.532069174988 -0.552862712484
924776000 0.541379100522 -0.549131520364
924789000 0.541751342784 -0.554953359096
924802000 0.536440965296 -0.555849754456
924815000 0.535429175219 -0.553983810156
924828000 0.53875741439 -0.557005357119
924841000 0.534974234508 -0.555638692199
924854000 0.537509754402 -0.552135521088
924867000 0.541560455945 -0.55530759716
924880000 0.534806149626 -0.549119809963
924893000 0.53202582315 -0.550836131458
924906000 0.536468106502 -0.54880734457
924919000 0.539799130792 -0.547541554898
924932000 0.535747493598 -0.548760341386
924945000 0.534730074572 -0.548267530692
924958000 0.533646774228 -0.550860917657
924971000 0.538328767224 -0.552700436591
924984000 0.533683463509 -0.556209061615
924997000 0.536446538739 -0.559155808889
925010000 0.540114997861 -0.555150396073
925023000 0.540201708493 -0.550928176373
925036000 0.539148044245 -0.550507567613
925049000 0.53586600627 -0.55126111357
925062000 0.53541365041 -0.554033388177
925075000 0.536940874816 -0.554856188773
925088000 0.539356984305 -0.555206750377
925101000 0.536454658504 -0.554278287919
925114000 0.535454748171 -0.553009572737
925127000 0.535904441076 -0.54680749191
925140000 0.539842091928 -0.543026205783
925153000 0.542355469961 -0.533659768264
925166000 0.543870952317 -0.534384848351
925179000 0.533621386776 -0.555820785375
925192000 0.534798808727 -0.55402585302
925205000 0.53511815291 -0.54963060362
925218000 0.534556755196 -0.553230257796
925231000 0.53128079492 -0.550791469611
925244000 0.532389800459 -0.5505985951
925257000 0.535720190999 -0.551432911861
925270000 0.538437016106 -0.548768454952
925283000 0.540719292854 -0.548536016545
925296000 0.5380325798 -0.550541959729
925309000 0.534453901058 -0.555099742173
925322000 0.535977274756 -0.553350918813
925335000 0.534003563153 -0.551395920355
925348000 0.531383848725 -0.549946727265
925361000 0.534862775988 -0.550619667481
925374000 0.536753356694 -0.551828886549
925387000 0.542248410265 -0.55776885833
925400000 0.539940021375 -0.549554724629
925413000 0.541618339856 -0.548364156841
925426000 0.540772307362 -0.552308714485
925439000 0.539216037134 -0.550785649729
925452000 0.53908192795 -0.55393573629
925465000 0.534105016778 -0.550834673068
925478000 0.539100978823 -0.552658520501
925491000 0.53927707698 -0.555516940336
925504000 0.539244939329 -0.550525339551
925517000 0.542134598514 -0.551394321134
925530000 0.535705695734 -0.555304536363
925543000 0.531330705934 -0.55365962814
925556000 0.533981294045 -0.554747686557
925569000 0.536225957093 -0.550847749031
925582000 0.531523488447 -0.553520830307
925595000 0.538533656378 -0.556100585497
925608000 0.539668327728 -0.558378855064
925621000 0.534061358117 -0.556727692712
925634000 0.537152836713 -0.559438586679
925647000 0.53493336806 -0.549713321482
925660000 0.528808098798 -0.553347853982
925673000 0.52958666115 -0.557046341478
925686000 0.53607647124 -0.553548826748
925699000 0.537570020978 -0.552747237034
925712000 0.539349885468 -0.555686170688
925725000 0.53734904708 -0.562474539872
925738000 0.537870152004 -0.556213778314
925751000 0.533451914911 -0.552647740933
925764000 0.533094718523 -0.550514511311
925777000 0.534381344826 -0.550739134572
925790000 0.533902381429 -0.553712817056
925803000 0.534873758918 -0.553258068945
925816000 0.536879492264 -0.556254032105
925829000 0.538231389802 -0.553405935372
925842000 0.535749872083 -0.553371340245
925855000 0.537609380143 -0.552654737485
925868000 0.535507323993 -0.552202288941
925881000 0.538981327377 -0.553879749
925894000 0.538981117289 -0.555309457452
925907000 0.538830382891 -0.556301329209
925920000 0.537593503608 -0.553545443822
925933000 0.538034627119 -0.554671107094
925946000 0.536467051912 -0.55063787991
925959000 0.537518100947 -0.551523739073
925972000 0.541359135771 -0.552576240935
925985000 0.538109427144 -0.55207497508
925998000 0.538883132819 -0.550874130384
926011000 0.537179289199 -0.552111623251
926024000 0.538109562061 -0.55146786538
926037000 0.537397500373 -0.551612857321
926050000 0.534584284701 -0.550699850705
926063000 0.536285247521 -0.549657250537
926076000 0.535053261527 -0.551932006641
926089000 0.538401181891 -0.550974738662
926102000 0.534920567524 -0.553105243755
926115000 0.537772337434 -0.552284676402
926128000 0.53857661776 -0.550761600093
926141000 0.532462886131 -0.553899863703
926154000 0.534141851036 -0.554822476201
926167000 0.536198883565 -0.550715509727
926180000 0.532292685123 -0.551151219565
926193000 0.532232094807 -0.551541690057
926206000 0.543427886813 -0.552350780851
926219000 0.533882163196 -0.549807015027
926232000 0.523230623854 -0.54399646318
926245000 0.51637678586 -0.545601460516
926258000 0.527172823542 -0.548841842431
926271000 0.535080540176 -0.546971563505
926284000 0.535900539897 -0.54972361685
926297000 0.537926355055 -0.551518709606
926310000 0.539207150185 -0.551992690391
926323000 0.536828451439 -0.554867909188
926336000 0.540310666579 -0.555964030025
926349000 0.532707631114 -0.55111992054
926362000 0.532533623729 -0.552768333833
926375000 0.534650692605 -0.549072695179
926388000 0.534799074992 -0.549053749319
926401000 0.533371252492 -0.550182677695
926414000 0.533781347443 -0.548219964371
926427000 0.536684076552 -0.545391547126
926440000 0.54132731513 -0.550154484373
926453000 0.540364568295 -0.552860564775
926466000 0.540347293995 -0.549155230002
926479000 0.537549222996 -0.551183572293
926492000 0.537935940579 -0.549875529475
926505000 0.53667604954 -0.553190615039
926518000 0.535242444753 -0.552719428446
926531000 0.541801415132 -0.553444268095
926544000 0.537821719074 -0.552438494251
926557000 0.534099125063 -0.55232991858
926570000 0.535602782162 -0.550406911083
926583000 0.53749758969 -0.547067479648
926596000 0.535917485923 -0.549315685967
926609000 0.533216467804 -0.551971102983
926622000 0.533187018452 -0.551566679986
926635000 0.534563452852 -0.552631563802
926648000 0.537155160325 -0.553007921872
926661000 0.537305102071 -0.551228786074
926674000 0.539659300816 -0.551916235121
926687000 0.538847262677 -0.551723744861
926700000 0.535513647776 -0.551260237748
926713000 0.536431749782 -0.551192769615
926726000 0.536066745699 -0.550649265407
926739000 0.534185621816 -0.555791803915
926752000 0.531572960008 -0.549374000672
926765000 0.533863427378 -0.555854129835
926778000 0.531222515335 -0.55242908734
926791000 0.527031354125 -0.556626874235
926804000 0.532287172206 -0.552694338016
926817000 0.537943629497 -0.551823165017
926830000 0.534765061822 -0.54801877651
926843000 0.538821996948 -0.550630843771
926856000 0.531315131526 -0.549936835605
926869000 0.537409395181 -0.552681526284
926882000 0.54306412289 -0.553457792143
926895000 0.53987883946 -0.554506221234
926908000 0.541082015006 -0.557256260284
926921000 0.532311739904 -0.552499384568
926934000 0.530744770759 -0.548272266598
926947000 0.535974510394 -0.552329759926
926960000 0.539520941269 -0.556669864764
926973000 0.535612293256 -0.55794807679
926986000 0.539313630324 -0.561140470971
926999000 0.541305734437 -0.555922450461
927012000 0.53276701779 -0.551425193973
927025000 0.541076116249 -0.548454782127
927038000 0.535585711641 -0.54881999998
927051000 0.531703328919 -0.550604546654
927064000 0.537060971188 -0.552159356123
927077000 0.532792922586 -0.551525825991
927090000 0.531397534503 -0.55518019648
927103000 0.538299983131 -0.554194721201
927116000 0.538058140831 -0.553280177692
927129000 0.537431765237 -0.549434796315
927142000 0.534376888148 -0.549135278631
927155000 0.535959831747 -0.553001688348
927168000 0.537512272278 -0.551576908323
927181000 0.54189870757 -0.551518824782
927194000 0.538968102073 -0.553133495687
927207000 0.536737728278 -0.54937149743
927220000 0.537282371693 -0.552558275573
927233000 0.534308277864 -0.553066300614
927246000 0.533251594636 -0.553504063553
927259000 0.536051175482 -0.553975925054
927272000 0.539788257008 -0.553325273651
927285000 0.535941522047 -0.55321042591
927298000 0.538131959487 -0.559370647175
927311000 0.538222087155 -0.557126120993
927324000 0.536464535427 -0.555028807803
927337000 0.537322811833 -0.558419225029
927350000 0.537941756607 -0.555375116156
927363000 0.535904889034 -0.556901252523
927376000 0.533373976168 -0.555931649075
927389000 0.537828855315 -0.554023905188
927402000 0.536150372993 -0.551949242413
927415000 0.534744632865 -0.555969759201
927428000 0.535007651967 -0.552862777007
927441000 0.53313315454 -0.550088380598
927454000 0.53666855989 -0.552302293653
927467000 0.533735922743 -0.552970638065
927480000 0.53393362915 -0.550191987782
927493000 0.534694177069 -0.551046378294
927506000 0.534989660316 -0.55317743828
927519000 0.533305444213 -0.554857749756
927532000 0.535203083526 -0.555442262942
927545000 0.53793095597 -0.553657927103
927558000 0.539876571821 -0.552681683272
927571000 0.538580574574 -0.55314743015
927584000 0.534327544562 -0.554742086634
927597000 0.534425113966 -0.555918971324
927610000 0.534280231983 -0.5557039942
927623000 0.53884560047 -0.553791850858
927636000 0.538099954636 -0.550025794999
927649000 0.533968444176 -0.550674667043
927662000 0.533583346987 -0.551831783218
927675000 0.541609069199 -0.559660202843
927688000 0.53181814991 -0.554947939691
927701000 0.536153749807 -0.549273728701
927714000 0.539757817591 -0.557625300481
927727000 0.537410311532 -0.560066739877
927740000 0.537978969411 -0.560689245847
927753000 0.534533153048 -0.555733668126
927766000 0.536088728286 -0.556244288896
927779000 0.533226662794 -0.557550541081
927792000 0.535317195056 -0.553560294462
927805000 0.532191767758 -0.554682412623
927818000 0.537231757728 -0.557528862518
927831000 0.532235325071 -0.549178958216
927844000 0.531276282933 -0.552283843666
927857000 0.534854876961 -0.548608868421
927870000 0.53436815346 -0.550981371089
927883000 0.536420259349 -0.554983165694
927896000 0.536955159478 -0.555360234749
927909000 0.539771053692 -0.557523409671
927922000 0.537015793958 -0.55033160079
927935000 0.535548856344 -0.553202171882
927948000 0.535430344276 -0.551515263763
927961000 0.530285431119 -0.556361295631
927974000 0.52980907128 -0.550893992909
927987000 0.53613179268 -0.554215835923
928000000 0.53743866594 -0.551612807633
