! Calibrated averaged scanner-service zoom
# Hz S RI R 50
851000000 0.619566705987 -0.496585908586
851009000 0.619444160272 -0.496692713233
851018000 0.618897938616 -0.497174287203
851027000 0.618787305709 -0.497010249043
851036000 0.618451182693 -0.497226016592
851045000 0.618213106758 -0.496674877906
851054000 0.618260873226 -0.495958082852
851063000 0.618528431316 -0.495809297382
851072000 0.618678811393 -0.496418698936
851081000 0.61849604522 -0.496638021875
851090000 0.618082234636 -0.495984459259
851099000 0.61830316305 -0.496797571267
851108000 0.618360583324 -0.4964845247
851117000 0.619506571424 -0.496408556568
851126000 0.619514740109 -0.497153973206
851135000 0.619152824178 -0.496988677042
851144000 0.618869236293 -0.496754187915
851153000 0.619206617628 -0.497190403503
851162000 0.619214393366 -0.496711434073
851171000 0.619291480614 -0.496576934694
851180000 0.619405611169 -0.496977580343
851189000 0.619467758753 -0.496868969194
851198000 0.618627970014 -0.497234590806
851207000 0.619483504173 -0.497307081728
851216000 0.618670870721 -0.496551204833
851225000 0.618282753345 -0.49625566972
851234000 0.618996196575 -0.496231644875
851243000 0.619379944514 -0.495986255998
851252000 0.618574222601 -0.496277966681
851261000 0.618237418453 -0.496213033101
851270000 0.618489564341 -0.496467640406
851279000 0.618024345256 -0.497264270344
851288000 0.618410445231 -0.497001282057
851297000 0.618173454201 -0.497110953092
851306000 0.618825469371 -0.496693275255
851315000 0.619505368243 -0.496099897602
851324000 0.619415188352 -0.497328657275
851333000 0.617975993018 -0.497010234072
851342000 0.618270257023 -0.497766003234
851351000 0.618304417623 -0.497657416185
851360000 0.617943057043 -0.497420901008
851369000 0.617801557241 -0.49742287432
851378000 0.618406821574 -0.497467952936
851387000 0.618327402998 -0.497046307925
851396000 0.61750359413 -0.497034424098
851405000 0.617008861814 -0.4974114958
851414000 0.617813303563 -0.497332080389
851423000 0.618543293741 -0.497246622491
851432000 0.619143609463 -0.496920893927
851441000 0.618388792761 -0.497148255637
851450000 0.618253899317 -0.496877797974
851459000 0.618076155508 -0.497448972783
851468000 0.617778208115 -0.496405769736
851477000 0.617703169825 -0.496448785144
851486000 0.616039360218 -0.494557971661
851495000 0.618288003582 -0.495370731292
851504000 0.61842348359 -0.49590450018
851513000 0.618546144399 -0.496616632587
851522000 0.618535847943 -0.496762882398
851531000 0.618849227233 -0.496685602268
851540000 0.618365486441 -0.496516709116
851549000 0.618861793326 -0.496682100386
851558000 0.619646763998 -0.497164497169
851567000 0.618745194798 -0.497176915255
851576000 0.619327948096 -0.496883825255
851585000 0.619202139024 -0.496891202612
851594000 0.619659926921 -0.496635308972
851603000 0.619694168114 -0.496745667454
851612000 0.619635213096 -0.49756183831
851621000 0.618726004812 -0.497816514351
851630000 0.617826376321 -0.497419096205
851639000 0.61862551117 -0.497020461657
851648000 0.618509477802 -0.497352107334
851657000 0.618921949251 -0.497577905781
851666000 0.619026459659 -0.497058788338
851675000 0.618674541174 -0.496898090613
851684000 0.618544330468 -0.496307016398
851693000 0.618621550404 -0.496244594369
851702000 0.618663205795 -0.496186039189
851711000 0.618466310748 -0.496324814842
851720000 0.619380913476 -0.497037460143
851729000 0.619767141058 -0.497108792376
851738000 0.618711674816 -0.497684875745
851747000 0.618635363287 -0.497479883889
851756000 0.618648461171 -0.497549331838
851765000 0.618933656861 -0.497570071828
851774000 0.618502238623 -0.497663128974
851783000 0.617893577594 -0.496958091155
851792000 0.616704378671 -0.496329150944
851801000 0.617313331771 -0.495587575845
851810000 0.617149745875 -0.495322269032
851819000 0.616919237181 -0.496737080135
851828000 0.617033313308 -0.497080484117
851837000 0.617829119463 -0.497929897721
851846000 0.618434491287 -0.497919117585
851855000 0.618251769911 -0.497930198685
851864000 0.619276607951 -0.49763037287
851873000 0.618151005332 -0.497615163975
851882000 0.61831518384 -0.49718924713
851891000 0.618519908824 -0.497088145438
851900000 0.61773963116 -0.497211663175
851909000 0.618260865626 -0.496254759339
851918000 0.617028216849 -0.49700403316
851927000 0.61787306858 -0.496916997671
851936000 0.618253153628 -0.496461509212
851945000 0.61673249109 -0.496327442361
851954000 0.61703677586 -0.495780865667
851963000 0.617279721161 -0.497099774317
851972000 0.616400918165 -0.498153591764
851981000 0.616151043222 -0.498267532747
851990000 0.616516860918 -0.498451940976
851999000 0.617587073928 -0.498324195036
852008000 0.618859197938 -0.497568426032
852017000 0.619489835298 -0.498027416635
852026000 0.618561305503 -0.498660373913
852035000 0.619123811996 -0.498961572375
852044000 0.618777139919 -0.49886556245
852053000 0.618290801222 -0.498410854891
852062000 0.61740610926 -0.498102213718
852071000 0.618416050425 -0.497216421932
852080000 0.617701251463 -0.498260482407
852089000 0.617603869001 -0.498288761715
852098000 0.617945748883 -0.49786034067
852107000 0.618133613569 -0.498472103181
852116000 0.618276483239 -0.497200264929
852125000 0.619415855949 -0.497296347176
852134000 0.619828684628 -0.497252762962
852143000 0.618975618937 -0.496945070068
852152000 0.618936762204 -0.497356070244
852161000 0.618475818694 -0.497845666149
852170000 0.618521726727 -0.497195370741
852179000 0.61809866654 -0.497427405018
852188000 0.617899492749 -0.497757366818
852197000 0.618730188504 -0.498168059966
852206000 0.618636549294 -0.497588565906
852215000 0.617467665035 -0.498428799488
852224000 0.618007091174 -0.498798306748
852233000 0.618262301083 -0.497699633059
852242000 0.618531184702 -0.498679145706
852251000 0.61843260904 -0.497618266751
852260000 0.618208002573 -0.497517606258
852269000 0.618257940869 -0.497176232291
852278000 0.619441009637 -0.49721164129
852287000 0.617512507803 -0.496761344551
852296000 0.618151690791 -0.497270353221
852305000 0.617604001191 -0.496741606654
852314000 0.617635317407 -0.496999116179
852323000 0.617534181799 -0.497167123252
852332000 0.617321803303 -0.497417604493
852341000 0.617311981453 -0.497211036527
852350000 0.617571932669 -0.497848112583
852359000 0.616827910252 -0.497595278012
852368000 0.616937767713 -0.498154593719
852377000 0.618113376215 -0.498349512915
852386000 0.618512767457 -0.49841925746
852395000 0.618696011133 -0.497999405
852404000 0.618441090896 -0.497153606619
852413000 0.617686232324 -0.496555303791
852422000 0.61787227855 -0.497107188894
852431000 0.618662957579 -0.497051778161
852440000 0.617620493031 -0.497592806129
852449000 0.617981119836 -0.497688512856
852458000 0.617500241155 -0.497860888387
852467000 0.6177385144 -0.497947390313
852476000 0.617600843611 -0.498714228872
852485000 0.617565392902 -0.497923611696
852494000 0.617788792851 -0.496916962684
852503000 0.617486700872 -0.496733798538
852512000 0.617644245333 -0.497766653148
852521000 0.617138357808 -0.497892802227
852530000 0.616836649503 -0.497953090115
852539000 0.617233477363 -0.497229591191
852548000 0.617701792476 -0.49768810676
852557000 0.616690112022 -0.497028325827
852566000 0.617558205539 -0.497853483689
852575000 0.617020099053 -0.498516149017
852584000 0.6174861122 -0.499113731396
852593000 0.617608186292 -0.498146477145
852602000 0.617674583099 -0.497812204531
852611000 0.618175862612 -0.49782915776
852620000 0.618116181181 -0.496899202013
852629000 0.61739356209 -0.497522722333
852638000 0.617354896252 -0.497941298481
852647000 0.61716056701 -0.497538124957
852656000 0.618231725142 -0.498247421753
852665000 0.619286600426 -0.49837110319
852674000 0.619047743489 -0.498988900503
852683000 0.618405917517 -0.498372869733
852692000 0.617874127363 -0.498086509523
852701000 0.618250222981 -0.498471447354
852710000 0.618196067735 -0.49851042773
852719000 0.617561955202 -0.498904940378
852728000 0.618207810812 -0.498448942517
852737000 0.617858012646 -0.498817923958
852746000 0.616795848228 -0.498710356172
852755000 0.617145321033 -0.497653555614
852764000 0.617375029579 -0.498104666783
852773000 0.61759360689 -0.498178457809
852782000 0.616923422418 -0.497958630369
852791000 0.61756328197 -0.498748355218
852800000 0.617078720427 -0.49816266202
852809000 0.617558525482 -0.498313752796
852818000 0.617931959368 -0.498301343509
852827000 0.617924662278 -0.498202057641
852836000 0.617505080681 -0.498105250536
852845000 0.618036315158 -0.498278980759
852854000 0.618364463438 -0.498272956334
852863000 0.617689405001 -0.498736567903
852872000 0.617764217689 -0.498343614557
852881000 0.618475698313 -0.498544538187
852890000 0.618482200166 -0.497479825944
852899000 0.618240957777 -0.497512299462
852908000 0.617570646275 -0.49819738556
852917000 0.617250082171 -0.499115663978
852926000 0.616886270086 -0.498668558333
852935000 0.61645214423 -0.499535655994
852944000 0.617449530441 -0.499130377753
852953000 0.617239418189 -0.498819965109
852962000 0.617832387354 -0.498937222399
852971000 0.617466537831 -0.49911775599
852980000 0.618128363983 -0.498115871297
852989000 0.617211783535 -0.498353222259
852998000 0.618255547173 -0.498480914135
853007000 0.617393030823 -0.498473807205
853016000 0.617382763435 -0.499388302398
853025000 0.617242134369 -0.498934483871
853034000 0.617062873334 -0.499089842507
853043000 0.617606240205 -0.498472092001
853052000 0.617131753816 -0.498135271556
853061000 0.617454786498 -0.498387759951
853070000 0.617056070532 -0.498904419048
853079000 0.617099277423 -0.499224984727
853088000 0.617332289195 -0.498286426612
853097000 0.618327931969 -0.497401839669
853106000 0.622247444798 -0.496166771514
853115000 0.617990378048 -0.497868879956
853124000 0.617786717672 -0.498413688882
853133000 0.617468050253 -0.498214012845
853142000 0.617718563666 -0.498692427464
853151000 0.617764391799 -0.498221981738
853160000 0.617131107121 -0.497803475346
853169000 0.616740482828 -0.498489697377
853178000 0.617237587616 -0.49904173147
853187000 0.617422411571 -0.498742920944
853196000 0.617577255353 -0.498179668875
853205000 0.617386714427 -0.498044790241
853214000 0.617392830348 -0.497907679107
853223000 0.616676129999 -0.497854692171
853232000 0.616931821182 -0.498001813602
853241000 0.616956320043 -0.498680253204
853250000 0.617331158977 -0.49818605947
853259000 0.617346188379 -0.498379952943
853268000 0.616892252631 -0.497867031034
853277000 0.617217204479 -0.498017714456
853286000 0.616810574482 -0.497721525692
853295000 0.617004761394 -0.497331047838
853304000 0.617024449653 -0.497378743742
853313000 0.617103767333 -0.49817835229
853322000 0.617354629641 -0.498291247462
853331000 0.617811225608 -0.498048812361
853340000 0.616992519217 -0.49883511731
853349000 0.617415528324 -0.499400754455
853358000 0.615627537745 -0.498377993366
853367000 0.61590577912 -0.499477616966
853376000 0.616218322929 -0.499022181523
853385000 0.616477050676 -0.498995651921
853394000 0.616488164017 -0.498355358905
853403000 0.616895809534 -0.498892375007
853412000 0.617215762674 -0.498816630446
853421000 0.618284423981 -0.499015451181
853430000 0.617853283323 -0.498502158319
853439000 0.618264908498 -0.498173104383
853448000 0.617797193589 -0.497940325223
853457000 0.617670108289 -0.498238198937
853466000 0.618691765256 -0.499134725156
853475000 0.617304114505 -0.499014187055
853484000 0.617095547156 -0.499476048907
853493000 0.61721531968 -0.499053712483
853502000 0.616833757181 -0.499949758659
853511000 0.617176112361 -0.498630875062
853520000 0.616449384825 -0.499377482444
853529000 0.616902935684 -0.499359705457
853538000 0.616728121932 -0.498246617748
853547000 0.61699845001 -0.499113449769
853556000 0.617080295402 -0.499676791362
853565000 0.618073302047 -0.499547711276
853574000 0.617107896223 -0.498828321346
853583000 0.617298734761 -0.499287066252
853592000 0.616598839747 -0.499160820592
853601000 0.616642882313 -0.499573645669
853610000 0.617489566436 -0.500975738662
853619000 0.616989688625 -0.500679680431
853628000 0.617400900846 -0.499859476515
853637000 0.617516895602 -0.498950112508
853646000 0.617003000707 -0.498230978457
853655000 0.616477031417 -0.498632897336
853664000 0.61595356858 -0.498264408261
853673000 0.616165397678 -0.498102199741
853682000 0.616580685815 -0.498447595425
853691000 0.616759572164 -0.498915523851
853700000 0.616387540175 -0.498557329645
853709000 0.61693377842 -0.497916536852
853718000 0.61754968826 -0.498932864467
853727000 0.617274226906 -0.499025758193
853736000 0.616881308584 -0.498389813222
853745000 0.616426426798 -0.498814768235
853754000 0.61642729992 -0.498277895124
853763000 0.616811111763 -0.498280032902
853772000 0.616734207269 -0.498319680893
853781000 0.61642719334 -0.497399614812
853790000 0.616929975088 -0.49807646531
853799000 0.617362010439 -0.49837804003
853808000 0.616940898223 -0.498661554242
853817000 0.616841690493 -0.49947922788
853826000 0.616355886193 -0.498770570605
853835000 0.616567317024 -0.498624294586
853844000 0.616716750063 -0.497848422265
853853000 0.614339412895 -0.49402486416
853862000 0.616033033029 -0.49754480036
853871000 0.616553205026 -0.498565833909
853880000 0.616917751761 -0.498364066541
853889000 0.617590685829 -0.497963761651
853898000 0.616677846839 -0.498599624421
853907000 0.617197439569 -0.498945653138
853916000 0.61623980876 -0.498656128574
853925000 0.61667648473 -0.498458464074
853934000 0.617006545082 -0.498226396692
853943000 0.616458497834 -0.498189439305
853952000 0.616606295958 -0.49779885815
853961000 0.616941642427 -0.49707691529
853970000 0.616644728316 -0.497641709289
853979000 0.616635804856 -0.496991231979
853988000 0.616937070406 -0.497985064831
853997000 0.617322575022 -0.498304266834
854006000 0.616800440846 -0.497971671799
854015000 0.617392452152 -0.498986390115
854024000 0.61680530037 -0.499373870717
854033000 0.616891484167 -0.498275590144
854042000 0.616568425827 -0.498123117278
854051000 0.617355395521 -0.498058464258
854060000 0.617402703494 -0.498286490429
854069000 0.617507122819 -0.498897986582
854078000 0.616811565264 -0.498908977284
854087000 0.617711482143 -0.49958760606
854096000 0.617771340028 -0.498843040857
854105000 0.616771116014 -0.498705749407
854114000 0.61727181691 -0.498630471906
854123000 0.617625626704 -0.498372400297
854132000 0.617250699009 -0.499324145604
854141000 0.61674671981 -0.499009717914
854150000 0.616815424123 -0.498803681835
854159000 0.617047110881 -0.498652164514
854168000 0.616806826206 -0.498274779538
854177000 0.616981041059 -0.498427214739
854186000 0.616219459389 -0.498723819457
854195000 0.616511866571 -0.499554031183
854204000 0.616573071072 -0.497999647323
854213000 0.616594508745 -0.498349815554
854222000 0.616234393993 -0.498457706095
854231000 0.616988732093 -0.497835841902
854240000 0.617125381464 -0.499775636088
854249000 0.616806760769 -0.499261946677
854258000 0.61752535705 -0.499614915773
854267000 0.617212206673 -0.499561844784
854276000 0.616816127172 -0.499855151872
854285000 0.61771578769 -0.499270868932
854294000 0.617400923329 -0.498998434344
854303000 0.617579196203 -0.498376007997
854312000 0.617128836015 -0.498965705155
854321000 0.617252992781 -0.499546745959
854330000 0.616654638514 -0.49840932042
854339000 0.616261789326 -0.498214455773
854348000 0.616551547154 -0.49814108565
854357000 0.617223264116 -0.499208072016
854366000 0.617171595109 -0.498928864723
854375000 0.617283995577 -0.498890586382
854384000 0.617493842119 -0.49985870724
854393000 0.617459053606 -0.500592304762
854402000 0.617327921081 -0.500090079128
854411000 0.616467201592 -0.499923053936
854420000 0.617469059567 -0.500241987159
854429000 0.616409647691 -0.499021328329
854438000 0.616245500481 -0.499315034234
854447000 0.6163402201 -0.498981902811
854456000 0.615816427076 -0.499122909832
854465000 0.615892400645 -0.499346568245
854474000 0.616318045513 -0.49980282383
854483000 0.616567864287 -0.500174961615
854492000 0.616040097903 -0.500021376028
854501000 0.615329187536 -0.499726300138
854510000 0.616320836469 -0.499815585828
854519000 0.616090064928 -0.498965342796
854528000 0.616508240068 -0.499579220059
854537000 0.615377447434 -0.498712750601
854546000 0.617145355537 -0.498464241475
854555000 0.616356307809 -0.498069279207
854564000 0.617140847818 -0.499313282995
854573000 0.616920555067 -0.499350729768
854582000 0.616869611907 -0.499194980978
854591000 0.616451876225 -0.499109839345
854600000 0.616139171943 -0.498599344836
854609000 0.616985159224 -0.49923441282
854618000 0.615268379647 -0.499189359615
854627000 0.616291836433 -0.499010455645
854636000 0.616100798531 -0.499449820883
854645000 0.617071397655 -0.499637160843
854654000 0.616994945066 -0.499782465484
854663000 0.616792155825 -0.498693272127
854672000 0.616216539219 -0.498545262735
854681000 0.615921467997 -0.498586456722
854690000 0.616622473669 -0.498506052839
854699000 0.616407721511 -0.498986640307
854708000 0.616433041427 -0.499871298934
854717000 0.617280301952 -0.499498066214
854726000 0.616852566231 -0.499806691009
854735000 0.61286925886 -0.504561297397
854744000 0.616446752511 -0.498710801307
854753000 0.613528245615 -0.499221737925
854762000 0.616214827352 -0.498517456317
854771000 0.616496576222 -0.498460789654
854780000 0.616919215999 -0.498232617404
854789000 0.618084858193 -0.498083764978
854798000 0.61800197266 -0.49871810635
854807000 0.617211766401 -0.498824516214
854816000 0.616727949253 -0.498406262089
854825000 0.616109104471 -0.498719441866
854834000 0.615961933235 -0.498950330096
854843000 0.615963877827 -0.499354502886
854852000 0.616392009154 -0.499475736597
854861000 0.616014257141 -0.499869410346
854870000 0.616542815669 -0.499989587446
854879000 0.61607390407 -0.499545423018
854888000 0.616160775308 -0.499875324744
854897000 0.616243788977 -0.500035176202
854906000 0.616232195732 -0.500115963939
854915000 0.616368163251 -0.49985857534
854924000 0.616725654289 -0.499069420866
854933000 0.615691049135 -0.49883827114
854942000 0.616466363702 -0.498573218271
854951000 0.61618207717 -0.498534463638
854960000 0.616997261646 -0.498182744115
854969000 0.616874404866 -0.498116547282
854978000 0.617184968858 -0.499122821962
854987000 0.615813830992 -0.499416417559
854996000 0.61609314799 -0.500124537983
855005000 0.616259475862 -0.500109372845
855014000 0.616112546868 -0.500216736804
855023000 0.616468826602 -0.498960844458
855032000 0.616249960975 -0.497978288933
855041000 0.616308908242 -0.49928547362
855050000 0.616243383029 -0.499318671092
855059000 0.615849611972 -0.499017546488
855068000 0.615694376407 -0.499067766118
855077000 0.617151253178 -0.499584609954
855086000 0.616553937672 -0.499180657043
855095000 0.616747229181 -0.499295865023
855104000 0.616351093395 -0.499639662579
855113000 0.615903118813 -0.499698950324
855122000 0.61632242112 -0.499684823855
855131000 0.61717369711 -0.498946896239
855140000 0.616835073138 -0.498816867483
855149000 0.616692098585 -0.498924900278
855158000 0.61646972365 -0.498884760575
855167000 0.616240138653 -0.498919575687
855176000 0.615698947014 -0.498875668523
855185000 0.615409427287 -0.499969520658
855194000 0.61608353003 -0.499519288484
855203000 0.616327521864 -0.499522649364
855212000 0.616823363622 -0.499969805728
855221000 0.616815103882 -0.50056757976
855230000 0.616852375772 -0.499566662292
855239000 0.615840574367 -0.499119394087
855248000 0.615396351526 -0.499583191868
855257000 0.615568012024 -0.49947890302
855266000 0.615524632912 -0.50003856537
855275000 0.615804348783 -0.499918570789
855284000 0.615196810428 -0.499697107936
855293000 0.615987149774 -0.499824182043
855302000 0.615236766926 -0.499971157841
855311000 0.615549494712 -0.499795939562
855320000 0.61590834374 -0.500131098972
855329000 0.616177012318 -0.499651122096
855338000 0.616201852056 -0.498448621391
855347000 0.615957505986 -0.498648861207
855356000 0.616358849815 -0.499231048855
855365000 0.61618859987 -0.499049825359
855374000 0.616357814122 -0.499222540605
855383000 0.615525669031 -0.499906214041
855392000 0.616288390859 -0.50074764043
855401000 0.616117025439 -0.501164817765
855410000 0.616103460892 -0.50091031937
855419000 0.615678443249 -0.500190348857
855428000 0.615973613464 -0.500177528401
855437000 0.615517883751 -0.499175573491
855446000 0.614914472047 -0.498888312666
855455000 0.615287710596 -0.498844130908
855464000 0.615300833901 -0.499319439091
855473000 0.61574172554 -0.498889834572
855482000 0.615430129154 -0.50006872121
855491000 0.615867829178 -0.499714235171
855500000 0.616533501369 -0.499374970228
855509000 0.617168107416 -0.500266361528
855518000 0.616856464437 -0.499552420866
855527000 0.61672298663 -0.499996628201
855536000 0.617297790246 -0.499774654952
855545000 0.616808179581 -0.499742217056
855554000 0.616647258157 -0.499988609131
855563000 0.616771174856 -0.499035707763
855572000 0.616274809296 -0.499691170297
855581000 0.615720211762 -0.49954843617
855590000 0.616092405202 -0.499611361569
855599000 0.615648302494 -0.499172944822
855608000 0.616337977626 -0.499461173617
855617000 0.616503897527 -0.499177888091
855626000 0.615565359567 -0.499612037338
855635000 0.615960515252 -0.499535604431
855644000 0.615368794005 -0.499174932358
855653000 0.616920399614 -0.500257304841
855662000 0.616390207903 -0.499976966791
855671000 0.616229465641 -0.499406195781
855680000 0.615870298886 -0.499715596679
855689000 0.615326463738 -0.500088921316
855698000 0.615894254423 -0.499713183944
855707000 0.616299783945 -0.499339398842
855716000 0.615501889787 -0.499407899826
855725000 0.616031299259 -0.49943639273
855734000 0.615264010702 -0.500252777829
855743000 0.614669273071 -0.49980729455
855752000 0.615253896742 -0.500339692424
855761000 0.615983878324 -0.499744889824
855770000 0.616120835533 -0.498401097752
855779000 0.61629969986 -0.499208844176
855788000 0.615999689261 -0.499787783481
855797000 0.615516238708 -0.500167516968
855806000 0.615687939159 -0.50074080568
855815000 0.615721698341 -0.500429225951
855824000 0.615722317921 -0.502248987781
855833000 0.616219980211 -0.501315549909
855842000 0.614865097902 -0.500949240365
855851000 0.616051463309 -0.500672636624
855860000 0.615348711224 -0.499300802355
855869000 0.615777898907 -0.499834749235
855878000 0.616775757901 -0.499062116262
855887000 0.617092012159 -0.499814765572
855896000 0.617377122819 -0.499855454641
855905000 0.616700797792 -0.500268224057
855914000 0.616098712313 -0.500665552972
855923000 0.615305099569 -0.500714140604
855932000 0.615956799959 -0.500259607396
855941000 0.616057176162 -0.500300759051
855950000 0.616792967651 -0.500319868935
855959000 0.61639827356 -0.499415702158
855968000 0.616562374978 -0.499111836552
855977000 0.616125741025 -0.500125026192
855986000 0.617483340568 -0.499341085472
855995000 0.616644414957 -0.499334444431
856004000 0.616318369887 -0.500034932845
856013000 0.617065200874 -0.500229409028
856022000 0.615974487316 -0.500308956039
856031000 0.617285773623 -0.50120068612
856040000 0.616896143401 -0.499513016891
856049000 0.616674471122 -0.499603034192
856058000 0.616455319975 -0.500175587315
856067000 0.616887527463 -0.498599258613
856076000 0.615492245102 -0.499340165061
856085000 0.615979341998 -0.49932750287
856094000 0.615245524789 -0.499514707087
856103000 0.614889622605 -0.500281175059
856112000 0.615413353323 -0.4995289325
856121000 0.615427929612 -0.500614031858
856130000 0.616139354287 -0.499892280513
856139000 0.615970936821 -0.500204848176
856148000 0.616224397069 -0.499395399782
856157000 0.61562908758 -0.499931667279
856166000 0.616777428144 -0.499414255184
856175000 0.61727012567 -0.498882493468
856184000 0.61649656681 -0.498630199936
856193000 0.616901813846 -0.4997249525
856202000 0.616573303761 -0.500028630891
856211000 0.617143081234 -0.500468398854
856220000 0.61640661233 -0.499777629001
856229000 0.616962840709 -0.499948580513
856238000 0.616785856789 -0.500064640149
856247000 0.616514173169 -0.500713281612
856256000 0.616409259099 -0.499938681267
856265000 0.616512210846 -0.500378863813
856274000 0.616185515559 -0.500745639058
856283000 0.615874827975 -0.500820074406
856292000 0.615648502041 -0.501511294476
856301000 0.615308917346 -0.500672616003
856310000 0.615325475138 -0.500371351695
856319000 0.615553507149 -0.500805939387
856328000 0.615396462386 -0.499934851554
856337000 0.615399900091 -0.500059885437
856346000 0.616003466354 -0.499749345528
856355000 0.61637070181 -0.49987592551
856364000 0.616080171381 -0.499217332319
856373000 0.616277982371 -0.499744256947
856382000 0.615230324213 -0.499891686556
856391000 0.615460826157 -0.500134048215
856400000 0.616516660315 -0.500156232911
856409000 0.616424628199 -0.500021052873
856418000 0.615875625204 -0.500417078918
856427000 0.61571488018 -0.500775923837
856436000 0.615458567454 -0.501351273542
856445000 0.615632257151 -0.500493429055
856454000 0.615863276497 -0.499736379496
856463000 0.616191468901 -0.499136611505
856472000 0.615447469187 -0.499710756113
856481000 0.615708079407 -0.49927494623
856490000 0.614347382741 -0.499426697571
856499000 0.614740223673 -0.499897225206
856508000 0.615331956161 -0.499569441788
856517000 0.61579957082 -0.499677279666
856526000 0.615721724943 -0.499393407003
856535000 0.61504877194 -0.500295145387
856544000 0.614467381314 -0.500060288246
856553000 0.614922054343 -0.500169360925
856562000 0.614785186576 -0.500241220253
856571000 0.615019638087 -0.499851018365
856580000 0.615731982713 -0.49974126695
856589000 0.616404481312 -0.499982365954
856598000 0.615695022448 -0.501363145811
856607000 0.616970788518 -0.500975500044
856616000 0.617150596901 -0.501236611561
856625000 0.617068839175 -0.501237712728
856634000 0.616283315252 -0.501057745653
856643000 0.616723861034 -0.500645877986
856652000 0.616180109402 -0.500491955845
856661000 0.616138458469 -0.500607764411
856670000 0.616253524527 -0.500136464553
856679000 0.616487117731 -0.500426598039
856688000 0.617065656246 -0.500955901543
856697000 0.616999123155 -0.501103222587
856706000 0.616394602102 -0.499724272773
856715000 0.616172747766 -0.500199934737
856724000 0.616095945734 -0.500037951157
856733000 0.615494166497 -0.500363579411
856742000 0.616038198528 -0.500836517592
856751000 0.615859962056 -0.500543474216
856760000 0.616013754044 -0.500915949615
856769000 0.61554548487 -0.501690658183
856778000 0.61574799197 -0.501419910162
856787000 0.617073271047 -0.500237996416
856796000 0.616286609694 -0.500341550311
856805000 0.615793492903 -0.500070487277
856814000 0.615513665484 -0.499902169321
856823000 0.615776468734 -0.500625306548
856832000 0.616124215802 -0.499631785326
856841000 0.616329266699 -0.499605394428
856850000 0.616627762305 -0.499757026076
856859000 0.615659667655 -0.499312872607
856868000 0.616480329741 -0.499773531241
856877000 0.616024741392 -0.499752564718
856886000 0.616146912897 -0.500417851273
856895000 0.615443623963 -0.499872861298
856904000 0.616167859411 -0.500752158104
856913000 0.616467052109 -0.500155976664
856922000 0.616905759698 -0.500701993039
856931000 0.616686997137 -0.50017684206
856940000 0.616897517756 -0.501331975701
856949000 0.61703234964 -0.501063251646
856958000 0.616950034537 -0.501790402946
856967000 0.616327997327 -0.501048320749
856976000 0.61657834322 -0.501246483496
856985000 0.615747120358 -0.500734472933
856994000 0.616060210258 -0.500773785013
857003000 0.616480625551 -0.501105356636
857012000 0.615113616628 -0.499961671414
857021000 0.615418762568 -0.500861413227
857030000 0.615691064226 -0.50170073076
857039000 0.615538955975 -0.501883182408
857048000 0.615374224597 -0.501249935338
857057000 0.615357514375 -0.500756166624
857066000 0.615426948028 -0.501578914564
857075000 0.615371141527 -0.500870584176
857084000 0.615633852 -0.501104651235
857093000 0.615256290315 -0.501856285827
857102000 0.615595260436 -0.501323324943
857111000 0.616230146975 -0.501653535072
857120000 0.616169100402 -0.500465927254
857129000 0.616543428887 -0.50053394153
857138000 0.615873261879 -0.500858593645
857147000 0.615222250571 -0.500862380787
857156000 0.615807375137 -0.501114135309
857165000 0.61584964416 -0.500824167885
857174000 0.61475191681 -0.501469967349
857183000 0.615096221163 -0.501408484358
857192000 0.615712756272 -0.501469975522
857201000 0.615658891246 -0.501377702291
857210000 0.615659761587 -0.500872321065
857219000 0.616231732739 -0.500755562543
857228000 0.615962176636 -0.500751465183
857237000 0.61590892714 -0.500089752654
857246000 0.615931862973 -0.499903221544
857255000 0.615727833897 -0.499909052462
857264000 0.615275355785 -0.500046820611
857273000 0.615530281026 -0.500552370129
857282000 0.616125463881 -0.500706431124
857291000 0.616442052389 -0.501028086301
857300000 0.61605705785 -0.501535264486
857309000 0.61527289029 -0.500390620757
857318000 0.615497125392 -0.501264884481
857327000 0.615219551442 -0.501609956273
857336000 0.614630769401 -0.500825607547
857345000 0.615856599162 -0.500683762486
857354000 0.615227353387 -0.501380923554
857363000 0.615791376771 -0.499953011717
857372000 0.615221847674 -0.501216187566
857381000 0.615403342574 -0.502029446716
857390000 0.615295496725 -0.502164115749
857399000 0.615431626395 -0.501410691605
857408000 0.615864832225 -0.50211783027
857417000 0.61555715654 -0.501004670706
857426000 0.615865938554 -0.501049731604
857435000 0.615931906701 -0.501048914299
857444000 0.615259390777 -0.500879646384
857453000 0.615669798078 -0.500367345731
857462000 0.616014999664 -0.501255351973
857471000 0.616552778456 -0.500472197453
857480000 0.615914799621 -0.501222700307
857489000 0.615487212596 -0.501165380969
857498000 0.615289783891 -0.50183996936
857507000 0.615317824981 -0.501409865249
857516000 0.615896049605 -0.501820773264
857525000 0.614979010211 -0.501844473134
857534000 0.615990733229 -0.501823887283
857543000 0.615167072312 -0.501225036723
857552000 0.615797241884 -0.50009196963
857561000 0.615356563092 -0.500658011651
857570000 0.615421879611 -0.500728700284
857579000 0.615869070323 -0.500207335283
857588000 0.616524950897 -0.501975390871
857597000 0.616298328582 -0.500788305931
857606000 0.616054748606 -0.501881427123
857615000 0.615294476665 -0.500863075857
857624000 0.615910733724 -0.500712464049
857633000 0.615347074211 -0.500771921693
857642000 0.614926181081 -0.501575606004
857651000 0.614966960551 -0.501405459927
857660000 0.614723298762 -0.501853797551
857669000 0.614972675023 -0.500777438612
857678000 0.614675962535 -0.501131770986
857687000 0.615369513621 -0.500549229621
857696000 0.615628034361 -0.501685837338
857705000 0.614180696461 -0.500942412899
857714000 0.615166609727 -0.500506464864
857723000 0.616294369215 -0.500762450235
857732000 0.616086790824 -0.500881344671
857741000 0.616743540132 -0.500687672348
857750000 0.614697804527 -0.501114843791
857759000 0.614857890523 -0.50192181689
857768000 0.615098458282 -0.500953344316
857777000 0.614689508727 -0.501156085811
857786000 0.61409162334 -0.501688223853
857795000 0.614265084676 -0.501562790133
857804000 0.615241814335 -0.501037009596
857813000 0.615968521922 -0.501445925839
857822000 0.615751691126 -0.501556210244
857831000 0.615964902557 -0.500701986099
857840000 0.615499831459 -0.500974661645
857849000 0.615265775016 -0.50089135671
857858000 0.614018918576 -0.501193622523
857867000 0.615149156095 -0.500807050079
857876000 0.615695467947 -0.501524147714
857885000 0.614753818673 -0.501204479669
857894000 0.614516269899 -0.501808879654
857903000 0.615294326312 -0.500975102241
857912000 0.615495325713 -0.500951213323
857921000 0.614996942666 -0.501499639492
857930000 0.616088904313 -0.500618602224
857939000 0.615009907889 -0.501571888225
857948000 0.615087398321 -0.501257779577
857957000 0.615652324056 -0.501437262798
857966000 0.615571567885 -0.501177550033
857975000 0.616341824351 -0.502206956358
857984000 0.619496193296 -0.504319830832
857993000 0.618595371772 -0.503551085548
858002000 0.619685656768 -0.501999720487
858011000 0.61641156811 -0.502157251938
858020000 0.614628187453 -0.500924398973
858029000 0.615526713426 -0.501199735213
858038000 0.614213587152 -0.500943494042
858047000 0.614956936002 -0.500368701248
858056000 0.614449748228 -0.501279125518
858065000 0.615689885981 -0.500414762913
858074000 0.615962379956 -0.500081962094
858083000 0.615646269277 -0.500386858015
858092000 0.615139918627 -0.501140852397
858101000 0.614412643775 -0.500457840237
858110000 0.615803122307 -0.50020015399
858119000 0.614333929972 -0.500650220758
858128000 0.61438978662 -0.500840049892
858137000 0.61422364466 -0.500550360397
858146000 0.615023649542 -0.501540518092
858155000 0.614889657095 -0.501718538649
858164000 0.615299268433 -0.501564071111
858173000 0.615436630798 -0.502179234827
858182000 0.615633497255 -0.501878831872
858191000 0.615070048231 -0.502112247529
858200000 0.615169120059 -0.502676931659
858209000 0.615389315673 -0.50239131725
858218000 0.615358838869 -0.501857830943
858227000 0.616343275432 -0.502158282962
858236000 0.61623115744 -0.500858904617
858245000 0.614822143138 -0.500639781129
858254000 0.615812948245 -0.501444823451
858263000 0.616727338654 -0.501234775427
858272000 0.616098690711 -0.502107248336
858281000 0.615878963935 -0.501876934278
858290000 0.615424761644 -0.501985078091
858299000 0.615969527413 -0.502242840495
858308000 0.616035367912 -0.502502846198
858317000 0.615478881137 -0.502559731105
858326000 0.615393716989 -0.502402831389
858335000 0.614601135888 -0.501511181866
858344000 0.615034245498 -0.501824257354
858353000 0.615256627202 -0.501242429443
858362000 0.614775813306 -0.500714946862
858371000 0.615420279836 -0.500908226789
858380000 0.616011090724 -0.501437549327
858389000 0.616449113428 -0.501310888615
858398000 0.617029441702 -0.501699759999
858407000 0.616206286729 -0.501142086848
858416000 0.616815653954 -0.502010541116
858425000 0.616672031328 -0.502206769897
858434000 0.61724943214 -0.502260851383
858443000 0.616342408807 -0.501501786008
858452000 0.61772553152 -0.50135342377
858461000 0.616251152991 -0.502027720438
858470000 0.615722249421 -0.501716439905
858479000 0.615058545594 -0.500924257789
858488000 0.614980778779 -0.501404001203
858497000 0.61498696718 -0.502124008625
858506000 0.614254593666 -0.502453517
858515000 0.614722411737 -0.502115655826
858524000 0.614883223824 -0.501832569899
858533000 0.614865829841 -0.500797887911
858542000 0.614773219693 -0.501166468141
858551000 0.614776902631 -0.501976762027
858560000 0.6143275595 -0.50146048975
858569000 0.614778288457 -0.502150575923
858578000 0.61451870184 -0.501736049148
858587000 0.615561954095 -0.501179166812
858596000 0.614599019431 -0.501481609032
858605000 0.615353835484 -0.50208781584
858614000 0.615618264538 -0.501377919397
858623000 0.615482841925 -0.50153179148
858632000 0.615532296651 -0.502107089957
858641000 0.615151740728 -0.501269430596
858650000 0.615485052968 -0.501495625139
858659000 0.615487168457 -0.501935579753
858668000 0.616411155818 -0.50126380104
858677000 0.616272423948 -0.500965465926
858686000 0.615792153791 -0.50090411163
858695000 0.615659336023 -0.500668897018
858704000 0.615490063028 -0.500623361931
858713000 0.615470163053 -0.500730883593
858722000 0.614942994243 -0.501583179654
858731000 0.614895072395 -0.502333055688
858740000 0.614707716723 -0.502754308408
858749000 0.614622120485 -0.502640765232
858758000 0.614839315566 -0.502420950701
858767000 0.61456134843 -0.501967265619
858776000 0.615319494962 -0.50159562518
858785000 0.614880506541 -0.501908006745
858794000 0.614908567828 -0.502332920696
858803000 0.614615950993 -0.502559628121
858812000 0.614273406007 -0.501525256439
858821000 0.614431497487 -0.501729231501
858830000 0.614589981913 -0.502271065993
858839000 0.614878694725 -0.501802801208
858848000 0.614379632792 -0.501489006532
858857000 0.614397332212 -0.501735723849
858866000 0.615053517205 -0.501717212426
858875000 0.615535863066 -0.501778494996
858884000 0.614232721505 -0.501588505369
858893000 0.614602945581 -0.501764592315
858902000 0.614790680978 -0.502085791543
858911000 0.614820483445 -0.50126310474
858920000 0.614363271032 -0.500365008814
858929000 0.614457352835 -0.500659998194
858938000 0.613707372972 -0.501859171639
858947000 0.614938191654 -0.50028275442
858956000 0.614916420564 -0.501678585644
858965000 0.616319445257 -0.501056302144
858974000 0.615599902318 -0.501591342587
858983000 0.615790234526 -0.501739438815
858992000 0.615113299993 -0.501139608286
859001000 0.615110741435 -0.501345895217
859010000 0.614882576919 -0.501858457465
859019000 0.614926991998 -0.501128971317
859028000 0.615549075955 -0.501893513084
859037000 0.615169626379 -0.502359346067
859046000 0.614796074408 -0.501993981776
859055000 0.615372221478 -0.502087333089
859064000 0.615249887753 -0.502454017594
859073000 0.616318122511 -0.50331959222
859082000 0.616181567135 -0.502513671043
859091000 0.61518826434 -0.502785065131
859100000 0.615511219495 -0.501764121176
859109000 0.614781379851 -0.502137451414
859118000 0.614225166901 -0.5017778049
859127000 0.614584090674 -0.502065410192
859136000 0.615457796955 -0.502323472682
859145000 0.615439526114 -0.501584724654
859154000 0.615377000111 -0.501789588105
859163000 0.614915032659 -0.501489945599
859172000 0.616262623665 -0.501590165801
859181000 0.614951055925 -0.501932031821
859190000 0.615739009611 -0.50170110078
859199000 0.615905414107 -0.501779542662
859208000 0.61505491818 -0.501947443078
859217000 0.615654334985 -0.502266388361
859226000 0.615814351333 -0.501734913565
859235000 0.615239351847 -0.502295308243
859244000 0.614903113423 -0.502370566442
859253000 0.614738536059 -0.503299968752
859262000 0.614739306662 -0.502032303587
859271000 0.614726789123 -0.501711596101
859280000 0.615332170849 -0.501223265494
859289000 0.614945400362 -0.501207823745
859298000 0.615151606788 -0.501347647849
859307000 0.61505523083 -0.50156954434
859316000 0.614527818905 -0.501841371004
859325000 0.61510035264 -0.50189044721
859334000 0.615475748288 -0.502397006983
859343000 0.614278839811 -0.502114913199
859352000 0.614981351145 -0.50232717979
859361000 0.614693869245 -0.502684515589
859370000 0.615227454496 -0.501987628008
859379000 0.615252023479 -0.501981253935
859388000 0.615419029276 -0.50206948889
859397000 0.61550654474 -0.502697931986
859406000 0.615802122529 -0.502627909106
859415000 0.615822327625 -0.502783826849
859424000 0.616337237199 -0.502857164453
859433000 0.615188168147 -0.503104059476
859442000 0.615452938327 -0.503017186571
859451000 0.61481025323 -0.502427555223
859460000 0.615240604639 -0.502141645298
859469000 0.614919455561 -0.502042710695
859478000 0.615256026402 -0.500928723804
859487000 0.614490014475 -0.499939412126
859496000 0.615667304971 -0.501246653423
859505000 0.61567181426 -0.501346029024
859514000 0.615486352556 -0.500898543616
859523000 0.615099226501 -0.50170892781
859532000 0.615378367405 -0.502004705119
859541000 0.61611394008 -0.502540670608
859550000 0.615083997074 -0.502728560207
859559000 0.615185144611 -0.503054607433
859568000 0.615358038402 -0.50259565773
859577000 0.615676947519 -0.501876743012
859586000 0.61551175755 -0.50170745199
859595000 0.614445256343 -0.501584043008
859604000 0.614820255383 -0.502319908541
859613000 0.61555773136 -0.501085721763
859622000 0.615827212715 -0.502109750482
859631000 0.616055337646 -0.502006286795
859640000 0.616846476026 -0.502482701883
859649000 0.616123093951 -0.502747620726
859658000 0.616299651166 -0.502873411908
859667000 0.615431337186 -0.502099981388
859676000 0.614733010474 -0.50241726278
859685000 0.614910413489 -0.501764945183
859694000 0.615276323817 -0.50204523786
859703000 0.614456783097 -0.502331904501
859712000 0.614379850762 -0.502573894106
859721000 0.614760228162 -0.502649754689
859730000 0.615033178804 -0.502025447431
859739000 0.614401294586 -0.502384305287
859748000 0.614717633405 -0.502738118323
859757000 0.615499279465 -0.502219316389
859766000 0.615408509361 -0.50331523816
859775000 0.616043395617 -0.502342327763
859784000 0.614777545037 -0.502445183431
859793000 0.614855358718 -0.501927511973
859802000 0.614308790978 -0.501267098556
859811000 0.614488206822 -0.502981376813
859820000 0.614739612885 -0.502178783077
859829000 0.615153517542 -0.503178439269
859838000 0.615097768466 -0.502349915406
859847000 0.615190120082 -0.502359335321
859856000 0.615703471521 -0.5020904873
859865000 0.615535430392 -0.502100964992
859874000 0.61475089506 -0.502375497769
859883000 0.614661282283 -0.501037601855
859892000 0.614459456325 -0.501081102213
859901000 0.614447609647 -0.501788974999
859910000 0.615271647498 -0.501669186851
859919000 0.615580810881 -0.501484426752
859928000 0.615045800168 -0.501948121644
859937000 0.614817634222 -0.502549757925
859946000 0.615611693702 -0.502578924432
859955000 0.615485687137 -0.502074494245
859964000 0.615380102896 -0.50325930322
859973000 0.615147913129 -0.502218903551
859982000 0.614665605709 -0.502024230273
859991000 0.615183031014 -0.502620007401
860000000 0.614889499713 -0.502039696988
860009000 0.61434647854 -0.503120269908
860018000 0.614943043747 -0.50286503916
860027000 0.615975476704 -0.5026950392
860036000 0.615642384413 -0.502086467891
860045000 0.615210418242 -0.502531914296
860054000 0.61522840114 -0.50240881609
860063000 0.614205110754 -0.50309126476
860072000 0.614144203851 -0.503122319521
860081000 0.61409814702 -0.503195140202
860090000 0.613471852877 -0.503536588807
860099000 0.614463238284 -0.503346326828
860108000 0.613778985758 -0.503303691222
860117000 0.614779362489 -0.501833926246
860126000 0.615384394389 -0.501544374641
860135000 0.615389653195 -0.501874168114
860144000 0.6158141911 -0.50264014871
860153000 0.61513448789 -0.503238511555
860162000 0.615938168171 -0.50289748075
860171000 0.615674615492 -0.501806893962
860180000 0.615304971715 -0.502237617491
860189000 0.615644573581 -0.503475364586
860198000 0.614419843078 -0.503165641715
860207000 0.614739337064 -0.50249869758
860216000 0.61411396908 -0.502745335143
860225000 0.615403990787 -0.50322883907
860234000 0.614959506391 -0.501696193249
860243000 0.614589887203 -0.502045649855
860252000 0.615473771693 -0.502514918997
860261000 0.615568512052 -0.502200504274
860270000 0.615507565402 -0.501874360818
860279000 0.614954587362 -0.50227884538
860288000 0.614901915393 -0.502482001106
860297000 0.6153582127 -0.501892522013
860306000 0.614522554973 -0.501716803752
860315000 0.615116649216 -0.501938834017
860324000 0.614224131696 -0.501504501012
860333000 0.615114940691 -0.501553022715
860342000 0.615382838658 -0.501926802551
860351000 0.616002099057 -0.501853638964
860360000 0.614981846992 -0.502521480731
860369000 0.615008756149 -0.50237346344
860378000 0.61450628016 -0.502882226637
860387000 0.614807264048 -0.502123352322
860396000 0.615363119298 -0.501231779725
860405000 0.615316037291 -0.501301142939
860414000 0.615935490953 -0.501917283595
860423000 0.615458914646 -0.502086879713
860432000 0.615569866745 -0.502027290463
860441000 0.615742756899 -0.503273863692
860450000 0.615270834917 -0.503164542136
860459000 0.615443812432 -0.503566209969
860468000 0.61582495977 -0.504021252272
860477000 0.615601151724 -0.503338548623
860486000 0.615429846535 -0.504165493577
860495000 0.615035470964 -0.504749805264
860504000 0.614549717476 -0.503494040889
860513000 0.614529300456 -0.503638541725
860522000 0.614466622854 -0.503673521533
860531000 0.614072399869 -0.503453870552
860540000 0.614425211601 -0.502789462194
860549000 0.614797304432 -0.503238049553
860558000 0.614982725389 -0.502891311808
860567000 0.614953250756 -0.503036056547
860576000 0.615587782561 -0.503139708881
860585000 0.616037541639 -0.503071235515
860594000 0.61569301192 -0.503916312527
860603000 0.615433664567 -0.502732598596
860612000 0.615015883175 -0.502227692732
860621000 0.615352553144 -0.501909350976
860630000 0.615550398867 -0.501460905544
860639000 0.615431736481 -0.501209717222
860648000 0.61523550152 -0.502538132105
860657000 0.614911250238 -0.502503508143
860666000 0.615407995538 -0.502415626077
860675000 0.614707035534 -0.502542641827
860684000 0.614757614331 -0.501541964102
860693000 0.614670399578 -0.501549028722
860702000 0.614800364416 -0.501669354494
860711000 0.614844418628 -0.501928164544
860720000 0.61438711131 -0.501726121103
860729000 0.6143719466 -0.502062842292
860738000 0.614001882132 -0.502377755883
860747000 0.614030053071 -0.50354827912
860756000 0.614549868899 -0.503408955955
860765000 0.614392308458 -0.503889510435
860774000 0.614480510166 -0.503750636653
860783000 0.61464374284 -0.503334044224
860792000 0.614444590829 -0.502926032307
860801000 0.614225189134 -0.503094707182
860810000 0.61436813362 -0.502544872526
860819000 0.614955660003 -0.503372957368
860828000 0.615166901343 -0.502696692666
860837000 0.614406046767 -0.503585798639
860846000 0.614719562532 -0.502677914314
860855000 0.615364338346 -0.502959151992
860864000 0.614963050438 -0.503024733043
860873000 0.615624802085 -0.503740962823
860882000 0.615034421356 -0.503187783602
860891000 0.614895126527 -0.503092802596
860900000 0.61473536003 -0.503307107337
860909000 0.615068135305 -0.503802322146
860918000 0.615329661243 -0.502780400268
860927000 0.614924185966 -0.502992830022
860936000 0.615836665487 -0.50306692683
860945000 0.615541923346 -0.502938018787
860954000 0.616239409678 -0.502304727892
860963000 0.615733990237 -0.502340782112
860972000 0.615555836992 -0.502809880879
860981000 0.614487591042 -0.502830586301
860990000 0.614955092212 -0.503023928964
860999000 0.61539442695 -0.502939081984
861008000 0.614600529185 -0.503188076622
861017000 0.614389464337 -0.503277572922
861026000 0.614274372916 -0.502762508252
861035000 0.614607557073 -0.502735142135
861044000 0.614918840042 -0.503389709005
861053000 0.615045712849 -0.503026363749
861062000 0.614960745499 -0.502289863798
861071000 0.614861228912 -0.502700970907
861080000 0.614793766901 -0.502919686849
861089000 0.614494341899 -0.50374665664
861098000 0.614532135697 -0.504458793539
861107000 0.614986428375 -0.504576840065
861116000 0.61575548614 -0.503515623445
861125000 0.615662262205 -0.503460813978
861134000 0.615075979776 -0.504046066132
861143000 0.615253176913 -0.503199573698
861152000 0.614862845854 -0.503785919215
861161000 0.614682791048 -0.503853276927
861170000 0.614291848296 -0.503498402537
861179000 0.613993737376 -0.502351726903
861188000 0.614801502804 -0.502901079998
861197000 0.615263617235 -0.502998007855
861206000 0.615145648445 -0.503667251949
861215000 0.615213552939 -0.503556775657
861224000 0.618429859184 -0.4928072442
861233000 0.624263030108 -0.51813720689
861242000 0.617339560032 -0.502347125369
861251000 0.614457852223 -0.504288310321
861260000 0.616534678279 -0.502580844845
861269000 0.616193240442 -0.503317178756
861278000 0.616206585079 -0.503471335434
861287000 0.614536962284 -0.503296945156
861296000 0.614802260564 -0.504247460531
861305000 0.614791235971 -0.503589939562
861314000 0.615223776164 -0.503055711425
861323000 0.615804948277 -0.502508651567
861332000 0.615684454109 -0.502563982704
861341000 0.615365738844 -0.502950730434
861350000 0.61458278851 -0.503808281416
861359000 0.614878824653 -0.5039735908
861368000 0.614561824696 -0.503967375096
861377000 0.614488697767 -0.502763451344
861386000 0.613999984525 -0.502962465333
861395000 0.615055083673 -0.502963022466
861404000 0.614497945859 -0.503059542298
861413000 0.615233723709 -0.503206419339
861422000 0.615393607246 -0.50347193603
861431000 0.614145693764 -0.503074404732
861440000 0.615149056413 -0.503833541486
861449000 0.615800449709 -0.503641094454
861458000 0.615707639748 -0.50357944241
861467000 0.616719729724 -0.503950309783
861476000 0.616181424102 -0.504344703642
861485000 0.617179380005 -0.504905102505
861494000 0.614650290091 -0.503715876799
861503000 0.614747415246 -0.502880851008
861512000 0.615220295582 -0.503207531392
861521000 0.615504099649 -0.503283573183
861530000 0.615596215458 -0.503291192539
861539000 0.615552513472 -0.503583757454
861548000 0.614714283488 -0.503709021225
861557000 0.615152532236 -0.503583250838
861566000 0.614932168132 -0.503712514489
861575000 0.615072753669 -0.503522523734
861584000 0.614486619679 -0.504036262312
861593000 0.613798760319 -0.504397365162
861602000 0.61385917699 -0.504425478317
861611000 0.613413224607 -0.504038927699
861620000 0.614461428957 -0.504167730265
861629000 0.614841027861 -0.503749662956
861638000 0.616967573452 -0.503288281359
861647000 0.616237812807 -0.502978620882
861656000 0.615292722159 -0.50244952367
861665000 0.615327113224 -0.502749628396
861674000 0.614223726842 -0.503173265256
861683000 0.614873034979 -0.504056876836
861692000 0.615350830186 -0.503279574681
861701000 0.615131129775 -0.504371464099
861710000 0.614599769876 -0.504525437536
861719000 0.615412971344 -0.505133564644
861728000 0.616088888841 -0.504847476643
861737000 0.615312957482 -0.504146297233
861746000 0.615708041922 -0.504220352425
861755000 0.61594300305 -0.504086080619
861764000 0.61559393047 -0.503917507819
861773000 0.615294544199 -0.503885137992
861782000 0.615290801927 -0.503511425375
861791000 0.614669622175 -0.503833614883
861800000 0.614640411844 -0.502955552217
861809000 0.614352142206 -0.502808967556
861818000 0.614039889504 -0.502503619661
861827000 0.614999588526 -0.503127274556
861836000 0.615440252897 -0.503190279077
861845000 0.616149917875 -0.504001495543
861854000 0.615249920651 -0.503736537542
861863000 0.615550379909 -0.504236118697
861872000 0.614438640055 -0.505260457122
861881000 0.615457627295 -0.50450193137
861890000 0.614115029396 -0.505216485842
861899000 0.614499932812 -0.504858669745
861908000 0.616141351205 -0.504865417623
861917000 0.615118736602 -0.504606297259
861926000 0.616317911754 -0.503580661176
861935000 0.616113230354 -0.50361616213
861944000 0.615632034506 -0.504999207108
861953000 0.615269596472 -0.504388931839
861962000 0.615365354558 -0.503892817607
861971000 0.615118560251 -0.504224415465
861980000 0.614838334905 -0.503538557312
861989000 0.616320265668 -0.503962134841
861998000 0.615144840512 -0.503762141239
862007000 0.614617523815 -0.504378305708
862016000 0.6152338295 -0.504751706049
862025000 0.61579917807 -0.504503574467
862034000 0.61489421672 -0.504079257856
862043000 0.614941545397 -0.503548630746
862052000 0.616067507439 -0.503816725309
862061000 0.614810847328 -0.503589603008
862070000 0.615810508871 -0.504662217632
862079000 0.615440446916 -0.504338339143
862088000 0.614540563643 -0.505042794001
862097000 0.614212600264 -0.504992770985
862106000 0.614356033861 -0.504975000842
862115000 0.614920377982 -0.504578290246
862124000 0.615647415165 -0.504175654967
862133000 0.615059110239 -0.504727041832
862142000 0.61575001357 -0.50384028663
862151000 0.615485145456 -0.503778166716
862160000 0.61402726841 -0.503623206888
862169000 0.614692788471 -0.503731420957
862178000 0.614925004336 -0.503898963011
862187000 0.614176041344 -0.504470025379
862196000 0.613940032293 -0.50460433946
862205000 0.614399475579 -0.504275991362
862214000 0.614689495366 -0.503873748673
862223000 0.614608106105 -0.504684725686
862232000 0.614475975962 -0.504409529916
862241000 0.613602179635 -0.503559141267
862250000 0.614445037169 -0.503826198154
862259000 0.614532713535 -0.504406462017
862268000 0.615232694918 -0.504375787006
862277000 0.615425015831 -0.503992619548
862286000 0.6158194457 -0.504530312811
862295000 0.615081230851 -0.504157507547
862304000 0.61528891742 -0.504069593271
862313000 0.614334385076 -0.503645596169
862322000 0.612070065608 -0.503382559581
862331000 0.614395347686 -0.503322872106
862340000 0.614107703849 -0.504439001303
862349000 0.615255347419 -0.504574148163
862358000 0.614411204393 -0.504720885131
862367000 0.615032316818 -0.505006820035
862376000 0.614468278216 -0.505698124399
862385000 0.614905588656 -0.504972185442
862394000 0.613815487347 -0.504586029097
862403000 0.615226870717 -0.504178994476
862412000 0.614590820985 -0.504800249463
862421000 0.614959421342 -0.504306353518
862430000 0.613593588569 -0.504312984655
862439000 0.614600303021 -0.503700010596
862448000 0.614397890884 -0.504701050011
862457000 0.614096585156 -0.505024674355
862466000 0.614637462717 -0.50452956545
862475000 0.615009260052 -0.504883986202
862484000 0.615377246465 -0.504848416377
862493000 0.615260362799 -0.504503003179
862502000 0.614954270718 -0.505372944845
862511000 0.615733716819 -0.505418450027
862520000 0.615334163776 -0.504727215082
862529000 0.614952649962 -0.505620828618
862538000 0.615004404976 -0.505058875513
862547000 0.615012040344 -0.505331292761
862556000 0.614977685717 -0.504771902397
862565000 0.615654081703 -0.50445055031
862574000 0.615464436739 -0.50449678446
862583000 0.615150217703 -0.505015607657
862592000 0.615663765839 -0.504670496613
862601000 0.614498333673 -0.505095765501
862610000 0.614612990797 -0.505410157052
862619000 0.613474940048 -0.505233640223
862628000 0.614894715196 -0.505838132299
862637000 0.615000124685 -0.505079554522
862646000 0.614525445785 -0.505122035727
862655000 0.614798958713 -0.504916749924
862664000 0.614355936612 -0.505333928817
862673000 0.613731359783 -0.505396381302
862682000 0.614553245806 -0.504726479924
862691000 0.615055826506 -0.505032311856
862700000 0.614974982524 -0.503649881445
862709000 0.615574249169 -0.503631337001
862718000 0.622349900742 -0.503380831797
862727000 0.615290356864 -0.503364650809
862736000 0.61404604102 -0.503518327128
862745000 0.614107211638 -0.5047452588
862754000 0.613832064981 -0.503885051377
862763000 0.613137359838 -0.504263216717
862772000 0.613311109579 -0.505323065184
862781000 0.614448205468 -0.504913256389
862790000 0.613847013647 -0.505146884264
862799000 0.614656121494 -0.505137129763
862808000 0.614702084312 -0.504713552456
862817000 0.614826193718 -0.504484783705
862826000 0.614982124046 -0.50388390937
862835000 0.615075933835 -0.504578672222
862844000 0.61508091833 -0.504358832004
862853000 0.615743975629 -0.505303278933
862862000 0.614530385533 -0.504856477166
862871000 0.614283835216 -0.50505956413
862880000 0.614574208835 -0.505831760414
862889000 0.614823355368 -0.50567159277
862898000 0.614346434005 -0.505436829736
862907000 0.614519039584 -0.506316508376
862916000 0.615303524788 -0.50567596407
862925000 0.614363895215 -0.50599615108
862934000 0.614099161833 -0.505779915887
862943000 0.614827887579 -0.505772942967
862952000 0.61495034592 -0.505338301156
862961000 0.615240486689 -0.505493512625
862970000 0.61481192213 -0.504880975288
862979000 0.615702733784 -0.504170749597
862988000 0.61462545798 -0.504750295757
862997000 0.614815754415 -0.504318133058
863006000 0.614590936104 -0.504250549092
863015000 0.613936104827 -0.504700108188
863024000 0.613696488301 -0.504756201882
863033000 0.614089451578 -0.50511128441
863042000 0.614816540708 -0.505772098823
863051000 0.615528360848 -0.505133530949
863060000 0.615126177414 -0.505161246815
863069000 0.614893547032 -0.504911632037
863078000 0.614852641983 -0.50515446855
863087000 0.614437925296 -0.505431206487
863096000 0.615496455574 -0.504801262002
863105000 0.614824945078 -0.504754966522
863114000 0.614602066051 -0.504429416183
863123000 0.614138401996 -0.505050490758
863132000 0.615030754541 -0.504388349844
863141000 0.614514709993 -0.504002059245
863150000 0.615294621037 -0.505004210893
863159000 0.615201841194 -0.504451954078
863168000 0.615960227561 -0.504505944529
863177000 0.614932126384 -0.504789373402
863186000 0.614059121606 -0.50558946096
863195000 0.614383838384 -0.506373877497
863204000 0.614095723554 -0.505249552274
863213000 0.614572145596 -0.504540694907
863222000 0.614700968264 -0.50506917559
863231000 0.615009497524 -0.504682377225
863240000 0.615719553522 -0.504853681441
863249000 0.615966713479 -0.505072079108
863258000 0.615952008828 -0.504905017252
863267000 0.615752271464 -0.504918474944
863276000 0.61544439581 -0.505285944572
863285000 0.615402335558 -0.50448294182
863294000 0.615115701193 -0.506077559388
863303000 0.614771476956 -0.505154819088
863312000 0.614461422091 -0.50531100412
863321000 0.614746616519 -0.505016408225
863330000 0.615664449973 -0.505671939658
863339000 0.615185406964 -0.505780174403
863348000 0.615396887644 -0.505152809559
863357000 0.616234570291 -0.505663847055
863366000 0.615806385356 -0.505193159805
863375000 0.615120420518 -0.50602531554
863384000 0.614713006172 -0.505519972238
863393000 0.6147651617 -0.505498671951
863402000 0.614554578254 -0.505525457884
863411000 0.614900525181 -0.505625496577
863420000 0.615983911459 -0.506389560031
863429000 0.615189518147 -0.505592781755
863438000 0.614703923434 -0.505504010281
863447000 0.614799434584 -0.506240452173
863456000 0.614429208355 -0.504483453263
863465000 0.614123020028 -0.5048121837
863474000 0.61536753707 -0.505334608404
863483000 0.613784195708 -0.505847442821
863492000 0.61593647958 -0.506003458862
863501000 0.615262237074 -0.50497029924
863510000 0.616061747208 -0.505324803182
863519000 0.615395966764 -0.504999996776
863528000 0.614744047952 -0.504784874907
863537000 0.61459582995 -0.504389560824
863546000 0.614274684738 -0.504946563715
863555000 0.615285463403 -0.506291043519
863564000 0.614588623054 -0.50510913789
863573000 0.614884116071 -0.506376396757
863582000 0.61440672835 -0.505364417622
863591000 0.614289476984 -0.505269615003
863600000 0.613292775271 -0.505781756165
863609000 0.614526797548 -0.505111404393
863618000 0.614555670614 -0.504939098517
863627000 0.614097997529 -0.504963251526
863636000 0.613962661607 -0.505398783125
863645000 0.613318083373 -0.504778125004
863654000 0.613799146896 -0.505667270711
863663000 0.614297610823 -0.505319560278
863672000 0.61432828559 -0.505626378922
863681000 0.615654080967 -0.506163425966
863690000 0.61444527344 -0.505843565752
863699000 0.615040416721 -0.505687140131
863708000 0.615240447887 -0.506147682387
863717000 0.614924388802 -0.505357307894
863726000 0.614579943808 -0.505085335513
863735000 0.614617757269 -0.505530459635
863744000 0.61402439197 -0.506256271256
863753000 0.614037249239 -0.50562563443
863762000 0.614095275293 -0.505212453939
863771000 0.614513345509 -0.50555018176
863780000 0.613362471632 -0.506430754921
863789000 0.614748019029 -0.506168507177
863798000 0.614736784644 -0.505483550464
863807000 0.613925926491 -0.505304068367
863816000 0.613638795458 -0.504855759983
863825000 0.613615722567 -0.504719407395
863834000 0.613518333069 -0.50520789441
863843000 0.61398959592 -0.505784128907
863852000 0.614305396828 -0.505984610327
863861000 0.614011050557 -0.505988501801
863870000 0.614128947643 -0.505650694944
863879000 0.614696770512 -0.505176129656
863888000 0.614485342419 -0.505165487841
863897000 0.614609085189 -0.504086047826
863906000 0.613871136015 -0.504000112124
863915000 0.614854046733 -0.503884949457
863924000 0.614162595914 -0.505526375227
863933000 0.614238522113 -0.5054493787
863942000 0.613493966897 -0.506632489306
863951000 0.614143962274 -0.50686237362
863960000 0.614491210203 -0.507260605527
863969000 0.615433478101 -0.506227517418
863978000 0.615282739054 -0.506202642247
863987000 0.61605745633 -0.506170456356
863996000 0.61569234586 -0.505781964964
864005000 0.615336764191 -0.506304981882
864014000 0.614274243585 -0.505336740606
864023000 0.61437846368 -0.504963864674
864032000 0.61460823243 -0.503610681752
864041000 0.614200650335 -0.504466874838
864050000 0.614560537109 -0.505299441755
864059000 0.61357384108 -0.506080892546
864068000 0.614664572559 -0.50582303218
864077000 0.614423482795 -0.506090233298
864086000 0.614563089487 -0.507083819213
864095000 0.614834341316 -0.506139114236
864104000 0.613705343746 -0.505373447671
864113000 0.61367877621 -0.505145823448
864122000 0.615737691698 -0.505239410517
864131000 0.614917717828 -0.505377989346
864140000 0.615001315775 -0.504893670764
864149000 0.614877603156 -0.505829814234
864158000 0.614012348549 -0.505104996821
864167000 0.613561908299 -0.506517638437
864176000 0.613036568973 -0.506408735162
864185000 0.61361982582 -0.506607563215
864194000 0.61427635559 -0.506011454484
864203000 0.61424193853 -0.50549653607
864212000 0.6141217662 -0.505468923476
864221000 0.614429675048 -0.504578991843
864230000 0.615028624536 -0.504031771332
864239000 0.614417276125 -0.503688195533
864248000 0.614393096169 -0.504228632986
864257000 0.613918574462 -0.505303040431
864266000 0.614730168622 -0.505673632483
864275000 0.614183183981 -0.505796948861
864284000 0.614520688378 -0.505888666287
864293000 0.613835083064 -0.505931177893
864302000 0.613354806454 -0.505282534032
864311000 0.612936389443 -0.505199853729
864320000 0.613218398974 -0.505864009286
864329000 0.613366336309 -0.505355680966
864338000 0.61344123189 -0.505944287344
864347000 0.613717817355 -0.505267014591
864356000 0.614001261576 -0.505750640775
864365000 0.613698035404 -0.505350693973
864374000 0.613838182076 -0.505546953823
864383000 0.61376327906 -0.505473748171
864392000 0.614874377195 -0.505229062049
864401000 0.615442142367 -0.506153443728
864410000 0.614537612862 -0.506037625802
864419000 0.61486649038 -0.505829209164
864428000 0.613506915888 -0.506672639322
864437000 0.613006383468 -0.505949987433
864446000 0.614194583465 -0.505244424592
864455000 0.614266659775 -0.505505490837
864464000 0.614673828004 -0.506040090755
864473000 0.615699177103 -0.505593238552
864482000 0.622098365531 -0.51638818454
864491000 0.611733204944 -0.509428584
864500000 0.6153502052 -0.505222939434
864509000 0.613842532518 -0.505650394136
864518000 0.613181542719 -0.505338798601
864527000 0.613649939125 -0.505035614421
864536000 0.613923137301 -0.504841571515
864545000 0.613405375141 -0.504781794691
864554000 0.613809659836 -0.504945837929
864563000 0.613735925563 -0.504806078889
864572000 0.614682308966 -0.506593997622
864581000 0.613692522012 -0.505104364311
864590000 0.614285014633 -0.505440543596
864599000 0.613419727033 -0.505621275068
864608000 0.614241080741 -0.506413648881
864617000 0.61456193723 -0.50675961294
864626000 0.614575708601 -0.506756564921
864635000 0.614701537076 -0.507075083755
864644000 0.61455613196 -0.506859394862
864653000 0.614877241989 -0.506482336473
864662000 0.614187371429 -0.506885490504
864671000 0.614641812921 -0.506982575887
864680000 0.614020071224 -0.506534943835
864689000 0.614289789382 -0.506296995234
864698000 0.614981752185 -0.506291450084
864707000 0.613641029506 -0.506851848885
864716000 0.613378762322 -0.506370498891
864725000 0.613730031123 -0.506240295815
864734000 0.613852332732 -0.505973809865
864743000 0.614070633843 -0.506713032678
864752000 0.613300290848 -0.506193629735
864761000 0.613350746671 -0.50633718233
864770000 0.612163116768 -0.506651831419
864779000 0.612668949671 -0.505437555127
864788000 0.61330514926 -0.504855282383
864797000 0.61346476273 -0.505375147015
864806000 0.613965549513 -0.505317204686
864815000 0.613890548447 -0.504355128075
864824000 0.614379425422 -0.504779147035
864833000 0.614100927466 -0.50519930317
864842000 0.614309333367 -0.504942840813
864851000 0.61383325727 -0.506859893641
864860000 0.614698478125 -0.506646783603
864869000 0.614579128381 -0.506523724671
864878000 0.613738758735 -0.505244577339
864887000 0.612927714248 -0.504463163116
864896000 0.612761372672 -0.504782679456
864905000 0.612001266191 -0.504206987601
864914000 0.612934037209 -0.504318221452
864923000 0.612580669623 -0.504699340476
864932000 0.61403101583 -0.505659470736
864941000 0.613810220273 -0.50673866274
864950000 0.614381196774 -0.507608418771
864959000 0.614373856173 -0.507327516503
864968000 0.614094113151 -0.507877687171
864977000 0.613436345856 -0.507460335831
864986000 0.613328102487 -0.507340208987
864995000 0.612956837116 -0.506836568733
865004000 0.612953644214 -0.507040372067
865013000 0.612837870667 -0.506305123968
865022000 0.614397240605 -0.505273168455
865031000 0.615067532984 -0.504434565618
865040000 0.614775836167 -0.504917941993
865049000 0.615121882448 -0.506192095282
865058000 0.614749681163 -0.506040315751
865067000 0.614907220167 -0.506626080684
865076000 0.614182452839 -0.505964262978
865085000 0.614481756624 -0.506128460088
865094000 0.615265547447 -0.507222508513
865103000 0.614499908668 -0.50633310933
865112000 0.613298886521 -0.506547119271
865121000 0.613878323513 -0.505859638362
865130000 0.613870337693 -0.506102146563
865139000 0.613808312957 -0.505718463305
865148000 0.614424285748 -0.505534847287
865157000 0.613560678858 -0.506093779713
865166000 0.61387883291 -0.506036974597
865175000 0.614144821522 -0.505621892278
865184000 0.613958139534 -0.505711982269
865193000 0.613654590982 -0.506086660077
865202000 0.612877342228 -0.506511429294
865211000 0.612498852091 -0.506612340769
865220000 0.612802833308 -0.506536367052
865229000 0.613384222387 -0.506076904936
865238000 0.612771126686 -0.506351588723
865247000 0.613167940309 -0.506326810963
865256000 0.613487416019 -0.507239472851
865265000 0.613781466021 -0.506890087866
865274000 0.613333877257 -0.507304771149
865283000 0.614008069657 -0.507108712221
865292000 0.613461325561 -0.5066307502
865301000 0.613043405234 -0.506258090205
865310000 0.613882686135 -0.506017397303
865319000 0.614034525628 -0.506284047026
865328000 0.614026303108 -0.50575772648
865337000 0.613265517698 -0.5061646108
865346000 0.612888213022 -0.505946822999
865355000 0.613212479466 -0.505920212835
865364000 0.613840195117 -0.505832828988
865373000 0.613608500649 -0.506756954498
865382000 0.614041471786 -0.507118823681
865391000 0.614738850809 -0.508161997138
865400000 0.614599462672 -0.507680200957
865409000 0.614414837088 -0.506750137091
865418000 0.614036091585 -0.506640163858
865427000 0.614114042564 -0.506734380831
865436000 0.614366413067 -0.506414638643
865445000 0.613699096935 -0.506135707112
865454000 0.613568023382 -0.506471601466
865463000 0.613000958537 -0.507504847474
865472000 0.613761631537 -0.506981473108
865481000 0.614149970632 -0.506079504226
865490000 0.613666023807 -0.506102944324
865499000 0.613503603732 -0.505883233625
865508000 0.613392890815 -0.506558271879
865517000 0.614246556972 -0.507790907548
865526000 0.613325560504 -0.508015654151
865535000 0.612885291311 -0.507280574332
865544000 0.614114098536 -0.507773330456
865553000 0.613511170668 -0.507875753956
865562000 0.61371181555 -0.506919233582
865571000 0.61324566208 -0.507423683132
865580000 0.613767549811 -0.506735647234
865589000 0.613662693008 -0.507926086924
865598000 0.614248243317 -0.50618991287
865607000 0.613179336826 -0.506109375449
865616000 0.613615178596 -0.506816221311
865625000 0.613929422327 -0.507369306985
865634000 0.61328576808 -0.50711724661
865643000 0.612755177009 -0.50760232156
865652000 0.612645452923 -0.507218983012
865661000 0.611945647955 -0.508036280061
865670000 0.612542263015 -0.507769923533
865679000 0.612657645739 -0.50821135935
865688000 0.612463974237 -0.506606483214
865697000 0.612823589211 -0.506815520328
865706000 0.612732792902 -0.506173427926
865715000 0.613507125374 -0.505757596867
865724000 0.61343321034 -0.5052692705
865733000 0.613471637856 -0.505813076071
865742000 0.613706858179 -0.506120411641
865751000 0.613292056794 -0.506258876012
865760000 0.614024692453 -0.506107139749
865769000 0.614117794465 -0.506662059541
865778000 0.613730318488 -0.506364487979
865787000 0.613770481501 -0.507079189539
865796000 0.61228670193 -0.50748621168
865805000 0.613028911601 -0.507502473482
865814000 0.612460840136 -0.50722830861
865823000 0.613068605696 -0.507920398755
865832000 0.612697121977 -0.506965523388
865841000 0.613150380793 -0.507065996215
865850000 0.613399866889 -0.507121071213
865859000 0.613351604134 -0.506171362989
865868000 0.612987667637 -0.50598970039
865877000 0.612937648802 -0.505974637144
865886000 0.61294459988 -0.506646125057
865895000 0.613828035389 -0.50647701208
865904000 0.612662610971 -0.506433838473
865913000 0.613275225917 -0.507288681689
865922000 0.613257938791 -0.507495415242
865931000 0.613427647139 -0.50733958009
865940000 0.612440070336 -0.507218488319
865949000 0.612167756093 -0.507291931309
865958000 0.612282460062 -0.506573470193
865967000 0.612053306074 -0.506963985453
865976000 0.612390446537 -0.508346020152
865985000 0.61312764122 -0.508107992667
865994000 0.613174604293 -0.50729418086
866003000 0.613906011307 -0.507251092551
866012000 0.61393482273 -0.506356405432
866021000 0.612969996684 -0.506241732857
866030000 0.61190413421 -0.506067646243
866039000 0.611084494007 -0.50613433798
866048000 0.611302365974 -0.506670402745
866057000 0.611965855792 -0.506216512737
866066000 0.613022306815 -0.506605976518
866075000 0.612673610865 -0.506589233616
866084000 0.61247260663 -0.506577371043
866093000 0.612570641424 -0.507270367802
866102000 0.611945162346 -0.50590586174
866111000 0.612727989967 -0.506547516163
866120000 0.612976193798 -0.507376888072
866129000 0.613259120862 -0.507227965345
866138000 0.613650032921 -0.506448989345
866147000 0.612572335928 -0.507151738301
866156000 0.612719139926 -0.507368246333
866165000 0.612364664013 -0.507007392162
866174000 0.611867788409 -0.507100247234
866183000 0.610600375345 -0.508184390685
866192000 0.611060294417 -0.506868547745
866201000 0.611219311742 -0.507442349518
866210000 0.611332910856 -0.506791383494
866219000 0.611171685702 -0.507269567812
866228000 0.611525017264 -0.50693185324
866237000 0.612479803525 -0.508324121566
866246000 0.612682097877 -0.507605310866
866255000 0.611681066633 -0.506630661533
866264000 0.612432937399 -0.506627980082
866273000 0.611195647032 -0.506283333014
866282000 0.611384351058 -0.506888316626
866291000 0.611565208199 -0.507319239866
866300000 0.611429742822 -0.508448108362
866309000 0.612170359228 -0.507111396697
866318000 0.61154066351 -0.507096712998
866327000 0.611738933252 -0.507393926825
866336000 0.612254540171 -0.507144706864
866345000 0.612351929496 -0.507224085503
866354000 0.611873452759 -0.507510275961
866363000 0.612712368912 -0.506600742267
866372000 0.612814476193 -0.507331438192
866381000 0.612201934309 -0.50684026997
866390000 0.61318015145 -0.506613286414
866399000 0.611590262412 -0.506450730126
866408000 0.612136411766 -0.507750267339
866417000 0.612520389351 -0.507462786476
866426000 0.613051805517 -0.508087726067
866435000 0.612562975752 -0.507605262329
866444000 0.612207732278 -0.508464745845
866453000 0.612251144941 -0.508324380186
866462000 0.612259724387 -0.50817934738
866471000 0.612644469117 -0.508035612275
866480000 0.613053008654 -0.507376396166
866489000 0.612728661487 -0.507663241549
866498000 0.612275428673 -0.506612773467
866507000 0.612166527272 -0.506388376704
866516000 0.611507456499 -0.507654321711
866525000 0.612027283705 -0.50697173254
866534000 0.611456306345 -0.506812867181
866543000 0.611188760817 -0.507032644531
866552000 0.612058789623 -0.506613608929
866561000 0.612473219683 -0.50618642483
866570000 0.611541083254 -0.506429125474
866579000 0.611904139937 -0.506003428849
866588000 0.612241897876 -0.506551431716
866597000 0.611844788619 -0.506286213874
866606000 0.612041701859 -0.505756654021
866615000 0.612649482809 -0.506549553555
866624000 0.613515934926 -0.507343380219
866633000 0.613764889653 -0.507202317136
866642000 0.613192426023 -0.508803599146
866651000 0.613644173217 -0.508986079105
866660000 0.614729271324 -0.507177617961
866669000 0.611516869485 -0.507926706202
866678000 0.611999154201 -0.507676713809
866687000 0.612472396036 -0.507606520702
866696000 0.612201889313 -0.507452833148
866705000 0.612790273226 -0.506766594126
866714000 0.612499727615 -0.507507356732
866723000 0.612444291909 -0.507454095097
866732000 0.611242386834 -0.507987427314
866741000 0.612284053387 -0.508208483755
866750000 0.612164886179 -0.507916324488
866759000 0.611551493471 -0.506838209322
866768000 0.611997510844 -0.506847317598
866777000 0.611606817561 -0.506979495691
866786000 0.612252246293 -0.50619222041
866795000 0.612478671526 -0.507401424998
866804000 0.611425011135 -0.506768397599
866813000 0.612117251789 -0.507179302771
866822000 0.611972083271 -0.508132030045
866831000 0.612521222171 -0.507927411771
866840000 0.612643749601 -0.506862587976
866849000 0.612233169624 -0.507499935502
866858000 0.612137641763 -0.506771609606
866867000 0.61209897543 -0.505923727784
866876000 0.611727655975 -0.507248639595
866885000 0.611547478115 -0.507153119222
866894000 0.611121716574 -0.506998298348
866903000 0.611762888028 -0.50784889969
866912000 0.611824787448 -0.507908038229
866921000 0.612321577858 -0.507875336674
866930000 0.613426466476 -0.508061362586
866939000 0.612654817334 -0.508140894618
866948000 0.612828450358 -0.508101726635
866957000 0.612404734558 -0.508222463729
866966000 0.612359795839 -0.508316025958
866975000 0.612256804362 -0.507571761987
866984000 0.612793521078 -0.507011804151
866993000 0.612677041741 -0.506429832396
867002000 0.612832827418 -0.506109649547
867011000 0.612169760201 -0.506201804544
867020000 0.61163205784 -0.507180403549
867029000 0.611908291929 -0.507045754328
867038000 0.611791780496 -0.50780954323
867047000 0.610835800369 -0.507314532786
867056000 0.612084025931 -0.507403077279
867065000 0.611984324543 -0.507991908928
867074000 0.611786918735 -0.508972640924
867083000 0.611766442756 -0.507651100645
867092000 0.610834772645 -0.508257062392
867101000 0.610872501194 -0.50800358496
867110000 0.610310401121 -0.507821292994
867119000 0.611020077807 -0.507526461516
867128000 0.611312561383 -0.50838019729
867137000 0.611577732816 -0.508350913334
867146000 0.611829665795 -0.508080074103
867155000 0.611939421537 -0.507899785576
867164000 0.612238639336 -0.508745996319
867173000 0.611507735688 -0.508167603749
867182000 0.612170363206 -0.508174555025
867191000 0.612365913772 -0.508535436112
867200000 0.612376020946 -0.508501328649
867209000 0.612375282819 -0.508093738125
867218000 0.611954565609 -0.506607160849
867227000 0.612231001678 -0.507733580195
867236000 0.61247602053 -0.507247998035
867245000 0.6110729759 -0.508248260483
867254000 0.611197769756 -0.507409249829
867263000 0.611324603933 -0.508526863643
867272000 0.611096707112 -0.508847593195
867281000 0.611787130259 -0.508825904092
867290000 0.611657704808 -0.507493797028
867299000 0.612390447715 -0.507410471015
867308000 0.611740679392 -0.506432014217
867317000 0.612319422719 -0.507436093708
867326000 0.612098177656 -0.506941845674
867335000 0.612322868428 -0.507160317493
867344000 0.612725562957 -0.507706823007
867353000 0.611718572178 -0.506692069943
867362000 0.612151411636 -0.507325400711
867371000 0.61255923525 -0.50675627912
867380000 0.612304717761 -0.507497831407
867389000 0.61315220212 -0.507170149788
867398000 0.613580438766 -0.507722787828
867407000 0.612416057587 -0.507851867403
867416000 0.612319898976 -0.506726123169
867425000 0.612052935202 -0.507800412756
867434000 0.612197932422 -0.507160928553
867443000 0.61287384279 -0.507269653834
867452000 0.612927887239 -0.507487529394
867461000 0.613520563943 -0.508601067317
867470000 0.612817192664 -0.508675363322
867479000 0.612700726693 -0.508534457987
867488000 0.612580507688 -0.509345549938
867497000 0.612144455983 -0.509360348097
867506000 0.612679846015 -0.509090931006
867515000 0.612559363394 -0.508428422631
867524000 0.611925056784 -0.50767274837
867533000 0.61258558507 -0.507058283878
867542000 0.611731190579 -0.507446256798
867551000 0.611821435944 -0.507906979277
867560000 0.612003938087 -0.507542661839
867569000 0.61212526654 -0.507452234978
867578000 0.611823356281 -0.507423840862
867587000 0.611526624825 -0.508080150697
867596000 0.610733181209 -0.507859061628
867605000 0.612328508604 -0.50803352136
867614000 0.612698074733 -0.508829491671
867623000 0.613087543833 -0.508754791641
867632000 0.612745569896 -0.508547106328
867641000 0.612615606912 -0.50936871048
867650000 0.611669109627 -0.509579466763
867659000 0.612217791387 -0.508144266667
867668000 0.61277828524 -0.508043656683
867677000 0.613419319629 -0.507655422682
867686000 0.612528063653 -0.508694886803
867695000 0.612572942265 -0.508023791427
867704000 0.613591711971 -0.50809448201
867713000 0.611801008606 -0.508226938967
867722000 0.611965731525 -0.509144583679
867731000 0.610647649902 -0.50932024956
867740000 0.608766236758 -0.510316209098
867749000 0.610675552229 -0.509266012629
867758000 0.610260585991 -0.509380159396
867767000 0.613306610142 -0.507958154611
867776000 0.613183339021 -0.507929811246
867785000 0.614002353151 -0.508271772425
867794000 0.613231900447 -0.507941908312
867803000 0.61312321213 -0.508409534265
867812000 0.612063688851 -0.508124237625
867821000 0.612764718674 -0.508645973557
867830000 0.611748973018 -0.509262156437
867839000 0.613010375479 -0.507828547851
867848000 0.612076380009 -0.508254946613
867857000 0.612596801478 -0.507929016735
867866000 0.612995292194 -0.507962754008
867875000 0.612719469877 -0.507601227908
867884000 0.612526405384 -0.507823138092
867893000 0.613372191576 -0.508248702037
867902000 0.612817243973 -0.508919642343
867911000 0.611864112643 -0.509435008916
867920000 0.612632345041 -0.509318522252
867929000 0.612565841318 -0.508299105582
867938000 0.611468874018 -0.508474178768
867947000 0.612197625738 -0.508393811604
867956000 0.611655301315 -0.508536113269
867965000 0.611197727369 -0.508411910364
867974000 0.611386899793 -0.507232484045
867983000 0.611682064283 -0.507675060331
867992000 0.611379116413 -0.506432532918
868001000 0.611159591231 -0.508113434622
868010000 0.611163037971 -0.507554491541
868019000 0.611073800757 -0.508288211003
868028000 0.611447621294 -0.508597231528
868037000 0.61207232364 -0.508616941618
868046000 0.612698638369 -0.507851215408
868055000 0.612897933285 -0.509214946376
868064000 0.612752245688 -0.509607445322
868073000 0.611983529852 -0.509720139866
868082000 0.61252201193 -0.508459392556
868091000 0.612291483941 -0.508813754317
868100000 0.611842268319 -0.508904860454
868109000 0.613534173977 -0.50870482139
868118000 0.612941262974 -0.50859702886
868127000 0.612764049898 -0.508489057945
868136000 0.61333662868 -0.509079210059
868145000 0.612908105403 -0.509320896215
868154000 0.612977932112 -0.508174032017
868163000 0.613130176921 -0.508030186191
868172000 0.612303056869 -0.507356585823
868181000 0.612057306142 -0.507640966949
868190000 0.611468672557 -0.509273250848
868199000 0.611757469389 -0.510238830179
868208000 0.612155739805 -0.508990716841
868217000 0.612212150914 -0.508134385215
868226000 0.611224604285 -0.508034812126
868235000 0.612435279006 -0.508187697061
868244000 0.612441291294 -0.508737847552
868253000 0.613551080538 -0.508414143976
868262000 0.613557590164 -0.51003422016
868271000 0.613481060586 -0.508447380563
868280000 0.612858737768 -0.509791724036
868289000 0.612525719154 -0.508968411211
868298000 0.613057886841 -0.509517966342
868307000 0.61238495069 -0.509868049107
868316000 0.612843855652 -0.508569430066
868325000 0.612680611355 -0.509393980499
868334000 0.613092844107 -0.509797209485
868343000 0.613467150792 -0.508608773951
868352000 0.612680347718 -0.509932022195
868361000 0.613214122651 -0.5092014104
868370000 0.613731127145 -0.509149194634
868379000 0.613256329802 -0.508811763107
868388000 0.613343414886 -0.509058397733
868397000 0.612577094979 -0.509159119399
868406000 0.612591110722 -0.509071878698
868415000 0.612931419526 -0.510198105029
868424000 0.612328913483 -0.509941265038
868433000 0.612446410525 -0.509680202912
868442000 0.611575704845 -0.509141707477
868451000 0.611330861909 -0.509160868596
868460000 0.611891653147 -0.50852904178
868469000 0.611716614116 -0.509043599756
868478000 0.611670437879 -0.509151063441
868487000 0.611631761313 -0.508546453902
868496000 0.611639091582 -0.508632962801
868505000 0.612308324066 -0.508673361538
868514000 0.612909785717 -0.508898113213
868523000 0.61320344063 -0.506815924607
868532000 0.612848006842 -0.50869333889
868541000 0.613799493948 -0.50841113492
868550000 0.613410619766 -0.509266428275
868559000 0.612542035493 -0.509852704578
868568000 0.612881626468 -0.510456333846
868577000 0.611953810002 -0.510077126231
868586000 0.611841230757 -0.50977313831
868595000 0.613005318688 -0.508687630469
868604000 0.612959848828 -0.50900312344
868613000 0.612249729913 -0.508563003757
868622000 0.612653125631 -0.508497008218
868631000 0.611859497861 -0.50875645962
868640000 0.612213413323 -0.508702143659
868649000 0.61320856337 -0.509157605209
868658000 0.61315685708 -0.509018086334
868667000 0.61276640333 -0.50890165122
868676000 0.612260944553 -0.509801114382
868685000 0.612804431065 -0.509665203885
868694000 0.612296318078 -0.509791733686
868703000 0.611846838394 -0.509515935311
868712000 0.611676812592 -0.50967091439
868721000 0.611405877677 -0.510104759073
868730000 0.613238618102 -0.509790807444
868739000 0.613047873054 -0.50913019022
868748000 0.612461741709 -0.508895720961
868757000 0.612524440047 -0.509241766121
868766000 0.612581412584 -0.509710867794
868775000 0.612104632355 -0.509872693727
868784000 0.612778195741 -0.508890835929
868793000 0.611543331399 -0.509086572952
868802000 0.612936860541 -0.509437879994
868811000 0.612609949512 -0.50888982912
868820000 0.612730666506 -0.50897940145
868829000 0.612960384129 -0.509061544719
868838000 0.612839221023 -0.509419537813
868847000 0.612720916089 -0.509433840084
868856000 0.612365251762 -0.509833241055
868865000 0.612713134294 -0.50914629169
868874000 0.612702338806 -0.509533227552
868883000 0.613173958178 -0.510016235984
868892000 0.61301306797 -0.509117873813
868901000 0.61304848834 -0.509642638738
868910000 0.612840936512 -0.50935975323
868919000 0.612198393287 -0.509277747847
868928000 0.612177449677 -0.509704563937
868937000 0.612322805958 -0.510857226419
868946000 0.612552569862 -0.510201941509
868955000 0.61269381526 -0.510143483586
868964000 0.612754347279 -0.510044802005
868973000 0.613731376418 -0.509778511273
868982000 0.612717958463 -0.509307622778
868991000 0.612623489 -0.509086060775
869000000 0.6131375167 -0.508011021498
