! Calibrated averaged scanner-service zoom
# Hz S RI R 50
935000000 0.536212268282 -0.556618380863
935006000 0.536438281861 -0.557649654086
935012000 0.535447758463 -0.555438014262
935018000 0.537446033427 -0.554648471567
935024000 0.535111026599 -0.553615415497
935030000 0.537998835419 -0.551727180057
935036000 0.539074691405 -0.548221201002
935042000 0.538350931213 -0.549035123763
935048000 0.538312048461 -0.549945809671
935054000 0.539001371818 -0.55326795162
935060000 0.540532623003 -0.555464843971
935066000 0.537235341119 -0.559211853277
935072000 0.537184244357 -0.554907056693
935078000 0.536367156151 -0.553678455365
935084000 0.534742622198 -0.555214169969
935090000 0.536532096663 -0.539303440785
935096000 0.533159704914 -0.549653091421
935102000 0.530625286377 -0.5511575661
935108000 0.532600316533 -0.551830852404
935114000 0.533108489808 -0.551707944385
935120000 0.53168310138 -0.554202677035
935126000 0.531235371365 -0.550081783714
935132000 0.532576239408 -0.54994049482
935138000 0.533203446723 -0.55289112161
935144000 0.535079655009 -0.549824589128
935150000 0.535563366011 -0.551549717435
935156000 0.537387075769 -0.552781479109
935162000 0.535534098375 -0.550794769383
935168000 0.531947872847 -0.552684635179
935174000 0.530723387453 -0.55428672976
935180000 0.534799051654 -0.553132368841
935186000 0.533295634198 -0.554095006676
935192000 0.531413381561 -0.551938416139
935198000 0.53597814824 -0.553951739762
935204000 0.533463791825 -0.553292744865
935210000 0.533897901065 -0.551180959504
935216000 0.538845184963 -0.548915016893
935222000 0.535791538105 -0.552090023509
935228000 0.538303729683 -0.552015694233
935234000 0.536171166416 -0.551944866792
935240000 0.536835052913 -0.556283056844
935246000 0.535685808997 -0.555163631825
935252000 0.537739610512 -0.55594276444
935258000 0.540298323576 -0.554081227151
935264000 0.543003896281 -0.55752913296
935270000 0.543182227425 -0.548234132863
935276000 0.541252534198 -0.557168202876
935282000 0.541055159464 -0.552156360022
935288000 0.53861536783 -0.552931493516
935294000 0.536311426978 -0.553205481277
935300000 0.531464052086 -0.556175555494
935306000 0.534871270647 -0.554724963021
935312000 0.538734235183 -0.55389928578
935318000 0.53719041103 -0.554735610408
935324000 0.538084852972 -0.555250006381
935330000 0.53956287244 -0.551812439211
935336000 0.538360544822 -0.554366189359
935342000 0.534864735244 -0.554588547639
935348000 0.534814273282 -0.553362260359
935354000 0.532079163814 -0.552276806708
935360000 0.535825669279 -0.55548368981
935366000 0.536504740216 -0.549357147576
935372000 0.536464223156 -0.553466331243
935378000 0.535194684455 -0.552957223101
935384000 0.535500339002 -0.552682638107
935390000 0.535245204384 -0.553863918009
935396000 0.535818485628 -0.553565531854
935402000 0.534331038236 -0.553081530421
935408000 0.533812381644 -0.552893018808
935414000 0.534467001345 -0.551699596377
935420000 0.534084175588 -0.555809277484
935426000 0.535884847745 -0.555499398336
935432000 0.533561941021 -0.553589919856
935438000 0.538944492222 -0.551584830366
935444000 0.539519985055 -0.552780704722
935450000 0.533622056243 -0.557434915329
935456000 0.536637264205 -0.554788541471
935462000 0.535317312402 -0.555984457884
935468000 0.536765121857 -0.557351588045
935474000 0.535841378447 -0.556910201786
935480000 0.535354060936 -0.556073794584
935486000 0.537632977253 -0.556565476854
935492000 0.53982696883 -0.55685718506
935498000 0.542073079018 -0.555002893891
935504000 0.539572285837 -0.55489566326
935510000 0.539565478976 -0.554576418498
935516000 0.538520823893 -0.554452934199
935522000 0.537312565244 -0.552729255428
935528000 0.537369094718 -0.553459266241
935534000 0.534686494626 -0.555581030239
935540000 0.53487697641 -0.550592854487
935546000 0.534459118685 -0.553838466646
935552000 0.534890724691 -0.549772500311
935558000 0.532584739953 -0.551333243736
935564000 0.531980643936 -0.555136493779
935570000 0.539126494004 -0.552251556143
935576000 0.535575958879 -0.554381019185
935582000 0.537017055015 -0.553560235386
935588000 0.538155975163 -0.551922138055
935594000 0.537168906601 -0.554329584652
935600000 0.534805738747 -0.552782248665
935606000 0.53131633911 -0.553387645868
935612000 0.535286912569 -0.552434558254
935618000 0.531597687114 -0.551320686566
935624000 0.532583906695 -0.551396834135
935630000 0.53297834572 -0.553038766364
935636000 0.533921061701 -0.553329535489
935642000 0.535112487 -0.552442309955
935648000 0.533287563087 -0.552611778079
935654000 0.534234469037 -0.552830999428
935660000 0.533996872334 -0.551447597581
935666000 0.536028719122 -0.552436524795
935672000 0.536984203334 -0.549784663544
935678000 0.536775049501 -0.555228128737
935684000 0.536469920911 -0.555445485266
935690000 0.538227186543 -0.558085515461
935696000 0.535281274629 -0.561591322145
935702000 0.536810910187 -0.559283892944
935708000 0.534129486509 -0.559795076954
935714000 0.535525036494 -0.560283186358
935720000 0.53492949161 -0.555860330311
935726000 0.535108395214 -0.557511924336
935732000 0.534434749279 -0.553687931209
935738000 0.533419110617 -0.554682888563
935744000 0.534608441695 -0.553837934828
935750000 0.535094800274 -0.554236793003
935756000 0.534818138124 -0.552795441459
935762000 0.534607514238 -0.552493104078
935768000 0.535204411357 -0.555631852936
935774000 0.531885278976 -0.554057087879
935780000 0.535260045888 -0.553682278405
935786000 0.536287033859 -0.554324991688
935792000 0.531912662043 -0.55350441622
935798000 0.533910333696 -0.555273724037
935804000 0.533446462373 -0.557109464547
935810000 0.534142631404 -0.555558965843
935816000 0.534443902093 -0.558197478289
935822000 0.534574568411 -0.556010952606
935828000 0.533004333189 -0.55793625171
935834000 0.531689329721 -0.558429614961
935840000 0.530678244511 -0.556661239674
935846000 0.534656341406 -0.556846421117
935852000 0.532031473896 -0.557681857636
935858000 0.534393483088 -0.558426980293
935864000 0.531640700824 -0.552776101859
935870000 0.535512184637 -0.555979789165
935876000 0.536851597309 -0.55634005088
935882000 0.536592257761 -0.557135671624
935888000 0.535758582964 -0.557051870064
935894000 0.537231150404 -0.55766718988
935900000 0.535365721242 -0.557616466074
935906000 0.535596911205 -0.555493038958
935912000 0.537314367562 -0.556933535641
935918000 0.539866162374 -0.556260227403
935924000 0.540593545017 -0.555213983482
935930000 0.538451334274 -0.552320314359
935936000 0.536209115565 -0.557045158476
935942000 0.536920526113 -0.556305416129
935948000 0.535429743302 -0.553601229487
935954000 0.536028929423 -0.554549832749
935960000 0.535983271594 -0.556051374695
935966000 0.535264698294 -0.558906319334
935972000 0.537527653062 -0.560157992391
935978000 0.535029813409 -0.563848597233
935984000 0.534087519608 -0.567280801394
935990000 0.527161518121 -0.5756408637
935996000 0.534490323325 -0.565999062084
936002000 0.538918816106 -0.564762224612
936008000 0.540383086545 -0.561098195987
936014000 0.538895423979 -0.558972513926
936020000 0.537847071197 -0.554841284116
936026000 0.537451628518 -0.553952621667
936032000 0.535418869026 -0.553145255464
936038000 0.536400046951 -0.554058117569
936044000 0.535999322155 -0.554916345537
936050000 0.533401746259 -0.552404352098
936056000 0.534134696741 -0.55261657956
936062000 0.535087106041 -0.551072655789
936068000 0.536773377 -0.555661299487
936074000 0.534267938299 -0.552047177227
936080000 0.537444567224 -0.553138624169
936086000 0.535629303159 -0.552720815287
936092000 0.535689716957 -0.551192931368
936098000 0.534155131372 -0.551982321136
936104000 0.533638796855 -0.55187200682
936110000 0.532574448869 -0.551664281985
936116000 0.533263780489 -0.552158071149
936122000 0.533949381809 -0.552089877386
936128000 0.532114697965 -0.553627912903
936134000 0.530488487507 -0.553382154297
936140000 0.534017941004 -0.552718918491
936146000 0.534332990109 -0.552014614614
936152000 0.536446099145 -0.55390460346
936158000 0.53757945424 -0.553572949844
936164000 0.536789414449 -0.555674701008
936170000 0.537140173621 -0.553341632515
936176000 0.536676082034 -0.553719241538
936182000 0.5366628248 -0.551952421168
936188000 0.532239297682 -0.551612701342
936194000 0.531319800363 -0.551582610593
936200000 0.535768233501 -0.55124038918
936206000 0.537471298383 -0.551287963792
936212000 0.53760812217 -0.553908888143
936218000 0.534481082466 -0.552412522505
936224000 0.534225464208 -0.553905562453
936230000 0.534592838304 -0.554604995402
936236000 0.533654004388 -0.556900122151
936242000 0.531034789158 -0.556851424868
936248000 0.533275598407 -0.558881232532
936254000 0.533724721124 -0.555743010209
936260000 0.533718397205 -0.55606027809
936266000 0.536987958728 -0.555849247293
936272000 0.53704951688 -0.553200949243
936278000 0.540165849208 -0.555685622541
936284000 0.537700511266 -0.553131562256
936290000 0.5387670877 -0.554510119663
936296000 0.537020879241 -0.555251328822
936302000 0.535040613167 -0.554781560904
936308000 0.534447344621 -0.555504429108
936314000 0.535388136269 -0.555834419104
936320000 0.533071016305 -0.557009989868
936326000 0.532608549589 -0.557024935592
936332000 0.529885990131 -0.55906759907
936338000 0.533275477121 -0.556688687736
936344000 0.535709226571 -0.558524288872
936350000 0.53660022989 -0.55965370704
936356000 0.533884025043 -0.55632624907
936362000 0.539791735502 -0.558208640282
936368000 0.538585970975 -0.555225606099
936374000 0.538880977198 -0.556791859236
936380000 0.538757984232 -0.557896668602
936386000 0.54015639558 -0.556330645182
936392000 0.540766214379 -0.554363864098
936398000 0.538609886732 -0.554179715418
936404000 0.53866360659 -0.556588955431
936410000 0.53724948782 -0.557215089406
936416000 0.536232958017 -0.557587118688
936422000 0.538352955474 -0.55733187449
936428000 0.538652384489 -0.555423059739
936434000 0.53980084135 -0.558475426067
936440000 0.541472809819 -0.557163426093
936446000 0.539580199344 -0.553805709144
936452000 0.537087857199 -0.557593945094
936458000 0.537024545282 -0.556271003549
936464000 0.535930456039 -0.556798465844
936470000 0.535587767814 -0.556784168856
936476000 0.534784722099 -0.558344675965
936482000 0.533362151015 -0.557454611438
936488000 0.533115107163 -0.555323572786
936494000 0.53336796778 -0.555999244652
936500000 0.536456343557 -0.552943684454
936506000 0.538148053293 -0.553039362167
936512000 0.535051917238 -0.552120337929
936518000 0.535154273144 -0.555037494851
936524000 0.534676436231 -0.555175270163
936530000 0.533588236057 -0.557465913686
936536000 0.528956027365 -0.55645151192
936542000 0.532117608161 -0.557791719309
936548000 0.530191540187 -0.555500982336
936554000 0.532165978454 -0.558337139889
936560000 0.534008679029 -0.553083837715
936566000 0.533475309206 -0.554600925228
936572000 0.531418412012 -0.553190502486
936578000 0.532581932217 -0.554264448211
936584000 0.533189309291 -0.556052470611
936590000 0.535764506833 -0.552717153629
936596000 0.534284964798 -0.555274406859
936602000 0.536156095616 -0.559753914253
936608000 0.536243966648 -0.553457621972
936614000 0.536645124289 -0.554949946054
936620000 0.536869781229 -0.553855000209
936626000 0.534165941312 -0.55178370439
936632000 0.53846289422 -0.552964315151
936638000 0.536821837999 -0.553350962386
936644000 0.534194211353 -0.552789846501
936650000 0.53269745962 -0.552149162299
936656000 0.536384330109 -0.55585080443
936662000 0.537670530758 -0.55405650739
936668000 0.538988864849 -0.553008169342
936674000 0.540502882815 -0.553774921762
936680000 0.542180632665 -0.550742055612
936686000 0.541944398337 -0.551431065228
936692000 0.538506574871 -0.552134722155
936698000 0.538000426812 -0.552692985795
936704000 0.537859170945 -0.551697956322
936710000 0.537141063024 -0.551706385021
936716000 0.53624661248 -0.552522744728
936722000 0.536277930627 -0.552994118133
936728000 0.533710382099 -0.553146174851
936734000 0.534780757627 -0.553315148422
936740000 0.532802147552 -0.552148488207
936746000 0.535130566796 -0.554471965233
936752000 0.537451418146 -0.555242457985
936758000 0.535962191333 -0.557589923353
936764000 0.536600378508 -0.555530931788
936770000 0.536388540814 -0.554694372993
936776000 0.536518044982 -0.556317834177
936782000 0.537001882999 -0.553735898708
936788000 0.536489380662 -0.553925610741
936794000 0.536892933123 -0.552240234144
936800000 0.535666458248 -0.552733949191
936806000 0.53390777912 -0.554374659987
936812000 0.531997537784 -0.55382174001
936818000 0.533370186014 -0.555059797705
936824000 0.532453774327 -0.557299531699
936830000 0.530722417366 -0.55477974717
936836000 0.532215687926 -0.5569728125
936842000 0.530758193612 -0.554799029851
936848000 0.53040162815 -0.556231847555
936854000 0.530974052942 -0.557282041722
936860000 0.532944940708 -0.556218918603
936866000 0.532763795205 -0.556892241015
936872000 0.534733918927 -0.557713560891
936878000 0.535974033836 -0.556160211583
936884000 0.536566417985 -0.557893977947
936890000 0.537858807069 -0.552909100213
936896000 0.536122789188 -0.554171765698
936902000 0.538178936206 -0.554300899782
936908000 0.53791468706 -0.554154199022
936914000 0.53808319662 -0.552417573146
936920000 0.536224724676 -0.555247452154
936926000 0.53314870819 -0.553762850771
936932000 0.532572946051 -0.556323783393
936938000 0.531847230951 -0.556432981677
936944000 0.535382798496 -0.553833967452
936950000 0.534951285308 -0.555458761578
936956000 0.536546112914 -0.555363328585
936962000 0.538978044724 -0.554846964344
936968000 0.5411237863 -0.554763948734
936974000 0.538950424575 -0.552779652731
936980000 0.538223029254 -0.551591409599
936986000 0.539455345008 -0.551275593634
936992000 0.539871631692 -0.54994940717
936998000 0.541237100939 -0.551805918844
937004000 0.538965887423 -0.550857530425
937010000 0.538964488402 -0.553620675333
937016000 0.536893159494 -0.55369993983
937022000 0.53732374683 -0.550829468269
937028000 0.536693822559 -0.556079554547
937034000 0.535097165931 -0.553239855441
937040000 0.533286172992 -0.551573032668
937046000 0.531645633921 -0.555329428499
937052000 0.531401182192 -0.554687264882
937058000 0.533938434716 -0.554424548164
937064000 0.533708346393 -0.559105295351
937070000 0.535359599377 -0.558141206559
937076000 0.537391441194 -0.556449047024
937082000 0.538321887764 -0.558481395597
937088000 0.536390746522 -0.557210103869
937094000 0.536878611951 -0.556085050213
937100000 0.535219141511 -0.556894708297
937106000 0.534224230103 -0.555563859688
937112000 0.534234608209 -0.553502829174
937118000 0.53704117877 -0.556324166996
937124000 0.536077837523 -0.555732499307
937130000 0.539247243282 -0.553554510868
937136000 0.537846445926 -0.554936113675
937142000 0.538873918975 -0.552560452341
937148000 0.536443898271 -0.553854467668
937154000 0.535808709536 -0.552710379091
937160000 0.537298591785 -0.553495495606
937166000 0.536781276128 -0.552209816009
937172000 0.537138521897 -0.552040463846
937178000 0.537775664936 -0.553166804804
937184000 0.537672686329 -0.553118364765
937190000 0.537522898102 -0.553294585776
937196000 0.53650015545 -0.554062267687
937202000 0.537337594457 -0.552940536968
937208000 0.536413323346 -0.554503412886
937214000 0.534013261424 -0.553702391178
937220000 0.533301914163 -0.553052682038
937226000 0.533748018485 -0.558533309696
937232000 0.534215614654 -0.556065733331
937238000 0.534773305322 -0.555005228624
937244000 0.534792421242 -0.55488113807
937250000 0.534394063573 -0.553665123805
937256000 0.535276431417 -0.552748200214
937262000 0.535466356227 -0.55579184369
937268000 0.536282673317 -0.553380470531
937274000 0.532901567215 -0.550699276582
937280000 0.548500828659 -0.549032976201
937286000 0.535853757029 -0.5549151643
937292000 0.537742879761 -0.552770322542
937298000 0.536103072933 -0.554622973111
937304000 0.534802822228 -0.556589327
937310000 0.535782254054 -0.558754482944
937316000 0.535482813883 -0.55614338232
937322000 0.532933220279 -0.556044717725
937328000 0.531996628208 -0.554161746086
937334000 0.532819846272 -0.554035512575
937340000 0.532654606926 -0.553666304416
937346000 0.534318697537 -0.555302411117
937352000 0.534849818482 -0.557018969213
937358000 0.532808557886 -0.556812891514
937364000 0.533451702583 -0.55522060848
937370000 0.53177366077 -0.557505986106
937376000 0.535179776109 -0.555954055455
937382000 0.535333192533 -0.554860837975
937388000 0.535965556043 -0.553881012304
937394000 0.53754017044 -0.556311726469
937400000 0.538758360036 -0.554909738022
937406000 0.536972518198 -0.554984452902
937412000 0.535773186986 -0.555236358701
937418000 0.537316528303 -0.556373831528
937424000 0.537194385542 -0.555664866426
937430000 0.536509873769 -0.556134476158
937436000 0.535883690322 -0.555992496349
937442000 0.536626790285 -0.552864636199
937448000 0.535387596666 -0.553427272046
937454000 0.535118049372 -0.554265650637
937460000 0.537547175643 -0.554804465482
937466000 0.534946865096 -0.556022797509
937472000 0.539102390108 -0.556214908849
937478000 0.538409270316 -0.559090244372
937484000 0.538312060034 -0.559589988254
937490000 0.535811720369 -0.556877839916
937496000 0.534504815273 -0.559444249708
937502000 0.533073480639 -0.557095136009
937508000 0.533860892137 -0.556041782141
937514000 0.532234260084 -0.558416493388
937520000 0.532314264093 -0.55494868016
937526000 0.537011815583 -0.555801767381
937532000 0.53563730476 -0.555502165159
937538000 0.538260235746 -0.556461686715
937544000 0.53802851447 -0.556529813352
937550000 0.53806921604 -0.554088024151
937556000 0.538316241739 -0.554858740095
937562000 0.536117061376 -0.556528259775
937568000 0.537398137084 -0.552339140716
937574000 0.536930841349 -0.556379060087
937580000 0.538148565431 -0.554326076594
937586000 0.543070056093 -0.559960811556
937592000 0.53521146635 -0.555616667373
937598000 0.538565080511 -0.554290321957
937604000 0.538431462863 -0.554947672364
937610000 0.539777866483 -0.551694305544
937616000 0.538426396474 -0.555906080973
937622000 0.534691795101 -0.554703804563
937628000 0.535088429043 -0.554741193004
937634000 0.536125475401 -0.553805418072
937640000 0.538502482888 -0.553731561056
937646000 0.538347484026 -0.554336622608
937652000 0.538692995176 -0.553220247491
937658000 0.542173982785 -0.552779445059
937664000 0.540441656056 -0.554210107522
937670000 0.538071483347 -0.553356336182
937676000 0.536288563717 -0.54880651932
937682000 0.53829378219 -0.549765944499
937688000 0.535901476967 -0.548721900207
937694000 0.536083937365 -0.55139580312
937700000 0.536139695174 -0.549948680125
937706000 0.534017714875 -0.550692636239
937712000 0.532841451648 -0.552778334032
937718000 0.533997533319 -0.552264822
937724000 0.534927978808 -0.554042611694
937730000 0.53384148838 -0.554363855608
937736000 0.533484253632 -0.556044237019
937742000 0.536517610638 -0.557161974885
937748000 0.535659875758 -0.557560913727
937754000 0.536689011473 -0.556958802084
937760000 0.536211631465 -0.558074693069
937766000 0.540737455223 -0.55526910121
937772000 0.542139829412 -0.554330394641
937778000 0.538007809855 -0.559206611933
937784000 0.541172798406 -0.557431956539
937790000 0.53840908178 -0.557876196402
937796000 0.538033944532 -0.554062421483
937802000 0.537633860407 -0.555019699299
937808000 0.537836592715 -0.557727296737
937814000 0.538437201197 -0.558699373628
937820000 0.538519547152 -0.557952126082
937826000 0.5391235016 -0.559175316326
937832000 0.535155812235 -0.558992751077
937838000 0.536541325767 -0.55676577899
937844000 0.53377014557 -0.559786510183
937850000 0.535009959942 -0.559082878743
937856000 0.530550267137 -0.561857306465
937862000 0.531962754727 -0.562259287375
937868000 0.532498506632 -0.559023335364
937874000 0.535554905574 -0.555295794123
937880000 0.535956984135 -0.555788100465
937886000 0.539340826028 -0.554675348427
937892000 0.537626366843 -0.554139846053
937898000 0.536982135382 -0.553511266378
937904000 0.537482170127 -0.555520913916
937910000 0.535268962602 -0.554242796551
937916000 0.534511292662 -0.554864170649
937922000 0.533005714539 -0.554104832489
937928000 0.53337614716 -0.55303915027
937934000 0.530961337187 -0.555294097957
937940000 0.530661778247 -0.554999250371
937946000 0.53173434083 -0.555581207474
937952000 0.533117947273 -0.554057697812
937958000 0.535751889846 -0.553317774857
937964000 0.53632287963 -0.552961262677
937970000 0.53609656646 -0.552879519081
937976000 0.539581094207 -0.55395542663
937982000 0.538406232383 -0.556909743679
937988000 0.538959522089 -0.554256766694
937994000 0.539466355203 -0.554220953839
938000000 0.539156788329 -0.555408207776
938006000 0.538479524701 -0.554984902782
938012000 0.539707810441 -0.555492357497
938018000 0.540455982663 -0.554673916379
938024000 0.536581882722 -0.557836501658
938030000 0.538100388483 -0.559360997307
938036000 0.539329497842 -0.556628784371
938042000 0.538472448948 -0.557488579528
938048000 0.538680267218 -0.557349561566
938054000 0.539392755862 -0.557036331935
938060000 0.541970569115 -0.553240797028
938066000 0.538333091454 -0.556327391771
938072000 0.539730433043 -0.554874338244
938078000 0.537701584678 -0.554603975134
938084000 0.537201520205 -0.554960914397
938090000 0.536056639775 -0.555286254349
938096000 0.538161925056 -0.553427993206
938102000 0.538146933171 -0.55537241004
938108000 0.539680356125 -0.554968270496
938114000 0.54104677913 -0.560091727433
938120000 0.537835338078 -0.559510810648
938126000 0.540886477336 -0.55483150903
938132000 0.53947914831 -0.556208337759
938138000 0.539217018352 -0.556970831141
938144000 0.541268384261 -0.556001196223
938150000 0.541690387969 -0.556941601358
938156000 0.539441877252 -0.554906960413
938162000 0.540180892525 -0.552251066267
938168000 0.539305036635 -0.553397547882
938174000 0.539532716391 -0.5496610674
938180000 0.538364027737 -0.550876603356
938186000 0.536713013384 -0.554387218729
938192000 0.535890110971 -0.555075908117
938198000 0.534723529408 -0.556363544472
938204000 0.534474614848 -0.556071139037
938210000 0.536407033987 -0.555092568213
938216000 0.53599740985 -0.554470146154
938222000 0.535674613004 -0.55669287493
938228000 0.535462544978 -0.559055664748
938234000 0.537023614145 -0.555122265418
938240000 0.535564459056 -0.556003409017
938246000 0.535618765373 -0.553940258087
938252000 0.538497625709 -0.556109862358
938258000 0.537000691252 -0.555424459243
938264000 0.536881668785 -0.553984298599
938270000 0.533613673686 -0.553441272108
938276000 0.536112502614 -0.553020561365
938282000 0.5330365321 -0.553527258621
938288000 0.532963421524 -0.555953872739
938294000 0.533481134689 -0.552277257005
938300000 0.533541812763 -0.553667448479
938306000 0.536054792673 -0.552020085999
938312000 0.537650524052 -0.555840387857
938318000 0.538173025782 -0.552548624893
938324000 0.535322953126 -0.555444107901
938330000 0.538520364266 -0.558212106291
938336000 0.538783277279 -0.556660963131
938342000 0.536795712545 -0.555790243953
938348000 0.537510726743 -0.558332180962
938354000 0.533060460765 -0.557942001528
938360000 0.536437264894 -0.558483730648
938366000 0.538183975149 -0.556786309295
938372000 0.535619933794 -0.556408707144
938378000 0.532895159285 -0.556450156858
938384000 0.534640192996 -0.556194163384
938390000 0.535544620994 -0.556703014219
938396000 0.53478430091 -0.555976909166
938402000 0.53240462503 -0.554317532443
938408000 0.533832408743 -0.553183504723
938414000 0.534674735646 -0.554389353065
938420000 0.533093317224 -0.557761774597
938426000 0.533698269825 -0.549739532725
938432000 0.533223755379 -0.549955113992
938438000 0.535955961614 -0.550462729204
938444000 0.538956562992 -0.551717037358
938450000 0.537265243749 -0.550632949452
938456000 0.540211274796 -0.552345645638
938462000 0.542215575434 -0.5516218514
938468000 0.53930977851 -0.553718312338
938474000 0.537818570819 -0.553483097911
938480000 0.53493489253 -0.553887709347
938486000 0.537399444107 -0.554259135524
938492000 0.53423812976 -0.552397068296
938498000 0.538083701253 -0.557319472191
938504000 0.537855228512 -0.55463213726
938510000 0.539357199123 -0.55730500539
938516000 0.539391111601 -0.556404010348
938522000 0.540218937821 -0.557999128724
938528000 0.53946167084 -0.560113712295
938534000 0.542073724629 -0.560072250101
938540000 0.537487455851 -0.561870364415
938546000 0.539929120515 -0.563220518846
938552000 0.539259847865 -0.557935293863
938558000 0.538594762356 -0.559242973436
938564000 0.536940614215 -0.559664249863
938570000 0.537640364656 -0.559652357086
938576000 0.53432927257 -0.557249405978
938582000 0.534529659674 -0.558206024176
938588000 0.533907533703 -0.557350383461
938594000 0.533783638667 -0.557424009859
938600000 0.534895729775 -0.556943003543
938606000 0.530332191935 -0.555220733479
938612000 0.533433515187 -0.556414755594
938618000 0.53254306266 -0.555563212072
938624000 0.534260276944 -0.55782823109
938630000 0.532016803306 -0.555543991429
938636000 0.536828034315 -0.556738633829
938642000 0.530942717826 -0.558365545472
938648000 0.535543124112 -0.558699669676
938654000 0.534493137612 -0.556534573116
938660000 0.533802476218 -0.558686848976
938666000 0.533792313127 -0.559456573105
938672000 0.534756760669 -0.55618022104
938678000 0.534565650558 -0.557054748117
938684000 0.532891891664 -0.554422567938
938690000 0.530700564609 -0.553182311647
938696000 0.532869352154 -0.55683918977
938702000 0.536734897066 -0.556075076729
938708000 0.533732061635 -0.557453512937
938714000 0.532222855226 -0.555331151773
938720000 0.53124793889 -0.561180938643
938726000 0.534474887209 -0.558202795799
938732000 0.532916158209 -0.558983722337
938738000 0.531805973544 -0.555705506446
938744000 0.534547473312 -0.557917101237
938750000 0.534570988524 -0.558172601669
938756000 0.535422528951 -0.557295245155
938762000 0.53679193747 -0.558775121879
938768000 0.538009376344 -0.558085447401
938774000 0.537931253142 -0.559159513798
938780000 0.53827027072 -0.560277436586
938786000 0.53801080045 -0.560146645763
938792000 0.539125859819 -0.559683474443
938798000 0.538594188118 -0.560620381591
938804000 0.536599671593 -0.556620648662
938810000 0.537625074334 -0.560227173781
938816000 0.535844802712 -0.558390979685
938822000 0.540543333879 -0.559980024354
938828000 0.53732316494 -0.559335939402
938834000 0.536903893174 -0.557869699671
938840000 0.536525161409 -0.559568085748
938846000 0.536540714638 -0.559807211835
938852000 0.538218953116 -0.557918851553
938858000 0.535405412622 -0.558582379766
938864000 0.535954893253 -0.554788513391
938870000 0.535114260353 -0.556694081084
938876000 0.536694016728 -0.557479152669
938882000 0.534060792029 -0.551363322593
938888000 0.536645957773 -0.558475474166
938894000 0.533336389305 -0.557891092716
938900000 0.535910303625 -0.55754192064
938906000 0.532514542908 -0.557218818966
938912000 0.534059172009 -0.558509977136
938918000 0.534589229276 -0.55917403794
938924000 0.532795298828 -0.558695406656
938930000 0.536353658356 -0.558554006011
938936000 0.536465160787 -0.55845257166
938942000 0.534303755544 -0.55388743243
938948000 0.536904732017 -0.556130999173
938954000 0.538325829094 -0.555275205014
938960000 0.538346730264 -0.555116668482
938966000 0.536402232183 -0.557288335604
938972000 0.534877462884 -0.555887119387
938978000 0.535478640355 -0.556998783364
938984000 0.534521662217 -0.556925190216
938990000 0.533514354802 -0.556315650834
938996000 0.535712113572 -0.556681547443
939002000 0.536205495293 -0.556039040814
939008000 0.535617357225 -0.555116667944
939014000 0.535131353766 -0.556584584755
939020000 0.535630182752 -0.556761368909
939026000 0.533683205219 -0.555151199965
939032000 0.534323420118 -0.559376552343
939038000 0.530717605439 -0.55689380993
939044000 0.534415714722 -0.557441622572
939050000 0.535456030429 -0.558107896821
939056000 0.538412567849 -0.55709417691
939062000 0.537300336564 -0.560073587109
939068000 0.539284932298 -0.560112393313
939074000 0.540144927436 -0.559745601775
939080000 0.540025666664 -0.559495538876
939086000 0.538835063233 -0.556859857922
939092000 0.540905464044 -0.558442595522
939098000 0.536828023461 -0.559618485507
939104000 0.536610951291 -0.55458916875
939110000 0.536442312725 -0.555661990484
939116000 0.535993186747 -0.557393511708
939122000 0.530974856529 -0.553675163827
939128000 0.534865820095 -0.554317832013
939134000 0.53411305886 -0.555897784203
939140000 0.532511049088 -0.555341007438
939146000 0.534242030222 -0.55977265831
939152000 0.532401331203 -0.559707873422
939158000 0.535194248755 -0.559898643274
939164000 0.535870151672 -0.561117450127
939170000 0.536165204563 -0.559889074812
939176000 0.538888973095 -0.561333180607
939182000 0.534958720914 -0.558130017485
939188000 0.536091586895 -0.558638745592
939194000 0.535357050009 -0.557175912392
939200000 0.537195512366 -0.556648372794
939206000 0.536500537568 -0.558467406001
939212000 0.537464749619 -0.558920775289
939218000 0.53732298773 -0.559388036686
939224000 0.539540297378 -0.557705256201
939230000 0.538801662899 -0.557092142697
939236000 0.538414731333 -0.558484897531
939242000 0.537995481479 -0.557955828278
939248000 0.537582517148 -0.55590339987
939254000 0.536465590399 -0.555082955894
939260000 0.534838891811 -0.555192074523
939266000 0.536922159045 -0.555811199421
939272000 0.535689227335 -0.556184757263
939278000 0.535851739107 -0.55332003131
939284000 0.535817927633 -0.55671640914
939290000 0.537184572599 -0.553909406851
939296000 0.538380561095 -0.553891525647
939302000 0.536138879704 -0.553510750657
939308000 0.536651783418 -0.553876905749
939314000 0.533746119192 -0.555797481029
939320000 0.53328308632 -0.554927213226
939326000 0.532408148517 -0.556683704433
939332000 0.531715265397 -0.559765674862
939338000 0.530850045895 -0.557584436514
939344000 0.531712032851 -0.559906309531
939350000 0.535817953212 -0.562349131516
939356000 0.531347642714 -0.55871047144
939362000 0.530392336138 -0.558247697794
939368000 0.531689183742 -0.55822226253
939374000 0.531259067648 -0.555196532646
939380000 0.534921707367 -0.552863544034
939386000 0.533385884478 -0.553770686916
939392000 0.534996817726 -0.554423520235
939398000 0.535523136222 -0.555749514105
939404000 0.535575547171 -0.555169655247
939410000 0.536853039187 -0.556232907266
939416000 0.536675023268 -0.55224791615
939422000 0.537120879712 -0.554146572424
939428000 0.538507396967 -0.556903298542
939434000 0.538953220765 -0.552970721138
939440000 0.540979482126 -0.554789434101
939446000 0.538407561745 -0.555143459715
939452000 0.539540237102 -0.555088895661
939458000 0.536133833771 -0.556186368221
939464000 0.534939564683 -0.556454382793
939470000 0.53514844759 -0.555612815033
939476000 0.536906857599 -0.558479489051
939482000 0.536905302652 -0.558486458839
939488000 0.538363929213 -0.558749059397
939494000 0.537711530671 -0.560813532823
939500000 0.537161803421 -0.557336370994
939506000 0.537200919213 -0.556601003643
939512000 0.539564481467 -0.559364509236
939518000 0.536898851461 -0.557251914004
939524000 0.539415961766 -0.556874930585
939530000 0.53861993672 -0.556806440226
939536000 0.537476643677 -0.557741566352
939542000 0.533703201842 -0.556604060425
939548000 0.533309000126 -0.558979818147
939554000 0.53523023443 -0.556858321859
939560000 0.531836659932 -0.560121343567
939566000 0.534227402369 -0.55765386709
939572000 0.532992440529 -0.558304610253
939578000 0.535997883036 -0.557156129059
939584000 0.53638324201 -0.557122176518
939590000 0.534740708647 -0.555996713262
939596000 0.536205498599 -0.558879054658
939602000 0.536533554401 -0.560131248029
939608000 0.536589574402 -0.562463484195
939614000 0.535054429776 -0.561487399098
939620000 0.535096651196 -0.560618905732
939626000 0.536941239852 -0.561291383923
939632000 0.535520000048 -0.557130377233
939638000 0.535528646075 -0.556168093285
939644000 0.53280149024 -0.55646580201
939650000 0.536202311601 -0.556789359022
939656000 0.539770716408 -0.55826925205
939662000 0.53557969368 -0.557429666048
939668000 0.537532645931 -0.561811086336
939674000 0.537309587563 -0.559756262234
939680000 0.536958102124 -0.557476941377
939686000 0.53489174591 -0.558505371008
939692000 0.537046699985 -0.558045229643
939698000 0.537202772846 -0.557546722307
939704000 0.538103359564 -0.553397953531
939710000 0.536399137202 -0.554920228492
939716000 0.536859830863 -0.557490572332
939722000 0.533507170638 -0.554538986153
939728000 0.534383259053 -0.555385575456
939734000 0.532585783087 -0.556178780124
939740000 0.53652692354 -0.555143023414
939746000 0.535648804857 -0.55534895523
939752000 0.537304465096 -0.554920617895
939758000 0.539695883578 -0.556078120523
939764000 0.539920301467 -0.554416656894
939770000 0.539660272169 -0.558911149744
939776000 0.539098083742 -0.556025231467
939782000 0.543134957949 -0.557448224916
939788000 0.543095562864 -0.558314353448
939794000 0.539907794338 -0.557964876832
939800000 0.539948105039 -0.554784611013
939806000 0.536446989984 -0.556282087607
939812000 0.53552431585 -0.557737765836
939818000 0.536497239174 -0.554092576303
939824000 0.537883180114 -0.55784199278
939830000 0.537231034038 -0.557599791103
939836000 0.5394175744 -0.557410332635
939842000 0.53734860851 -0.557848935995
939848000 0.53956959089 -0.559157954236
939854000 0.538264239542 -0.55976858745
939860000 0.539449487088 -0.560702087837
939866000 0.536900534952 -0.559216330061
939872000 0.537545152772 -0.559621271739
939878000 0.536102666958 -0.557664659199
939884000 0.537271833183 -0.558588730893
939890000 0.533908930601 -0.557752492048
939896000 0.536235171072 -0.560109111812
939902000 0.53793004501 -0.559329325388
939908000 0.538314912891 -0.558441415153
939914000 0.53697046478 -0.556868379764
939920000 0.537239966549 -0.558036534859
939926000 0.538376959494 -0.558060703796
939932000 0.538294217336 -0.559767736467
939938000 0.540564390215 -0.559310465557
939944000 0.537153911322 -0.560263797233
939950000 0.537467221315 -0.559500742973
939956000 0.537750966326 -0.560849195416
939962000 0.538138328339 -0.557117155489
939968000 0.539708822217 -0.558003112099
939974000 0.536821177114 -0.556965301713
939980000 0.535824830819 -0.553456288517
939986000 0.536855997689 -0.558527816847
939992000 0.538740282793 -0.557744193274
939998000 0.535985598684 -0.55594038803
940004000 0.538367757873 -0.558962403416
940010000 0.539094567997 -0.5586503813
940016000 0.539205329397 -0.561659752232
940022000 0.538790870421 -0.559805018637
940028000 0.537665596295 -0.562719492157
940034000 0.537160349315 -0.560432537225
940040000 0.538520061238 -0.562268158872
940046000 0.537165263798 -0.55891562345
940052000 0.536676075082 -0.560042884225
940058000 0.534966912689 -0.561531983226
940064000 0.535370298102 -0.558168694377
940070000 0.535386042354 -0.555746875672
940076000 0.533980642996 -0.558497851578
940082000 0.53553244497 -0.558084504099
940088000 0.536483095758 -0.562647152311
940094000 0.534305647662 -0.562053733466
940100000 0.534514884031 -0.56350353331
940106000 0.536827209556 -0.563867969263
940112000 0.534921099276 -0.559429428146
940118000 0.537983612301 -0.559328296643
940124000 0.534376457549 -0.556646395259
940130000 0.532520009969 -0.556657807872
940136000 0.536708233863 -0.560020538244
940142000 0.536352064888 -0.561495293901
940148000 0.538975955875 -0.561279591851
940154000 0.540207888127 -0.558967579832
940160000 0.540801081924 -0.559969971881
940166000 0.53855600518 -0.559670830333
940172000 0.539152812735 -0.560309772819
940178000 0.539103811704 -0.55901716887
940184000 0.539572665488 -0.56261958574
940190000 0.536951458985 -0.563042702195
940196000 0.536034435808 -0.559200070348
940202000 0.535591997916 -0.559222831341
940208000 0.53776211351 -0.556015210749
940214000 0.533829976202 -0.555517410337
940220000 0.535261201213 -0.557238007212
940226000 0.535491701463 -0.560079877716
940232000 0.534787797745 -0.55784462946
940238000 0.531984171798 -0.561477510658
940244000 0.533990478847 -0.559709563507
940250000 0.535754833708 -0.559619458042
940256000 0.534140230604 -0.561824103385
940262000 0.53406689618 -0.561100101858
940268000 0.531865088351 -0.559484898399
940274000 0.53254629472 -0.561187348368
940280000 0.535862069418 -0.559093323726
940286000 0.535498339902 -0.559631580058
940292000 0.535720532544 -0.559226789026
940298000 0.538265874849 -0.557823066731
940304000 0.538896845876 -0.555784359625
940310000 0.531377752657 -0.559719176568
940316000 0.542331832811 -0.556169879177
940322000 0.540096229718 -0.566384226735
940328000 0.530305516479 -0.553304582738
940334000 0.541052124726 -0.562596776861
940340000 0.534165606407 -0.561638786296
940346000 0.534148884989 -0.561830707346
940352000 0.534251833002 -0.561571284567
940358000 0.533100008806 -0.566578955641
940364000 0.534730990147 -0.566113105792
940370000 0.533817908211 -0.562255097737
940376000 0.531312699665 -0.562032633164
940382000 0.533876617479 -0.561695976918
940388000 0.534304803707 -0.559154020668
940394000 0.534644789133 -0.556610765933
940400000 0.535876424324 -0.55526449339
940406000 0.537837463022 -0.553385254297
940412000 0.535951131306 -0.551528343279
940418000 0.536631228329 -0.551437526248
940424000 0.538448359144 -0.553816417572
940430000 0.537598495882 -0.556245539569
940436000 0.537370161327 -0.556936627679
940442000 0.539056355628 -0.55866847905
940448000 0.538434552137 -0.560688227983
940454000 0.535696517037 -0.558645441525
940460000 0.534936374018 -0.559243183779
940466000 0.53349666729 -0.558949052986
940472000 0.533269995628 -0.559576053802
940478000 0.534429127775 -0.561551270855
940484000 0.533127897462 -0.560006746071
940490000 0.532828800912 -0.561494284385
940496000 0.530939350123 -0.562638549973
940502000 0.53160149677 -0.562449029117
940508000 0.534225766755 -0.561764730195
940514000 0.533963480931 -0.561872021264
940520000 0.535710726792 -0.561641774271
940526000 0.533458965414 -0.559994458038
940532000 0.53420870893 -0.559687592399
940538000 0.535889240617 -0.557484775675
940544000 0.534676235762 -0.558215167488
940550000 0.531978899283 -0.556604806835
940556000 0.534767937883 -0.556975145022
940562000 0.532012610066 -0.555920043536
940568000 0.532664807782 -0.557579730528
940574000 0.532769043134 -0.559699607814
940580000 0.532223709097 -0.556726636542
940586000 0.53137795191 -0.556691138138
940592000 0.53499154078 -0.560239814066
940598000 0.534136610822 -0.556964085959
940604000 0.53414863971 -0.557965662574
940610000 0.537247728063 -0.558461291996
940616000 0.538921239806 -0.555989028842
940622000 0.539190846707 -0.558667356085
940628000 0.53744291784 -0.557730719917
940634000 0.537690300831 -0.560340521409
940640000 0.535545003324 -0.558013575169
940646000 0.533303061834 -0.560745169976
940652000 0.535530083603 -0.560575446004
940658000 0.537952378343 -0.560282837181
940664000 0.537952610691 -0.563007617766
940670000 0.540204427971 -0.559912866074
940676000 0.541569104404 -0.561549246666
940682000 0.540351450809 -0.561405222052
940688000 0.540589389433 -0.559596851145
940694000 0.538899926356 -0.560266894174
940700000 0.539906362479 -0.560481840081
940706000 0.536403653326 -0.559439660556
940712000 0.537721161549 -0.561852840909
940718000 0.53585120868 -0.559185338159
940724000 0.535173800787 -0.562517385323
940730000 0.537636937744 -0.562050516836
940736000 0.534556626398 -0.563107315164
940742000 0.533562311271 -0.558725517213
940748000 0.53101123533 -0.558065789284
940754000 0.533513575087 -0.556864859507
940760000 0.530191713051 -0.556067871476
940766000 0.529006599541 -0.558232968299
940772000 0.533613160362 -0.554971427363
940778000 0.53359788899 -0.556053955882
940784000 0.533055631798 -0.558696989676
940790000 0.532923531562 -0.557220678473
940796000 0.534738172727 -0.557267783155
940802000 0.535998933554 -0.557412371245
940808000 0.537564138022 -0.558310004205
940814000 0.537696342319 -0.560852880315
940820000 0.536594937477 -0.560101222763
940826000 0.535518549188 -0.559544013297
940832000 0.539046177315 -0.560389366959
940838000 0.539244529615 -0.557679386793
940844000 0.536802818734 -0.555413969471
940850000 0.535379424214 -0.554226950919
940856000 0.53385453287 -0.558374984144
940862000 0.535037414087 -0.559141871872
940868000 0.53671027383 -0.560496266843
940874000 0.535868578904 -0.563599875108
940880000 0.534308756859 -0.562299711209
940886000 0.535457378739 -0.557508261938
940892000 0.537754894355 -0.558082093892
940898000 0.535427122641 -0.55814288498
940904000 0.536550099113 -0.555267815491
940910000 0.537914375449 -0.555723495256
940916000 0.538286517269 -0.553270406069
940922000 0.537328187037 -0.554803015627
940928000 0.537236033994 -0.554140272545
940934000 0.538006542736 -0.554041614398
940940000 0.540786826244 -0.554042723886
940946000 0.536240440518 -0.558385818121
940952000 0.535875703367 -0.557953846388
940958000 0.535123136466 -0.559876953362
940964000 0.533722318201 -0.559603155076
940970000 0.534319264619 -0.560013181912
940976000 0.532912055498 -0.559364610793
940982000 0.531809220239 -0.56039585352
940988000 0.534856375056 -0.560743625923
940994000 0.530083660827 -0.561722419724
941000000 0.533400822048 -0.55924301343
