! Calibrated averaged scanner-service zoom
# Hz S RI R 50
118000000 0.768212653724 0.158103390164
118009500 0.768728476928 0.157573234048
118019000 0.768576143497 0.157037016196
118028500 0.769452800317 0.157893487525
118038000 0.769111472622 0.156901755781
118047500 0.769569972696 0.157373948324
118057000 0.769575603837 0.15616431501
118066500 0.769595133953 0.156443363396
118076000 0.770504886412 0.156932678178
118085500 0.770055090834 0.15596012419
118095000 0.770583134082 0.156436583948
118104500 0.770369400633 0.155063640197
118114000 0.770812830018 0.156040731156
118123500 0.771394333658 0.155850995747
118133000 0.770775204439 0.155178178305
118142500 0.771448606342 0.15541084501
118152000 0.771183284291 0.153970874879
118161500 0.771960829044 0.155254861171
118171000 0.772110098707 0.154602274621
118180500 0.771826014874 0.154398381191
118190000 0.772321762536 0.153962605712
118199500 0.772062638391 0.153376144092
118209000 0.77308071236 0.154270705262
118218500 0.772771712086 0.153420872142
118228000 0.773169129802 0.153805348684
118237500 0.772996673522 0.152619100681
118247000 0.773005222183 0.15284850562
118256500 0.774039948659 0.153306105329
118266000 0.773412879581 0.152411149427
118275500 0.774035317885 0.152872822861
118285000 0.773633061903 0.151442861652
118294500 0.774170845593 0.152386040315
118304000 0.774902038987 0.152143529876
118313500 0.774092653912 0.151492986876
118323000 0.774945798336 0.151782945389
118332500 0.774370323301 0.150265703245
118342000 0.775397968288 0.151579145352
118351500 0.775600639265 0.151028250445
118361000 0.775183448131 0.150845930116
118370500 0.77573825834 0.150442387472
118380000 0.775259424028 0.149811731807
118389500 0.776494961151 0.150731641587
118399000 0.776093281661 0.149890684366
118408500 0.776411040253 0.150242324194
118418000 0.776163992819 0.149226227657
118427500 0.77611622714 0.149374231579
118437000 0.777377024157 0.149769614408
118446500 0.776696902869 0.148903186116
118456000 0.777402445276 0.149384306717
118465500 0.776867480873 0.148064159572
118475000 0.777481514767 0.148852191752
118484500 0.778359763328 0.148647660432
118494000 0.777344165028 0.148109059084
118503500 0.77834378074 0.148365504282
118513000 0.777392524639 0.146902704241
118522500 0.778637717013 0.148142083246
118532000 0.778846951517 0.147650760768
118541500 0.778275362285 0.147464056436
118551000 0.778860424774 0.147105429447
118560500 0.778219010203 0.146392805153
118570000 0.779672883121 0.147254650449
118579500 0.779301920671 0.146401192459
118589000 0.779539236703 0.146689795567
118598500 0.779392182234 0.145744568001
118608000 0.779199102574 0.145784148356
118617500 0.780671767135 0.146193126774
118627000 0.779890113979 0.145389693029
118636500 0.780645592136 0.145875580561
118646000 0.779914270793 0.144686877967
118655500 0.780565658851 0.145474425443
118665000 0.781498573745 0.145160624274
118674500 0.780417604216 0.144742244642
118684000 0.781469525686 0.144901066689
118693500 0.780256082535 0.143541355547
118703000 0.781718827746 0.144592097728
118712500 0.782006958342 0.144072615192
118722000 0.781308511428 0.143948629445
118731500 0.782035082405 0.14357834884
118741000 0.781156262183 0.142979710326
118750500 0.782803203616 0.143760752364
118760000 0.782404497733 0.142980641542
118769500 0.782557209314 0.143331414608
118779000 0.782376498283 0.142548092385
118788500 0.782067383043 0.142435956639
118798000 0.78370857841 0.142717218739
118807500 0.782783465992 0.142036900368
118817000 0.783639303246 0.142429132603
118826500 0.782753210005 0.141356479187
118836000 0.783455183862 0.142025484685
118845500 0.784483849045 0.141732929373
118855000 0.783381945558 0.141479098698
118864500 0.784500065017 0.141544930362
118874000 0.783088066169 0.140383441131
118883500 0.78455390378 0.141279732169
118893000 0.784999890535 0.140760027703
118902500 0.784146694438 0.1406424102
118912000 0.784844275069 0.140245730425
118921500 0.783874717549 0.139687896751
118931000 0.785723093722 0.140310014726
118940500 0.785302263809 0.139618088642
118950000 0.785357965592 0.13990604627
118959500 0.78557249754 0.13956121153
118969000 0.785819025619 0.139412582843
118978500 0.785289644753 0.139058180007
118988000 0.785780332641 0.139006399731
118997500 0.785867378785 0.138710552443
119007000 0.786568979678 0.138809807697
119016500 0.786256057796 0.138304202142
119026000 0.786067641826 0.138313553547
119035500 0.786849664873 0.138134077271
119045000 0.786422355407 0.137835373971
119054500 0.787454232612 0.138091194447
119064000 0.786745173979 0.137334409124
119073500 0.786695120867 0.137480346359
119083000 0.788044554436 0.137318149272
119092500 0.787170844659 0.137146249905
119102000 0.788019124928 0.137194709618
119111500 0.787368453746 0.13663778121
119121000 0.787489830618 0.136601908169
119130500 0.7883751291 0.136355390135
119140000 0.788174677987 0.136261414758
119149500 0.788551375925 0.136127583694
119159000 0.787991995528 0.135803413929
119168500 0.788370385732 0.135790249441
119178000 0.788533868051 0.135432912021
119187500 0.789182952955 0.135476544641
119197000 0.788888968543 0.135072588963
119206500 0.788720425086 0.135147244104
119216000 0.78940795754 0.134902562724
119225500 0.789036975573 0.134724537667
119235000 0.790117482641 0.134820673562
119244500 0.789351963926 0.134167216295
119254000 0.789179488896 0.134337391577
119263500 0.790567697124 0.133980797983
119273000 0.789714145424 0.133962066309
119282500 0.790665574866 0.133843187265
119292000 0.789977315771 0.13345880536
119301500 0.790077595505 0.133474468156
119311000 0.790981323451 0.133135207393
119320500 0.790666356723 0.133115041469
119330000 0.791192398788 0.13295504775
119339500 0.790458662913 0.132733918626
119349000 0.790815238485 0.132681955632
119358500 0.791170574333 0.132256405377
119368000 0.791667056295 0.132215427852
119377500 0.791461070059 0.131914161087
119387000 0.791248771056 0.132075043338
119396500 0.791918224244 0.131716669511
119406000 0.791563003463 0.131656991069
119415500 0.79273898645 0.131623061626
119425000 0.791823864517 0.131165460392
119434500 0.79179381258 0.131363011029
119444000 0.792983160162 0.130898338679
119453500 0.792162986537 0.131048594746
119463000 0.793131669118 0.130785846844
119472500 0.792368291993 0.130593210385
119482000 0.792489501604 0.13052998688
119491500 0.79338467897 0.130033544722
119501000 0.792950712278 0.130095323463
119510500 0.793550944456 0.129889433203
119520000 0.792849177174 0.129664662519
119529500 0.793177053127 0.129707976683
119539000 0.793621731132 0.129193114845
119548500 0.794035254755 0.129137100522
119558000 0.793885373726 0.128861622097
119567500 0.793621117864 0.129075709632
119577000 0.794259158183 0.128653337468
119586500 0.794019464227 0.128615303588
119596000 0.795150033596 0.128381355476
119605500 0.794258565931 0.128163739481
119615000 0.794279151113 0.128436933031
119624500 0.795341545575 0.127782113015
119634000 0.794598581261 0.128047245756
119643500 0.79557064937 0.127704161584
119653000 0.79481766596 0.127573039393
119662500 0.794844428568 0.12767970875
119672000 0.795834897824 0.127014628688
119681500 0.79530499735 0.127269539704
119691000 0.795934851728 0.126913090209
119700500 0.79515487022 0.126861390804
119710000 0.795454001312 0.126929117539
119719500 0.795943980534 0.126278017972
119729000 0.796215630984 0.126246035945
119738500 0.796200439684 0.126038078897
119748000 0.796002172055 0.126279192955
119757500 0.796527633174 0.125850013445
119767000 0.796326390375 0.125759425603
119776500 0.797399026093 0.125472350417
119786000 0.796533845477 0.12541798502
119795500 0.796554472907 0.125628261969
119805000 0.797469021222 0.124876305624
119814500 0.796801275653 0.125239480714
119824000 0.797831560428 0.124694069959
119833500 0.79710881701 0.124652443426
119843000 0.79719267515 0.124794504474
119852500 0.798192832316 0.124020253438
119862000 0.797628079985 0.124439074279
119871500 0.798390446272 0.124049966809
119881000 0.797569911709 0.124104359941
119890500 0.797887465323 0.124256414407
119900000 0.798498492849 0.123495027993
119909500 0.797383281245 0.123947322193
119919000 0.798866331938 0.123513373098
119928500 0.799055897771 0.122780769742
119938000 0.798602141462 0.123530112354
119947500 0.799301476783 0.122625364126
119957000 0.797571521357 0.123530035212
119966500 0.79980691184 0.122435915827
119976000 0.799259366434 0.122141413831
119985500 0.799660275603 0.122597770826
119995000 0.799442116614 0.121882486984
120004500 0.798702741981 0.123021041468
120014000 0.800436333263 0.121468653606
120023500 0.799603925909 0.121795983368
120033000 0.800562495834 0.121500992612
120042500 0.799527002832 0.121598783318
120052000 0.799819219116 0.122167457458
120061500 0.800861850354 0.120644178287
120071000 0.800092264543 0.121599525655
120080500 0.801023359539 0.120713524202
120090000 0.799627908027 0.121311886253
120099500 0.80091233252 0.12082207875
120109000 0.801245126456 0.119952444439
120118500 0.800797045674 0.120882507891
120128000 0.801530467384 0.119843802078
120137500 0.79999159002 0.12103906171
120147000 0.801999651111 0.119683020042
120156500 0.801448517924 0.119321802689
120166000 0.801865210965 0.119950316338
120175500 0.801769153213 0.119253609824
120185000 0.801063765712 0.12053959202
120194500 0.802564999395 0.118797072869
120204000 0.801818370071 0.119255544552
120213500 0.802703434133 0.118885170716
120223000 0.801889845216 0.118897785965
120232500 0.802030031177 0.11963492445
120242000 0.803049060821 0.117893147296
120251500 0.802432562557 0.118784508572
120261000 0.803271939529 0.117891226416
120270500 0.80206060431 0.118708827811
120280000 0.80320824223 0.118236178385
120289500 0.80352860897 0.117237029044
120299000 0.803191432806 0.118348781429
120308500 0.803789673268 0.117253637636
120318000 0.802452506251 0.118594525769
120327500 0.804164511653 0.117221913657
120337000 0.803664100017 0.116777520458
120346500 0.804056706651 0.117466581329
120356000 0.803894564627 0.116625050052
120365500 0.803294244345 0.118184944432
120375000 0.804640787854 0.116150968009
120384500 0.804005444471 0.1166115174
120394000 0.804797362893 0.116311902236
120403500 0.804172917019 0.116291678042
120413000 0.80429606824 0.117136075475
120422500 0.805124026316 0.115235948609
120432000 0.804711079336 0.116234943231
120441500 0.805453118647 0.115298659287
120451000 0.804458592637 0.116216605643
120460500 0.805384558089 0.115764288593
120470000 0.80575387466 0.114609547535
120479500 0.805453316774 0.115841590822
120489000 0.805997054955 0.114636185877
120498500 0.804854868264 0.116144790949
120508000 0.806351070133 0.114743881358
120517500 0.805886947907 0.114182985835
120527000 0.806341129993 0.114975792333
120536500 0.806126557582 0.114082847544
120546000 0.805782233996 0.115840784025
120555500 0.806830535292 0.11349031802
120565000 0.806256199697 0.114150491598
120574500 0.806963672315 0.113692433472
120584000 0.806092343051 0.11471739033
120593500 0.807189396963 0.11377408322
120603000 0.807353321256 0.112529472894
120612500 0.807075311318 0.114048117334
120622000 0.807439024757 0.113032118505
120631500 0.80681882313 0.114395786632
120641000 0.808072498775 0.11251030427
120650500 0.807763426282 0.112344397074
120660000 0.807726078766 0.113540105498
120669500 0.807700397117 0.113213757331
120679000 0.80784553308 0.112905974327
120688500 0.808617280055 0.111690168156
120698000 0.808239872325 0.111932147813
120707500 0.808351191349 0.11258284465
120717000 0.808215022879 0.112609926789
120726500 0.8089006821 0.112242097474
120736000 0.809032236902 0.110819326549
120745500 0.808797747495 0.111974145705
120755000 0.809028738218 0.111823138697
120764500 0.808910120433 0.11215642579
120774000 0.809418315442 0.111220783494
120783500 0.809657706097 0.110319943146
120793000 0.80943673511 0.111612567335
120802500 0.809471638366 0.111224928124
120812000 0.809519249506 0.111240132789
120821500 0.8102053203 0.109971309273
120831000 0.810102827649 0.109857625432
120840500 0.810172230109 0.111029668092
120850000 0.810052952731 0.110756686876
120859500 0.809933921616 0.111380516475
120869000 0.810488214689 0.109925204508
120878500 0.810910376179 0.108849920495
120888000 0.810776289826 0.109187127482
120897500 0.810550135567 0.11043825933
120907000 0.810693695244 0.11093869141
120916500 0.811228253792 0.108661775596
120926000 0.81128304193 0.108173564635
120935500 0.811498968974 0.108680220443
120945000 0.81116767621 0.110122612087
120954500 0.811480238316 0.109959743138
120964000 0.811945255873 0.107570835104
120973500 0.81204749242 0.107607960703
120983000 0.81193617191 0.10862573204
120992500 0.811736423385 0.109607285471
121002000 0.812282019168 0.108732113621
121011500 0.812348040913 0.1070073795
121021000 0.812569401575 0.107170436063
121030500 0.812391246014 0.10828233317
121040000 0.81251258163 0.108881766828
121049500 0.812895140109 0.10749031356
121059000 0.813181412318 0.106353356444
121068500 0.813174663614 0.106669719816
121078000 0.813189889947 0.107858190633
121087500 0.81336695577 0.108407176406
121097000 0.813569641011 0.106300707554
121106500 0.813535050791 0.105804256049
121116000 0.813817192708 0.106243338481
121125500 0.813699854219 0.107699991588
121135000 0.813938253125 0.107662195245
121144500 0.814086670924 0.105155257593
121154000 0.814247492763 0.105088162091
121163500 0.814319565412 0.106090068572
121173000 0.814229354581 0.107081363067
121182500 0.814786441329 0.106311848375
121192000 0.814655015288 0.104488784663
121201500 0.814856324749 0.104622279201
121211000 0.814856250429 0.105697601734
121220500 0.815087548782 0.106461724978
121230000 0.815269137476 0.105101536671
121239500 0.815428992944 0.103865526593
121249000 0.815446971524 0.104188919056
121258500 0.815623292651 0.105403607471
121268000 0.815862600011 0.105885263907
121277500 0.815899557594 0.103927326092
121287000 0.815757027807 0.103324014856
121296500 0.81610276438 0.103719992785
121306000 0.816177473214 0.105083305542
121315500 0.816500001803 0.105203152216
121325000 0.81634951189 0.102689289223
121334500 0.816548938071 0.102573883572
121344000 0.816755269137 0.103534291784
121353500 0.816920819944 0.104635416789
121363000 0.817325884778 0.103884721779
121372500 0.816961839622 0.102030485362
121382000 0.817186878355 0.102160616766
121391500 0.817343768783 0.103169776441
121401000 0.81756618649 0.103925206701
121410500 0.817596409274 0.102712230098
121420000 0.817580426783 0.101364512397
121429500 0.817698952375 0.10165646754
121439000 0.818021594912 0.102772050689
121448500 0.818335026371 0.103196767187
121458000 0.81827457565 0.10150902489
121467500 0.818061607696 0.100764867515
121477000 0.818468474509 0.101127386485
121486500 0.818721041606 0.102437626642
121496000 0.819125469947 0.102672430449
121505500 0.818580487407 0.100198711901
121515000 0.818697564777 0.100059972304
121524500 0.819092695617 0.100942029347
121534000 0.819463310017 0.10199037516
121543500 0.819764463 0.10132997292
121553000 0.819186607655 0.0994668557493
121562500 0.819472685706 0.0995169973355
121572000 0.819826398017 0.100446627068
121581500 0.820210894721 0.101364538503
121591000 0.820112653712 0.10028260004
121600500 0.819898878141 0.0988412613458
121610000 0.820000748268 0.0990421991703
121619500 0.820507892077 0.100189046687
121629000 0.820785661552 0.100560907042
121638500 0.820555294981 0.0989934392613
121648000 0.820217474145 0.0981948605937
121657500 0.820689516246 0.098472934331
121667000 0.821160626985 0.0997256292698
121676500 0.821693112361 0.0999962584834
121686000 0.820889453878 0.0976566291694
121695500 0.820982792165 0.097350234806
121705000 0.821431567203 0.0982500905133
121714500 0.821989703853 0.0994279782448
121724000 0.822309740981 0.0987906417544
121733500 0.8214349866 0.0969699375122
121743000 0.821659806211 0.0970321941212
121752500 0.822282638517 0.0979449890014
121762000 0.822804951505 0.0986957410721
121771500 0.822602753847 0.0976718183313
121781000 0.822137242852 0.0962498001851
121790500 0.822343716828 0.0964879197203
121800000 0.822986150746 0.0975052032193
121809500 0.822518384487 0.0964934179525
121819000 0.823805940629 0.098128077212
121828500 0.823327885001 0.0967413904985
121838000 0.822640001518 0.0951476215881
121847500 0.822869712177 0.0953541118244
121857000 0.823365090197 0.096387205389
121866500 0.824214239819 0.0970593867919
121876000 0.823891003383 0.0956786707947
121885500 0.823062157323 0.0946695869162
121895000 0.823536023584 0.094727197174
121904500 0.824330414923 0.0961472643037
121914000 0.824599455551 0.0959118870789
121923500 0.823865909054 0.0945841717532
121933000 0.824144471947 0.0939656796259
121942500 0.824228735314 0.094304285865
121952000 0.825500492047 0.0958937791488
121961500 0.825083658978 0.0947320955001
121971000 0.824298767524 0.0935295940915
121980500 0.824798855452 0.0935735199134
121990000 0.824794179788 0.0938578116575
121999500 0.826278655591 0.0952958599727
122009000 0.825646470296 0.0941066787624
122018500 0.824676318584 0.0925715281056
122028000 0.825053554936 0.0928098208579
122037500 0.825742566384 0.0936548168983
122047000 0.826758917111 0.0943976844621
122056500 0.826252892737 0.09301867378
122066000 0.825247038232 0.0921257242845
122075500 0.825805022422 0.0921256018973
122085000 0.826740140521 0.0933630143631
122094500 0.8270818898 0.0932976891185
122104000 0.826187610178 0.0921047733036
122113500 0.826245242086 0.0913603500189
122123000 0.826270771892 0.0916610697255
122132500 0.827751661825 0.0930785757731
122142000 0.827195084305 0.0920305283136
122151500 0.826415458275 0.0908827055261
122161000 0.826869031706 0.090817552191
122170500 0.826920043475 0.0910326750694
122180000 0.828670303917 0.0922962004076
122189500 0.827938205718 0.091208020897
122199000 0.826769951429 0.0898854555639
122208500 0.82720029156 0.0901235019488
122218000 0.827846506587 0.090857901458
122227500 0.82910259971 0.0916007892429
122237000 0.828389011793 0.0903164421843
122246500 0.827213920756 0.0894964703214
122256000 0.827792762441 0.0893907973902
122265500 0.828749043957 0.090388596711
122275000 0.829246271418 0.0903897064799
122284500 0.828292417437 0.0893426484326
122294000 0.828148541563 0.0885437550566
122303500 0.82831840424 0.0888895596671
122313000 0.830064127895 0.0900348574767
122322500 0.829474033645 0.0891722364454
122332000 0.828576621665 0.0881885479429
122341500 0.828867609988 0.0880814665631
122351000 0.829013599283 0.0883514401905
122360500 0.830843456432 0.0893382826032
122370000 0.829984467146 0.0884195128318
122379500 0.828708566847 0.0872879320281
122389000 0.829276564 0.0873929956401
122398500 0.829913274433 0.0879950752768
122408000 0.831430788244 0.0886076644954
122417500 0.830502634689 0.0874798131026
122427000 0.829231012145 0.0868220095672
122436500 0.829853909667 0.0867553953878
122446000 0.830875429165 0.0875663232585
122455500 0.831568813152 0.0876599482401
122465000 0.83044827507 0.0866936934318
122474500 0.830119745087 0.0859067506264
122484000 0.830343897503 0.08616851288
122493500 0.832116358667 0.0870372776079
122503000 0.831543139779 0.0864920564276
122512500 0.830634533266 0.0856077882692
122522000 0.830780191143 0.0853733742625
122531500 0.831002046354 0.0855682854269
122541000 0.832947618478 0.0863275775358
122550500 0.832035668506 0.0855705148996
122560000 0.830590683742 0.084698344713
122569500 0.83120001423 0.0846785087944
122579000 0.83181455529 0.085113783583
122588500 0.833540572464 0.0855405564935
122598000 0.832481905928 0.0845947376814
122607500 0.831180457303 0.084112190696
122617000 0.831861363679 0.0839954738268
122626500 0.83285595214 0.0846248531026
122636000 0.833695152819 0.0847087722233
122645500 0.832604890236 0.0839944432906
122655000 0.83204499485 0.0832389076008
122664500 0.832280394437 0.0834888015822
122674000 0.834013241757 0.0840883835699
122683500 0.833532271986 0.0836715144835
122693000 0.832533309732 0.0828742954107
122702500 0.832635017683 0.0827498284644
122712000 0.832992509255 0.0828472478911
122721500 0.834987115068 0.0833353399199
122731000 0.834153447442 0.0827804293815
122740500 0.832629559203 0.0821185377328
122750000 0.833269004526 0.082048324467
122759500 0.83446827813 0.0825453143047
122769000 0.833978741452 0.0822969238826
122778500 0.834351022664 0.0819234989973
122788000 0.833601096693 0.0816209317625
122797500 0.834629605398 0.0817292565352
122807000 0.834852201603 0.0816749094257
122816500 0.834377583655 0.0814948102032
122826000 0.834531655451 0.0810558938781
122835500 0.834151671636 0.0809218563619
122845000 0.835304016801 0.0810226162943
122854500 0.835400213581 0.0808574436941
122864000 0.834993815863 0.0806517332032
122873500 0.834497015303 0.0803017699332
122883000 0.834676203831 0.080294705042
122892500 0.835859097078 0.0803757636268
122902000 0.835816654226 0.0801804949732
122911500 0.835657564934 0.0798780240509
122921000 0.834865306745 0.0794997963126
122930500 0.835500133374 0.0795997344551
122940000 0.836380430715 0.0795736891355
122949500 0.835950449595 0.0794292322694
122959000 0.83626291439 0.0790065864095
122968500 0.835417782367 0.0788694361923
122978000 0.836438289088 0.0788892673864
122987500 0.836797346047 0.0788092560803
122997000 0.836373654123 0.078696252343
123006500 0.836448172268 0.0783377609317
123016000 0.835973451846 0.0782993463963
123025500 0.837110842005 0.0782557192694
123035000 0.837237696038 0.0780558673014
123044500 0.836770194456 0.0778902376402
123054000 0.836470488316 0.0775142410911
123063500 0.836581507287 0.0775314774522
123073000 0.837834051373 0.077411463641
123082500 0.837795815514 0.0772784621651
123092000 0.8375026163 0.0770760957207
123101500 0.83686514945 0.0768705258847
123111000 0.837344862248 0.076888069031
123120500 0.83823595152 0.0767718256496
123130000 0.837871230317 0.0767019562996
123139500 0.838015437781 0.0762788787256
123149000 0.837238243652 0.0761844151047
123158500 0.838107556782 0.0760862790447
123168000 0.838556882893 0.0759184052776
123177500 0.838265052934 0.0758080338531
123187000 0.83837276168 0.0754987149211
123196500 0.83789334242 0.075502741811
123206000 0.839018304216 0.07532688202
123215500 0.839225720358 0.0751257544542
123225000 0.838666405814 0.075118486845
123234500 0.83837511029 0.0749004379469
123244000 0.838430408591 0.0748402798195
123253500 0.839702803141 0.0745163261774
123263000 0.839617105261 0.0743889858866
123272500 0.839327527354 0.0742490887425
123282000 0.83871476875 0.0740830657731
123291500 0.839198849298 0.0739822301291
123301000 0.840171245246 0.0737831949001
123310500 0.839819992984 0.0737661262487
123320000 0.839898415058 0.073315930601
123329500 0.839231941838 0.0733400712727
123339000 0.840035340359 0.0731950254928
123348500 0.840542552285 0.0731325378706
123358000 0.84019833883 0.0731214426621
123367500 0.840246447146 0.0727366989732
123377000 0.839725345069 0.0727596913089
123386500 0.840694869615 0.0725012411883
123396000 0.841038004144 0.0722414782882
123405500 0.840611018018 0.0722176947885
123415000 0.840327236646 0.0720154424471
123424500 0.840296058069 0.0720673315279
123434000 0.841519557287 0.0716050170235
123443500 0.841497552445 0.0714483345399
123453000 0.841104897308 0.0714060960513
123462500 0.840578809903 0.0713834710566
123472000 0.841019900571 0.0712760924957
123481500 0.841989963249 0.0709597607958
123491000 0.841694727498 0.0709975019691
123500500 0.841623681941 0.070605914199
123510000 0.840967179313 0.0706598868598
123519500 0.841680209184 0.0703484747499
123529000 0.842304477057 0.0701755537882
123538500 0.842041170083 0.0701909632975
123548000 0.842112215375 0.069797409556
123557500 0.841594174331 0.0699054698959
123567000 0.842452483418 0.0696078546988
123576500 0.842770476911 0.0693625823624
123586000 0.842221382473 0.0694485642037
123595500 0.842149483186 0.0692657184633
123605000 0.842066098375 0.0693405770669
123614500 0.843193067348 0.0687216555236
123624000 0.843170509779 0.0685570566093
123633500 0.842754335539 0.068537540956
123643000 0.842296587055 0.0685395410009
123652500 0.842644499383 0.0683856290726
123662000 0.843617942324 0.0678537175304
123671500 0.84344849808 0.0679058576621
123681000 0.843259626169 0.0676255732496
123690500 0.842755611903 0.067720716277
123700000 0.8432913861 0.0674842660759
123709500 0.843996613643 0.0669393148826
123719000 0.843089171662 0.0674588244311
123728500 0.843837179788 0.0667543295647
123738000 0.843502159014 0.0670802093124
123747500 0.844379471814 0.0665617728548
123757000 0.844467125339 0.0663899259853
123766500 0.843725667292 0.0665988301495
123776000 0.844198164325 0.0662594428208
123785500 0.844042318563 0.0663838856294
123795000 0.845207840818 0.0656263920344
123804500 0.844407445651 0.0658516111879
123814000 0.844192463072 0.0659670197871
123823500 0.84449048703 0.0655954085344
123833000 0.844642163686 0.0656764571566
123842500 0.84560261001 0.0647528473201
123852000 0.844416324581 0.065499147732
123861500 0.844800635342 0.0648989972578
123871000 0.844886938659 0.0646849034196
123880500 0.845094438614 0.0646861861726
123890000 0.845688143974 0.0639884802275
123899500 0.844785760906 0.0646799823916
123909000 0.845461325475 0.0638783477344
123918500 0.845224362683 0.0641684562329
123928000 0.845898685225 0.0636486698254
123937500 0.846093797493 0.0633952628709
123947000 0.845330862542 0.0637667607192
123956500 0.845776973255 0.0633456080829
123966000 0.845614410469 0.0635110939322
123975500 0.84665184518 0.0627244555351
123985000 0.845983542523 0.0629202829924
123994500 0.845645155351 0.0630822986154
124004000 0.845976210856 0.0625783031421
124013500 0.846047869767 0.0627177420726
124023000 0.846902087656 0.0617203234364
124032500 0.845956890749 0.0625408511966
124042000 0.846198458144 0.0619793860439
124051500 0.846373594792 0.0617359662868
124061000 0.846594864726 0.0617754021266
124070500 0.847168546354 0.0610246150536
124080000 0.846387036793 0.0617351681724
124089500 0.846914694064 0.0609694753148
124099000 0.846866500827 0.0612402887409
124108500 0.847369368142 0.0608115024652
124118000 0.847668763959 0.0603601397113
124127500 0.846851603238 0.060890351985
124137000 0.84728954907 0.0603893482572
124146500 0.847138785143 0.0605317234703
124156000 0.847979674729 0.05970762319
124165500 0.847471158826 0.0599144214309
124175000 0.84719459284 0.0602021512743
124184500 0.847509396587 0.0595943423969
124194000 0.847550837509 0.0597795529468
124203500 0.848348089428 0.0587771535017
124213000 0.847678790225 0.0595542927309
124222500 0.847766849197 0.0590614722557
124232000 0.847979391846 0.0587902454928
124241500 0.84813428888 0.0588641966753
124251000 0.848671634597 0.0580615512983
124260500 0.847959475369 0.0587806178753
124270000 0.848334600202 0.058095205022
124279500 0.848297785211 0.0582770620349
124289000 0.848688983209 0.057874254662
124298500 0.849001473854 0.0573567247454
124308000 0.848290745944 0.0580340752428
124317500 0.848729934825 0.0575249190916
124327000 0.848627408179 0.0576144541257
124336500 0.849256503912 0.0568250546104
124346000 0.848841326503 0.0568491000963
124355500 0.848562075008 0.0573244741945
124365000 0.848929319629 0.0566461771303
124374500 0.848963512531 0.05683318136
124384000 0.849638194009 0.0557729818323
124393500 0.849087019327 0.0564910279075
124403000 0.849090522409 0.0561466952396
124412500 0.849299397517 0.0558448539698
124422000 0.849440493801 0.055948429975
124431500 0.849889374863 0.0550616304739
124441000 0.849322427763 0.0558061969416
124450500 0.849577277278 0.0551388778029
124460000 0.849623178691 0.0552426302188
124469500 0.849927771775 0.0549542840179
124479000 0.850227169879 0.0542787861149
124488500 0.849635463173 0.0550077503667
124498000 0.849979668054 0.0544371379929
124507500 0.849929664347 0.0544862194988
124517000 0.850471722099 0.0537698229686
124526500 0.850298829034 0.0537515869627
124536000 0.850036689659 0.0543155755838
124545500 0.850253296334 0.0536421133151
124555000 0.850317543834 0.0539066243668
124564500 0.850829143405 0.0528597427692
124574000 0.850479003767 0.0535381269626
124583500 0.850322998334 0.0533501084565
124593000 0.850483844978 0.0529176534465
124602500 0.850676362197 0.0529964507946
124612000 0.851069991546 0.0520070815569
124621500 0.85054284115 0.0528651960176
124631000 0.850752011937 0.0523426403144
124640500 0.850881125071 0.0522365161746
124650000 0.851077061703 0.0520560813851
124659500 0.851138144809 0.0516252519344
124669000 0.850949948611 0.0522058476859
124678500 0.851300022906 0.0515016799091
124688000 0.851333222016 0.0512375818444
124697500 0.851256244731 0.0513586215977
124707000 0.851219498951 0.0512697312794
124716500 0.851289502434 0.051366919755
124726000 0.851605993327 0.0506399676065
124735500 0.851577749861 0.0504405427448
124745000 0.851628922353 0.050388718188
124754500 0.851480696156 0.0506276088518
124764000 0.85164121091 0.0502486370495
124773500 0.851890916859 0.049869924923
124783000 0.851921671622 0.0500015213582
124792500 0.852005841532 0.0495944536116
124802000 0.851755534381 0.0500180797802
124811500 0.85194633307 0.0494814487928
124821000 0.852174587709 0.0492112707375
124830500 0.852226967034 0.0492183264255
124840000 0.852149087112 0.0486814715615
124849500 0.852014921931 0.0492637485517
124859000 0.852267523387 0.0485766707769
124868500 0.852392503215 0.0482689933184
124878000 0.852374334135 0.0483780769329
124887500 0.852315186811 0.0482367949736
124897000 0.852430256306 0.0484169245614
124906500 0.852742469541 0.0477404280109
124916000 0.852695481476 0.0476268101037
124925500 0.852791667133 0.0476926478726
124935000 0.852617583809 0.0478043937874
124944500 0.852743431195 0.0474921549716
124954000 0.852976995657 0.0470471058713
124963500 0.852927233781 0.0471521021948
124973000 0.852954564091 0.046821405554
124982500 0.852788447973 0.0472046945125
124992000 0.852978933665 0.0466855611216
125001500 0.853229729988 0.0463919455355
125011000 0.853304726344 0.046369136363
125020500 0.853237198758 0.0459226554911
125030000 0.853169155994 0.0465404693619
125039500 0.853361198813 0.0458834690831
125049000 0.853472616508 0.0455362764745
125058500 0.853422906713 0.0457001660418
125068000 0.853407885604 0.0455963798533
125077500 0.853476624801 0.0457121070478
125087000 0.853714189679 0.0450019932878
125096500 0.853679327949 0.0448474620476
125106000 0.853759007951 0.0448891024455
125115500 0.853669228696 0.0449114066483
125125000 0.853759701438 0.0446933059269
125134500 0.853966246334 0.0442452425521
125144000 0.854021141965 0.0442927911973
125153500 0.853980341471 0.0439210818868
125163000 0.853859423414 0.0442832301134
125172500 0.854048549538 0.0438739798092
125182000 0.854289242135 0.0435320085411
125191500 0.854358547161 0.0435340053366
125201000 0.854271188615 0.0431674894211
125210500 0.854244811175 0.0437411369687
125220000 0.854401100032 0.0431115994869
125229500 0.854502738904 0.0427492932905
125239000 0.854523772726 0.0429855812543
125248500 0.854497073727 0.042756262865
125258000 0.854530434818 0.0428907338794
125267500 0.854620524948 0.0421948151463
125277000 0.854617465866 0.0420747399649
125286500 0.854710377142 0.0421439485858
125296000 0.854645533606 0.042126060671
125305500 0.854738961152 0.0419558473521
125315000 0.854926421576 0.0414319672133
125324500 0.85502831577 0.0414263842544
125334000 0.854982696396 0.0411840660899
125343500 0.854933816565 0.0415753306052
125353000 0.855048146918 0.0411798659177
125362500 0.855168709089 0.0407884929211
125372000 0.855212786188 0.0408454636398
125381500 0.855110056476 0.0404849857778
125391000 0.855154625608 0.0409309123108
125400500 0.855188495763 0.040308053415
125410000 0.855272281476 0.0399112983902
125419500 0.855405060545 0.0401601166246
125429000 0.855324078501 0.0398472491453
125438500 0.855392539003 0.0400925099811
125448000 0.855445389986 0.0394750156879
125457500 0.855466109953 0.0392578314806
125467000 0.855566029963 0.0393588430884
125476500 0.855478704766 0.0393157474477
125486000 0.855605872368 0.0391751407892
125495500 0.855826745056 0.0386183453009
125505000 0.855870524573 0.0386458882648
125514500 0.855856682637 0.0384234273396
125524000 0.855881514996 0.0386740226864
125533500 0.855969372023 0.0382640456459
125543000 0.856112427409 0.0378545397758
125552500 0.856165465522 0.0379569555885
125562000 0.856121018121 0.0376042758499
125571500 0.856172062674 0.0380586091037
125581000 0.856261095016 0.0375563515818
125590500 0.856288719831 0.0371290100169
125600000 0.856375855097 0.0373463632583
125609500 0.856309723488 0.0366756841323
125619000 0.856382839839 0.0372977746041
125628500 0.856467536204 0.0369069880237
125638000 0.856411305209 0.0368108091586
125647500 0.856625786904 0.0365492104631
125657000 0.856456605295 0.0360549611834
125666500 0.856529468029 0.0367285260603
125676000 0.85653414454 0.0362547260806
125685500 0.856620254497 0.0362147500774
125695000 0.856781827262 0.0354971346439
125704500 0.85674693915 0.0355914385975
125714000 0.856760448019 0.0359128601439
125723500 0.8567528118 0.0354354914952
125733000 0.856953464159 0.0354184216566
125742500 0.856944834916 0.0345588257668
125752000 0.857006070938 0.0351685074934
125761500 0.857092356481 0.0350934430141
125771000 0.857084267873 0.0345641063986
125780500 0.857215052871 0.0346108407622
125790000 0.857225097342 0.0340169552839
125799500 0.857253729923 0.0346377441197
125809000 0.857237342969 0.0342690974174
125818500 0.857202355347 0.0341427163965
125828000 0.857411060759 0.0339203422943
125837500 0.857225036353 0.033340424661
125847000 0.857352631297 0.0339797559909
125856500 0.857317413451 0.0336080283562
125866000 0.857471453862 0.0335133720254
125875500 0.857523919714 0.0328233710331
125885000 0.857423698773 0.0328492661971
125894500 0.857481948935 0.0332838044933
125904000 0.857492852702 0.0327366733212
125913500 0.857651719527 0.0327229592801
125923000 0.8576465813 0.0319099906377
125932500 0.857763654059 0.032383993095
125942000 0.857929293242 0.0324097454796
125951500 0.857794139534 0.0319177913006
125961000 0.85795758775 0.0319817923742
125970500 0.857834493151 0.0313461724521
125980000 0.857937024622 0.0319189952337
125989500 0.857914158116 0.0315904238424
125999000 0.857877885613 0.0313381827466
126008500 0.858171918743 0.031150570207
126018000 0.857919845706 0.0305827506408
126027500 0.858105855021 0.0311648252294
126037000 0.858168381616 0.0307669976865
126046500 0.858273269062 0.0306749410735
126056000 0.858323240828 0.0300693180803
126065500 0.858256494265 0.0300865318374
126075000 0.858451547454 0.0305360202285
126084500 0.858391715973 0.0300562893444
126094000 0.858443778119 0.0300948361523
126103500 0.858368545644 0.0293576132796
126113000 0.858515549739 0.0297195768551
126122500 0.858645899925 0.0297967160374
126132000 0.858435735921 0.0292513734041
126141500 0.85864092651 0.0293095753539
126151000 0.858634030097 0.0286009684129
126160500 0.858782238068 0.0291406902999
126170000 0.858793513912 0.0288525621793
126179500 0.85872564306 0.0285569706005
126189000 0.859036664565 0.0284489437625
126198500 0.858644970768 0.0278645746229
126208000 0.858890171377 0.028477284747
126217500 0.858871045701 0.028110386075
126227000 0.858916776868 0.0279729235731
126236500 0.85898169084 0.0274996513211
126246000 0.858894003924 0.0274011219806
126255500 0.859121534038 0.0278118351595
126265000 0.859073696825 0.0272905071163
126274500 0.859128969285 0.0273052340109
126284000 0.859065661145 0.0266271164096
126293500 0.859157206168 0.0269160231208
126303000 0.859381809969 0.0271066673639
126312500 0.859079641169 0.0265856025509
126322000 0.859227396074 0.0265561911628
126331500 0.859075919318 0.0258767501469
126341000 0.859300623864 0.0264445359029
126350500 0.859296242675 0.0261908163307
126360000 0.859131011594 0.0258524400604
126369500 0.859471101706 0.0257894008996
126379000 0.85923267669 0.0252434333957
126388500 0.859507870081 0.0257393338993
126398000 0.859527015574 0.0254033518651
126407500 0.859528606095 0.0253207981971
126417000 0.85965640611 0.0249430992947
126426500 0.859476850866 0.0246911553008
126436000 0.859664518866 0.0251568419577
126445500 0.859569486617 0.0247463189693
126455000 0.859648030736 0.0247161107639
126464500 0.859602124419 0.0239294178012
126474000 0.859548704156 0.0241542371791
126483500 0.859897809382 0.0244325260193
126493000 0.859716444732 0.023915428564
126502500 0.859916885548 0.0238725654027
126512000 0.859727499551 0.023225255295
126521500 0.859998930345 0.023751482883
126531000 0.86012764144 0.0235485418603
126540500 0.859834076664 0.0231600575498
126550000 0.860105663442 0.0231693785857
126559500 0.860270552145 0.0235738325338
126569000 0.859833314422 0.0224670618475
126578500 0.859912399457 0.0224306097747
126588000 0.860159275926 0.0224669380035
126597500 0.860007333952 0.0226431479116
126607000 0.860288509899 0.0226045113994
126616500 0.859930326654 0.021770932746
126626000 0.860093671574 0.0217931592213
126635500 0.860198331944 0.0218495214329
126645000 0.860173040811 0.0221781366389
126654500 0.860241824975 0.0217384890839
126664000 0.860161326549 0.0211495221404
126673500 0.860286618657 0.0211439740969
126683000 0.860340017641 0.0212133553993
126692500 0.860517951445 0.0216800623422
126702000 0.860263557618 0.020797690324
126711500 0.860300357723 0.0205381908139
126721000 0.860437077716 0.0206329501088
126730500 0.860255849763 0.0207500992578
126740000 0.860643118422 0.0209876715914
126749500 0.860185918864 0.0199268781656
126759000 0.860238036957 0.019879925376
126768500 0.860475339678 0.0199053510531
126778000 0.860402823121 0.0200245235631
126787500 0.860704296653 0.0200186210961
126797000 0.860282408969 0.0191985732122
126806500 0.860439480364 0.0192451520956
126816000 0.860670917893 0.019271974718
126825500 0.860687300409 0.0195453970789
126835000 0.860773844089 0.0191890892862
126844500 0.860536937595 0.0185919200289
126854000 0.860624863765 0.0185945363431
126863500 0.86066232347 0.0186415230708
126873000 0.86089013862 0.0189977471184
126882500 0.860560119153 0.018205281548
126892000 0.860559169685 0.0179180694745
126901500 0.860770555358 0.017935140347
126911000 0.860681646946 0.0179963681541
126920500 0.861116467021 0.0182928373899
126930000 0.860643650391 0.0174041637652
126939500 0.860716919917 0.0173829867915
126949000 0.861009678867 0.0173935176206
126958500 0.860894793107 0.0175262857556
126968000 0.861184937112 0.017595553005
126977500 0.860658654833 0.0167671756704
126987000 0.860848943812 0.0167975902176
126996500 0.861056706177 0.0168515309782
127006000 0.861051417688 0.0170975488869
127015500 0.861090342567 0.0167434292334
127025000 0.860772271585 0.016085784318
127034500 0.860905870897 0.016123959036
127044000 0.861033685195 0.0162661407125
127053500 0.861203249544 0.0165953987258
127063000 0.86087707671 0.0157959898589
127072500 0.860782641185 0.0154638496629
127082000 0.861025463146 0.0154863618723
127091500 0.861026551841 0.015573251682
127101000 0.861471312991 0.0157854995925
127110500 0.86096628816 0.0149382798195
127120000 0.861014933912 0.0149153793337
127129500 0.86129977474 0.0149416897501
127139000 0.861103049671 0.0150506839171
127148500 0.861411035538 0.0150836217838
127158000 0.860835734199 0.0143795481205
127167500 0.860958912526 0.0143370520659
127177000 0.861263760233 0.0143045660266
127186500 0.861240659416 0.0145217863777
127196000 0.861371591804 0.014243122879
127205500 0.861060441312 0.0136735644379
127215000 0.861204656259 0.0136953863081
127224500 0.861400626169 0.0138016877597
127234000 0.861443215349 0.0140969935278
127243500 0.861196555165 0.0134821275153
127253000 0.861058116983 0.0131464544338
127262500 0.861322275867 0.0131625303725
127272000 0.861202380247 0.013215699331
127281500 0.861598242343 0.0134560702044
127291000 0.861109442981 0.0126476180859
127300500 0.861121457394 0.0124930203219
127310000 0.861466295429 0.0124693303789
127319500 0.861314500473 0.0126488589227
127329000 0.861796097158 0.0126814644037
127338500 0.861132665321 0.0119641191705
127348000 0.861228398123 0.011925566169
127357500 0.86154827327 0.0120147355704
127367000 0.86151758064 0.0121875102273
127376500 0.861646584582 0.0119165161901
127386000 0.861242496006 0.0113215083984
127395500 0.861393996091 0.0113013155744
127405000 0.861612709459 0.0114124581251
127414500 0.861686537442 0.0116514196104
127424000 0.861473541925 0.0111246261421
127433500 0.86129389345 0.0108041557658
127443000 0.861519486549 0.010862263739
127452500 0.861483642481 0.010975826302
127462000 0.861886878113 0.0111571076816
127471500 0.86131513878 0.0105064846084
127481000 0.861287948512 0.0103694819892
127490500 0.861607397058 0.0102703740812
127500000 0.861420320196 0.010433930147
127509500 0.861659083213 0.0100150857871
127519000 0.861701879335 0.0102778372811
127528500 0.861936997466 0.0101643632962
127538000 0.861260156799 0.00952167412593
127547500 0.861404618479 0.00938915083264
127557000 0.861821551099 0.00942520845104
127566500 0.861917614512 0.00967339407669
127576000 0.861819889737 0.00933898036398
127585500 0.861392812089 0.00889308040166
127595000 0.861411093584 0.00882069100422
127604500 0.861770004068 0.00911161602221
127614000 0.862104762759 0.0092828391423
127623500 0.86160614396 0.00869909716419
127633000 0.861491215661 0.00834617780625
127642500 0.861556693072 0.00826156996873
127652000 0.861779000016 0.00862606610676
127661500 0.862046173516 0.00866334996437
127671000 0.861336118709 0.00803188847774
127680500 0.861503565473 0.00778372144802
127690000 0.861832781945 0.00767086260931
127699500 0.861916394826 0.00798187261577
127709000 0.862193461587 0.00790205431172
127718500 0.861457526508 0.00735917989539
127728000 0.861618557855 0.00725407133331
127737500 0.862050575017 0.00724451338003
127747000 0.862130865537 0.00753965026351
127756500 0.862086770523 0.00724924533538
127766000 0.86158348176 0.00681243559275
127775500 0.861629424259 0.00670556076526
127785000 0.861984547583 0.00695112294214
127794500 0.862189735291 0.00713129517242
127804000 0.861746011696 0.00653981923877
127813500 0.861655267931 0.00616925601168
127823000 0.861748875118 0.00609747044088
127832500 0.862048059002 0.00639516578111
127842000 0.862343828252 0.00646728979563
127851500 0.861562595219 0.00594864793054
127861000 0.861767952972 0.00570135877663
127870500 0.862097981479 0.00557808526517
127880000 0.86205943736 0.00589444274598
127889500 0.862357051597 0.00585063031017
127899000 0.86159328274 0.00535446965392
127908500 0.86173589099 0.00518304116829
127918000 0.862204422732 0.00513951030069
127927500 0.862165893292 0.00541975836495
127937000 0.862199640292 0.00506917230935
127946500 0.861704588178 0.00465941509019
127956000 0.86181877654 0.00463674340043
127965500 0.862240432962 0.00477962777423
127975000 0.862542451726 0.00490524223326
127984500 0.862113149299 0.00443977422096
127994000 0.861918850696 0.004151141115
128003500 0.861961835086 0.00402924663455
128013000 0.862238944814 0.00434088129471
128022500 0.86250377362 0.00443807596631
128032000 0.861691504551 0.00402582319865
128041500 0.861890627362 0.00369586867741
128051000 0.862127257933 0.00352486071165
128060500 0.862184971688 0.00382431906893
128070000 0.862523549112 0.00380253681419
128079500 0.861719959302 0.0033216775881
128089000 0.861952095218 0.00321021942759
128098500 0.862411267875 0.00309275722568
128108000 0.862473430625 0.00344352028087
128117500 0.862562619943 0.00319577748411
128127000 0.861851697481 0.00283716945874
128136500 0.861893631828 0.00277501652843
128146000 0.862314560476 0.00285765058829
128155500 0.862588555711 0.00296018136907
128165000 0.862241692809 0.0024990214582
128174500 0.86196809964 0.00218516157344
128184000 0.862035333077 0.00209478643534
128193500 0.862418419854 0.00233332285652
128203000 0.862754064107 0.00240819243412
128212500 0.862057353087 0.0020342810835
128222000 0.862181544283 0.00173176151964
128231500 0.862372833881 0.00157364439892
128241000 0.862496010924 0.00188752901805
128250500 0.86280734572 0.0018344070785
128260000 0.862011813513 0.00141907015588
128269500 0.862152942451 0.00130560381573
128279000 0.862524933423 0.00114435007597
128288500 0.86261627404 0.00150031731951
128298000 0.862712351132 0.00124721223133
128307500 0.862065402603 0.000924869898743
128317000 0.862097904415 0.000873054874048
128326500 0.862523997709 0.000907346746449
128336000 0.862761314763 0.00106025458132
128345500 0.862384224425 0.000670176169088
128355000 0.862115071922 0.00036759693683
128364500 0.862132705439 0.000226950518946
128374000 0.862512933113 0.000387968607395
128383500 0.862812455853 0.000454750214412
128393000 0.862136616003 0.000151281866015
128402500 0.862196007614 -0.000223356347417
128412000 0.862351940612 -0.000375483622195
128421500 0.86260790811 -7.14838029993e-05
128431000 0.863036756333 -0.000196379539898
128440500 0.8622131623 -0.000528798803111
128450000 0.862308439071 -0.000683388920421
128459500 0.862256980408 -0.000970742709695
128469000 0.862550549477 -0.000704260392615
128478500 0.863133313628 -0.000592835929635
128488000 0.862774308392 -0.000811699613606
128497500 0.862313433377 -0.00109186663599
128507000 0.862434713409 -0.00140966094017
128516500 0.86287482355 -0.0011677922718
128526000 0.863091099572 -0.00109106788051
128535500 0.862682966772 -0.00125299529194
128545000 0.862340366051 -0.00160394519758
128554500 0.862505056643 -0.00173362688036
128564000 0.863077822322 -0.00154290098972
128573500 0.863072561825 -0.00162222412446
128583000 0.862621254723 -0.00184181187331
128592500 0.862420335124 -0.00212331907105
128602000 0.862504964119 -0.00203613403604
128611500 0.863299204687 -0.00184078149096
128621000 0.862912014982 -0.00196837396027
128630500 0.862415047746 -0.00222853725664
128640000 0.8624078959 -0.00268810413842
128649500 0.862663279526 -0.00243339982765
128659000 0.863264371039 -0.00231336291294
128668500 0.862853183035 -0.00254941033445
128678000 0.862536533346 -0.00283144808607
128687500 0.862636245785 -0.00323328911399
128697000 0.862972008528 -0.00306484238984
128706500 0.863416865312 -0.00297589290018
128716000 0.863017008668 -0.00312672763927
128725500 0.862641609267 -0.00336925655359
128735000 0.862754442902 -0.00350506462726
128744500 0.863363584247 -0.00333215852661
128754000 0.863369898697 -0.00352033749218
128763500 0.862889889735 -0.00364353583883
128773000 0.862624026085 -0.00393865366677
128782500 0.862721882847 -0.00390681656093
128792000 0.863504991044 -0.00376071934241
128801500 0.863232544156 -0.00385012460109
128811000 0.862789893704 -0.00398779686269
128820500 0.862817955289 -0.00445891361543
128830000 0.863007383817 -0.00418838186607
128839500 0.863660921442 -0.00414943830741
128849000 0.863223975694 -0.00430419219942
128858500 0.862810793556 -0.00453767140415
128868000 0.862840087499 -0.00490613141998
128877500 0.86314884248 -0.00474123095158
128887000 0.86363075347 -0.00477970239406
128896500 0.863157830813 -0.0048825192406
128906000 0.862768940987 -0.00512963305565
128915500 0.862925557156 -0.00533894540955
128925000 0.8635147758 -0.00525116091162
128934500 0.863657745177 -0.00535877742062
128944000 0.863196588481 -0.00548794422626
128953500 0.862961925121 -0.00572834261612
128963000 0.863045262206 -0.00567337636699
128972500 0.863809117579 -0.00556950289042
128982000 0.863547006731 -0.00564635046323
128991500 0.863065368557 -0.0058072278286
129001000 0.862913895289 -0.00619881376011
129010500 0.863126845251 -0.0059699788412
129020000 0.863878238943 -0.00600836868696
129029500 0.863505835492 -0.00626477306694
129039000 0.863089366828 -0.00641120916653
129048500 0.863125086395 -0.00677870306352
129058000 0.863458453006 -0.00663010907183
129067500 0.864002328035 -0.00666042772772
129077000 0.863552339715 -0.00668024744058
129086500 0.863249211845 -0.00681458259665
129096000 0.863362468093 -0.00713415840598
129105500 0.863932976797 -0.00700409351023
129115000 0.864118446327 -0.00711460280957
129124500 0.86360784148 -0.0071759357921
129134000 0.863314250919 -0.00740404967348
129143500 0.863356433624 -0.00738574015416
129153000 0.864125730943 -0.00733296364868
129162500 0.863915918887 -0.0074371115844
129172000 0.863456774338 -0.00755057545211
129181500 0.863261960456 -0.00793558381232
129191000 0.863466981852 -0.00778655932494
129200500 0.864298187214 -0.00781832245221
129210000 0.863849826656 -0.00796873193619
129219500 0.863423121967 -0.00809661988445
129229000 0.863447619194 -0.00848204534263
129238500 0.863785251183 -0.00830141951719
129248000 0.864352404176 -0.00837864674519
129257500 0.863867029003 -0.00836491808275
129267000 0.863518416599 -0.00848433512718
129276500 0.863601621285 -0.00881492616828
129286000 0.864134167787 -0.00872935104276
129295500 0.864235231219 -0.0088396166652
129305000 0.863794717578 -0.00897255609798
129314500 0.863479124138 -0.0091556787029
129324000 0.863612321038 -0.0092097716644
129333500 0.864382449802 -0.00923402928709
129343000 0.864276073131 -0.00937082163647
129352500 0.863788444582 -0.00943265134127
129362000 0.86358432788 -0.00973326777517
129371500 0.863787156505 -0.00954195907676
129381000 0.864638851457 -0.00959342297525
129390500 0.864235214874 -0.009731335307
129400000 0.863783770424 -0.00978489754375
129409500 0.864011975521 -0.00996237976477
129419000 0.86387638342 -0.00994525649277
129428500 0.864161025425 -0.0103287797465
129438000 0.864112670697 -0.01010508011
129447500 0.864699712122 -0.0103558303093
129457000 0.863965944667 -0.0104797098122
129466500 0.864091137501 -0.0103539943798
129476000 0.864410643854 -0.0108306084262
129485500 0.864448179729 -0.0104209080526
129495000 0.864794724043 -0.010893889449
129504500 0.864048726757 -0.0108347726705
129514000 0.864192534004 -0.0107611256425
129523500 0.864480537271 -0.0111991162682
129533000 0.864579367355 -0.0109026586072
129542500 0.86450807548 -0.0113122147749
129552000 0.864043341234 -0.0113353504083
129561500 0.864258782362 -0.011443706487
129571000 0.86439360549 -0.0116628293721
129580500 0.86478442574 -0.0115252129573
129590000 0.864336115668 -0.011759714208
129599500 0.864193872383 -0.0117140256263
129609000 0.864485264732 -0.0120908284799
129618500 0.864511573533 -0.0118963982243
129628000 0.865037828708 -0.0121542154105
129637500 0.864289609959 -0.0121713052047
129647000 0.864346968617 -0.0120027333772
129656500 0.864673274225 -0.0124864285157
129666000 0.864719273024 -0.0120443891159
129675500 0.864998692816 -0.012578375585
129685000 0.864243140861 -0.0124770759829
129694500 0.864417412035 -0.012505779987
129704000 0.864718021628 -0.0129895359178
129713500 0.864917541073 -0.0126943623916
129723000 0.864853280997 -0.0131271691465
129732500 0.864375712146 -0.0130376921215
129742000 0.864672796385 -0.0130917564471
129751500 0.864838066676 -0.0133206244663
129761000 0.865173025552 -0.0131863159646
129770500 0.864725333242 -0.0134156717069
129780000 0.864530869159 -0.0133130779912
129789500 0.864778563607 -0.0136506696701
129799000 0.864809898173 -0.0134876693803
129808500 0.865267214223 -0.0137515843915
129818000 0.864595593683 -0.0137526131675
129827500 0.864708606508 -0.0136446686758
129837000 0.86495252424 -0.0142255173599
129846500 0.865049622889 -0.0137959235678
129856000 0.865339106577 -0.0143679378659
129865500 0.8645950499 -0.014158208277
129875000 0.864811721624 -0.0141636046905
129884500 0.86503631027 -0.0147015168451
129894000 0.865285154726 -0.0144295820596
129903500 0.865212266404 -0.0148534811375
129913000 0.86455387857 -0.0147302073087
129922500 0.864802496744 -0.014780432616
129932000 0.865107472207 -0.0151233194869
129941500 0.865538616813 -0.0149697787724
129951000 0.865188351365 -0.015189299679
129960500 0.8650281669 -0.0150220378038
129970000 0.865251717603 -0.0153627540987
129979500 0.865355538379 -0.0152557424836
129989000 0.866576521284 -0.0152238265445
129998500 0.866226686636 -0.0139830946555
130008000 0.869125564919 -0.0157301054391
130017500 0.867529041103 -0.0157323858436
130027000 0.867485255016 -0.016075697216
130036500 0.86707563806 -0.015924702768
130046000 0.867201259 -0.0159392600794
130055500 0.867289318029 -0.0162876652886
130065000 0.868029253134 -0.0162875426967
130074500 0.867239641783 -0.0162462785172
130084000 0.867516257366 -0.0162103504985
130093500 0.867572138531 -0.0165726087487
130103000 0.868007344331 -0.0165018835579
130112500 0.867305844544 -0.0166113358943
130122000 0.867454839826 -0.0164324305185
130131500 0.86765303606 -0.0170553164273
130141000 0.867933008192 -0.0168271104472
130150500 0.86771613663 -0.0170711999845
130160000 0.867524099431 -0.0168690235454
130169500 0.86777749225 -0.0174227546363
130179000 0.870492678714 -0.0169179665118
130188500 0.868189408057 -0.0176657347193
130198000 0.867616364094 -0.0172498217509
130207500 0.867779189789 -0.0176390725826
130217000 0.867898884776 -0.0173266578362
130226500 0.868170980804 -0.0178948770495
130236000 0.867492217395 -0.0175903294413
130245500 0.867673360669 -0.0178054672637
130255000 0.867882733953 -0.0177830488367
130264500 0.868134338841 -0.0180938498981
130274000 0.867553778042 -0.0177969430557
130283500 0.86782950272 -0.0181921268966
130293000 0.867824146341 -0.0183336620943
130302500 0.868445410189 -0.0184959621426
130312000 0.867629325441 -0.0182159211597
130321500 0.867924108073 -0.0181267988116
130331000 0.868052461367 -0.018848568714
130340500 0.868352472384 -0.0187000634756
130350000 0.867916603538 -0.0186115534439
130359500 0.867851207941 -0.0186498935905
130369000 0.868417279499 -0.0190587176751
130378500 0.867979939561 -0.0186580552725
130388000 0.868129669609 -0.0187277691574
130397500 0.868006318478 -0.0192664254607
130407000 0.868094899992 -0.0197739457027
130416500 0.86754815331 -0.0193058893805
130426000 0.867952503817 -0.0191557370354
130435500 0.867984634937 -0.0197673406135
130445000 0.868511023771 -0.019581832513
130454500 0.867924599134 -0.019757838629
130464000 0.867967405645 -0.0194561162352
130473500 0.868182512261 -0.0200611541552
130483000 0.868278118841 -0.0198078649104
130492500 0.867713622087 -0.0200645708221
130502000 0.867514572614 -0.019740944193
130511500 0.867665718959 -0.0202619804483
130521000 0.868071833462 -0.0200661731201
130530500 0.868180923608 -0.0206567793201
130540000 0.868042716398 -0.0201672368033
130549500 0.867750866279 -0.0206614526746
130559000 0.867949193922 -0.0204974071795
130568500 0.8681957454 -0.021196895938
130578000 0.86779416897 -0.0206564681974
130587500 0.868074588134 -0.0211082739743
130597000 0.866850140362 -0.0215596311015
130606500 0.868501073052 -0.0215215096563
130616000 0.867824334918 -0.0211242603041
130625500 0.868216519623 -0.0212211349045
130635000 0.867922326969 -0.0216991791748
130644500 0.868490813009 -0.021729853631
130654000 0.867687464433 -0.0214838612572
130663500 0.868011722321 -0.0214642329149
130673000 0.867821882051 -0.0220517540216
130682500 0.868393665002 -0.0220626495391
130692000 0.867680848228 -0.021925529963
130701500 0.867806572652 -0.0217492672511
130711000 0.867701575628 -0.0223571423549
130720500 0.868346577975 -0.0220921860497
130730000 0.868070599946 -0.0223462067695
130739500 0.868251008261 -0.0220870628116
130749000 0.868140960109 -0.022663183004
130758500 0.868474356211 -0.022442093728
130768000 0.868178398537 -0.0230889709615
130777500 0.868125177588 -0.0226543169931
130787000 0.868249563801 -0.0231313195857
130796500 0.868384113536 -0.0229290696871
130806000 0.868386018032 -0.0236482901224
130815500 0.868218927056 -0.0228583091527
130825000 0.868331567915 -0.0232164974129
130834500 0.868164728571 -0.0230120919534
130844000 0.869055791688 -0.0237458604958
130853500 0.868314353471 -0.0231951534345
130863000 0.868409595546 -0.0233916456964
130872500 0.868214067155 -0.0237649228248
130882000 0.868899568924 -0.0240926112171
130891500 0.867916821035 -0.0234407797186
130901000 0.868288113669 -0.0235021094542
130910500 0.868146631598 -0.0240927509174
130920000 0.86847516112 -0.0242467165373
130929500 0.868013273203 -0.0242039182326
130939000 0.86819094133 -0.0240510696832
130948500 0.868110892074 -0.0245284123327
130958000 0.868497229334 -0.0245055462327
130967500 0.868169199238 -0.0246605902205
130977000 0.868943149818 -0.0241213882984
130986500 0.868416534358 -0.024884602833
130996000 0.868693119837 -0.0248302303864
131005500 0.868270441323 -0.0252810867764
131015000 0.868335739755 -0.0248356116637
131024500 0.868340765904 -0.0253578368092
131034000 0.868825324989 -0.025202596321
131043500 0.868379397084 -0.0257821162271
131053000 0.868211516313 -0.0250280421606
131062500 0.868457308909 -0.0255388029184
131072000 0.869526191424 -0.0259994187735
131081500 0.868730604005 -0.0261878742249
131091000 0.868630120453 -0.0255308683966
131100500 0.86867328736 -0.0258981907527
131110000 0.868446128378 -0.02609591027
131119500 0.869001643912 -0.0265006332042
131129000 0.868532689086 -0.0258925976587
131138500 0.868826269853 -0.0260033304061
131148000 0.868636150521 -0.0263893477216
131157500 0.868984668101 -0.0266426979464
131167000 0.868653670031 -0.0264051671072
131176500 0.86889546473 -0.0262666245836
131186000 0.868376568109 -0.0268238786655
131195500 0.869190344275 -0.0267910960443
131205000 0.868860901944 -0.0268458844694
131214500 0.869158618078 -0.0264863275183
131224000 0.869083371153 -0.026921238197
131233500 0.869402373302 -0.0270537401062
131243000 0.869072968325 -0.0274507340631
131252500 0.868959788045 -0.0271155237333
131262000 0.868876440667 -0.0274414322224
131271500 0.869315001861 -0.0275624994219
131281000 0.869068480496 -0.0281761674929
131290500 0.868697219271 -0.0273741973303
131300000 0.868438766885 -0.0276647131328
131309500 0.868947306188 -0.0274477785386
131319000 0.869005439464 -0.0277664736586
131328500 0.869284683385 -0.0284938566651
131338000 0.869543885719 -0.028710898777
131347500 0.86940024514 -0.0281293753901
131357000 0.869449000908 -0.0280919625519
131366500 0.86916471908 -0.0286776858529
131376000 0.869264232938 -0.0287907102148
131385500 0.869277194628 -0.028634966261
131395000 0.869366960898 -0.0284425542791
131404500 0.869559752214 -0.0288811843448
131414000 0.870167937748 -0.0289492871793
131423500 0.869782350436 -0.0291720441209
131433000 0.869724011678 -0.0287397179596
131442500 0.869880230747 -0.0291537880309
131452000 0.870080451784 -0.0294646263589
131461500 0.869846675144 -0.0297118725754
131471000 0.869734695706 -0.0289093713394
131480500 0.869661057387 -0.0291824761028
131490000 0.869650640515 -0.0297916184776
131499500 0.869745973516 -0.030048581495
131509000 0.869431408357 -0.0292334596093
131518500 0.869790394458 -0.0296328965783
131528000 0.869690396313 -0.0301720195909
131537500 0.869916001124 -0.0305176391053
131547000 0.869695012905 -0.0297267666755
131556500 0.870013237499 -0.0300183259418
131566000 0.869876898257 -0.0307305377601
131575500 0.870021363261 -0.0308889576213
131585000 0.870097491009 -0.0304478481685
131594500 0.87005883695 -0.030569599598
131604000 0.869922367943 -0.0310241765104
131613500 0.867274651897 -0.0303699287733
131623000 0.869492775037 -0.0309642654177
131632500 0.869840819717 -0.0308361701493
131642000 0.869910606723 -0.0311287307444
131651500 0.870443066202 -0.0313643926812
131661000 0.87015091678 -0.0314593730443
131670500 0.87017770924 -0.0311789046145
131680000 0.870056345372 -0.0314509238032
131689500 0.87057241012 -0.0317555253651
131699000 0.870569746706 -0.0321647151272
131708500 0.870255456282 -0.0310287990893
131718000 0.870421599524 -0.0317608253025
131727500 0.870361404253 -0.0322392505055
131737000 0.870302349079 -0.0326180324193
131746500 0.87033022277 -0.0318458638862
131756000 0.870011435229 -0.0320710291622
131765500 0.869887386202 -0.0326313825992
131775000 0.870268116973 -0.0328945548703
131784500 0.870240345962 -0.0322176817576
131794000 0.870618106166 -0.0324939747912
131803500 0.870473202912 -0.0329723717383
131813000 0.870423863006 -0.0330845110261
131822500 0.870412810602 -0.0325632467387
131832000 0.870409334464 -0.0328070351509
131841500 0.870393998213 -0.0333573577154
131851000 0.870797850455 -0.0336839514918
131860500 0.870861572876 -0.033458542466
131870000 0.871040711707 -0.0334036380284
131879500 0.871219866567 -0.0338028250876
131889000 0.870883456242 -0.0339978066333
131898500 0.870557390632 -0.0340371820178
131908000 0.870922782133 -0.0337577237283
131917500 0.871178296794 -0.0342065623492
131927000 0.871015643005 -0.0343171065034
131936500 0.870881965295 -0.0344641431923
131946000 0.870951211002 -0.0339504528264
131955500 0.870758036822 -0.0342475852045
131965000 0.870791063302 -0.0347093987757
131974500 0.870749219182 -0.0348726229958
131984000 0.870877216246 -0.0342062728833
131993500 0.871254366621 -0.0345090032093
132003000 0.870960897641 -0.035135060752
132012500 0.871227043699 -0.0354002343072
132022000 0.871307716792 -0.0346921843123
132031500 0.871128645232 -0.0349078076951
132041000 0.871153460421 -0.0354797911761
132050500 0.871104321753 -0.0356651746409
132060000 0.871284896902 -0.0352194283062
132069500 0.871313062238 -0.0354698247137
132079000 0.871015306189 -0.0361633027105
132088500 0.871378281175 -0.0361734139683
132098000 0.871508132844 -0.0360216649895
132107500 0.871651815767 -0.0360231389219
132117000 0.871462451437 -0.0363557460023
132126500 0.871712822633 -0.0367175578812
132136000 0.871449501752 -0.0367245838251
132145500 0.871855758818 -0.0364828359367
132155000 0.868944592374 -0.0370200073783
132164500 0.871690173422 -0.0368536336283
132174000 0.871597988513 -0.0370660949133
132183500 0.872094464503 -0.0366408043036
132193000 0.871860996031 -0.0369601017275
132202500 0.872028915733 -0.037477055615
132212000 0.871722919913 -0.0376147971512
132221500 0.872175461075 -0.0374319457616
132231000 0.8722235142 -0.0377537332269
132240500 0.871959046924 -0.0380114751231
132250000 0.871960300027 -0.0381941785883
132259500 0.872136886109 -0.0380868261005
132269000 0.872251548229 -0.0378201266352
132278500 0.872491732677 -0.0379922662886
132288000 0.872230845117 -0.0386328371123
132297500 0.872113249452 -0.0387211909024
132307000 0.872430726556 -0.0382279353164
132316500 0.872283509049 -0.0383377461857
132326000 0.872234918506 -0.039075479703
132335500 0.871871487263 -0.0393366157385
132345000 0.872315257688 -0.0387828582158
132354500 0.872336053759 -0.0389630441057
132364000 0.87290476794 -0.0396863104382
132373500 0.872189604975 -0.0397059683426
132383000 0.872348640182 -0.0393651984807
132392500 0.872464010635 -0.0393335762673
132402000 0.871030718537 -0.0389158591255
132411500 0.867727716704 -0.0374070941514
132421000 0.864795574595 -0.0351401568145
132430500 0.864485216833 -0.0347527257415
132440000 0.867783806269 -0.0369803345843
132449500 0.870861527517 -0.0392762679978
132459000 0.872617173378 -0.0402102510962
132468500 0.872935939646 -0.0400279074619
132478000 0.872751998242 -0.0404652376182
132487500 0.872808068782 -0.0409888188875
132497000 0.87249136469 -0.0409339658555
132506500 0.872641104381 -0.0405872560252
132516000 0.872161992612 -0.0410612734697
132525500 0.872618123122 -0.0414194922092
132535000 0.872483560523 -0.0413692768206
132544500 0.87308688456 -0.0410662548063
132554000 0.872658486559 -0.0408684421497
132563500 0.873089922591 -0.0418813936408
132573000 0.872893690449 -0.0421905477611
132582500 0.87307444592 -0.0416218135382
132592000 0.87323613573 -0.0419184662747
132601500 0.872858017724 -0.0422978476152
132611000 0.872725803725 -0.0424625162756
132620500 0.872979487522 -0.042218103417
132630000 0.872851323463 -0.0421047561037
132639500 0.873006568816 -0.0426900740544
132649000 0.872601733703 -0.0429792913759
132658500 0.87287820718 -0.0427987402005
132668000 0.873013554681 -0.0426234558661
132677500 0.873031108073 -0.0430323646688
132687000 0.872740721941 -0.0435113140708
132696500 0.874255134153 -0.0423353424162
132706000 0.873395102227 -0.0429945275443
132715500 0.87324476242 -0.0433277281069
132725000 0.873669550984 -0.0446096778885
132734500 0.873123048001 -0.0437545356868
132744000 0.873363801352 -0.0435829679491
132753500 0.873293336828 -0.0438496645642
132763000 0.873021701461 -0.0443003697903
132772500 0.873063180447 -0.0442866292213
132782000 0.873614253701 -0.043946028965
132791500 0.873632218055 -0.0442316011736
132801000 0.873409565426 -0.0447036498932
132810500 0.873204511062 -0.0447979317436
132820000 0.873943694183 -0.0444831906086
132829500 0.873655647186 -0.0446390476035
132839000 0.873654127396 -0.0451296464613
132848500 0.873256652893 -0.0453556433529
132858000 0.873609353823 -0.0451792843959
132867500 0.873506264719 -0.0451816801464
132877000 0.872989607529 -0.0452755923487
132886500 0.873191325931 -0.0460265512953
132896000 0.873295564994 -0.045854504875
132905500 0.873663233745 -0.045733716356
132915000 0.873615794941 -0.0461274762077
132924500 0.873268292365 -0.0464617490409
132934000 0.873400728871 -0.0464097259432
132943500 0.873703605782 -0.0462377501831
132953000 0.873756166845 -0.0467198678864
132962500 0.873511651956 -0.0471146140252
132972000 0.8735945671 -0.0470114713529
132981500 0.874722387778 -0.0469333975099
132991000 0.874058910749 -0.047086210815
133000500 0.873835201265 -0.047652198584
133010000 0.873730945693 -0.0475831978174
133019500 0.873763646531 -0.0473479542665
133029000 0.873852050683 -0.0476347311711
133038500 0.873696651199 -0.0482076401514
133048000 0.873447746671 -0.0482516140928
133057500 0.873597833611 -0.0480224979491
133067000 0.873695878695 -0.0481754068831
133076500 0.873699043735 -0.0484831907802
133086000 0.873597677376 -0.0487992112133
133095500 0.87398241273 -0.0485429819557
133105000 0.873985295056 -0.0485313684385
133114500 0.873625306923 -0.0489265538603
133124000 0.873585162817 -0.0493451758075
133133500 0.873790073793 -0.0489814668637
133143000 0.874141449856 -0.0489112720329
133152500 0.874253928703 -0.049358747921
133162000 0.873459648565 -0.0492684512719
133171500 0.873830840495 -0.0495884274608
133181000 0.874032361611 -0.0494645022191
133190500 0.874144161038 -0.0498792405472
133200000 0.874188062003 -0.0502887648962
133209500 0.873930971901 -0.0503402882247
133219000 0.873638785876 -0.0502717026949
133228500 0.874071484203 -0.0501173707157
133238000 0.874981800229 -0.0502918354571
133247500 0.873787495901 -0.050870850865
133257000 0.873426813355 -0.0508498800297
133266500 0.873971429923 -0.050669841231
133276000 0.873923700634 -0.050805566392
133285500 0.873922070131 -0.0512259382673
133295000 0.873764885035 -0.0514902310228
133304500 0.873823323744 -0.0513550746241
133314000 0.873732412228 -0.0513672163916
133323500 0.873663443294 -0.0517909343049
133333000 0.873504768988 -0.0519487958446
133342500 0.873656813432 -0.0519122178414
133352000 0.873842321111 -0.0517315906896
133361500 0.873903453993 -0.0521141679069
133371000 0.873781611636 -0.052452288985
133380500 0.873712408495 -0.0525094302451
133390000 0.873874743146 -0.0522279548201
133399500 0.874104484991 -0.0525185734311
133409000 0.874316543639 -0.053165221573
133418500 0.873861427633 -0.052921960936
133428000 0.874093614105 -0.052876491996
133437500 0.873915083962 -0.0530646972978
133447000 0.873338272553 -0.053348718417
133456500 0.873477052712 -0.0535053681481
133466000 0.874035036087 -0.0532719957676
133475500 0.873995523979 -0.0534209213222
133485000 0.873857083508 -0.0540105435606
133494500 0.873953762681 -0.0541165264187
133504000 0.873947165468 -0.0538956545073
133513500 0.873868792535 -0.0540383987346
133523000 0.8735050766 -0.0542500971202
133532500 0.873575254 -0.0542848654211
133542000 0.874043044281 -0.0541290880481
133551500 0.87399143314 -0.0542843442183
133561000 0.873893240575 -0.0547171738056
133570500 0.87336668395 -0.0549445826111
133580000 0.873687516224 -0.0550573207101
133589500 0.873844681787 -0.0549326609442
133599000 0.874295615581 -0.055109629222
133608500 0.873545330696 -0.0553852565014
133618000 0.873463474468 -0.0553025538942
133627500 0.873945668961 -0.0552942466011
133637000 0.87393943835 -0.0554838276439
133646500 0.873469225107 -0.0557498533225
133656000 0.873555502979 -0.0557084007591
133665500 0.87372508697 -0.055636449545
133675000 0.874153482956 -0.0561713226993
133684500 0.873418263048 -0.0562376051684
133694000 0.873433262061 -0.0563382055462
133703500 0.8738880286 -0.0562235453924
133713000 0.874359363517 -0.0569276817921
133722500 0.873639290141 -0.0569266374289
133732000 0.873522753822 -0.0569287411402
133741500 0.873648817169 -0.0566991566491
133751000 0.87346306865 -0.0566587116803
133760500 0.873627572365 -0.0572077657698
133770000 0.87353833296 -0.057216373179
133779500 0.872542573077 -0.0574104268842
133789000 0.873719532514 -0.0572478430651
133798500 0.873362043639 -0.0576642764054
133808000 0.873032665214 -0.0578195453912
133817500 0.873354500042 -0.0575747686072
133827000 0.873669450971 -0.0573236497801
133836500 0.873584145481 -0.0574751583585
133846000 0.873053611845 -0.0580330492652
133855500 0.873380884433 -0.0582201730003
133865000 0.873545091389 -0.0583938247627
133874500 0.873773794065 -0.0587275956619
133884000 0.873417576271 -0.0589084461615
133893500 0.873343345732 -0.0590482912037
133903000 0.874068418085 -0.0590868324498
133912500 0.873857962828 -0.0590378094288
133922000 0.873414657263 -0.0595061728853
133931500 0.873031491135 -0.0595628867004
133941000 0.873700992168 -0.0595726865436
133950500 0.873602002847 -0.0597211684569
133960000 0.873422972073 -0.0602102286833
133969500 0.87307593728 -0.0600404316754
133979000 0.873329608421 -0.0601288692693
133988500 0.874722308028 -0.0603642637189
133998000 0.873067936716 -0.0603282383217
134007500 0.873038995901 -0.0603758138194
134017000 0.873290215217 -0.0603904257956
134026500 0.87317072787 -0.0607100080111
134036000 0.87331993182 -0.0611651989359
134045500 0.87287550087 -0.0611763020617
134055000 0.872721890404 -0.0609267238264
134064500 0.872995251429 -0.0610042696983
134074000 0.872948931678 -0.0613671608538
134083500 0.872829835581 -0.0615368806278
134093000 0.872943174649 -0.0614234536897
134102500 0.873098134603 -0.0613353999367
134112000 0.873346015628 -0.0617758002175
134121500 0.872518151613 -0.0618752987994
134131000 0.872383146054 -0.0619097160265
134140500 0.873095743835 -0.0620415106007
134150000 0.87326098967 -0.0622850681091
134159500 0.873327390478 -0.0623464457008
134169000 0.873185928634 -0.0625390731707
134178500 0.872743937245 -0.0627258921698
134188000 0.872813862692 -0.0627005656426
134197500 0.87301626689 -0.0628078103514
134207000 0.872648142761 -0.0628020124773
134216500 0.872708639136 -0.0631953013818
134226000 0.872480913389 -0.0631861809248
134235500 0.872700891715 -0.0632118389936
134245000 0.872914465 -0.0635848459098
134254500 0.872523896141 -0.0636230839872
134264000 0.872494162863 -0.0637937998592
134273500 0.872448862432 -0.0635696376229
134283000 0.87235867114 -0.0638443883279
134292500 0.87212750007 -0.0641622594371
134302000 0.871956437579 -0.0642911536502
134311500 0.872118079554 -0.0642241063785
134321000 0.875909838819 -0.0654289789523
134330500 0.872316240587 -0.0643968835649
134340000 0.871935130146 -0.0645213069035
134349500 0.872154630003 -0.0644686374363
134359000 0.872695245911 -0.0645470844229
134368500 0.872733404697 -0.0645447696818
134378000 0.871838018127 -0.064764391593
134387500 0.871576131585 -0.0648416695449
134397000 0.872198746649 -0.0647768730703
134406500 0.872149548399 -0.0652362453312
134416000 0.871699851895 -0.0655414112022
134425500 0.871294018416 -0.0654160700469
134435000 0.872088037616 -0.065560959939
134444500 0.872021987848 -0.0656052185967
134454000 0.871744973813 -0.0659898681704
134463500 0.87185153066 -0.0660462979672
134473000 0.872184053265 -0.0660348315329
134482500 0.872172821329 -0.0660424494055
134492000 0.872003380271 -0.0662128888603
134501500 0.871744602342 -0.0663020085609
134511000 0.872135837264 -0.0663754526837
134520500 0.87211621565 -0.0664582407512
134530000 0.871963807087 -0.0667122102414
134539500 0.871698858011 -0.0667845188567
134549000 0.871548878363 -0.0669791536039
134558500 0.871924213405 -0.0668898344942
134568000 0.871599784516 -0.067379090606
134577500 0.871590137493 -0.0674374220969
134587000 0.871669288165 -0.06745238147
134596500 0.871968225158 -0.0675240468259
134606000 0.871995139775 -0.0676999688798
134615500 0.871845388536 -0.0678741058248
134625000 0.871287329819 -0.0679434147914
134634500 0.871511759759 -0.067887621071
134644000 0.871384851068 -0.0680719307281
134653500 0.870846470866 -0.0682549200175
134663000 0.870722662897 -0.068417640794
134672500 0.871497374243 -0.0687096063283
134682000 0.871456847586 -0.0688329954158
134691500 0.87118576067 -0.0689255680887
134701000 0.871162688307 -0.068793023236
134710500 0.871294825147 -0.0690107128429
134720000 0.87165009716 -0.0692842857656
134729500 0.870969141718 -0.0692337713692
134739000 0.871120425965 -0.0693855981984
134748500 0.871420844853 -0.0695426684874
134758000 0.871511819162 -0.0696969673061
134767500 0.871145651177 -0.0700503021907
134777000 0.870609597057 -0.0700010830529
134786500 0.870669807362 -0.0699787434664
134796000 0.870872638738 -0.0701296514941
134805500 0.870992851039 -0.0705041355329
134815000 0.870631822366 -0.0703522344964
134824500 0.87054920822 -0.0702466396827
134834000 0.870786731598 -0.0706067025356
134843500 0.870783176143 -0.0707050266976
134853000 0.870211688971 -0.070766382875
134862500 0.871492519819 -0.0677898200595
134872000 0.87051454915 -0.0672913383255
134881500 0.87041284612 -0.071084239453
134891000 0.870045224979 -0.071167127419
134900500 0.869940493614 -0.0710555766618
134910000 0.870094540894 -0.0712760945245
134919500 0.87045406833 -0.071482200917
134929000 0.870155678047 -0.0716753855552
134938500 0.870160189514 -0.0714183094144
134948000 0.870501733038 -0.0715576178247
134957500 0.870508191848 -0.0717288701946
134967000 0.870157813015 -0.072048076706
134976500 0.869702378715 -0.072028069392
134986000 0.870104297389 -0.072052622653
134995500 0.870100255333 -0.0723916159646
135005000 0.869744668621 -0.0724026234983
135014500 0.869908443824 -0.0723129841957
135024000 0.86978132728 -0.0724054508969
135033500 0.869683181985 -0.0726790045726
135043000 0.869390890342 -0.0725259938345
135052500 0.869465273985 -0.0726905010712
135062000 0.869113265075 -0.0726667220415
135071500 0.869754369961 -0.0729649308618
135081000 0.869811584826 -0.0731438404945
135090500 0.869425514267 -0.0731614056636
135100000 0.869258273262 -0.0731790668913
135109500 0.869136704531 -0.0731877742299
135119000 0.869649918846 -0.0734250847218
135128500 0.869354823895 -0.0737342242064
135138000 0.86928056503 -0.0734302604771
135147500 0.869081539866 -0.0735571437965
135157000 0.869489626792 -0.0736751255792
135166500 0.869225749841 -0.074056338598
135176000 0.869034755946 -0.0738529543408
135185500 0.868954274251 -0.073732890197
135195000 0.869256503866 -0.0740912266658
135204500 0.869370844829 -0.0744448121097
135214000 0.869166352109 -0.0745741678019
135223500 0.868750166378 -0.0742947225865
135233000 0.869884974614 -0.0746207767371
135242500 0.869414046956 -0.0746935456796
135252000 0.869006213635 -0.0749508672225
135261500 0.868479680502 -0.074734046865
135271000 0.868974655933 -0.0750182313618
135280500 0.867752468839 -0.0758529296795
135290000 0.868642053224 -0.0753731887996
135299500 0.868337739531 -0.0750604606439
135309000 0.868476401674 -0.0751087893521
135318500 0.86891415053 -0.0754542326263
135328000 0.868667191965 -0.0757072176235
135337500 0.868291733611 -0.0753681938245
135347000 0.868527447059 -0.075647177936
135356500 0.868795066631 -0.0761074120974
135366000 0.868497626316 -0.0762464106946
135375500 0.868104735945 -0.0760913936513
135385000 0.868067116052 -0.0760463492499
135394500 0.868708755742 -0.0764485695777
135404000 0.868916888314 -0.0773149088755
135413500 0.868229116801 -0.0765697708177
135423000 0.867890905438 -0.0763489593331
135432500 0.868493220564 -0.0766713890593
135442000 0.869574077795 -0.0777642300679
135451500 0.867893112821 -0.0768946220675
135461000 0.86770588574 -0.0765482782866
135470500 0.868215151742 -0.0768902274227
135480000 0.868070270356 -0.0772945772633
135489500 0.867907401233 -0.0773105676812
135499000 0.86712369105 -0.0769837435399
135508500 0.867705596027 -0.0773181596057
135518000 0.867972219156 -0.0774281615926
135527500 0.867679032407 -0.0778567865029
135537000 0.866979403424 -0.0775059457843
135546500 0.866879968624 -0.077774578231
135556000 0.866413270977 -0.0781072763688
135565500 0.866221625914 -0.0784326750323
135575000 0.866730682446 -0.0779910775131
135584500 0.86725531991 -0.0780974082624
135594000 0.867852936304 -0.078561927034
135603500 0.867673173709 -0.0784634963751
135613000 0.86705932767 -0.0782843649429
135622500 0.867275271771 -0.0782736658212
135632000 0.867369840664 -0.0786883906002
135641500 0.86710754542 -0.0789074271146
135651000 0.866769698042 -0.0783922983953
135660500 0.866608654477 -0.0781839050381
135670000 0.867044106857 -0.0783414628062
135679500 0.866803618392 -0.0785878173824
135689000 0.866013069385 -0.0783802813901
135698500 0.866538449346 -0.0785262417455
135708000 0.866977120391 -0.0790783142077
135717500 0.866846462823 -0.0794396521808
135727000 0.866637291688 -0.0795540297006
135736500 0.866529648596 -0.0792596705057
135746000 0.867005355917 -0.0795335982998
135755500 0.867005704551 -0.0797936549421
135765000 0.866553235227 -0.0798107923619
135774500 0.866316586409 -0.0791831263014
135784000 0.866338449274 -0.0797210000971
135793500 0.866769988911 -0.0801436428603
135803000 0.865989768031 -0.0802442967254
135812500 0.86634782043 -0.0796023152555
135822000 0.866400752416 -0.0797269827617
135831500 0.866702199305 -0.0803458076536
135841000 0.866283910317 -0.0806141333343
135850500 0.866153446611 -0.0801651595869
135860000 0.866329426611 -0.0801728731293
135869500 0.866495361702 -0.0807294462183
135879000 0.865372773357 -0.0808864604334
135888500 0.866200088644 -0.0807593292564
135898000 0.866015192963 -0.0804410371454
135907500 0.866378298144 -0.0809285513209
135917000 0.866199220771 -0.0812390141047
135926500 0.866170195642 -0.0811131711302
135936000 0.865884016625 -0.0810564013652
135945500 0.866189674562 -0.0810781092088
135955000 0.866049858742 -0.0816456635618
135964500 0.865703426234 -0.0814404387197
135974000 0.865602738424 -0.0811698637008
135983500 0.866066726835 -0.0814570730531
135993000 0.866007695754 -0.0817164722698
136002500 0.86568919157 -0.0818425971735
136012000 0.865673413585 -0.0813441979314
136021500 0.866159692045 -0.0816545921519
136031000 0.865978755672 -0.0820695127991
136040500 0.865421423271 -0.0822390139745
136050000 0.865555257146 -0.0819727581828
136059500 0.865661489292 -0.0820718631081
136069000 0.865522009412 -0.0822295762272
136078500 0.865677773087 -0.0823227802616
136088000 0.865120230492 -0.0825654565942
136097500 0.865549251555 -0.0824494786594
136107000 0.865250973398 -0.0826446627383
136116500 0.865582995631 -0.0828000569064
136126000 0.865330916573 -0.0828475962718
136135500 0.865484965459 -0.0828109836028
136145000 0.865234510637 -0.0828435033028
136154500 0.865480012638 -0.0829895103598
136164000 0.865238111523 -0.0831693471229
136173500 0.865521113486 -0.0831650175179
136183000 0.864438011688 -0.0833775088442
136192500 0.865069024167 -0.0832206669808
136202000 0.864871361515 -0.0833817238656
136211500 0.865018737888 -0.083624107502
136221000 0.865047342063 -0.0835577199599
136230500 0.865071320836 -0.0834033839999
136240000 0.864817233466 -0.083469272559
136249500 0.864735312481 -0.0840007473654
136259000 0.864992539591 -0.083815513432
136268500 0.865047397098 -0.0840516231354
136278000 0.865095933552 -0.0840306020032
136287500 0.864628190247 -0.0843656853021
136297000 0.865529239733 -0.0837768575504
136306500 0.864144110068 -0.0842814929442
136316000 0.864166286746 -0.0844425675481
136325500 0.864118696352 -0.0846684694723
136335000 0.864415481799 -0.0847383697204
136344500 0.864232769801 -0.084762677536
136354000 0.865580055947 -0.085187719758
136363500 0.864069065144 -0.0848767872788
136373000 0.864116717205 -0.0846033432997
136382500 0.864103143497 -0.08494704965
136392000 0.864180067463 -0.0851450584828
136401500 0.86405122873 -0.0852465860539
136411000 0.864286819031 -0.0852171118757
136420500 0.864013168521 -0.0852494985678
136430000 0.86419173944 -0.085568112566
136439500 0.864029349779 -0.0855867109188
136449000 0.863864195377 -0.0857662020193
136458500 0.863829435706 -0.0857117594539
136468000 0.863672391029 -0.0859029721393
136477500 0.863812347581 -0.086280700951
136487000 0.871064979077 -0.0899736331415
136496500 0.86312926541 -0.0856211263944
136506000 0.828041895731 -0.108016676707
136515500 0.86357445641 -0.0861278058505
136525000 0.863000214907 -0.0862565911784
136534500 0.863314415801 -0.0861287695764
136544000 0.863308823537 -0.0860690479919
136553500 0.863299111223 -0.0864049329352
136563000 0.862795467385 -0.0865270111175
136572500 0.863255686753 -0.0864151825014
136582000 0.863336989705 -0.0862751645573
136591500 0.86322820596 -0.0867029014637
136601000 0.863020751306 -0.0868131000802
136610500 0.863241081788 -0.0869974926273
136620000 0.862957957509 -0.0869821191778
136629500 0.86306253509 -0.0871634019657
136639000 0.862702269211 -0.0871549131013
136648500 0.863052252878 -0.0872339151477
136658000 0.86271961314 -0.0871404128865
136667500 0.862842385965 -0.0873659649007
136677000 0.86267993206 -0.0873354760501
136686500 0.862440283552 -0.0874209568096
136696000 0.862520342156 -0.0872908174665
136705500 0.862663032271 -0.0874117613812
136715000 0.862469366675 -0.0874170932008
136724500 0.862241078891 -0.0876128606698
136734000 0.86253571545 -0.0873834858403
136743500 0.862454759751 -0.0877139295989
136753000 0.862312515563 -0.087915582997
136762500 0.86182197128 -0.0880185074224
136772000 0.86221022441 -0.0880396312652
136781500 0.861753290585 -0.0880632188108
136791000 0.862104654955 -0.0880503238378
136800500 0.861524963519 -0.0882857183749
136810000 0.861633129501 -0.088420220474
136819500 0.861799654483 -0.0886073197387
136829000 0.861757432704 -0.0887336033077
136838500 0.861417471438 -0.0887323881054
136848000 0.861532698812 -0.0885143774296
136857500 0.861137650432 -0.0885195898325
136867000 0.861410305124 -0.0888560244021
136876500 0.861178002827 -0.0887294101288
136886000 0.861287044136 -0.0887357769444
136895500 0.86105335758 -0.0889263997348
136905000 0.861108941045 -0.0892380144275
136914500 0.860974188999 -0.0892981087427
136924000 0.860591151993 -0.0894303958939
136933500 0.860826614779 -0.0891987049291
136943000 0.860872688724 -0.0895005408354
136952500 0.859979767877 -0.0888633739581
136962000 0.860269028462 -0.089777861277
136971500 0.860546188077 -0.0896404348668
136981000 0.860444012925 -0.0897832980518
136990500 0.860192956039 -0.0899071491556
137000000 0.859784171665 -0.0900025812058
