! Calibrated averaged scanner-service zoom
# Hz S RI R 50
470000000 0.672423416333 -0.229326135289
470010500 0.672074592826 -0.23013721504
470021000 0.67187478659 -0.229955786467
470031500 0.671981583357 -0.230256056086
470042000 0.672122633042 -0.229259967278
470052500 0.672697171825 -0.229421716895
470063000 0.671811619905 -0.230216169124
470073500 0.671846570199 -0.229970744828
470084000 0.67122968216 -0.230950383238
470094500 0.671348028571 -0.230369208469
470105000 0.671508876741 -0.231542560996
470115500 0.671599797929 -0.230493373675
470126000 0.671255278872 -0.230208127403
470136500 0.671843234773 -0.230912860195
470147000 0.67276808041 -0.229656102211
470157500 0.672541885001 -0.230105498162
470168000 0.672219414248 -0.230508398753
470178500 0.672451194727 -0.230024692918
470189000 0.67201122961 -0.231250741987
470199500 0.672386508394 -0.231170416974
470210000 0.674599019029 -0.229730962207
470220500 0.67023546392 -0.231470356051
470231000 0.672403866096 -0.229641212545
470241500 0.673890200744 -0.231341336949
470252000 0.673180937349 -0.231782262897
470262500 0.67559688496 -0.231296454428
470273000 0.674974865904 -0.23156502989
470283500 0.674067845872 -0.229677793319
470294000 0.672560811962 -0.231969744317
470304500 0.672381255374 -0.231202343067
470315000 0.671326653536 -0.230261382015
470325500 0.672364403992 -0.232515659389
470336000 0.673180776651 -0.230447182584
470346500 0.67266653764 -0.232174337216
470357000 0.674506538704 -0.231322224969
470367500 0.672233814806 -0.234361435081
470378000 0.67170160774 -0.230745523321
470388500 0.673929233098 -0.230353291725
470399000 0.674224003846 -0.231951538225
470409500 0.675436002651 -0.231712234362
470420000 0.6725851497 -0.230834889281
470430500 0.671278714872 -0.230051546217
470441000 0.673643625572 -0.231082527706
470451500 0.671870234001 -0.23120402056
470462000 0.672253359904 -0.231305521359
470472500 0.672490735683 -0.231731692398
470483000 0.672802667548 -0.232039043586
470493500 0.674138995395 -0.23293518908
470504000 0.67245861566 -0.233074166659
470514500 0.673958470892 -0.232326242106
470525000 0.673830955724 -0.230997023821
470535500 0.671981900902 -0.232310562327
470546000 0.673626762185 -0.234077103353
470556500 0.672308678759 -0.232107629425
470567000 0.673780507505 -0.233404785604
470577500 0.671921425589 -0.233700358285
470588000 0.672507976743 -0.231182853616
470598500 0.672714993324 -0.232840136523
470609000 0.675515005023 -0.234638568527
470619500 0.673509301871 -0.232795945587
470630000 0.674117798593 -0.23161259719
470640500 0.67394772535 -0.232232685287
470651000 0.673742787374 -0.230656124284
470661500 0.672599309705 -0.233053889334
470672000 0.673138179352 -0.232480623172
470682500 0.673994766173 -0.232409979577
470693000 0.672675047157 -0.233004111638
470703500 0.673876529211 -0.232861306075
470714000 0.672491686227 -0.233161525755
470724500 0.674030472462 -0.232112904539
470735000 0.673364387119 -0.232275142675
470745500 0.673075034029 -0.232605225305
470756000 0.673607048505 -0.232853576946
470766500 0.673618414029 -0.23279346615
470777000 0.673884425335 -0.233114558673
470787500 0.674096192598 -0.23278894362
470798000 0.673169220808 -0.23269096636
470808500 0.673858039139 -0.232809700391
470819000 0.674009807784 -0.23348303128
470829500 0.673921432008 -0.23383883217
470840000 0.673666749295 -0.232808285964
470850500 0.674311279111 -0.232549525395
470861000 0.674926718863 -0.233902463885
470871500 0.67447579234 -0.23343353587
470882000 0.674189381634 -0.233418885131
470892500 0.674423105126 -0.233727897457
470903000 0.674158004853 -0.233063363225
470913500 0.675009727798 -0.23397769596
470924000 0.674732426445 -0.234169249916
470934500 0.674823637438 -0.233773869845
470945000 0.675254097167 -0.233823597915
470955500 0.674776544867 -0.233016255095
470966000 0.674498446637 -0.233767417093
470976500 0.67389148929 -0.234260362576
470987000 0.673726630594 -0.234847233193
470997500 0.674430932551 -0.234388550387
471008000 0.674213603832 -0.234725143415
471018500 0.674349312458 -0.234339469179
471029000 0.674267778319 -0.234893471291
471039500 0.674493557271 -0.234771072769
471050000 0.674171013597 -0.235388913341
471060500 0.674132543538 -0.234725885061
471071000 0.673972203551 -0.235578843113
471081500 0.674452004569 -0.234511167273
471092000 0.674967447469 -0.234678347591
471102500 0.67414032989 -0.234170185114
471113000 0.674615611517 -0.235295746242
471123500 0.675021377214 -0.235240719254
471134000 0.67492315453 -0.235329172709
471144500 0.674741786734 -0.235410311997
471155000 0.674172338958 -0.235439931898
471165500 0.674349716205 -0.236258818593
471176000 0.675372378563 -0.235948547849
471186500 0.674909357129 -0.23588990941
471197000 0.67487553285 -0.236293782427
471207500 0.675112955377 -0.236641131998
471218000 0.675130072299 -0.236148393209
471228500 0.675337943399 -0.235718147822
471239000 0.682357546379 -0.228856985004
471249500 0.675065566944 -0.235651697745
471260000 0.674720513276 -0.235249381153
471270500 0.675068229603 -0.235414531101
471281000 0.675369782052 -0.235419710721
471291500 0.675063480033 -0.236100840243
471302000 0.674514314365 -0.236273564139
471312500 0.674599901032 -0.236271813848
471323000 0.674569496264 -0.236879671362
471333500 0.674493202291 -0.236440768659
471344000 0.674662618672 -0.236326783531
471354500 0.674980435357 -0.236110755501
471365000 0.675574146911 -0.235482446814
471375500 0.675110859241 -0.235906810962
471386000 0.676439119855 -0.236258262654
471396500 0.674971382941 -0.235232706792
471407000 0.675238838206 -0.235892665641
471417500 0.673849832277 -0.236949486748
471428000 0.6745964703 -0.237371064658
471438500 0.674767642919 -0.237351211087
471449000 0.674711162627 -0.23739589648
471459500 0.673752056627 -0.23664897708
471470000 0.674954705985 -0.236317576446
471480500 0.675789216678 -0.236620076379
471491000 0.675968373504 -0.236341048905
471501500 0.675012611808 -0.23706909576
471512000 0.674775540387 -0.237280635554
471522500 0.675782252211 -0.236878647084
471533000 0.674818063697 -0.237107137687
471543500 0.67553648815 -0.237743421427
471554000 0.675640343236 -0.237674105673
471564500 0.675293652003 -0.237696664957
471575000 0.675297094772 -0.23753590407
471585500 0.675465100133 -0.237908057701
471596000 0.674844531606 -0.237566526337
471606500 0.676252534949 -0.237589136263
471617000 0.676791707387 -0.238001484789
471627500 0.676398658444 -0.237678766941
471638000 0.675811193542 -0.236903932924
471648500 0.67546820503 -0.237416281074
471659000 0.675773750067 -0.237307879948
471669500 0.676092908648 -0.237215001801
471680000 0.675950584389 -0.237331376613
471690500 0.675269468739 -0.237832465447
471701000 0.676240107688 -0.237864488622
471711500 0.675646225731 -0.238344497509
471722000 0.675595230604 -0.238054371841
471732500 0.676567803414 -0.237916488707
471743000 0.676094636941 -0.237767334121
471753500 0.676769895885 -0.237207481514
471764000 0.676148499753 -0.237043441604
471774500 0.676582288171 -0.237934477125
471785000 0.675960466462 -0.238083418535
471795500 0.676609735458 -0.237962888502
471806000 0.675826494542 -0.238379880965
471816500 0.675593086219 -0.237933298046
471827000 0.67596504299 -0.238365114171
471837500 0.678344145992 -0.237342200346
471848000 0.676259639726 -0.238910401363
471858500 0.676310440372 -0.237942383159
471869000 0.675899656088 -0.238367330949
471879500 0.67632085646 -0.238375794605
471890000 0.676348350484 -0.23821969983
471900500 0.676123669783 -0.239218180085
471911000 0.676461827259 -0.239317662043
471921500 0.67709259697 -0.239066699667
471932000 0.677953155653 -0.239509174724
471942500 0.677388937172 -0.239809016555
471953000 0.676799821611 -0.240269272551
471963500 0.676642987565 -0.240169644043
471974000 0.676440857068 -0.239393688621
471984500 0.675372793705 -0.239533988429
471995000 0.675501309176 -0.239492415007
472005500 0.674851876678 -0.23949776463
472016000 0.675633803568 -0.239463193022
472026500 0.675481794812 -0.239618017673
472037000 0.676190313863 -0.239764347686
472047500 0.676913289982 -0.240127309557
472058000 0.676693702717 -0.240091833613
472068500 0.676748218028 -0.240156492716
472079000 0.677313269871 -0.24034074487
472089500 0.67612530645 -0.239823034069
472100000 0.677383588655 -0.239121414705
472110500 0.677161319477 -0.239499405873
472121000 0.676183045216 -0.240040187602
472131500 0.67662515836 -0.239776628004
472142000 0.676377470491 -0.239449939266
472152500 0.67634125946 -0.239137248869
472163000 0.675590404665 -0.239180376004
472173500 0.676198023308 -0.239066219618
472184000 0.676709859235 -0.239194376622
472194500 0.677426696528 -0.239162603773
472205000 0.676470207735 -0.240329955802
472215500 0.676649233058 -0.239413734035
472226000 0.675731997012 -0.23991259093
472236500 0.675978153635 -0.239581301828
472247000 0.677212761458 -0.239090293019
472257500 0.677196141614 -0.239973251018
472268000 0.676808499085 -0.239868094288
472278500 0.676431167867 -0.240400259296
472289000 0.677183970008 -0.240397364773
472299500 0.676790644516 -0.239863065022
472310000 0.677252042359 -0.239766873598
472320500 0.67668565018 -0.239864371939
472331000 0.676803269416 -0.240472831725
472341500 0.67687112087 -0.240705335215
472352000 0.676456128735 -0.240140809233
472362500 0.6766852264 -0.240531125482
472373000 0.677113347451 -0.240634060042
472383500 0.676781296307 -0.240370153319
472394000 0.676548570991 -0.241161190685
472404500 0.676648966367 -0.2407992232
472415000 0.676908407941 -0.241165780104
472425500 0.677588894969 -0.241075976451
472436000 0.676976680359 -0.240927718722
472446500 0.677610267418 -0.240184408236
472457000 0.676814560506 -0.239918100224
472467500 0.676933843557 -0.241157729525
472478000 0.676901069801 -0.240808261593
472488500 0.677447644471 -0.240418599687
472499000 0.677832188229 -0.241904276826
472509500 0.677799930064 -0.242436252405
472520000 0.677589617767 -0.242541243917
472530500 0.677311139256 -0.241658313795
472541000 0.6775033323 -0.243200410049
472551500 0.676909765477 -0.240707483642
472562000 0.678369109425 -0.240383717909
472572500 0.67770405126 -0.240927422209
472583000 0.677575392056 -0.240791341324
472593500 0.676819813369 -0.240753008596
472604000 0.676735547439 -0.241306506243
472614500 0.677476955435 -0.241127235318
472625000 0.677366454042 -0.242211677024
472635500 0.677507403873 -0.242074119699
472646000 0.677878617506 -0.24252160922
472656500 0.678038285063 -0.241814234617
472667000 0.678108337272 -0.242294310772
472677500 0.678210564084 -0.242471517114
472688000 0.677961126093 -0.242579408058
472698500 0.67775477686 -0.24235335344
472709000 0.677165872549 -0.242288588983
472719500 0.677425887163 -0.24226914119
472730000 0.67790177522 -0.242602784722
472740500 0.678256925425 -0.24262699373
472751000 0.678087718146 -0.242177260237
472761500 0.677588437647 -0.242918644494
472772000 0.677224868267 -0.24256909752
472782500 0.677859734846 -0.242786425237
472793000 0.677604800894 -0.242748546344
472803500 0.677765280271 -0.243104205137
472814000 0.677387434459 -0.24218738481
472824500 0.677954293216 -0.242613649234
472835000 0.677382265147 -0.242829954352
472845500 0.677961589885 -0.242867427148
472856000 0.677260652424 -0.24301184112
472866500 0.678087340768 -0.243064128798
472877000 0.677967970972 -0.243075295602
472887500 0.677974228776 -0.243444676857
472898000 0.678284640315 -0.243195358303
472908500 0.677863669974 -0.24282644133
472919000 0.677758046285 -0.243629697839
472929500 0.677916302452 -0.243477964359
472940000 0.677562822898 -0.243684946546
472950500 0.677301999528 -0.244198279603
472961000 0.67747844869 -0.243837949167
472971500 0.677558942798 -0.243722718749
472982000 0.677665921473 -0.243659242109
472992500 0.677262662732 -0.244310512048
473003000 0.677282744821 -0.243882599103
473013500 0.677498999031 -0.244096914959
473024000 0.676901264445 -0.243219551922
473034500 0.677963881908 -0.243200360203
473045000 0.677777754395 -0.244112582346
473055500 0.678171877528 -0.243956682693
473066000 0.67766723717 -0.242923448993
473076500 0.677861588261 -0.244882450301
473087000 0.677889550854 -0.243181724992
473097500 0.677722377001 -0.2435267249
473108000 0.677881090029 -0.243606603423
473118500 0.678434652189 -0.244152294259
473129000 0.677857721647 -0.244502863002
473139500 0.678558256431 -0.245098018931
473150000 0.677999300643 -0.244566769625
473160500 0.677649598167 -0.24422012618
473171000 0.677909980717 -0.244453052303
473181500 0.677982733187 -0.244118011242
473192000 0.678211023885 -0.245073908149
473202500 0.678264546131 -0.244603090218
473213000 0.677427507783 -0.244555663461
473223500 0.67846286787 -0.244780256528
473234000 0.678055901303 -0.243813130376
473244500 0.677884761533 -0.244222432103
473255000 0.678645480827 -0.243881306543
473265500 0.677916066764 -0.244223728038
473276000 0.678014065138 -0.244106380308
473286500 0.678107696048 -0.244400097739
473297000 0.678231090351 -0.244061107049
473307500 0.677925768665 -0.24446274146
473318000 0.678973612613 -0.244838943187
473328500 0.678355342629 -0.244554053998
473339000 0.678426606122 -0.244508675128
473349500 0.67816881297 -0.244062558648
473360000 0.678209165983 -0.244332547117
473370500 0.677926424791 -0.24363743578
473381000 0.677925438455 -0.243659001424
473391500 0.67876918355 -0.244950739125
473402000 0.678939892088 -0.245994512215
473412500 0.678952722307 -0.245233843104
473423000 0.679418515029 -0.245118602978
473433500 0.679475486736 -0.245354181558
473444000 0.678643541331 -0.243948934035
473454500 0.67954380589 -0.244605777721
473465000 0.679126973916 -0.244924851566
473475500 0.679459839544 -0.245042800975
473486000 0.678384943655 -0.245229551897
473496500 0.678353147569 -0.245175747184
473507000 0.679135337509 -0.245661758111
473517500 0.67932387569 -0.245362598517
473528000 0.679373707724 -0.245945736301
473538500 0.678412107106 -0.246207488878
473549000 0.678074689363 -0.245933853055
473559500 0.678814150186 -0.247240601612
473570000 0.680269005837 -0.246196999683
473580500 0.679304249414 -0.246438598424
473591000 0.678871849106 -0.245550527485
473601500 0.679127734862 -0.246116209934
473612000 0.678536785668 -0.246258746856
473622500 0.678634181131 -0.246728929844
473633000 0.678433011563 -0.246821618358
473643500 0.678806968447 -0.247232850001
473654000 0.678777456762 -0.246636507759
473664500 0.679238064821 -0.246752727354
473675000 0.678598589943 -0.246331394117
473685500 0.67895418305 -0.245749594543
473696000 0.678585015717 -0.246353523316
473706500 0.679073605563 -0.246971319254
473717000 0.678576235834 -0.246550515884
473727500 0.679622951376 -0.246526550662
473738000 0.678783466952 -0.246763441664
473748500 0.679578253091 -0.24675330026
473759000 0.6793776502 -0.246380648792
473769500 0.679328762141 -0.246511521103
473780000 0.678548050447 -0.246867375674
473790500 0.679365662221 -0.246476768204
473801000 0.679275476644 -0.246779982398
473811500 0.67865316096 -0.246340732226
473822000 0.678850056373 -0.246524757086
473832500 0.679493161248 -0.246847211104
473843000 0.679338263943 -0.24661262896
473853500 0.678754095291 -0.246897730108
473864000 0.678902700643 -0.246613255384
473874500 0.678972789347 -0.24772055031
473885000 0.679121506587 -0.24723790878
473895500 0.679078335261 -0.246896313127
473906000 0.679205099399 -0.247340455427
473916500 0.67994975703 -0.247725050072
473927000 0.680128461833 -0.24789337349
473937500 0.681173881155 -0.247014808122
473948000 0.681661297807 -0.246996439525
473958500 0.680529281478 -0.247212157365
473969000 0.679840379856 -0.247508551191
473979500 0.679440973613 -0.24778378695
473990000 0.679014982927 -0.24717654508
474000500 0.679569781133 -0.247326430419
474011000 0.679690260943 -0.247703495652
474021500 0.679965491611 -0.247916592273
474032000 0.679827060457 -0.248116169848
474042500 0.679844323575 -0.248199781032
474053000 0.679312571525 -0.247511952604
474063500 0.679045074826 -0.247448476326
474074000 0.679596943648 -0.247881740999
474084500 0.679596505294 -0.247879292846
474095000 0.679302550519 -0.248229173822
474105500 0.680400395241 -0.247684391833
474116000 0.680907864204 -0.247761875408
474126500 0.680314128369 -0.247547511917
474137000 0.680195172841 -0.247567678501
474147500 0.680084569648 -0.247631864909
474158000 0.679806527745 -0.247467059041
474168500 0.680077114733 -0.247902632512
474179000 0.680366974807 -0.248753199042
474189500 0.680623650427 -0.247874729182
474200000 0.680199415687 -0.247739283428
474210500 0.68055350623 -0.247802125605
474221000 0.680171718079 -0.248010001521
474231500 0.680759816571 -0.248232068967
474242000 0.678692111835 -0.248219322893
474252500 0.680448065815 -0.24879648717
474263000 0.679303849604 -0.24810770665
474273500 0.679693067937 -0.251099775618
474284000 0.679788430169 -0.248506074855
474294500 0.679760443119 -0.249496010038
474305000 0.678635008648 -0.248490956629
474315500 0.679301340449 -0.248090723922
474326000 0.679751811925 -0.248181175809
474336500 0.682162967012 -0.248642630676
474347000 0.680580186378 -0.250560887719
474357500 0.67972430997 -0.2504183058
474368000 0.679068617921 -0.247944819724
474378500 0.681181160971 -0.247407675931
474389000 0.679837912363 -0.249955660525
474399500 0.680438454068 -0.24739417869
474410000 0.679201644146 -0.252280300218
474420500 0.683342847437 -0.249271056008
474431000 0.678751789487 -0.250220700671
474441500 0.67788260651 -0.250926832124
474452000 0.678390947944 -0.250367919064
474462500 0.681110229968 -0.24917267397
474473000 0.682344318718 -0.2500527522
474483500 0.6800777999 -0.249586556442
474494000 0.683041954615 -0.244072294386
474504500 0.682516508194 -0.248163230556
474515000 0.678226043539 -0.249001237499
474525500 0.68062091171 -0.250242315482
474536000 0.681117415856 -0.250713358543
474546500 0.676333694857 -0.25086151538
474557000 0.678332924991 -0.252628960961
474567500 0.680850009227 -0.247655256233
474578000 0.679460217485 -0.250741043977
474588500 0.681380845258 -0.251165996063
474599000 0.680740759603 -0.25044508033
474609500 0.680302339433 -0.250392400144
474620000 0.678902735467 -0.247269406565
474630500 0.680507415048 -0.249671063684
474641000 0.680646372945 -0.251154379867
474651500 0.679696022764 -0.25119622331
474662000 0.680039294895 -0.250270900084
474672500 0.680910699135 -0.250429086054
474683000 0.680081019548 -0.250123570364
474693500 0.681519345387 -0.250016283591
474704000 0.680790397508 -0.251718325459
474714500 0.680905111916 -0.250244747966
474725000 0.681381878071 -0.250803289034
474735500 0.680484886361 -0.250252945137
474746000 0.680154878277 -0.251612802298
474756500 0.680777072275 -0.249699720643
474767000 0.681944641957 -0.249555369614
474777500 0.682027097767 -0.25100700286
474788000 0.680620805301 -0.250592170272
474798500 0.677765869138 -0.250167823407
474809000 0.679889359483 -0.251062630579
474819500 0.679894493641 -0.251713935038
474830000 0.680458841728 -0.250944145863
474840500 0.680304283805 -0.252679517831
474851000 0.679635339142 -0.251765936047
474861500 0.680971773494 -0.252288919208
474872000 0.681022418736 -0.251435476333
474882500 0.680496486538 -0.251102842149
474893000 0.680739445887 -0.251583790736
474903500 0.680573971645 -0.251411312922
474914000 0.68068525025 -0.251094206532
474924500 0.680386269571 -0.251411771465
474935000 0.68059328044 -0.251582834148
474945500 0.680578092703 -0.251099015645
474956000 0.680387506927 -0.251674501515
474966500 0.681003214791 -0.251119963991
474977000 0.680431514948 -0.252126883847
474987500 0.67950421446 -0.251177251542
474998000 0.680868528856 -0.251427083441
475008500 0.680930774335 -0.251568230238
475019000 0.681240711325 -0.251196238247
475029500 0.680489793429 -0.250921971001
475040000 0.680506661798 -0.250879205274
475050500 0.680812014278 -0.251715728486
475061000 0.681132464077 -0.251277734446
475071500 0.681021968373 -0.251099528788
475082000 0.681057035179 -0.251281514889
475092500 0.681379569976 -0.251024499775
475103000 0.680523581988 -0.251628206614
475113500 0.680515260415 -0.25238971818
475124000 0.680445814638 -0.251657669515
475134500 0.680089346396 -0.252309157234
475145000 0.680622329664 -0.251719061463
475155500 0.680507315998 -0.251946786631
475166000 0.680455590442 -0.252185748674
475176500 0.680524600708 -0.252276807265
475187000 0.680801351676 -0.252109468883
475197500 0.680841681389 -0.251133367937
475208000 0.681437057895 -0.251553511854
475218500 0.680819186678 -0.251572819682
475229000 0.680965551931 -0.251800024257
475239500 0.680560118883 -0.252091715345
475250000 0.681077758464 -0.252543324415
475260500 0.680699466922 -0.252415599684
475271000 0.680537059959 -0.252482452666
475281500 0.68094542546 -0.251794935805
475292000 0.679989317205 -0.251830339035
475302500 0.680295304626 -0.252069243201
475313000 0.680758135434 -0.252218282306
475323500 0.680825294306 -0.252916092243
475334000 0.68083053487 -0.252535498764
475344500 0.681048884338 -0.252871732997
475355000 0.681377234293 -0.252619358341
475365500 0.680581794379 -0.252549549976
475376000 0.681113548711 -0.252309895328
475386500 0.681714344 -0.253093846631
475397000 0.68179830648 -0.253223729349
475407500 0.681281383268 -0.252590919515
475418000 0.681594185847 -0.253248480409
475428500 0.681392682963 -0.252438467146
475439000 0.681469386098 -0.253087067405
475449500 0.680989414141 -0.252565028032
475460000 0.681180439673 -0.252910053228
475470500 0.68179807919 -0.25284808307
475481000 0.680697761741 -0.253569855599
475491500 0.681749876802 -0.253658997271
475502000 0.681419230359 -0.253639730029
475512500 0.681106775863 -0.25380293793
475523000 0.681247934615 -0.253561873531
475533500 0.681013363254 -0.253375602661
475544000 0.6812780724 -0.253962029697
475554500 0.681221526933 -0.253935188625
475565000 0.681437180456 -0.253743363357
475575500 0.681438453258 -0.253545433419
475586000 0.681190575712 -0.253182659909
475596500 0.680924756761 -0.25338147664
475607000 0.681278415049 -0.253485635913
475617500 0.681799298369 -0.253442385613
475628000 0.681493628068 -0.253163504851
475638500 0.681055155322 -0.254071660497
475649000 0.681419285527 -0.253912349353
475659500 0.681440292082 -0.25374151684
475670000 0.68182791627 -0.252909586463
475680500 0.681620315854 -0.253790504705
475691000 0.682187652116 -0.254205497661
475701500 0.681599938315 -0.254496116584
475712000 0.681532298975 -0.254025474349
475722500 0.681608800633 -0.254336401166
475733000 0.681680213651 -0.254433590663
475743500 0.681008805463 -0.254344411979
475754000 0.680985746344 -0.254374380826
475764500 0.680601106635 -0.2545112631
475775000 0.68064255983 -0.254064755641
475785500 0.681411384624 -0.253065055754
475796000 0.681836208183 -0.253869804455
475806500 0.681812705351 -0.253941530768
475817000 0.681743809657 -0.254294275728
475827500 0.681513416817 -0.254394346515
475838000 0.6818705551 -0.254371523012
475848500 0.681820211104 -0.255360024954
475859000 0.681568884947 -0.255610234075
475869500 0.681148533946 -0.254358357373
475880000 0.682327620393 -0.254784653523
475890500 0.681559584056 -0.254578090247
475901000 0.681492043264 -0.255004394057
475911500 0.68191798851 -0.254734776611
475922000 0.68176441052 -0.25453387117
475932500 0.682097175108 -0.254399378193
475943000 0.681559977069 -0.25498024736
475953500 0.68133503975 -0.255318492913
475964000 0.681132837997 -0.254860735205
475974500 0.681547665358 -0.255270982797
475985000 0.681209271099 -0.256144309614
475995500 0.681706984835 -0.255267997863
476006000 0.681652708396 -0.254942625429
476016500 0.681548778336 -0.255235067157
476027000 0.682286675054 -0.255015756102
476037500 0.6824002181 -0.254619549846
476048000 0.682194578109 -0.255486580922
476058500 0.682435673008 -0.255211677913
476069000 0.682394429246 -0.25537659508
476079500 0.681707604008 -0.254518863044
476090000 0.681876030932 -0.254548019363
476100500 0.681827143601 -0.254501291994
476111000 0.682021460604 -0.254508452415
476121500 0.681717743129 -0.253872197127
476132000 0.682440441127 -0.254352408317
476142500 0.68258755509 -0.2553913967
476153000 0.682267059135 -0.254722346718
476163500 0.682553554608 -0.255124892336
476174000 0.68252016854 -0.255196434205
476184500 0.682866527764 -0.254824000354
476195000 0.683099168283 -0.255133433575
476205500 0.68278308987 -0.255249692845
476216000 0.683114204621 -0.255572458649
476226500 0.683075025325 -0.256087501501
476237000 0.682556063035 -0.255309419904
476247500 0.68367979587 -0.255486197471
476258000 0.68274465453 -0.255903564411
476268500 0.68228246999 -0.255590977459
476279000 0.681944460984 -0.255796552014
476289500 0.681847780373 -0.257367459123
476300000 0.681981526445 -0.25630077145
476310500 0.682012236019 -0.256987493212
476321000 0.682831849313 -0.256463783491
476331500 0.681991100684 -0.255647941273
476342000 0.682451661381 -0.256230313704
476352500 0.682469912243 -0.257177077792
476363000 0.682669970601 -0.256524853209
476373500 0.682669412157 -0.256051921064
476384000 0.682335254573 -0.25641042018
476394500 0.6819692527 -0.256412016233
476405000 0.682406177518 -0.256831214264
476415500 0.682716760785 -0.256557116248
476426000 0.682253700332 -0.256725108025
476436500 0.682995780037 -0.256371433264
476447000 0.682995327094 -0.255282204491
476457500 0.683471908738 -0.256379315628
476468000 0.682629761919 -0.255739421031
476478500 0.681821323328 -0.257107046097
476489000 0.682741583603 -0.256516042548
476499500 0.682941877637 -0.256419735931
476510000 0.682458825494 -0.256755602398
476520500 0.682499510811 -0.256261773509
476531000 0.682325131938 -0.256740958743
476541500 0.682084053423 -0.257180142966
476552000 0.68237461495 -0.256528545125
476562500 0.682424883507 -0.256839315979
476573000 0.68306315508 -0.256621714786
476583500 0.682324164337 -0.257136427579
476594000 0.681779376097 -0.256941019996
476604500 0.683122139583 -0.256512410851
476615000 0.682746079578 -0.256574344906
476625500 0.680775675351 -0.257270933994
476636000 0.672795299546 -0.263616015205
476646500 0.666755280318 -0.260084343673
476657000 0.672895038941 -0.262071958103
476667500 0.678987956573 -0.254997870981
476678000 0.684342158744 -0.25744731392
476688500 0.684875541757 -0.257510106752
476699000 0.682968632322 -0.25747025791
476709500 0.683194142129 -0.257320352118
476720000 0.683104503774 -0.256495625052
476730500 0.68302715986 -0.257049477812
476741000 0.682948161421 -0.256595955698
476751500 0.683491135908 -0.257467355888
476762000 0.683559838642 -0.256835759788
476772500 0.683557526791 -0.257997584945
476783000 0.683696728929 -0.257468940169
476793500 0.683374712606 -0.257834558688
476804000 0.683400549761 -0.258061359706
476814500 0.683053814911 -0.257506298831
476825000 0.683369792609 -0.256841258698
476835500 0.683416407576 -0.257746107942
476846000 0.683075415319 -0.257237976985
476856500 0.684507637612 -0.257702850281
476867000 0.683618054634 -0.257128499149
476877500 0.683468015435 -0.257560575946
476888000 0.683150169943 -0.257628350082
476898500 0.68353550264 -0.256160238086
476909000 0.684164762896 -0.257538282604
476919500 0.683098209694 -0.257316014289
476930000 0.683517955991 -0.257764743555
476940500 0.684333445248 -0.259535208039
476951000 0.683829841341 -0.258536428678
476961500 0.683504402527 -0.258243355266
476972000 0.683994357913 -0.258505096422
476982500 0.684209255742 -0.258012491517
476993000 0.684376850373 -0.258194977617
477003500 0.68430796644 -0.257904129545
477014000 0.683253399391 -0.258418874368
477024500 0.683420523382 -0.257478191136
477035000 0.683789834962 -0.258244567942
477045500 0.683147042338 -0.2589974276
477056000 0.683303379018 -0.258757972467
477066500 0.68346795926 -0.258309354438
477077000 0.684174118779 -0.257787913093
477087500 0.683751841299 -0.258103578668
477098000 0.684022915402 -0.258578558715
477108500 0.68385526621 -0.260214407068
477119000 0.684098557726 -0.259285571254
477129500 0.683792882385 -0.259121621373
477140000 0.684411600412 -0.25863938124
477150500 0.683872942295 -0.259346820774
477161000 0.683619133942 -0.259194432688
477171500 0.68351823882 -0.259082213528
477182000 0.683864496861 -0.259776548269
477192500 0.683815589313 -0.260196246644
477203000 0.683094108025 -0.259611385103
477213500 0.683505747252 -0.25974697379
477224000 0.683697674874 -0.258618580817
477234500 0.683711465419 -0.258959738134
477245000 0.683997222256 -0.258851183363
477255500 0.68418819901 -0.259338481739
477266000 0.684443865826 -0.258846246005
477276500 0.684620920754 -0.259219528398
477287000 0.683557331647 -0.258575336154
477297500 0.684206910397 -0.259049502746
477308000 0.683832056527 -0.259748610439
477318500 0.683601499683 -0.259446245131
477329000 0.683775359097 -0.259474539149
477339500 0.683904414074 -0.260000334458
477350000 0.684113700818 -0.259339643944
477360500 0.685068172349 -0.259444285492
477371000 0.68525434397 -0.259276485235
477381500 0.684835268543 -0.259242760128
477392000 0.684338793604 -0.2591591059
477402500 0.684803547423 -0.258140200602
477413000 0.684482124514 -0.259230050806
477423500 0.684513100107 -0.259259244849
477434000 0.684362681545 -0.258782396122
477444500 0.684926703886 -0.259638450173
477455000 0.684406266807 -0.257990623275
477465500 0.684173728756 -0.259737525419
477476000 0.68534313365 -0.258403010571
477486500 0.686067944578 -0.258555682881
477497000 0.684014256501 -0.258231554955
477507500 0.685409938463 -0.260868375563
477518000 0.682680646405 -0.259031404186
477528500 0.684754900484 -0.258556628669
477539000 0.684445301157 -0.259737343635
477549500 0.685433881034 -0.261096684434
477560000 0.685137781618 -0.260212215248
477570500 0.682152861953 -0.258977192643
477581000 0.685313185106 -0.26183822709
477591500 0.685072567547 -0.261706882069
477602000 0.686267018688 -0.257096566363
477612500 0.685424500959 -0.261557708451
477623000 0.684505999999 -0.25963697514
477633500 0.684919555335 -0.260532541903
477644000 0.686576562151 -0.260572885945
477654500 0.684025290523 -0.260004143756
477665000 0.686945116485 -0.259807069987
477675500 0.685503852775 -0.260781046
477686000 0.684113967325 -0.257647718223
477696500 0.684943365411 -0.260725288519
477707000 0.684669341343 -0.262477639919
477717500 0.683807930075 -0.262465106997
477728000 0.687383420242 -0.259844542313
477738500 0.686332065343 -0.256555507599
477749000 0.683832355037 -0.261632803704
477759500 0.683479385717 -0.262752171233
477770000 0.686037186337 -0.257208628998
477780500 0.688401223013 -0.261278478358
477791000 0.686290617661 -0.260951921127
477801500 0.68555199608 -0.263256065636
477812000 0.686455771165 -0.260111180388
477822500 0.685295072793 -0.260810542695
477833000 0.686406465243 -0.261270140939
477843500 0.681669747267 -0.259828242377
477854000 0.683552521303 -0.260737662069
477864500 0.685858137201 -0.260172821394
477875000 0.686029655726 -0.260551312293
477885500 0.684776007856 -0.260980994576
477896000 0.685664653603 -0.260598225287
477906500 0.684444321321 -0.260578396842
477917000 0.685821913499 -0.262130436088
477927500 0.684225163489 -0.261049345671
477938000 0.685678635048 -0.261166818475
477948500 0.686137613966 -0.260272805077
477959000 0.68562272779 -0.2620357391
477969500 0.686612412594 -0.260677947877
477980000 0.684435903351 -0.261636866887
477990500 0.686389036667 -0.261868005044
478001000 0.688743978177 -0.260276166873
478011500 0.685934236339 -0.261241660162
478022000 0.682325591095 -0.260765783833
478032500 0.683005656739 -0.2559277973
478043000 0.680924992203 -0.25767934009
478053500 0.686402307566 -0.25978729464
478064000 0.689735239381 -0.265754416852
478074500 0.687056223069 -0.26426603699
478085000 0.69000584061 -0.261873888681
478095500 0.678961995062 -0.26067623574
478106000 0.677790852896 -0.257037979188
478116500 0.681811046413 -0.262373498501
478127000 0.68895938414 -0.25983138154
478137500 0.689178297422 -0.261697545788
478148000 0.691236502449 -0.262570619242
478158500 0.685740657531 -0.261390490649
478169000 0.685340167642 -0.257622037173
478179500 0.685639214561 -0.251985281275
478190000 0.694341064358 -0.264411819504
478200500 0.676768249268 -0.260162125809
478211000 0.677424838791 -0.258273235473
478221500 0.682465612767 -0.259615863506
478232000 0.696313903012 -0.257215523801
478242500 0.698532722158 -0.244851275995
478253000 0.689976628523 -0.26890033723
478263500 0.69051337862 -0.252646652465
478274000 0.675995650326 -0.26763248279
478284500 0.691177526917 -0.261004726411
478295000 0.687649422277 -0.24930571075
478305500 0.678560389456 -0.251996807837
478316000 0.684991741069 -0.265220797983
478326500 0.692859525786 -0.269468495083
478337000 0.677839627412 -0.280992818194
478347500 0.690992230313 -0.2764611081
478358000 0.698556820433 -0.247887873482
478368500 0.696809575608 -0.266065721495
478379000 0.678211446078 -0.253328930687
478389500 0.675978260055 -0.263011968696
478400000 0.694471752791 -0.239245776038
478410500 0.697727980596 -0.284586601047
478421000 0.690406579965 -0.265630438337
478431500 0.692913609439 -0.263532125185
478442000 0.69822614078 -0.258588546828
478452500 0.696742921279 -0.276377250075
478463000 0.691665274454 -0.260834559953
478473500 0.669082493676 -0.277430477005
478484000 0.683356337471 -0.251386306554
478494500 0.688360228756 -0.264434057935
478505000 0.681194924459 -0.265311116837
478515500 0.686397345548 -0.260288245741
478526000 0.699444339115 -0.274861193308
478536500 0.685067012476 -0.273304139584
478547000 0.671902846348 -0.262935167175
478557500 0.693561271332 -0.25506010998
478568000 0.68952393349 -0.242306017504
478578500 0.69623682099 -0.248219230963
478589000 0.681445505079 -0.270942498336
478599500 0.693083768449 -0.264480938055
478610000 0.690949422413 -0.255630881251
478620500 0.702547484394 -0.246123166821
478631000 0.681686933144 -0.259420887868
478641500 0.666185608577 -0.243956495293
478652000 0.703927629283 -0.270919980188
478662500 0.691070596214 -0.26871988225
478673000 0.685916715802 -0.271230590397
478683500 0.676411071054 -0.258343226622
478694000 0.674114572039 -0.269952215478
478704500 0.686919410489 -0.282585340034
478715000 0.676102224665 -0.276324983272
478725500 0.690297278035 -0.27843392569
478736000 0.691479511946 -0.269918511768
478746500 0.683008494887 -0.265168412492
478757000 0.669577018971 -0.266368311451
478767500 0.695002874117 -0.271548614261
478778000 0.672572167871 -0.261154243239
478788500 0.68282467544 -0.2690561534
478799000 0.686929082766 -0.264908421755
478809500 0.698435447601 -0.263778031689
478820000 0.685959293224 -0.257606266253
478830500 0.686104858671 -0.287249911646
478841000 0.695922444251 -0.248908357062
478851500 0.696132100122 -0.253877397816
478862000 0.69659223841 -0.265876656082
478872500 0.693614979793 -0.266396791946
478883000 0.687683254492 -0.266319507485
478893500 0.684024442932 -0.265453020062
478904000 0.684421316795 -0.266030732888
478914500 0.686908704036 -0.264748303444
478925000 0.687127069506 -0.264156497291
478935500 0.688462245664 -0.263529729792
478946000 0.688103528425 -0.265175105204
478956500 0.690568021062 -0.26434732977
478967000 0.68837602909 -0.26627070634
478977500 0.687251025893 -0.2651135014
478988000 0.687701680596 -0.263429421717
478998500 0.68647462052 -0.264788363687
479009000 0.687437852914 -0.266260969229
479019500 0.687043293467 -0.264500447314
479030000 0.687513899565 -0.265075680902
479040500 0.687457172474 -0.264903561795
479051000 0.687716818622 -0.265044305273
479061500 0.686557980379 -0.26266915948
479072000 0.686600176955 -0.26480936581
479082500 0.687185999448 -0.263940266539
479093000 0.686852502716 -0.264380007469
479103500 0.687421464399 -0.264724341473
479114000 0.689240694615 -0.265855738237
479124500 0.688996598888 -0.265900212243
479135000 0.688814837222 -0.265408579738
479145500 0.688324811849 -0.26565416146
479156000 0.687382201361 -0.266037459651
479166500 0.687647732002 -0.266170517545
479177000 0.687182475872 -0.264351908277
479187500 0.688561851722 -0.266273967671
479198000 0.688667317797 -0.265579519675
479208500 0.687944457107 -0.265541964432
479219000 0.688761511072 -0.265642309977
479229500 0.688768420966 -0.264983756011
479240000 0.686698811554 -0.264215790226
479250500 0.686841487737 -0.267375522225
479261000 0.6873240445 -0.264243616629
479271500 0.687623551007 -0.266768214598
479282000 0.688888361469 -0.265720367835
479292500 0.688097356205 -0.268647424019
479303000 0.686269381576 -0.266225794312
479313500 0.686062327778 -0.267925498754
479324000 0.686960411303 -0.267933622887
479334500 0.688912467427 -0.26725454976
479345000 0.687614027938 -0.263909071576
479355500 0.689878856513 -0.263158690184
479366000 0.688402767235 -0.266242732117
479376500 0.68886710687 -0.265820554617
479387000 0.688033386988 -0.265468095428
479397500 0.688324551107 -0.266109869009
479408000 0.686425535813 -0.265113279724
479418500 0.686339683349 -0.266854468905
479429000 0.687216702238 -0.26579692014
479439500 0.68721968547 -0.266317870333
479450000 0.68720932632 -0.266838593701
479460500 0.689157348528 -0.268017441647
479471000 0.690407772899 -0.266547409239
479481500 0.688115714804 -0.266686539958
479492000 0.687478004767 -0.267016874323
479502500 0.688853051411 -0.2673158757
479513000 0.688532523224 -0.266993390915
479523500 0.688909767779 -0.265701186203
479534000 0.688252861297 -0.266298423577
479544500 0.688637059155 -0.267146198363
479555000 0.689569542144 -0.267827734654
479565500 0.687415420471 -0.2675322119
479576000 0.688193556656 -0.266359545031
479586500 0.688381744216 -0.26681275403
479597000 0.688536796106 -0.267289607467
479607500 0.688406360816 -0.266719412905
479618000 0.688051862574 -0.267076101379
479628500 0.68847729901 -0.267636186814
479639000 0.688339296627 -0.267885309573
479649500 0.688420799392 -0.267880545747
479660000 0.689094357065 -0.268240543481
479670500 0.689351212175 -0.267965510875
479681000 0.689496390963 -0.268046931202
479691500 0.688243072687 -0.268131365853
479702000 0.688080577036 -0.267731593512
479712500 0.688619288959 -0.268659455694
479723000 0.688508043192 -0.26839432048
479733500 0.689235583727 -0.268594260685
479744000 0.689218920648 -0.267896146311
479754500 0.689542829957 -0.268135988633
479765000 0.689343288314 -0.268467303758
479775500 0.689934166247 -0.268643235327
479786000 0.688757799423 -0.268918536975
479796500 0.689853541837 -0.268259805618
479807000 0.689351509379 -0.26784359007
479817500 0.689298705491 -0.26856905287
479828000 0.690342293508 -0.26844940745
479838500 0.690138467178 -0.269673580429
479849000 0.689714903712 -0.269327337029
479859500 0.689580103372 -0.268936819849
479870000 0.689011995231 -0.269070984574
479880500 0.689214496335 -0.268318050894
479891000 0.689240808975 -0.268549180066
479901500 0.689905162998 -0.268044926472
479912000 0.688530034996 -0.269165066865
479922500 0.689219161785 -0.269756740887
479933000 0.68893549659 -0.269870772824
479943500 0.689864402754 -0.269273793573
479954000 0.691131617826 -0.267953858437
479964500 0.691194431308 -0.267441673144
479975000 0.689777582252 -0.268417898104
479985500 0.688428612214 -0.268890169245
479996000 0.688471731964 -0.26828974325
480006500 0.688649921209 -0.268630729199
480017000 0.688419653106 -0.269097160276
480027500 0.689424626703 -0.269033965085
480038000 0.689121674236 -0.270076714347
480048500 0.689559153316 -0.269639784393
480059000 0.688777537871 -0.269942807776
480069500 0.689234339588 -0.269087647714
480080000 0.68964583917 -0.269658711139
480090500 0.690163883314 -0.268920382063
480101000 0.689623777261 -0.268762906216
480111500 0.690472409921 -0.270269138117
480122000 0.690393939778 -0.269680325113
480132500 0.691288996347 -0.270746514064
480143000 0.69030832321 -0.269773361241
480153500 0.690208188694 -0.269293064085
480164000 0.691635050854 -0.270027211243
480174500 0.689710353287 -0.270530569961
480185000 0.689317185528 -0.269754156032
480195500 0.688624297471 -0.268513856067
480206000 0.689432873228 -0.268776691246
480216500 0.688750579363 -0.268767534366
480227000 0.688947107095 -0.27072869204
480237500 0.689108907486 -0.272705954625
480248000 0.688272823438 -0.270773280883
480258500 0.689206681007 -0.2706767201
480269000 0.68983075484 -0.274116123695
480279500 0.689151291921 -0.270426810187
480290000 0.690843327787 -0.270214115477
480300500 0.690839807952 -0.270591063134
480311000 0.689925524935 -0.270032503075
480321500 0.690097660035 -0.270297773478
480332000 0.689528954953 -0.270713586116
480342500 0.689889699681 -0.270500040623
480353000 0.690149677649 -0.271160166009
480363500 0.690243146359 -0.270420904314
480374000 0.689835613919 -0.270531743631
480384500 0.690189182293 -0.270686826825
480395000 0.690138574585 -0.270382020098
480405500 0.690463463695 -0.270579509289
480416000 0.689885255311 -0.270883222114
480426500 0.690627390336 -0.270552078905
480437000 0.690314887429 -0.271126307958
480447500 0.690504158342 -0.270168546496
480458000 0.690306124299 -0.270695547769
480468500 0.689773472198 -0.270897765146
480479000 0.689814948473 -0.270743138114
480489500 0.689563393122 -0.270686196997
480500000 0.690933109917 -0.270056810309
480510500 0.690660803 -0.270496212456
480521000 0.690801853279 -0.270439754244
480531500 0.690274164742 -0.27084727161
480542000 0.690708132806 -0.270670055267
480552500 0.690254226353 -0.27058882443
480563000 0.689932120025 -0.270793446287
480573500 0.690080494216 -0.271645192782
480584000 0.68967537831 -0.272518867928
480594500 0.690248260635 -0.272327032438
480605000 0.689899816062 -0.271181813825
480615500 0.689840316685 -0.270773567895
480626000 0.690653569866 -0.270642094257
480636500 0.690515328256 -0.270931335496
480647000 0.690480067802 -0.271394012114
480657500 0.689891922024 -0.27102671816
480668000 0.690342979826 -0.271670386844
480678500 0.690886600316 -0.270481961255
480689000 0.690993479602 -0.271717560549
480699500 0.690253823265 -0.271865680877
480710000 0.690929116618 -0.271514245195
480720500 0.690502232953 -0.272678704339
480731000 0.692350352844 -0.272746660805
480741500 0.690729587009 -0.274233323291
480752000 0.691143845245 -0.272366408983
480762500 0.69018276273 -0.272782043429
480773000 0.690878656133 -0.272176737866
480783500 0.689924535137 -0.272298821394
480794000 0.690143942773 -0.271894008595
480804500 0.691089156272 -0.272196529206
480815000 0.690429750442 -0.271948988283
480825500 0.690900554298 -0.271831578955
480836000 0.690269671857 -0.271926168435
480846500 0.690805962026 -0.272613287561
480857000 0.691112884471 -0.27233576117
480867500 0.690734506079 -0.273491368848
480878000 0.692081450768 -0.272679347457
480888500 0.69014824768 -0.272178476493
480899000 0.690732809122 -0.272884719323
480909500 0.691312579486 -0.272272447029
480920000 0.69165520058 -0.272434772887
480930500 0.691414342943 -0.273044978122
480941000 0.691378732226 -0.273167764121
480951500 0.690466718758 -0.272687858494
480962000 0.690411204178 -0.272474585943
480972500 0.689548220176 -0.27180426266
480983000 0.689179968613 -0.271936364179
480993500 0.688072485587 -0.272896398805
481004000 0.688296988521 -0.272891212245
481014500 0.690552447833 -0.273399973426
481025000 0.691211697288 -0.273415941229
481035500 0.691368841565 -0.273430861731
481046000 0.690735043515 -0.273231372987
481056500 0.690714251175 -0.273430080447
481067000 0.691478070841 -0.273453775898
481077500 0.690989838606 -0.273830251445
481088000 0.691816846645 -0.273330465827
481098500 0.690770568411 -0.273756865878
481109000 0.690071288025 -0.273027463772
481119500 0.690670123784 -0.273274115222
481130000 0.691195485637 -0.272889086852
481140500 0.690643332136 -0.273053682408
481151000 0.690835053342 -0.272010755628
481161500 0.691663472596 -0.27249326563
481172000 0.690570374377 -0.273423038979
481182500 0.691053640905 -0.272229289506
481193000 0.692882017858 -0.273407996666
481203500 0.692653465483 -0.272217567074
481214000 0.690781489962 -0.273099994884
481224500 0.691473831207 -0.274153641466
481235000 0.692662927141 -0.274644764601
481245500 0.691373895028 -0.276395579299
481256000 0.690546150309 -0.276133706677
481266500 0.691602807634 -0.275037394887
481277000 0.69231614001 -0.274860355991
481287500 0.692727610875 -0.273428434261
481298000 0.693382128921 -0.273481619606
481308500 0.692072895928 -0.273730175023
481319000 0.692618307052 -0.273660754032
481329500 0.691908055437 -0.27330142932
481340000 0.691951310622 -0.274874787289
481350500 0.690313424672 -0.275074194409
481361000 0.691596188988 -0.275398544864
481371500 0.690777544021 -0.275105289209
481382000 0.692163658631 -0.273963854077
481392500 0.692149820679 -0.274525605573
481403000 0.692021303366 -0.27417071096
481413500 0.692243342022 -0.274883733159
481424000 0.692200230483 -0.274792193298
481434500 0.692385421887 -0.274871678174
481445000 0.692284900409 -0.275134647867
481455500 0.691835185281 -0.274123056789
481466000 0.691759027197 -0.274982712771
481476500 0.692292316715 -0.274525099039
481487000 0.692597502926 -0.274436457547
481497500 0.692716857703 -0.27565125978
481508000 0.69279029971 -0.276192089064
481518500 0.692577966015 -0.275627025425
481529000 0.692470121076 -0.275261129984
481539500 0.693037100275 -0.275238767126
481550000 0.692951461768 -0.275273875059
481560500 0.69296575799 -0.275036125457
481571000 0.693691318256 -0.275958414103
481581500 0.694231528386 -0.275099942214
481592000 0.692859740813 -0.274863403281
481602500 0.693046030776 -0.274992146269
481613000 0.6923786784 -0.275202399705
481623500 0.693000253925 -0.275837872608
481634000 0.692524399084 -0.274770894647
481644500 0.692602013887 -0.275202802865
481655000 0.692324774848 -0.274952973176
481665500 0.692088937894 -0.275509143849
481676000 0.692388990821 -0.275757725587
481686500 0.691683110373 -0.277195324377
481697000 0.692721112646 -0.278515502314
481707500 0.691173750733 -0.277856198555
481718000 0.691758603572 -0.27819770443
481728500 0.692781202943 -0.277925959548
481739000 0.692279912236 -0.275434629294
481749500 0.692087558772 -0.277608606873
481760000 0.694682614816 -0.27709839175
481770500 0.692489148424 -0.27669702336
481781000 0.693434694916 -0.276812940689
481791500 0.693119249829 -0.274174523644
481802000 0.694336873533 -0.273662956478
481812500 0.693689280751 -0.273543154699
481823000 0.693530194701 -0.276220169227
481833500 0.694259994685 -0.277205014129
481844000 0.69330103585 -0.27687166857
481854500 0.69295068555 -0.27744778652
481865000 0.692401564784 -0.276540990327
481875500 0.691927991431 -0.278387397007
481886000 0.694371354192 -0.278003973672
481896500 0.692507589046 -0.277556838136
481907000 0.692108714703 -0.274455593035
481917500 0.691119359435 -0.279585337735
481928000 0.69409876467 -0.276706055225
481938500 0.69174408813 -0.277618965699
481949000 0.69242064772 -0.276849394381
481959500 0.692981303157 -0.279683248602
481970000 0.694610674911 -0.281523995461
481980500 0.69540882286 -0.278697273551
481991000 0.692549649635 -0.276337688883
482001500 0.692406174541 -0.277445845632
482012000 0.692633456347 -0.279218499617
482022500 0.692109178566 -0.276334844282
482033000 0.694629904844 -0.27538121009
482043500 0.692450974595 -0.275145545138
482054000 0.692529315559 -0.276108958486
482064500 0.692181370926 -0.276310465338
482075000 0.693980926459 -0.275059246716
482085500 0.69339847178 -0.278874471835
482096000 0.693713238947 -0.27455984435
482106500 0.690692108932 -0.280045643882
482117000 0.691250508076 -0.276530885919
482127500 0.69779929271 -0.279053531154
482138000 0.688652575329 -0.27959663079
482148500 0.692829652925 -0.278107494902
482159000 0.693377918297 -0.277220861852
482169500 0.694770837419 -0.280449377875
482180000 0.695009304184 -0.27567093558
482190500 0.686978184588 -0.280418980512
482201000 0.696569771999 -0.277871527049
482211500 0.687722909113 -0.277283646738
482222000 0.671544079377 -0.284850022513
482232500 0.696225078204 -0.279645036648
482243000 0.695509055777 -0.286334189682
482253500 0.689610501052 -0.275848655977
482264000 0.691537299469 -0.278098432159
482274500 0.69286740348 -0.271924750868
482285000 0.689274460006 -0.28243404834
482295500 0.691217450116 -0.280350552162
482306000 0.694476831328 -0.279930650163
482316500 0.698276204568 -0.277557801012
482327000 0.691729845207 -0.284454639443
482337500 0.692125992069 -0.285527720258
482348000 0.691343906385 -0.289399705949
482358500 0.701235530931 -0.276948861286
482369000 0.680995277499 -0.282293113483
482379500 0.686184409847 -0.267625147072
482390000 0.687942481638 -0.281762744031
482400500 0.693236353251 -0.279015417566
482411000 0.689861314671 -0.278440229713
482421500 0.689528076941 -0.275204094578
482432000 0.694108865545 -0.26213397731
482442500 0.701858309733 -0.291402949867
482453000 0.695747663798 -0.281710899926
482463500 0.697733160286 -0.292821142338
482474000 0.697459530296 -0.278647357173
482484500 0.70451507792 -0.28513408354
482495000 0.690806707429 -0.282459921399
482505500 0.703047004118 -0.286626979658
482516000 0.688618731651 -0.269126023205
482526500 0.694586381727 -0.297697309744
482537000 0.705511403696 -0.263214185232
482547500 0.694640644609 -0.265926292908
482558000 0.680383259842 -0.280087787202
482568500 0.687026876526 -0.258146360004
482579000 0.703624391072 -0.290000785227
482589500 0.695601631948 -0.277331207069
482600000 0.681159710273 -0.284512257524
482610500 0.693143843665 -0.273546649254
482621000 0.696461162984 -0.277737136365
482631500 0.692162705256 -0.270261994142
482642000 0.699273983409 -0.272885438722
482652500 0.683188756002 -0.288855611873
482663000 0.702865676962 -0.281939797035
482673500 0.697848238544 -0.280818755957
482684000 0.688816997354 -0.280669504659
482694500 0.696687032649 -0.279661620202
482705000 0.684664983255 -0.280244882046
482715500 0.705328897754 -0.279819219191
482726000 0.693245356995 -0.289153426419
482736500 0.690767210351 -0.282304363661
482747000 0.700471115038 -0.278926216674
482757500 0.696690233981 -0.284503165089
482768000 0.706187590208 -0.284362749227
482778500 0.695902072289 -0.282280296237
482789000 0.688897862305 -0.282861866255
482799500 0.69971909872 -0.279067358878
482810000 0.694597309284 -0.284996645397
482820500 0.69818291347 -0.282169910024
482831000 0.700541536525 -0.280775714216
482841500 0.688358318593 -0.274416857533
482852000 0.686415102183 -0.289009217231
482862500 0.693690436743 -0.275471804612
482873000 0.695994706777 -0.281874304798
482883500 0.695760929933 -0.279702179985
482894000 0.694064649261 -0.281140276067
482904500 0.69401210502 -0.279668316149
482915000 0.69529207981 -0.279792661958
482925500 0.696129484612 -0.279123099961
482936000 0.694127590497 -0.28127389659
482946500 0.693185351211 -0.28213757705
482957000 0.693423601334 -0.279307286789
482967500 0.691715324631 -0.283902851221
482978000 0.693840862518 -0.281359801056
482988500 0.694876020752 -0.281668742193
482999000 0.695097227298 -0.281306704763
483009500 0.697700861439 -0.284569873927
483020000 0.696773410286 -0.281617763968
483030500 0.692977833082 -0.282145808385
483041000 0.695233497406 -0.281457401222
483051500 0.694722960132 -0.282607946836
483062000 0.694344551587 -0.280251315288
483072500 0.6950928244 -0.281774678011
483083000 0.695385343787 -0.284732048498
483093500 0.693378677097 -0.282041092506
483104000 0.695204470288 -0.282447678624
483114500 0.695977120077 -0.283492633853
483125000 0.694560057693 -0.28115728853
483135500 0.693499660232 -0.282682666203
483146000 0.697222459024 -0.283428961348
483156500 0.696605157432 -0.279245303113
483167000 0.692240711677 -0.282737199759
483177500 0.693474704746 -0.283572444255
483188000 0.692359382947 -0.281109377363
483198500 0.695823966239 -0.282393013383
483209000 0.692075315748 -0.283533588975
483219500 0.695885976779 -0.284438773622
483230000 0.694036596696 -0.282277814876
483240500 0.694446673518 -0.2852457177
483251000 0.695347023373 -0.2829260361
483261500 0.692409194539 -0.284903079945
483272000 0.692840205103 -0.282531309368
483282500 0.693604664875 -0.283233265399
483293000 0.694701653532 -0.282528707371
483303500 0.692286847315 -0.28363315813
483314000 0.697406053103 -0.279738132792
483324500 0.695495959675 -0.282490550883
483335000 0.694265243369 -0.28153312229
483345500 0.692328922189 -0.282052970221
483356000 0.692405483767 -0.284316228578
483366500 0.691381271857 -0.2833994478
483377000 0.694701531259 -0.28269263316
483387500 0.693619562878 -0.282968622476
483398000 0.696299996036 -0.281544814405
483408500 0.695302518051 -0.283251333351
483419000 0.693087675129 -0.284228728709
483429500 0.693256436407 -0.284127713259
483440000 0.693948531828 -0.283895594255
483450500 0.694849953292 -0.284874215017
483461000 0.694525187823 -0.283093011439
483471500 0.696260628482 -0.283920366698
483482000 0.697524891028 -0.282148491886
483492500 0.695815715542 -0.282428954691
483503000 0.696682414148 -0.285380224947
483513500 0.696071098075 -0.284313545055
483524000 0.694935402313 -0.283712511974
483534500 0.694847251458 -0.28277430399
483545000 0.695221266729 -0.283444503912
483555500 0.695075907148 -0.283889467141
483566000 0.695697477501 -0.283976712137
483576500 0.694790523171 -0.284329985353
483587000 0.695397596241 -0.284863505261
483597500 0.694575568282 -0.284480892833
483608000 0.694564406288 -0.284632482981
483618500 0.694230939222 -0.28439088945
483629000 0.69539562531 -0.284756672711
483639500 0.695409882392 -0.285096264028
483650000 0.696248934431 -0.284716857459
483660500 0.695750881614 -0.284705347728
483671000 0.695907124378 -0.284533350917
483681500 0.695210672779 -0.284554368829
483692000 0.695294017072 -0.284628345469
483702500 0.695534485311 -0.284745265074
483713000 0.694772711903 -0.284540525547
483723500 0.695612234024 -0.284051384397
483734000 0.694788848485 -0.28533317331
483744500 0.695247003808 -0.285107702756
483755000 0.695130697174 -0.285182685233
483765500 0.695210179958 -0.284965207546
483776000 0.695241112454 -0.285122569971
483786500 0.694786563094 -0.284945872265
483797000 0.694485964014 -0.284816665948
483807500 0.694736569506 -0.285138479298
483818000 0.695569392863 -0.28470812594
483828500 0.695968266878 -0.28518867427
483839000 0.695652217051 -0.284863693586
483849500 0.696962268488 -0.285140446484
483860000 0.695771190528 -0.285701169803
483870500 0.69553597621 -0.285395347375
483881000 0.697456575675 -0.28738913634
483891500 0.69553068406 -0.285247093562
483902000 0.694671389197 -0.285464514878
483912500 0.694792872656 -0.284492491154
483923000 0.695758219787 -0.285312667369
483933500 0.696032121652 -0.285828201023
483944000 0.694894766316 -0.285405212746
483954500 0.694756085438 -0.285876208531
483965000 0.694851154132 -0.286140599688
483975500 0.695531619632 -0.286416718482
483986000 0.694752431413 -0.287349588829
483996500 0.695239253841 -0.286690172181
484007000 0.694899998672 -0.28640736488
484017500 0.694933493641 -0.286095360164
484028000 0.694878542824 -0.285686120371
484038500 0.69524045949 -0.285681493084
484049000 0.694957597935 -0.286052345926
484059500 0.694210318162 -0.28629480254
484070000 0.693632499733 -0.285720861704
484080500 0.694681179678 -0.285672390042
484091000 0.695379302113 -0.285605276977
484101500 0.695599054391 -0.286554822792
484112000 0.695480624542 -0.286201953122
484122500 0.694485653232 -0.285529704851
484133000 0.694761159325 -0.285754529
484143500 0.69507211259 -0.285585028411
484154000 0.694649219422 -0.286418370503
484164500 0.694907606868 -0.286516702824
484175000 0.694982318684 -0.286982475687
484185500 0.695600281643 -0.286605028058
484196000 0.695270586106 -0.286344380123
484206500 0.695108607131 -0.286218532088
484217000 0.695367162287 -0.285933850695
484227500 0.695401338976 -0.286714274661
484238000 0.695408182378 -0.286560548475
484248500 0.696193422367 -0.286082608694
484259000 0.694647076325 -0.286612456352
484269500 0.694419456055 -0.286586047469
484280000 0.695277545662 -0.286656664811
484290500 0.695918366633 -0.286714040844
484301000 0.695885411591 -0.286645429216
484311500 0.695644443485 -0.286674706993
484322000 0.695546479592 -0.287217798117
484332500 0.696070064133 -0.287416000946
484343000 0.695055757933 -0.286397669261
484353500 0.696364246348 -0.286697630019
484364000 0.696180712018 -0.287334462161
484374500 0.696264172503 -0.286752769098
484385000 0.696131731975 -0.28665791415
484395500 0.695907039893 -0.286843539493
484406000 0.695499280976 -0.287676557237
484416500 0.695163423718 -0.287287548607
484427000 0.695394989543 -0.287405496679
484437500 0.696369922705 -0.287531611416
484448000 0.695793983543 -0.287149746883
484458500 0.695459371969 -0.287158897773
484469000 0.695764860928 -0.287976626555
484479500 0.6966431286 -0.28765660899
484490000 0.696216675845 -0.28836276721
484500500 0.696702561497 -0.287156024894
484511000 0.695845866046 -0.287286819367
484521500 0.695432608319 -0.287369862069
484532000 0.696023174804 -0.287599146655
484542500 0.695655061436 -0.287917740281
484553000 0.69631101396 -0.288399741997
484563500 0.695639701456 -0.288967381469
484574000 0.694886763831 -0.288358476997
484584500 0.694666846489 -0.288246469556
484595000 0.695201186499 -0.289283384382
484605500 0.695421391192 -0.289461635575
484616000 0.696023123341 -0.288812638554
484626500 0.695603390975 -0.289042848492
484637000 0.695968370036 -0.288411529783
484647500 0.696348681587 -0.288239325502
484658000 0.695834765433 -0.288103460476
484668500 0.696009111041 -0.288813186956
484679000 0.696648497113 -0.288598632905
484689500 0.696482423041 -0.288670275508
484700000 0.696914025322 -0.289163314007
484710500 0.69650229971 -0.288772060743
484721000 0.696533172196 -0.28860527615
484731500 0.696261252657 -0.288630593235
484742000 0.696182947628 -0.288855027186
484752500 0.695945539089 -0.288496607776
484763000 0.696008016784 -0.289265871424
484773500 0.69548680379 -0.28888286435
484784000 0.69626961758 -0.289074612046
484794500 0.695763791405 -0.289356885331
484805000 0.696044053437 -0.288759764562
484815500 0.696146335008 -0.288573772819
484826000 0.696349064659 -0.288548252234
484836500 0.69608328398 -0.289021442057
484847000 0.696273129723 -0.288789680828
484857500 0.695527628305 -0.288865115625
484868000 0.695669120837 -0.288858093567
484878500 0.694999206286 -0.289036797881
484889000 0.695482373105 -0.28960336327
484899500 0.69566004053 -0.28948652529
484910000 0.695584333446 -0.289554511318
484920500 0.695720717505 -0.289147927668
484931000 0.695921348419 -0.288281561754
484941500 0.696071278998 -0.289278286869
484952000 0.695588713573 -0.288509813165
484962500 0.695335013824 -0.288964378424
484973000 0.695932636543 -0.2888931095
484983500 0.695969758415 -0.288250275914
484994000 0.69540859216 -0.287888034405
485004500 0.695589236915 -0.288588036106
485015000 0.696196011676 -0.289631266377
485025500 0.695661330899 -0.289580384424
485036000 0.695783907614 -0.28905242692
485046500 0.696426428212 -0.290033494777
485057000 0.696641057804 -0.290136647631
485067500 0.696467883838 -0.290099214299
485078000 0.69646603454 -0.290151521894
485088500 0.69569795277 -0.289662056166
485099000 0.694669383604 -0.290224587187
485109500 0.695180034079 -0.290517782331
485120000 0.696150925416 -0.29036186262
485130500 0.696307623106 -0.290689600488
485141000 0.696107148153 -0.290291843482
485151500 0.696151299251 -0.290243179115
485162000 0.695538829874 -0.290061290467
485172500 0.695933531281 -0.289817591383
485183000 0.696592242953 -0.289779741086
485193500 0.696341836479 -0.290356074697
485204000 0.695969736623 -0.289744318858
485214500 0.695803230955 -0.290398472621
485225000 0.69602146218 -0.290095847347
485235500 0.696244584801 -0.290272408194
485246000 0.69624361987 -0.290896519064
485256500 0.696063913226 -0.291315225327
485267000 0.695720237636 -0.291163881567
485277500 0.695687942981 -0.291537314727
485288000 0.696840208289 -0.291247118878
485298500 0.696980516233 -0.291704047487
485309000 0.696944390319 -0.291994296339
485319500 0.696836585849 -0.291707787439
485330000 0.696681273874 -0.291524058547
485340500 0.696563320269 -0.291265328069
485351000 0.695592387824 -0.291553378685
485361500 0.695297234692 -0.291356832026
485372000 0.695271645396 -0.291550565966
485382500 0.695885215877 -0.291681515059
485393000 0.6961151312 -0.291953302229
485403500 0.696228583172 -0.291612872863
485414000 0.697336896274 -0.292133830453
485424500 0.696254631184 -0.291578624632
485435000 0.697187669765 -0.291302582066
485445500 0.696176106075 -0.289897380334
485456000 0.697776867419 -0.29193952667
485466500 0.695510359175 -0.28831916289
485477000 0.694504886044 -0.292847007159
485487500 0.698372932965 -0.289713854985
485498000 0.696594071115 -0.288605775606
485508500 0.697721863044 -0.291445835161
485519000 0.697150740046 -0.294128918634
485529500 0.698749932741 -0.292190191043
485540000 0.693483780071 -0.293692112254
485550500 0.698775724346 -0.289096707196
485561000 0.696703281314 -0.292435847699
485571500 0.692384315255 -0.289698013349
485582000 0.69404291393 -0.287925825943
485592500 0.697813355428 -0.290257222756
485603000 0.699318560219 -0.294123442248
485613500 0.696537500646 -0.293710827978
485624000 0.696104923173 -0.293044972409
485634500 0.702205305475 -0.292434733033
485645000 0.698697568691 -0.290544628735
485655500 0.700002062249 -0.290044431219
485666000 0.695818603689 -0.289881091832
485676500 0.696851928155 -0.294353108555
485687000 0.69358815369 -0.294064955722
485697500 0.698048672201 -0.290260454694
485708000 0.696595024541 -0.289492868564
485718500 0.698202726922 -0.295789821362
485729000 0.696995404226 -0.296144017013
485739500 0.695135676496 -0.291402321042
485750000 0.695216564809 -0.2894186785
485760500 0.69839875916 -0.296519288301
485771000 0.69599115331 -0.289266526074
485781500 0.696622359917 -0.295160437004
485792000 0.695794863896 -0.292544136942
485802500 0.697241882469 -0.291621104783
485813000 0.702053949857 -0.292740765688
485823500 0.697287058273 -0.29299933156
485834000 0.696952676707 -0.28996757095
485844500 0.699025257722 -0.294243469449
485855000 0.699939863699 -0.29108676325
485865500 0.699078022347 -0.296626304467
485876000 0.700571493911 -0.293844273532
485886500 0.696714929368 -0.290630827747
485897000 0.693668392511 -0.292637193913
485907500 0.697699557777 -0.292892390811
485918000 0.697329315468 -0.292592028068
485928500 0.698420840623 -0.293153315492
485939000 0.697907027724 -0.293702581217
485949500 0.69654559003 -0.293751540235
485960000 0.695177345381 -0.293490996032
485970500 0.696677333162 -0.295253278377
485981000 0.698252383565 -0.293065765484
485991500 0.696615243478 -0.293548487087
486002000 0.697307076773 -0.295151575741
486012500 0.697357421067 -0.293247720347
486023000 0.696548941242 -0.293164598048
486033500 0.696874487662 -0.293906672597
486044000 0.697397874418 -0.294606813693
486054500 0.700486919621 -0.294121061155
486065000 0.698691347902 -0.293085456477
486075500 0.715123256909 -0.302116081565
486086000 0.698920362701 -0.293500990338
486096500 0.714523891652 -0.285090423915
486107000 0.696828337976 -0.294655140111
486117500 0.69910530319 -0.296791481816
486128000 0.701431932614 -0.294166899232
486138500 0.703994524411 -0.2924329491
486149000 0.693306443467 -0.296041285865
486159500 0.699074120193 -0.290493047392
486170000 0.69710503998 -0.293421467859
486180500 0.692129179006 -0.30339703837
486191000 0.699579280029 -0.294667058257
486201500 0.695298711105 -0.295619159352
486212000 0.704041916281 -0.295259211364
486222500 0.701547494993 -0.294751275644
486233000 0.675803694439 -0.295774682342
486243500 0.692227564442 -0.285520722728
486254000 0.69630342655 -0.288779885199
486264500 0.698656993441 -0.292931987614
486275000 0.701204401021 -0.286487391373
486285500 0.687920623239 -0.298276441332
486296000 0.712974985235 -0.294729817466
486306500 0.68768155975 -0.299836918257
486317000 0.698516380566 -0.290712382646
486327500 0.700563865026 -0.289020825112
486338000 0.709854266899 -0.29832409356
486348500 0.661300260776 -0.287808129819
486359000 0.685592175258 -0.30195785077
486369500 0.689075682486 -0.285224597472
486380000 0.71368581288 -0.292520656916
486390500 0.677929325154 -0.295499936065
486401000 0.683625694856 -0.284993623274
486411500 0.692076924897 -0.30478358386
486422000 0.697267495972 -0.291879843668
486432500 0.69130865756 -0.248990216188
486443000 0.686345987709 -0.307611514712
486453500 0.709092980688 -0.310770623534
486464000 0.694586882086 -0.299429924142
486474500 0.679072412938 -0.294139928265
486485000 0.692334279971 -0.29924725675
486495500 0.732358275534 -0.29090318225
486506000 0.692802479488 -0.326980286681
486516500 0.693541068464 -0.286947526978
486527000 0.679864563155 -0.281475594014
486537500 0.708732275355 -0.317815504982
486548000 0.745685284898 -0.325118053839
486558500 0.719614369421 -0.296877227676
486569000 0.689173418361 -0.28771194892
486579500 0.7230732463 -0.296272421069
486590000 0.707325430632 -0.286749075201
486600500 0.692853111966 -0.302489253318
486611000 0.698966898158 -0.284123277966
486621500 0.69534186455 -0.318622012589
486632000 0.687572947818 -0.268317078807
486642500 0.688459652316 -0.299537575128
486653000 0.69924440802 -0.29099574711
486663500 0.700332221893 -0.289867845021
486674000 0.703092264004 -0.304896941192
486684500 0.715794839493 -0.293442643755
486695000 0.695610251049 -0.297350555345
486705500 0.695464763734 -0.302895632774
486716000 0.684106373764 -0.288829793109
486726500 0.705093543523 -0.285973980153
486737000 0.697266328751 -0.295328470829
486747500 0.693900637342 -0.300449835377
486758000 0.70396740317 -0.306366169291
486768500 0.697264874024 -0.295950960335
486779000 0.698654942409 -0.295932035726
486789500 0.700144457912 -0.297509365559
486800000 0.687996006054 -0.306807520526
486810500 0.691932959359 -0.287321756576
486821000 0.697501545188 -0.29581373284
486831500 0.698899498463 -0.295710673599
486842000 0.693604001828 -0.281466767831
486852500 0.697790199047 -0.296950501694
486863000 0.697616104375 -0.296514574272
486873500 0.699453906699 -0.298357075826
486884000 0.698341981372 -0.297131875965
486894500 0.697334926105 -0.297588609918
486905000 0.696639872012 -0.297884971923
486915500 0.696653999693 -0.297819160272
486926000 0.696169207126 -0.295029960043
486936500 0.698026663107 -0.298064437504
486947000 0.697689694036 -0.297707821041
486957500 0.698369651919 -0.298059228966
486968000 0.697706782294 -0.296734458045
486978500 0.697465946846 -0.29633967382
486989000 0.696758381376 -0.297299542533
486999500 0.698385855181 -0.296688146384
487010000 0.697158155766 -0.297525787209
487020500 0.69682132799 -0.297950431214
487031000 0.697097137821 -0.297763362267
487041500 0.696769187426 -0.297769403955
487052000 0.697891687051 -0.298336488624
487062500 0.698283966072 -0.297802053839
487073000 0.69750422278 -0.298226191896
487083500 0.696695323787 -0.298806741865
487094000 0.695794468505 -0.295816452467
487104500 0.698417128849 -0.297285061147
487115000 0.696855143482 -0.298091602772
487125500 0.696031436289 -0.298625177433
487136000 0.697137908491 -0.297726786878
487146500 0.698595456628 -0.298281130806
487157000 0.696663046688 -0.298110722111
487167500 0.699514667881 -0.29880845832
487178000 0.695810406087 -0.298712171614
487188500 0.697811589746 -0.297868897056
487199000 0.697572682383 -0.297162861359
487209500 0.69403911032 -0.297488587401
487220000 0.697724094353 -0.296789456139
487230500 0.697947001746 -0.296577650593
487241000 0.699578684795 -0.301170631943
487251500 0.696535216996 -0.298417186882
487262000 0.697939664211 -0.298948397546
487272500 0.696640019587 -0.29528709283
487283000 0.698753708877 -0.300217290587
487293500 0.693728134227 -0.299281308954
487304000 0.695819466666 -0.296686393427
487314500 0.694764687271 -0.30072926872
487325000 0.696490234646 -0.295043821337
487335500 0.695675531129 -0.298542973099
487346000 0.698458643842 -0.294201319471
487356500 0.696769032366 -0.299383094651
487367000 0.695796233285 -0.29955150045
487377500 0.697753471744 -0.299623127233
487388000 0.698189623977 -0.298282264335
487398500 0.698137789535 -0.29937050924
487409000 0.696762292982 -0.301096781301
487419500 0.697888211339 -0.297055374634
487430000 0.69618866668 -0.302483548248
487440500 0.698122180119 -0.296976796633
487451000 0.698386233949 -0.298254469262
487461500 0.696902120037 -0.300559720825
487472000 0.695141524776 -0.299462477813
487482500 0.694063989459 -0.305165616745
487493000 0.701465393335 -0.311726917938
487503500 0.692912046282 -0.300333271838
487514000 0.694574768758 -0.296793116651
487524500 0.69461994836 -0.293792564613
487535000 0.696600294906 -0.297650449662
487545500 0.697473006428 -0.298802139895
487556000 0.697927244459 -0.298881228063
487566500 0.697592380747 -0.298649855033
487577000 0.697945214566 -0.298823308893
487587500 0.698104200602 -0.299025138001
487598000 0.697839597161 -0.299424066637
487608500 0.698336669615 -0.299295220928
487619000 0.697920059207 -0.299721686036
487629500 0.697804016083 -0.299878736532
487640000 0.69732575864 -0.298900417911
487650500 0.69829070677 -0.299419541177
487661000 0.697986827892 -0.29911980613
487671500 0.697503338228 -0.300165308283
487682000 0.698262095592 -0.299357681877
487692500 0.698698144105 -0.300254280507
487703000 0.698049769081 -0.29982307955
487713500 0.698251453417 -0.299298696207
487724000 0.698350566019 -0.298751901873
487734500 0.697267777589 -0.299281496617
487745000 0.699181802607 -0.299417619138
487755500 0.698564956351 -0.298715269079
487766000 0.69790766121 -0.299887286834
487776500 0.699130106681 -0.299733422386
487787000 0.698220920769 -0.300389494708
487797500 0.698792956405 -0.300177571876
487808000 0.698633431058 -0.300950966888
487818500 0.697747147209 -0.300865262083
487829000 0.698164768227 -0.300437738161
487839500 0.697484929592 -0.300402683603
487850000 0.69764926716 -0.300416711263
487860500 0.697753179824 -0.300729850452
487871000 0.697224510422 -0.300737595661
487881500 0.698378473947 -0.300247615635
487892000 0.698845450714 -0.300050123402
487902500 0.698731924994 -0.300380429294
487913000 0.697908228924 -0.299722653908
487923500 0.697932748013 -0.299644032593
487934000 0.697853980917 -0.300767248586
487944500 0.698682857207 -0.300543052713
487955000 0.698990151875 -0.300094815195
487965500 0.698098808911 -0.300532315985
487976000 0.697463707219 -0.300433807337
487986500 0.697961879629 -0.300032757999
487997000 0.697918493326 -0.300250754096
488007500 0.698833718737 -0.299636559853
488018000 0.698658057223 -0.300439116412
488028500 0.698090289919 -0.300662408463
488039000 0.698407325384 -0.301096678441
488049500 0.698452797738 -0.300157829383
488060000 0.698426921725 -0.300253062073
488070500 0.699246501116 -0.300745343717
488081000 0.699318408885 -0.300774551459
488091500 0.698851663177 -0.301448518307
488102000 0.698733557646 -0.301517228662
488112500 0.698332462959 -0.301663304066
488123000 0.698693292128 -0.300775939127
488133500 0.698376078504 -0.301151253889
488144000 0.698132548909 -0.30057429491
488154500 0.698575540701 -0.301227484195
488165000 0.698643528847 -0.300873874789
488175500 0.698715738596 -0.301297365922
488186000 0.698749229821 -0.300815657107
488196500 0.699131932873 -0.301183474283
488207000 0.698624827672 -0.30123713807
488217500 0.698617495876 -0.301336629149
488228000 0.698882702878 -0.302113345163
488238500 0.698600041104 -0.302008546742
488249000 0.698334938423 -0.302194629329
488259500 0.699149301788 -0.301997998555
488270000 0.698531510773 -0.301936608421
488280500 0.698412989104 -0.301543008383
488291000 0.698399230625 -0.301757291036
488301500 0.698877231066 -0.302086778755
488312000 0.698524909068 -0.301713386337
488322500 0.699578773551 -0.302421353605
488333000 0.699321771011 -0.301831700359
488343500 0.698908408809 -0.301869685819
488354000 0.699075397636 -0.301776114668
488364500 0.698970950269 -0.301504321899
488375000 0.699227344566 -0.302364622711
488385500 0.699100308316 -0.302221869375
488396000 0.69860754304 -0.302085079984
488406500 0.697782309268 -0.302320447755
488417000 0.698262032871 -0.301944877145
488427500 0.698743838267 -0.301396948411
488438000 0.699389700107 -0.302098526073
488448500 0.698660776159 -0.302202860415
488459000 0.698891423745 -0.302515226112
488469500 0.698717596247 -0.302996831905
488480000 0.698365326245 -0.302958862043
488490500 0.69815535665 -0.302492188017
488501000 0.698280534252 -0.302243638709
488511500 0.698126609678 -0.302718215693
488522000 0.698150924772 -0.302345387575
488532500 0.698609478419 -0.30258401818
488543000 0.698661200317 -0.302946545272
488553500 0.698655718284 -0.303286397969
488564000 0.698702029874 -0.303102161475
488574500 0.699136304388 -0.302923042305
488585000 0.699261880074 -0.302855799844
488595500 0.699075028946 -0.302995947233
488606000 0.699248055291 -0.303177375278
488616500 0.698463162773 -0.302968154468
488627000 0.69880720319 -0.302579491545
488637500 0.698909682085 -0.302964080113
488648000 0.699337370705 -0.302659195769
488658500 0.69927852474 -0.303085676025
488669000 0.699318028482 -0.303378243611
488679500 0.699357936044 -0.303215312647
488690000 0.699666543579 -0.302469499291
488700500 0.699330660475 -0.302835192378
488711000 0.698417874199 -0.303054301841
488721500 0.698884647153 -0.302494964296
488732000 0.699116284252 -0.303517584171
488742500 0.698511281257 -0.303667741019
488753000 0.699017578257 -0.303396498144
488763500 0.698891627167 -0.303287242097
488774000 0.699039665641 -0.303677676543
488784500 0.698805673825 -0.303760594758
488795000 0.698943298622 -0.303843595394
488805500 0.69885370766 -0.303981307854
488816000 0.698790279515 -0.303120457854
488826500 0.699269233796 -0.303390109061
488837000 0.699001804008 -0.303089618381
488847500 0.699594560574 -0.303746051024
488858000 0.699424773568 -0.303986666346
488868500 0.698850620591 -0.303792346043
488879000 0.698709796397 -0.303914923057
488889500 0.69967892606 -0.303711877004
488900000 0.699244521859 -0.304326642996
488910500 0.699625967459 -0.303804723831
488921000 0.699368445183 -0.304065516952
488931500 0.69900361971 -0.303954480126
488942000 0.699352694017 -0.303509958312
488952500 0.699125546285 -0.305206938593
488963000 0.699751331731 -0.304020453501
488973500 0.69939914765 -0.304450291705
488984000 0.699020512992 -0.304495244308
488994500 0.699558368832 -0.303867754112
489005000 0.699462344376 -0.304679681622
489015500 0.699354489954 -0.304216334959
489026000 0.699168125353 -0.304722602392
489036500 0.699350464823 -0.303873431766
489047000 0.699227305417 -0.303979351936
489057500 0.699993327961 -0.304415434017
489068000 0.699647801177 -0.30514820612
489078500 0.699793538236 -0.304607385513
489089000 0.699795533382 -0.304565925046
489099500 0.699797408485 -0.304435415568
489110000 0.699533277378 -0.304548008588
489120500 0.699392711642 -0.304905530357
489131000 0.698894371866 -0.305126062455
489141500 0.699248525696 -0.305305149718
489152000 0.699313101907 -0.305217987522
489162500 0.69903837615 -0.305063913792
489173000 0.699464178486 -0.305113699804
489183500 0.699594737035 -0.304900089082
489194000 0.700091114539 -0.305427443326
489204500 0.700137736388 -0.30531386324
489215000 0.699764183866 -0.30509503023
489225500 0.699785624562 -0.305822505989
489236000 0.699946308311 -0.305810109467
489246500 0.699328224881 -0.305406112783
489257000 0.699742952554 -0.304873210632
489267500 0.699967297525 -0.305117108396
489278000 0.700370122333 -0.304985549212
489288500 0.700507251836 -0.304608801345
489299000 0.699824561234 -0.304590417521
489309500 0.700357825002 -0.304445631923
489320000 0.700175741361 -0.304382355002
489330500 0.700171174803 -0.304070178808
489341000 0.699893138087 -0.304590238625
489351500 0.699743235391 -0.305580858212
489362000 0.698934274556 -0.305324471181
489372500 0.698775293231 -0.305640759231
489383000 0.700004815719 -0.305110961763
489393500 0.699405224151 -0.305367895507
489404000 0.699382808664 -0.305249771581
489414500 0.699632338724 -0.305712512313
489425000 0.700071974749 -0.30570328688
489435500 0.699630520573 -0.304873595491
489446000 0.700385137129 -0.303994579754
489456500 0.699841587078 -0.305239136749
489467000 0.700612329604 -0.30534798666
489477500 0.699731762129 -0.305009663182
489488000 0.699511473213 -0.304589135591
489498500 0.700547819041 -0.305822288255
489509000 0.701065889278 -0.306925852551
489519500 0.699742701609 -0.306172734385
489530000 0.702230915465 -0.305704089518
489540500 0.699450303355 -0.305529243285
489551000 0.7000743033 -0.305032806958
489561500 0.699461284032 -0.305053319183
489572000 0.700219599832 -0.306062268165
489582500 0.700061340444 -0.305255716093
489593000 0.699884648924 -0.305868886615
489603500 0.699238538136 -0.305063601631
489614000 0.701376967152 -0.308635091326
489624500 0.700914446501 -0.304969495785
489635000 0.701763467168 -0.306762875251
489645500 0.70056872072 -0.304728969383
489656000 0.702719960461 -0.30329621293
489666500 0.701584027857 -0.306767220144
489677000 0.699588347111 -0.309042021255
489687500 0.702472644643 -0.308040295841
489698000 0.701099977247 -0.307100620843
489708500 0.699638998498 -0.307359660948
489719000 0.701152355141 -0.307275017987
489729500 0.698468630923 -0.304943986939
489740000 0.699976167417 -0.306527526848
489750500 0.702313819219 -0.306767123233
489761000 0.701185566488 -0.308931807258
489771500 0.700451157398 -0.306835119492
489782000 0.700677696644 -0.307446758581
489792500 0.701368776076 -0.309173491619
489803000 0.70156139774 -0.307231616588
489813500 0.700509106253 -0.308091447863
489824000 0.703715524077 -0.304764738229
489834500 0.70040905248 -0.308065577139
489845000 0.701518130479 -0.308258696171
489855500 0.698584654423 -0.306552517474
489866000 0.700511172803 -0.308695823745
489876500 0.700784602051 -0.306926950863
489887000 0.698155798514 -0.307651032274
489897500 0.701628744405 -0.306997279054
489908000 0.699953696395 -0.307165762987
489918500 0.698654345176 -0.306972847159
489929000 0.700021180311 -0.309100017177
489939500 0.70057577184 -0.308612741081
489950000 0.70191438944 -0.307788725419
489960500 0.700813422969 -0.307535017001
489971000 0.701233955326 -0.307790928727
489981500 0.70060129051 -0.307304584891
489992000 0.700635383194 -0.307944476986
490002500 0.700850853003 -0.307974190838
490013000 0.701455638171 -0.30813084831
490023500 0.701112543725 -0.308057777977
490034000 0.701114363971 -0.308288306481
490044500 0.700716142326 -0.308200385247
490055000 0.701065913364 -0.307654541979
490065500 0.700259230438 -0.307279097173
490076000 0.701225298543 -0.307222345125
490086500 0.700415883233 -0.307452103678
490097000 0.700034224313 -0.308103325193
490107500 0.699719386749 -0.308618198753
490118000 0.70013102353 -0.307825992935
490128500 0.70097082363 -0.308071971116
490139000 0.700960820993 -0.307563399507
490149500 0.701437703167 -0.307619491692
490160000 0.701519357486 -0.308989091429
490170500 0.701681886762 -0.308349940577
490181000 0.70097746262 -0.308195923215
490191500 0.701217904207 -0.308189591222
490202000 0.701980901997 -0.314082960001
490212500 0.700470219467 -0.308476159341
490223000 0.702509533336 -0.309792337883
490233500 0.700419283102 -0.310483967354
490244000 0.70107692938 -0.308964398567
490254500 0.700605507686 -0.309270088152
490265000 0.698124050078 -0.30475454382
490275500 0.698047033354 -0.306463590667
490286000 0.70229823654 -0.30938306246
490296500 0.703294525323 -0.310454249559
490307000 0.701310088689 -0.309963258573
490317500 0.706413198381 -0.317476181549
490328000 0.698122930204 -0.307689472433
490338500 0.701251435821 -0.306971024555
490349000 0.691235331233 -0.309478885716
490359500 0.700516337995 -0.310996928308
490370000 0.70303900665 -0.308918942222
490380500 0.704505420599 -0.302704582553
490391000 0.704275119314 -0.313297042401
490401500 0.706703510101 -0.308039786186
490412000 0.711458271737 -0.308808973347
490422500 0.703250751 -0.317515146136
490433000 0.684275762797 -0.313671384055
490443500 0.709775578491 -0.310365546436
490454000 0.692568967734 -0.298449292779
490464500 0.724175831624 -0.315757193986
490475000 0.706374373626 -0.316081092839
490485500 0.703671887805 -0.309599290447
490496000 0.701244226825 -0.311800110404
490506500 0.702380498051 -0.293020954251
490517000 0.685066689046 -0.311441648249
490527500 0.702182919778 -0.313152327785
490538000 0.708294167322 -0.307094940693
490548500 0.719527858964 -0.300343899291
490559000 0.713546384575 -0.309083164002
490569500 0.700161817203 -0.313994895039
490580000 0.706469681419 -0.310587919679
490590500 0.700118606779 -0.309675349981
490601000 0.695756466921 -0.317899245852
490611500 0.697064966878 -0.310553707247
490622000 0.69387887553 -0.310849333079
490632500 0.700793382744 -0.311336944709
490643000 0.701742538003 -0.311326096621
490653500 0.70229641178 -0.30965483446
490664000 0.701124515288 -0.310339971179
490674500 0.70107191529 -0.307977772366
490685000 0.703587481426 -0.308126010715
490695500 0.698826735246 -0.307893217103
490706000 0.70118331707 -0.311508133688
490716500 0.702354024963 -0.311371817158
490727000 0.705479955048 -0.30882731549
490737500 0.707864662767 -0.307460733777
490748000 0.706986673729 -0.310206741577
490758500 0.7043377577 -0.310454661377
490769000 0.70193523613 -0.312128898786
490779500 0.70132919927 -0.310447911531
490790000 0.700820514657 -0.310060448229
490800500 0.698967404932 -0.311298793081
490811000 0.700728328403 -0.31011635535
490821500 0.701616145225 -0.310743550525
490832000 0.701604180312 -0.311016107187
490842500 0.701659376223 -0.311936164769
490853000 0.702109967074 -0.312063002199
490863500 0.702019007988 -0.310867208344
490874000 0.702679634179 -0.311849531305
490884500 0.702144568036 -0.311156885776
490895000 0.701792314379 -0.310332946138
490905500 0.702312720516 -0.311268520067
490916000 0.703076500853 -0.310655599104
490926500 0.702623237236 -0.311028109508
490937000 0.703390416207 -0.311606087226
490947500 0.702139078494 -0.310983989312
490958000 0.702120072294 -0.310697952919
490968500 0.702070711659 -0.311245905624
490979000 0.702176859975 -0.311005124318
490989500 0.703049137917 -0.311060878744
491000000 0.70236242286 -0.311152562203
491010500 0.702652286088 -0.311826649818
491021000 0.701938493816 -0.312489084659
491031500 0.702132904546 -0.311366962817
491042000 0.702856500836 -0.311511921433
491052500 0.70290173768 -0.31235329786
491063000 0.702663342008 -0.310702381231
491073500 0.703192295866 -0.31091923127
491084000 0.702278455291 -0.311248076829
491094500 0.702178059807 -0.312503235703
491105000 0.705030156198 -0.310427685098
491115500 0.702543525737 -0.312977719479
491126000 0.702925249349 -0.3140682254
491136500 0.704034537229 -0.312174334302
491147000 0.702764229667 -0.312039838659
491157500 0.70209078665 -0.312610505579
491168000 0.702095047289 -0.31207039076
491178500 0.702582999133 -0.313364462449
491189000 0.702837478098 -0.312008536537
491199500 0.701169195384 -0.311786278212
491210000 0.701359501095 -0.312040599702
491220500 0.70203031687 -0.311253759391
491231000 0.702011351773 -0.311951008589
491241500 0.702343440415 -0.312076633862
491252000 0.702169577893 -0.312869590922
491262500 0.70422739508 -0.312894810126
491273000 0.701887055822 -0.312991587379
491283500 0.703623052484 -0.313040294728
491294000 0.703479259712 -0.312187193535
491304500 0.703462628361 -0.312355141468
491315000 0.70275520528 -0.312401344725
491325500 0.703165112213 -0.312165816969
491336000 0.703200701462 -0.312379627657
491346500 0.703754742515 -0.313590800456
491357000 0.701877670888 -0.312478244671
491367500 0.70265045367 -0.311965993548
491378000 0.702119834483 -0.31282165564
491388500 0.703345703814 -0.313430307201
491399000 0.702618576726 -0.313349798588
491409500 0.703139704105 -0.31471178088
491420000 0.703320613004 -0.313034342362
491430500 0.703105957099 -0.314236466069
491441000 0.703591053438 -0.312763783695
491451500 0.703032816689 -0.314274370415
491462000 0.7015829049 -0.312002444465
491472500 0.702659981196 -0.31309996963
491483000 0.702761134058 -0.313570989491
491493500 0.702537285017 -0.31396074196
491504000 0.703000108472 -0.313101980906
491514500 0.703125224985 -0.313707614323
491525000 0.702203428799 -0.314551857253
491535500 0.704184060816 -0.31371232882
491546000 0.703343649665 -0.314952289328
491556500 0.702730261928 -0.314123272283
491567000 0.703794723501 -0.314489955276
491577500 0.70303058119 -0.315234803449
491588000 0.702661778455 -0.313866865937
491598500 0.702334515837 -0.314372977756
491609000 0.702232003977 -0.313808246621
491619500 0.703295801328 -0.313706849614
491630000 0.703255428244 -0.313390982895
491640500 0.7032126965 -0.313674808767
491651000 0.702770460693 -0.314040213348
491661500 0.702970777388 -0.313802315181
491672000 0.703152852094 -0.314109085113
491682500 0.702551424802 -0.313926939876
491693000 0.703488248782 -0.314373344093
491703500 0.703306893175 -0.313866361841
491714000 0.703497684748 -0.315759427056
491724500 0.703217916581 -0.313968563628
491735000 0.70301338384 -0.314186026227
491745500 0.701796307373 -0.313043236942
491756000 0.702873543388 -0.314103614279
491766500 0.703030167327 -0.314465872162
491777000 0.703166929418 -0.314247359823
491787500 0.70307620101 -0.314409504664
491798000 0.702587320833 -0.313782966983
491808500 0.702909839593 -0.313990872249
491819000 0.703720488404 -0.314852875701
491829500 0.703072581332 -0.315583001682
491840000 0.70352126998 -0.314553785957
491850500 0.703141158994 -0.315064853793
491861000 0.703168333113 -0.314850542518
491871500 0.703162295549 -0.314417403724
491882000 0.702771176479 -0.314512131444
491892500 0.702581445967 -0.314364848379
491903000 0.702875578863 -0.315335703717
491913500 0.703112898063 -0.315027128449
491924000 0.703229016591 -0.314099345471
491934500 0.703834961388 -0.31526436233
491945000 0.703147424732 -0.315350214411
491955500 0.703854216388 -0.31540278262
491966000 0.704242501331 -0.314628627968
491976500 0.704527436546 -0.314722941617
491987000 0.703563623571 -0.315391576631
491997500 0.703903167227 -0.315784081488
492008000 0.703898389098 -0.316101856173
492018500 0.703143562559 -0.315491884427
492029000 0.702778153112 -0.315954674088
492039500 0.702339405538 -0.316299064073
492050000 0.70305919243 -0.316006381303
492060500 0.703434172657 -0.316262446841
492071000 0.70349394303 -0.31646876437
492081500 0.703597094314 -0.316561156031
492092000 0.703588909708 -0.316796094244
492102500 0.703813670247 -0.316238259471
492113000 0.70365479538 -0.315408122688
492123500 0.703593278497 -0.315998406561
492134000 0.705548448022 -0.317335498369
492144500 0.703788132805 -0.316829199927
492155000 0.703416604525 -0.31655543699
492165500 0.703627912245 -0.317132414443
492176000 0.704422836315 -0.316425742181
492186500 0.703119790938 -0.316539133255
492197000 0.703616114197 -0.316392553518
492207500 0.703652858529 -0.316689738691
492218000 0.70264959657 -0.316243936056
492228500 0.703186922808 -0.316955548409
492239000 0.702842097624 -0.317211858092
492249500 0.703313409176 -0.317392471973
492260000 0.702992953106 -0.31691155639
492270500 0.702731738026 -0.316898344094
492281000 0.70317536841 -0.31671346199
492291500 0.702832275872 -0.316568211843
492302000 0.703669695739 -0.317667793799
492312500 0.703215980164 -0.316899327648
492323000 0.703362970577 -0.316893232551
492333500 0.703837476745 -0.317388805791
492344000 0.703341390706 -0.317695257722
492354500 0.703827863053 -0.317358860174
492365000 0.703251438618 -0.317736406604
492375500 0.703502317844 -0.317248611274
492386000 0.703946394688 -0.317142262013
492396500 0.704394952458 -0.317035033902
492407000 0.704320579168 -0.316785315291
492417500 0.704246059012 -0.316959203894
492428000 0.703883466972 -0.317406457469
492438500 0.70323341712 -0.317562859724
492449000 0.70334357979 -0.317922170741
492459500 0.703399794347 -0.317656031829
492470000 0.703287939325 -0.317830457844
492480500 0.704062086537 -0.317811562101
492491000 0.704379579768 -0.318003706731
492501500 0.704054902746 -0.317443765803
492512000 0.7041095325 -0.317916245659
492522500 0.704158625709 -0.317493921858
492533000 0.703432299847 -0.317863166542
492543500 0.704032453572 -0.31800809532
492554000 0.704319674294 -0.318068464566
492564500 0.703428183913 -0.318178363428
492575000 0.703666546565 -0.318074219236
492585500 0.704378251688 -0.318118181329
492596000 0.704576986003 -0.317316650714
492606500 0.702309017835 -0.320664191313
492617000 0.703808680262 -0.318495464693
492627500 0.704651182185 -0.3180460957
492638000 0.704750882934 -0.317551187862
492648500 0.704961678604 -0.318277150662
492659000 0.705371608587 -0.318939639082
492669500 0.705063090973 -0.318695580507
492680000 0.704177914489 -0.319010245147
492690500 0.703098502556 -0.319123293545
492701000 0.703271365173 -0.319419257263
492711500 0.703858755075 -0.318903646779
492722000 0.703228300919 -0.319397363549
492732500 0.704319724105 -0.318509195782
492743000 0.704572184769 -0.31800540644
492753500 0.70562534772 -0.318441959249
492764000 0.704546310401 -0.318877758285
492774500 0.704480682537 -0.318786808705
492785000 0.705012333663 -0.319431210128
492795500 0.70452586055 -0.319987905187
492806000 0.706660063141 -0.319425277674
492816500 0.705127208842 -0.319619401055
492827000 0.705407026266 -0.319705044985
492837500 0.7062605584 -0.31951227141
492848000 0.705615252252 -0.319039737874
492858500 0.704453956246 -0.319287034285
492869000 0.704708846344 -0.319242987735
492879500 0.704078594683 -0.319675509931
492890000 0.703382329389 -0.319813181513
492900500 0.704263606426 -0.319880287866
492911000 0.704048819556 -0.320207915091
492921500 0.704713723551 -0.319573016871
492932000 0.704583251453 -0.319685365579
492942500 0.703998040282 -0.319175424493
492953000 0.70435154769 -0.319594878864
492963500 0.704323514883 -0.31908698154
492974000 0.704261375724 -0.320297380177
492984500 0.703758230224 -0.320274400869
492995000 0.704026802561 -0.320687598247
493005500 0.704335549415 -0.320940564133
493016000 0.704624059365 -0.321200240742
493026500 0.703924604739 -0.321607418611
493037000 0.703674533207 -0.320690857929
493047500 0.704231848561 -0.321188464368
493058000 0.704715729003 -0.32099870714
493068500 0.706219707297 -0.321444444292
493079000 0.704811319379 -0.321675912537
493089500 0.704046379928 -0.321283262114
493100000 0.704034123366 -0.320229134323
493110500 0.70457689407 -0.320190884089
493121000 0.704133570745 -0.319607980043
493131500 0.704534420501 -0.320671892228
493142000 0.70416376875 -0.321138443722
493152500 0.70514516353 -0.321051089173
493163000 0.704845581423 -0.319978322099
493173500 0.704940835275 -0.320752494111
493184000 0.704680008239 -0.320745823162
493194500 0.703840873852 -0.320416076894
493205000 0.704027968293 -0.320328201433
493215500 0.70384636437 -0.320115933545
493226000 0.704325038406 -0.320740363806
493236500 0.704440607893 -0.3212793533
493247000 0.704244123868 -0.321019634219
493257500 0.704203663615 -0.321367180484
493268000 0.704686169585 -0.321272275434
493278500 0.705040186602 -0.321166580959
493289000 0.704362480476 -0.321063793677
493299500 0.704824896033 -0.320972124884
493310000 0.704617317958 -0.321299026546
493320500 0.706031972186 -0.321033539823
493331000 0.705684463537 -0.320733700829
493341500 0.704873697954 -0.321373483094
493352000 0.704889115135 -0.32145496578
493362500 0.704742946731 -0.321731290649
493373000 0.704690077341 -0.322133589174
493383500 0.704512602988 -0.322240658897
493394000 0.70519904575 -0.322345083872
493404500 0.705389061774 -0.321687281456
493415000 0.704966213064 -0.321491395782
493425500 0.705627576341 -0.321233484533
493436000 0.704110041661 -0.320940760886
493446500 0.705559278033 -0.320335099079
493457000 0.704609185138 -0.323455161221
493467500 0.704057351603 -0.323182953963
493478000 0.70415237489 -0.321322841461
493488500 0.702804983102 -0.321247862868
493499000 0.705246843174 -0.323174280254
493509500 0.705281416777 -0.323669890321
493520000 0.705430952422 -0.320734162476
493530500 0.705502707599 -0.323128043975
493541000 0.704936420707 -0.323322384963
493551500 0.704725159758 -0.324035433642
493562000 0.705026135656 -0.321604050623
493572500 0.703749560081 -0.322582220418
493583000 0.705440412526 -0.320244201595
493593500 0.704121019052 -0.322352393835
493604000 0.707279044618 -0.321610483268
493614500 0.706532768334 -0.321983737386
493625000 0.701999618656 -0.321400714688
493635500 0.704116866378 -0.320666409814
493646000 0.704429539264 -0.322694489082
493656500 0.705647783984 -0.324925593239
493667000 0.705394604994 -0.323464826112
493677500 0.705656470495 -0.325789541562
493688000 0.706269325729 -0.323177639892
493698500 0.706637834054 -0.321564180258
493709000 0.705514222321 -0.323219116087
493719500 0.70369256879 -0.324322291776
493730000 0.704829312409 -0.322843578712
493740500 0.705753653879 -0.321689408096
493751000 0.703483009464 -0.32580097051
493761500 0.704359800932 -0.322915570092
493772000 0.702883581299 -0.321529190234
493782500 0.707103615688 -0.325865936079
493793000 0.704409394863 -0.325952397676
493803500 0.706367579113 -0.323403279941
493814000 0.706325026376 -0.327777342859
493824500 0.702464254931 -0.324757160105
493835000 0.705297748182 -0.324584040606
493845500 0.705620828706 -0.324717137601
493856000 0.705164214101 -0.323479542292
493866500 0.705317058998 -0.324562733467
493877000 0.706074765604 -0.323315901691
493887500 0.706193717781 -0.322856802386
493898000 0.70568419877 -0.322620993881
493908500 0.706489490679 -0.326053582975
493919000 0.704600624795 -0.323027308177
493929500 0.705378427481 -0.325654546145
493940000 0.704886711936 -0.323945079296
493950500 0.704524590657 -0.324753349957
493961000 0.705397509972 -0.325229401815
493971500 0.705792748352 -0.32459783125
493982000 0.706503597812 -0.322185020137
493992500 0.706053520682 -0.321862529872
494003000 0.704354939865 -0.3226316625
494013500 0.706639152642 -0.326381233032
494024000 0.70718190482 -0.324629709497
494034500 0.7044199315 -0.324856200465
494045000 0.704718434168 -0.325272475179
494055500 0.701937497056 -0.325499472525
494066000 0.706619843489 -0.323929776471
494076500 0.705333168619 -0.313798049697
494087000 0.705324878931 -0.321907292312
494097500 0.705037676914 -0.331248446505
494108000 0.706855021075 -0.32377292839
494118500 0.705098064741 -0.316574267906
494129000 0.705788718483 -0.329842032365
494139500 0.703969075393 -0.319571246105
494150000 0.694413079909 -0.316529903901
494160500 0.700922493314 -0.326452506349
494171000 0.700471298468 -0.322503586728
494181500 0.707961979912 -0.317416833765
494192000 0.706095029622 -0.323794200542
494202500 0.699864342912 -0.324921294203
494213000 0.706417241107 -0.321502028385
494223500 0.707419949048 -0.334862307935
494234000 0.720681048641 -0.319816955735
494244500 0.701238695379 -0.327010606382
494255000 0.699836302446 -0.316436766098
494265500 0.713007510205 -0.320091886698
494276000 0.724849615077 -0.326233095771
494286500 0.705320657741 -0.32184771627
494297000 0.704611190553 -0.318301206388
494307500 0.708881565718 -0.308998982554
494318000 0.688947028656 -0.313423842826
494328500 0.690341237024 -0.319157658416
494339000 0.707127866537 -0.331292545701
494349500 0.68812158635 -0.338596685693
494360000 0.70471296073 -0.335748345404
494370500 0.709189752206 -0.326241986282
494381000 0.687632863156 -0.343669267288
494391500 0.688745730557 -0.325978979507
494402000 0.685409161787 -0.351521167778
494412500 0.67984667539 -0.334865564383
494423000 0.711815532021 -0.342360114456
494433500 0.695611794213 -0.306078878241
494444000 0.697194513975 -0.335523508495
494454500 0.694497252014 -0.32315957941
494465000 0.701762639689 -0.326656995073
494475500 0.7023210199 -0.331864118175
494486000 0.691110897454 -0.317847623131
494496500 0.688944838542 -0.329285488272
494507000 0.720401117456 -0.296576823208
494517500 0.709139827673 -0.331049311547
494528000 0.693072289473 -0.322741786002
494538500 0.709564796867 -0.306343212568
494549000 0.693449469225 -0.329960537811
494559500 0.688639300283 -0.35010206226
494570000 0.71247466991 -0.334801489125
494580500 0.714313427472 -0.305859889007
494591000 0.718815681219 -0.319551597927
494601500 0.697671912344 -0.328739758166
494612000 0.711053767301 -0.302518596561
494622500 0.704841273827 -0.312154978435
494633000 0.700129731494 -0.354390326056
494643500 0.712114338153 -0.319742884462
494654000 0.71210948461 -0.322662031903
494664500 0.698215660669 -0.328313831447
494675000 0.703801974626 -0.322948346812
494685500 0.698261358142 -0.326742819193
494696000 0.707739357291 -0.331221056133
494706500 0.68831565045 -0.322143413172
494717000 0.712594621443 -0.326584397288
494727500 0.704717870055 -0.330490247148
494738000 0.710852262104 -0.320878681293
494748500 0.704610666021 -0.324757429764
494759000 0.704438234789 -0.326802978852
494769500 0.692853671963 -0.322211559861
494780000 0.701259838128 -0.329069400325
494790500 0.70504565897 -0.319464702364
494801000 0.70253436969 -0.331498972068
494811500 0.704558169873 -0.323519667837
494822000 0.709892588255 -0.331474625984
494832500 0.711247372 -0.329311014058
494843000 0.707181085778 -0.326415816818
494853500 0.70880276813 -0.329013397529
494864000 0.698067660912 -0.320636592614
494874500 0.705848573087 -0.331998816815
494885000 0.706584078238 -0.326841161056
494895500 0.706450794938 -0.333779599969
494906000 0.707934376166 -0.329021215617
494916500 0.705874275006 -0.327344114001
494927000 0.706163864173 -0.327646937204
494937500 0.706976668867 -0.327731500202
494948000 0.706457806344 -0.326294250955
494958500 0.704635946146 -0.32863905742
494969000 0.70716483083 -0.330451560904
494979500 0.706408291008 -0.329789455797
494990000 0.704818199726 -0.329085158313
495000500 0.70505727934 -0.329167000229
495011000 0.705769156468 -0.329518438712
495021500 0.705421387518 -0.328338384868
495032000 0.706487404239 -0.328406130532
495042500 0.706654277111 -0.329247877365
495053000 0.706451665 -0.330163390398
495063500 0.705389606105 -0.329431508175
495074000 0.706845149067 -0.330008044452
495084500 0.706685816456 -0.331046114115
495095000 0.705985438636 -0.330585962361
495105500 0.706723318809 -0.32971119932
495116000 0.705003235843 -0.328062081136
495126500 0.706260849045 -0.329303164328
495137000 0.706551789037 -0.331412184386
495147500 0.708766835618 -0.328851753303
495158000 0.707317883691 -0.329060509235
495168500 0.702174836169 -0.328427832416
495179000 0.705160089221 -0.329048863243
495189500 0.707847319775 -0.33099188703
495200000 0.705662020887 -0.330540243842
495210500 0.706840237396 -0.332850159316
495221000 0.705333850369 -0.330827795821
495231500 0.704553434204 -0.329592115575
495242000 0.70600783103 -0.332296467741
495252500 0.709431768232 -0.327955363795
495263000 0.705451608673 -0.330938146785
495273500 0.706169711959 -0.332419783042
495284000 0.705182137391 -0.330645950864
495294500 0.702185116384 -0.331468226382
495305000 0.704015867099 -0.330618010586
495315500 0.704908661924 -0.329014686932
495326000 0.70312048147 -0.3346101818
495336500 0.704327947619 -0.330500474319
495347000 0.707390243103 -0.327383830835
495357500 0.706991313921 -0.331084408806
495368000 0.708566228678 -0.33046849569
495378500 0.706697790245 -0.33197072241
495389000 0.707378056749 -0.329826775324
495399500 0.70663291368 -0.329593584083
495410000 0.709599919214 -0.334621102663
495420500 0.706693352003 -0.332205657725
495431000 0.705466207275 -0.330782755677
495441500 0.706839383583 -0.332221784321
495452000 0.705441199178 -0.332750602993
495462500 0.705720360134 -0.330343000229
495473000 0.706300206354 -0.331662200777
495483500 0.703951006164 -0.330436573676
495494000 0.705622191357 -0.331771947622
495504500 0.707737915706 -0.331979962803
495515000 0.704865400227 -0.332482358342
495525500 0.706188583953 -0.330782638258
495536000 0.705668643245 -0.332104116475
495546500 0.706044853029 -0.331591113892
495557000 0.706572794428 -0.331956997628
495567500 0.706491000396 -0.331568002303
495578000 0.706439687065 -0.332110457705
495588500 0.706788645671 -0.331912039189
495599000 0.706924684616 -0.332156296491
495609500 0.706190813499 -0.331438509386
495620000 0.7066089278 -0.332078708105
495630500 0.706461072835 -0.332140488714
495641000 0.706204504535 -0.332200825212
495651500 0.70553316067 -0.332388303293
495662000 0.706472842879 -0.332211351353
495672500 0.706291030188 -0.33233645023
495683000 0.706885372897 -0.332288675529
495693500 0.706737224718 -0.332374179433
495704000 0.706557753525 -0.332173828391
495714500 0.706653069934 -0.333084718653
495725000 0.707010620462 -0.332435486279
495735500 0.707041600862 -0.332227001805
495746000 0.706684158152 -0.331869228487
495756500 0.706455014886 -0.332351718484
495767000 0.70613350668 -0.33301729456
495777500 0.706070016829 -0.332947613289
495788000 0.706534405511 -0.332691710295
495798500 0.707340753168 -0.332589334517
495809000 0.706558599096 -0.333376881945
495819500 0.70657448826 -0.332979911217
495830000 0.706500764621 -0.332706456219
495840500 0.706741380792 -0.333042435771
495851000 0.707141080428 -0.332742863764
495861500 0.707220743656 -0.333236517426
495872000 0.706386059149 -0.3334994676
495882500 0.706076002415 -0.334599553731
495893000 0.704764397856 -0.334369449251
495903500 0.706234280181 -0.334480541923
495914000 0.706102569582 -0.335522806368
495924500 0.706423489199 -0.334247134303
495935000 0.706674548411 -0.334467257713
495945500 0.706439104829 -0.334106934572
495956000 0.707020493406 -0.333687534763
495966500 0.70738099595 -0.333548989021
495977000 0.706835369007 -0.333451458888
495987500 0.707136037831 -0.333458574141
495998000 0.706879936567 -0.333629393907
496008500 0.706928837565 -0.333239366898
496019000 0.706962215893 -0.333896003074
496029500 0.706209788706 -0.334325993577
496040000 0.706563728778 -0.334367966727
496050500 0.706540294999 -0.334393885941
496061000 0.706183659356 -0.334826989054
496071500 0.706260243364 -0.334006243188
496082000 0.70587187879 -0.334838575611
496092500 0.706163998276 -0.334326935092
496103000 0.706026167037 -0.334464488641
496113500 0.70609720613 -0.334282406317
496124000 0.70611867409 -0.334226356474
496134500 0.706018815546 -0.334769769732
496145000 0.706061399105 -0.335466374327
496155500 0.705870411162 -0.335280363213
496166000 0.706590666902 -0.334381230466
496176500 0.70677439126 -0.3356784833
496187000 0.70658665911 -0.335716054206
496197500 0.706617301374 -0.335316122259
496208000 0.705246833204 -0.335193354174
496218500 0.706815793193 -0.335166385754
496229000 0.706905250929 -0.334966555854
496239500 0.70676516805 -0.335007381167
496250000 0.706799210183 -0.335294587996
496260500 0.706639150418 -0.335375786481
496271000 0.706318174249 -0.334544139235
496281500 0.705819134619 -0.335483653385
496292000 0.706144438111 -0.335429088195
496302500 0.705706298471 -0.335093775414
496313000 0.706588971576 -0.335339016402
496323500 0.70559067748 -0.335167419435
496334000 0.707063337644 -0.335678383945
496344500 0.706834815795 -0.336061236952
496355000 0.707014838058 -0.334875066732
496365500 0.70533591051 -0.335553819243
496376000 0.705483385229 -0.335494814908
496386500 0.706398466349 -0.336286863079
496397000 0.706808019045 -0.337395035892
496407500 0.706899719866 -0.336832106559
496418000 0.707133879229 -0.336711146054
496428500 0.70695181592 -0.336210864774
496439000 0.706699712965 -0.335644909209
496449500 0.706215800989 -0.336386075454
496460000 0.705712394441 -0.336407982918
496470500 0.706675410844 -0.336256731472
496481000 0.706443267445 -0.33558785723
496491500 0.707207618339 -0.335364861675
496502000 0.706832415305 -0.335852344428
496512500 0.70718940833 -0.336090252972
496523000 0.707387757763 -0.336781813712
496533500 0.707292584292 -0.335774460299
496544000 0.7070552007 -0.336148048875
496554500 0.706531669838 -0.336256465964
496565000 0.706604757459 -0.336996023102
496575500 0.70644559241 -0.336977418449
496586000 0.706344088325 -0.336994198398
496596500 0.706823223929 -0.336521733276
496607000 0.707566947409 -0.337145158563
496617500 0.707058171446 -0.336438628507
496628000 0.706519134294 -0.337399942007
496638500 0.706485289836 -0.336687361829
496649000 0.706822173366 -0.336835808236
496659500 0.706568805157 -0.336571029458
496670000 0.7069815349 -0.337547765561
496680500 0.707185337872 -0.336612745038
496691000 0.706782920775 -0.337392342264
496701500 0.707231470808 -0.337571665573
496712000 0.707392127285 -0.337074887937
496722500 0.706624107399 -0.337107160739
496733000 0.706768866404 -0.337648002903
496743500 0.706846044552 -0.3375981373
496754000 0.706153958954 -0.33830973307
496764500 0.705363438886 -0.338566958754
496775000 0.704565241679 -0.340021195646
496785500 0.705458983488 -0.338786986377
496796000 0.705692578753 -0.339115920258
496806500 0.705897512459 -0.338219195934
496817000 0.706609715357 -0.337994033644
496827500 0.706565827512 -0.338210147319
496838000 0.706795695838 -0.338446292003
496848500 0.706319672243 -0.337987136373
496859000 0.705880507446 -0.338288963844
496869500 0.706258119152 -0.338653604477
496880000 0.706168717424 -0.338353774924
496890500 0.706068627556 -0.338470148557
496901000 0.706730602436 -0.338603221457
496911500 0.706811498658 -0.338206668296
496922000 0.706990417443 -0.338226422522
496932500 0.706731438215 -0.33879332367
496943000 0.706422086603 -0.338394664635
496953500 0.706944348029 -0.338223590482
496964000 0.706437310393 -0.338567845098
496974500 0.706215056346 -0.338921974169
496985000 0.706518734876 -0.338628275334
496995500 0.706517312117 -0.33882033994
497006000 0.7062527576 -0.338198773019
497016500 0.706628859319 -0.338731886342
497027000 0.706759901781 -0.3393344138
497037500 0.706764259457 -0.338885583809
497048000 0.704584709919 -0.340773564416
497058500 0.706583769399 -0.338882214946
497069000 0.706388723244 -0.338947288244
497079500 0.706548099984 -0.339191443883
497090000 0.706086350603 -0.339296712139
497100500 0.706410060683 -0.339198251474
497111000 0.706406252575 -0.339015444924
497121500 0.706068423784 -0.339211324558
497132000 0.706997511577 -0.339676633528
497142500 0.706505709085 -0.33945872349
497153000 0.706077623668 -0.33945523143
497163500 0.706899964388 -0.33937163661
497174000 0.707143896215 -0.339277099578
497184500 0.707099719509 -0.339194028151
497195000 0.706135928436 -0.339004359927
497205500 0.706190855484 -0.339432875439
497216000 0.706939786966 -0.339556256561
497226500 0.706764413865 -0.339391281341
497237000 0.707544240455 -0.339788155801
497247500 0.706594676884 -0.339431210044
497258000 0.706901499494 -0.340225462099
497268500 0.706182508088 -0.340192662698
497279000 0.706740066786 -0.339708928364
497289500 0.707033169202 -0.339919254976
497300000 0.706782770433 -0.339702446864
497310500 0.70757816016 -0.340163387171
497321000 0.70676545826 -0.340252729393
497331500 0.706629360085 -0.340204497604
497342000 0.706229671344 -0.340617405103
497352500 0.706909386582 -0.339628979058
497363000 0.706126881774 -0.340963981282
497373500 0.707054132203 -0.339557283297
497384000 0.707471197181 -0.340812723022
497394500 0.70659194351 -0.34063491737
497405000 0.70683757552 -0.3413348978
497415500 0.707153038238 -0.340627391506
497426000 0.707168557727 -0.340613221479
497436500 0.707139894714 -0.340809328484
497447000 0.707615877665 -0.340339893106
497457500 0.706362526556 -0.340780439693
497468000 0.706743585011 -0.340781152793
497478500 0.707357749641 -0.341402380449
497489000 0.706713652979 -0.341200827637
497499500 0.707084722339 -0.341399167673
497510000 0.706630543829 -0.34112602006
497520500 0.706198039827 -0.340885205862
497531000 0.706692027701 -0.341288030121
497541500 0.706836866656 -0.341713148092
497552000 0.706827119927 -0.340959245143
497562500 0.707074169027 -0.341888993967
497573000 0.706137215856 -0.341854517436
497583500 0.706132363305 -0.341685224648
497594000 0.706999950148 -0.341771124922
497604500 0.706629499908 -0.340831151886
497615000 0.706925320175 -0.340863097463
497625500 0.706919089171 -0.341556257029
497636000 0.705999870939 -0.340956817108
497646500 0.706151433811 -0.34158417307
497657000 0.707454406668 -0.342109253608
497667500 0.70677925129 -0.341971961346
497678000 0.706461498122 -0.341826316479
497688500 0.70692862221 -0.34241265692
497699000 0.707237409638 -0.342377368211
497709500 0.706200918197 -0.342928761103
497720000 0.706627791122 -0.341488883405
497730500 0.706143945447 -0.342268958974
497741000 0.706752602277 -0.341565027208
497751500 0.705750618945 -0.342495693476
497762000 0.706031233109 -0.342163363825
497772500 0.705883041449 -0.341899899361
497783000 0.706488722547 -0.341681483593
497793500 0.70697707289 -0.342206263428
497804000 0.706525046421 -0.341720271796
497814500 0.706341295602 -0.34260035228
497825000 0.707022455163 -0.343555018793
497835500 0.706780476192 -0.342341204192
497846000 0.707040042928 -0.343026008964
497856500 0.706120394893 -0.342956142507
497867000 0.706705712265 -0.342837145981
497877500 0.706914536427 -0.342817298276
497888000 0.706775918706 -0.342654646319
497898500 0.706675981858 -0.342430541888
497909000 0.706679692355 -0.342674135104
497919500 0.707275597472 -0.34280655235
497930000 0.706757189354 -0.342404336359
497940500 0.706803064684 -0.34303931469
497951000 0.70652458204 -0.342871888571
497961500 0.706462578877 -0.342782711005
497972000 0.705625050252 -0.343329253549
497982500 0.705953374232 -0.343854186894
497993000 0.706826303691 -0.343662349866
498003500 0.706688219729 -0.343019595445
498014000 0.707017779624 -0.342064224776
498024500 0.707774952169 -0.342947017999
498035000 0.70602810296 -0.343364113052
498045500 0.706717781782 -0.343513626104
498056000 0.706737218308 -0.343912113787
498066500 0.70649908779 -0.343773751795
498077000 0.706578189492 -0.342800594962
498087500 0.705924764948 -0.343344817987
498098000 0.707215545945 -0.343760570342
498108500 0.706525058568 -0.343778340169
498119000 0.707033647508 -0.343560470688
498129500 0.706575564899 -0.343935913714
498140000 0.706853551353 -0.344194420982
498150500 0.707244533498 -0.3443442233
498161000 0.707468968614 -0.344061113127
498171500 0.706897781481 -0.343656914757
498182000 0.706432662103 -0.344702977395
498192500 0.70631671986 -0.344624033986
498203000 0.706558514933 -0.344458614869
498213500 0.706307576324 -0.344528384808
498224000 0.706552242251 -0.345028496758
498234500 0.707281011807 -0.344526756388
498245000 0.707664293386 -0.344913539838
498255500 0.706640829884 -0.344644085359
498266000 0.706088891596 -0.344668565437
498276500 0.706470320078 -0.342772219072
498287000 0.708367969661 -0.34163628027
498297500 0.708227950104 -0.33759003723
498308000 0.708095205399 -0.342919122731
498318500 0.691242514223 -0.353520767157
498329000 0.705250148348 -0.351783130809
498339500 0.708899069898 -0.341829995164
498350000 0.705614561966 -0.344909444865
498360500 0.705785788371 -0.345108462615
498371000 0.706174109662 -0.344271144947
498381500 0.706234352049 -0.344728924051
498392000 0.706691105177 -0.34456916204
498402500 0.706552125634 -0.344513751512
498413000 0.706678869874 -0.344590683493
498423500 0.707741837794 -0.344852343564
498434000 0.707309455242 -0.347275174276
498444500 0.707379569406 -0.345126449735
498455000 0.707646999443 -0.346104450752
498465500 0.709561826662 -0.347126082612
498476000 0.702992321393 -0.347285090406
498486500 0.704715961185 -0.34419469929
498497000 0.704565192061 -0.342142638607
498507500 0.707975537872 -0.347638993307
498518000 0.70611917177 -0.347299538401
498528500 0.708283974205 -0.34652496859
498539000 0.706540109047 -0.346414766687
498549500 0.706508452783 -0.345028201786
498560000 0.707844841389 -0.342479935484
498570500 0.707382897869 -0.344557861678
498581000 0.705224268419 -0.347281204194
498591500 0.708763302621 -0.348373885231
498602000 0.70876661709 -0.347546963775
498612500 0.708213348295 -0.346929365205
498623000 0.707521000709 -0.34740888068
498633500 0.703857833165 -0.348239559283
498644000 0.704908342373 -0.346806422627
498654500 0.706743988114 -0.346220269127
498665000 0.708488217687 -0.348980914962
498675500 0.709373701536 -0.345201287346
498686000 0.705117976587 -0.342899486226
498696500 0.705640220579 -0.347129344918
498707000 0.705421461371 -0.349367981125
498717500 0.709868341356 -0.345809463656
498728000 0.708926954939 -0.348321397956
498738500 0.700302465733 -0.349956515519
498749000 0.703863500825 -0.344007422143
498759500 0.706139809541 -0.344342958385
498770000 0.702340398618 -0.343645714113
498780500 0.70183522647 -0.352356272974
498791000 0.703483209633 -0.347414593478
498801500 0.707215648041 -0.347046504774
498812000 0.702799031156 -0.343826567576
498822500 0.708713028747 -0.347354652922
498833000 0.703018061639 -0.348187357908
498843500 0.707249678438 -0.349403645421
498854000 0.708461680651 -0.347037086773
498864500 0.706230567473 -0.344501789076
498875000 0.704950103928 -0.345992783058
498885500 0.703621701834 -0.346463873463
498896000 0.707965701029 -0.349765610083
498906500 0.706541323407 -0.347955519226
498917000 0.706546361315 -0.348347251863
498927500 0.706083944894 -0.348479704796
498938000 0.706281641982 -0.347369632908
498948500 0.70595562683 -0.346997700309
498959000 0.706370748087 -0.348456527255
498969500 0.706344889767 -0.347257889677
498980000 0.707426826222 -0.347660748653
498990500 0.707729906178 -0.347632665017
499001000 0.707697425084 -0.347869176267
499011500 0.706885830697 -0.347871513787
499022000 0.706940680626 -0.348215442421
499032500 0.70606621019 -0.348548464351
499043000 0.706713112486 -0.348232612863
499053500 0.705295077339 -0.347546369866
499064000 0.706621149626 -0.346986943526
499074500 0.70622944326 -0.347953537229
499085000 0.706486271676 -0.346897831845
499095500 0.706238119981 -0.35071521554
499106000 0.706802907979 -0.347942695304
499116500 0.70639558391 -0.348141232645
499127000 0.704237756112 -0.349356377225
499137500 0.708317535875 -0.347643527215
499148000 0.708708276042 -0.346923916024
499158500 0.705781459479 -0.348830795512
499169000 0.705643080958 -0.34909666853
499179500 0.708906647154 -0.347124790219
499190000 0.705974187376 -0.34811462958
499200500 0.706472587496 -0.348857118673
499211000 0.707339407341 -0.349494364716
499221500 0.707298898413 -0.345480487276
499232000 0.706554174278 -0.349524890236
499242500 0.70855992662 -0.353825738677
499253000 0.708740402007 -0.348064200751
499263500 0.706362459704 -0.346637202572
499274000 0.700673039417 -0.34806889694
499284500 0.702536505779 -0.351419924962
499295000 0.71226335025 -0.351019038605
499305500 0.703508111146 -0.349626663247
499316000 0.69347704033 -0.361878555595
499326500 0.705442459209 -0.345630333508
499337000 0.709727030449 -0.352297367328
499347500 0.706768962391 -0.338772005284
499358000 0.702648981978 -0.32882918171
499368500 0.698068667556 -0.345819154536
499379000 0.684995584793 -0.354115774114
499389500 0.694337634248 -0.366233509759
499400000 0.692279552402 -0.338364610807
499410500 0.694204446062 -0.339168735327
499421000 0.718039626232 -0.333229140602
499431500 0.714240505014 -0.366810295963
499442000 0.728893185051 -0.351179472526
499452500 0.708273369325 -0.335603556975
499463000 0.722275229648 -0.364431015854
499473500 0.683652043621 -0.369842472909
499484000 0.708274885278 -0.388073325231
499494500 0.714172041658 -0.342789748618
499505000 0.724456722905 -0.339335885126
499515500 0.708093448574 -0.355226609614
499526000 0.72368420752 -0.345909992179
499536500 0.675490421462 -0.30835734739
499547000 0.675572715993 -0.333771160871
499557500 0.693394228277 -0.335434586416
499568000 0.690016683598 -0.348978142993
499578500 0.699650686591 -0.355178803745
499589000 0.704595027931 -0.356945704338
499599500 0.707909466666 -0.359666279236
499610000 0.699868814264 -0.361741021217
499620500 0.710593382176 -0.350704296952
499631000 0.70901492357 -0.352089921623
499641500 0.717166355128 -0.3559354384
499652000 0.70383034706 -0.349016555261
499662500 0.709626277172 -0.350583371333
499673000 0.713121120209 -0.355623880368
499683500 0.706377531496 -0.351248126882
499694000 0.704492870658 -0.345872394009
499704500 0.705551312529 -0.352463184943
499715000 0.707670379561 -0.35205693411
499725500 0.70658319376 -0.352644646185
499736000 0.706803244094 -0.352803295646
499746500 0.706850057797 -0.350516846827
499757000 0.707385148339 -0.350425936563
499767500 0.706634178204 -0.351679467397
499778000 0.707306702738 -0.350703610828
499788500 0.70585590954 -0.352231722594
499799000 0.705280429312 -0.349705870701
499809500 0.704935342863 -0.352009555344
499820000 0.706709643226 -0.351135227017
499830500 0.707786601743 -0.351501334273
499841000 0.706156436587 -0.353807625445
499851500 0.706146583392 -0.351211262776
499862000 0.706155704774 -0.351866551212
499872500 0.706295009383 -0.351705902814
499883000 0.706257669776 -0.351606950634
499893500 0.706203725305 -0.352031695739
499904000 0.705969496967 -0.351923359074
499914500 0.70657810691 -0.351979999766
499925000 0.705221811974 -0.352762002172
499935500 0.707225920026 -0.351724351381
499946000 0.70714480582 -0.35180535677
499956500 0.707581837542 -0.351373891992
499967000 0.704682762588 -0.352154770144
499977500 0.70557712496 -0.352990364034
499988000 0.706721183829 -0.351662737932
499998500 0.706343418808 -0.352545186717
500009000 0.705719362134 -0.352888306854
500019500 0.706102705959 -0.352891275638
500030000 0.70613705225 -0.352343481695
500040500 0.705792634049 -0.352225879046
500051000 0.705482330369 -0.352398016226
500061500 0.705299931356 -0.35276712191
500072000 0.705294196946 -0.351618621483
500082500 0.705761503718 -0.352171126029
500093000 0.708821068073 -0.353514719002
500103500 0.703185987622 -0.355572434056
500114000 0.705679838094 -0.350973101689
500124500 0.70583874456 -0.354394416691
500135000 0.705615005964 -0.352826645307
500145500 0.707264927126 -0.357545295558
500156000 0.705335383213 -0.353258825047
500166500 0.707535175249 -0.353816328132
500177000 0.706231411853 -0.353269678762
500187500 0.708291181225 -0.352463885678
500198000 0.702455991801 -0.353811946956
500208500 0.704868235375 -0.350905757665
500219000 0.707901042742 -0.353636891052
500229500 0.707082671644 -0.353881057539
500240000 0.701023622387 -0.353623527261
500250500 0.70702309502 -0.354336446401
500261000 0.703593518074 -0.354250949075
500271500 0.705982929881 -0.356534679054
500282000 0.706805257989 -0.351904362946
500292500 0.708331028088 -0.35487417363
500303000 0.704293559755 -0.35426562203
500313500 0.706795452749 -0.353154079395
500324000 0.705987799622 -0.354451347384
500334500 0.704899963238 -0.351349156219
500345000 0.702991249611 -0.356332705031
500355500 0.705386857496 -0.356659238269
500366000 0.707812580924 -0.354592985197
500376500 0.707405366398 -0.352571501965
500387000 0.704885506366 -0.352271770001
500397500 0.702226253695 -0.352401495349
500408000 0.702618477851 -0.350950225753
500418500 0.705031045686 -0.354682598986
500429000 0.706951197473 -0.353922955514
500439500 0.707280606247 -0.354155091957
500450000 0.707199011845 -0.355731199927
500460500 0.707338291459 -0.354554606127
500471000 0.706278119566 -0.354769741516
500481500 0.706479698442 -0.353332085012
500492000 0.705696810421 -0.353764850466
500502500 0.706745617281 -0.353404570933
500513000 0.709229966127 -0.354961587897
500523500 0.707273701465 -0.355944821365
500534000 0.707448744442 -0.355920183772
500544500 0.706835393349 -0.354167170891
500555000 0.706179482124 -0.354848388269
500565500 0.70692530405 -0.355517104868
500576000 0.706412399833 -0.354691191608
500586500 0.706126682263 -0.35490854239
500597000 0.706069707412 -0.354674969439
500607500 0.705999845977 -0.354625543156
500618000 0.706717002765 -0.355224148255
500628500 0.705664081863 -0.354457445508
500639000 0.705968291756 -0.354791088028
500649500 0.706402071042 -0.354963216497
500660000 0.707231084202 -0.355029122541
500670500 0.706459085883 -0.355423719761
500681000 0.706328019487 -0.354890197513
500691500 0.706190310809 -0.355271006705
500702000 0.706395896607 -0.355335495022
500712500 0.706098708562 -0.355979720301
500723000 0.705971039895 -0.355884967525
500733500 0.706286313104 -0.356255902755
500744000 0.705200112054 -0.356732677805
500754500 0.70605128784 -0.355723099451
500765000 0.706599193894 -0.355186647302
500775500 0.706810951865 -0.355700600959
500786000 0.706301706673 -0.355494715905
500796500 0.70647775875 -0.354909356146
500807000 0.706052083281 -0.355727946239
500817500 0.706097766796 -0.356386344152
500828000 0.706538534875 -0.356174950963
500838500 0.706072296188 -0.356050767546
500849000 0.707195456953 -0.355828366908
500859500 0.705958529396 -0.355996061125
500870000 0.706093049874 -0.356650234143
500880500 0.706565527532 -0.35718488073
500891000 0.706172857691 -0.35679539691
500901500 0.706587890587 -0.356647736443
500912000 0.706129741211 -0.35601002717
500922500 0.707037106168 -0.356636334399
500933000 0.706280334522 -0.356597214366
500943500 0.707136953633 -0.356746335981
500954000 0.7068661614 -0.356331097563
500964500 0.706240487311 -0.356225592536
500975000 0.706774144105 -0.356510349931
500985500 0.705633606094 -0.356386492733
500996000 0.705096783071 -0.357064577677
501006500 0.706079479204 -0.356522901257
501017000 0.705697749868 -0.357270297527
501027500 0.704951828968 -0.356387396272
501038000 0.705524786982 -0.356108544097
501048500 0.705837591504 -0.356132931988
501059000 0.70662250497 -0.356316829151
501069500 0.706308653658 -0.357377654285
501080000 0.706167536643 -0.358659025375
501090500 0.706629467532 -0.358753545338
501101000 0.705662395841 -0.358343579294
501111500 0.706958246849 -0.357510208583
501122000 0.706059874253 -0.357222233296
501132500 0.706785882542 -0.357962903852
501143000 0.705969190693 -0.357348254861
501153500 0.706016416616 -0.357608766625
501164000 0.706167582021 -0.357175594435
501174500 0.706163409416 -0.357427351533
501185000 0.706310986162 -0.35755698738
501195500 0.706449925156 -0.357264050444
501206000 0.706622236344 -0.356447038644
501216500 0.706366712525 -0.357733210869
501227000 0.706420339695 -0.357099523771
501237500 0.706504967452 -0.357595690164
501248000 0.706548170862 -0.357402322154
501258500 0.705015995216 -0.357566807644
501269000 0.706303851709 -0.357909492518
501279500 0.704989778201 -0.357521125973
501290000 0.705667036706 -0.358079032617
501300500 0.705266754197 -0.358360120056
501311000 0.705672800239 -0.358709137272
501321500 0.706330441186 -0.358724800089
501332000 0.706002849423 -0.35874956029
501342500 0.705767927663 -0.358304054768
501353000 0.706225538961 -0.358505642484
501363500 0.705527456996 -0.358990940502
501374000 0.705773841892 -0.358957007473
501384500 0.705447094641 -0.358776317731
501395000 0.706492696845 -0.359608758197
501405500 0.706672976567 -0.358933550487
501416000 0.705348119305 -0.355739925098
501426500 0.706428543275 -0.359161211916
501437000 0.705932118419 -0.359203694918
501447500 0.706283881752 -0.359903838212
501458000 0.704738527822 -0.359588553131
501468500 0.70567651893 -0.359869033301
501479000 0.706297618747 -0.359219906293
501489500 0.70651907872 -0.358592211355
501500000 0.70635542573 -0.358682037143
501510500 0.705924800289 -0.359001878643
501521000 0.706459552452 -0.358620349577
501531500 0.706888347536 -0.359540334546
501542000 0.706144348132 -0.359655687908
501552500 0.706129477219 -0.359288283637
501563000 0.706270055262 -0.359784016646
501573500 0.705778085158 -0.359917983064
501584000 0.705977818636 -0.359630650038
501594500 0.706209506538 -0.359069066858
501605000 0.706442447332 -0.358759824469
501615500 0.706362637745 -0.359602788148
501626000 0.706034009929 -0.359533251539
501636500 0.70563332265 -0.360094711172
501647000 0.705899734238 -0.360456828876
501657500 0.705531049508 -0.359860220603
501668000 0.705545968183 -0.360499513531
501678500 0.705825380094 -0.361412055421
501689000 0.70572743496 -0.362877009449
501699500 0.706460288174 -0.362270533647
501710000 0.706326782554 -0.361292241125
501720500 0.707312955317 -0.359768161467
501731000 0.706843722036 -0.359957573771
501741500 0.706410403756 -0.360313121373
501752000 0.7055142507 -0.360144685008
501762500 0.706065937438 -0.360304433012
501773000 0.705686428004 -0.360282824523
501783500 0.70576697635 -0.360614024138
501794000 0.706281610666 -0.360417164985
501804500 0.70617471106 -0.360277414369
501815000 0.706107444178 -0.361044168094
501825500 0.706033619907 -0.361208961322
501836000 0.706595969338 -0.360582774861
501846500 0.706647551338 -0.360494021347
501857000 0.705716320936 -0.360998068482
501867500 0.706205738862 -0.361355586735
501878000 0.705362792358 -0.36073062094
501888500 0.706510888109 -0.360695159753
501899000 0.706524720499 -0.361376617651
501909500 0.706123447098 -0.361354082785
501920000 0.705841753765 -0.360549435774
501930500 0.705839969749 -0.361251784836
501941000 0.706109121922 -0.361180352486
501951500 0.706086939522 -0.361196260816
501962000 0.705965803758 -0.361102767862
501972500 0.705815706361 -0.360895248221
501983000 0.706490776299 -0.361125221019
501993500 0.705990673974 -0.361393497848
502004000 0.706493910058 -0.361287054066
502014500 0.706302893631 -0.361236003777
502025000 0.705821846974 -0.361005853651
502035500 0.705875263841 -0.361620809591
502046000 0.706361756413 -0.36141235032
502056500 0.705893149554 -0.361518904908
502067000 0.705645567464 -0.362060296019
502077500 0.706093667473 -0.361779578827
502088000 0.705834295978 -0.361402350469
502098500 0.705683018533 -0.361268880022
502109000 0.705431531301 -0.361499500209
502119500 0.705666556692 -0.362164213072
502130000 0.705834979942 -0.362081300796
502140500 0.705707725734 -0.361787642574
502151000 0.705497125424 -0.361932945958
502161500 0.705782180006 -0.36158458685
502172000 0.706091476943 -0.361866024496
502182500 0.70633396871 -0.361542311752
502193000 0.70614909111 -0.361895520449
502203500 0.705579493167 -0.362338367751
502214000 0.705839523064 -0.363022538833
502224500 0.705689690449 -0.36265785813
502235000 0.705469899926 -0.362040492469
502245500 0.705830504229 -0.362086632797
502256000 0.705368081532 -0.361889533919
502266500 0.705271811956 -0.362600624597
502277000 0.705279280565 -0.362458304009
502287500 0.706176442511 -0.362216897102
502298000 0.705692003537 -0.363612770935
502308500 0.705865597056 -0.363513801128
502319000 0.706140949624 -0.362479200297
502329500 0.706220336697 -0.36244987862
502340000 0.706462129925 -0.363735723154
502350500 0.706237517894 -0.364267896194
502361000 0.706495717007 -0.363984182045
502371500 0.706289031007 -0.363166233318
502382000 0.706088177591 -0.363338217295
502392500 0.706655242646 -0.363564279395
502403000 0.706034828648 -0.363451061587
502413500 0.706277352254 -0.363495397111
502424000 0.705711177741 -0.362963358355
502434500 0.705348233112 -0.363263911967
502445000 0.706212445046 -0.363254132072
502455500 0.705166327387 -0.363780306992
502466000 0.704688254552 -0.3641518585
502476500 0.705625038687 -0.364148397741
502487000 0.705661667193 -0.364550110527
502497500 0.705809482664 -0.364078995963
502508000 0.704904714695 -0.363897005815
502518500 0.705236786826 -0.363474054536
502529000 0.704673348372 -0.363916678863
502539500 0.70532503401 -0.36354549462
502550000 0.705639425191 -0.364000834464
502560500 0.705692947104 -0.363708036699
502571000 0.706591581468 -0.363701815432
502581500 0.706395571921 -0.363788571707
502592000 0.706159487356 -0.364861499313
502602500 0.705656716589 -0.364161723118
502613000 0.70562318717 -0.364072434545
502623500 0.705894262321 -0.363565265609
502634000 0.70522779709 -0.364353184449
502644500 0.704451889204 -0.364302455299
502655000 0.705956250459 -0.364759529179
502665500 0.705536527987 -0.364125241902
502676000 0.705243466205 -0.364916003023
502686500 0.705284561753 -0.364913515211
502697000 0.705335389966 -0.365359744956
502707500 0.705687397974 -0.364224390988
502718000 0.705549452807 -0.364728894459
502728500 0.704934816585 -0.364459154956
502739000 0.706244652301 -0.364781845314
502749500 0.705273341189 -0.364614343855
502760000 0.704969894584 -0.36463688002
502770500 0.706197298409 -0.363929592488
502781000 0.705284943074 -0.364713940439
502791500 0.705690269944 -0.364729011946
502802000 0.706095911271 -0.365603460503
502812500 0.706132789761 -0.365642116319
502823000 0.705473127295 -0.365697249862
502833500 0.705184125782 -0.365510628148
502844000 0.705718618843 -0.365435090589
502854500 0.706624501411 -0.365903986812
502865000 0.70644209311 -0.364898041203
502875500 0.705864149161 -0.365129187729
502886000 0.705924526147 -0.365613114656
502896500 0.705997118372 -0.365432244693
502907000 0.705489503717 -0.365599137405
502917500 0.706079764533 -0.365336615708
502928000 0.705651480553 -0.366062359691
502938500 0.704977939223 -0.365547321682
502949000 0.706129548357 -0.365741124771
502959500 0.705044697094 -0.365683088522
502970000 0.705567059513 -0.366043668714
502980500 0.705767093796 -0.365764276227
502991000 0.705831023734 -0.365978400801
503001500 0.70565537577 -0.366576794815
503012000 0.705569754643 -0.365903541203
503022500 0.705648198636 -0.366459215531
503033000 0.705013387857 -0.366718209694
503043500 0.706465597861 -0.366706862636
503054000 0.705528587296 -0.367709605231
503064500 0.705630080225 -0.366361728908
503075000 0.705780720242 -0.367196872589
503085500 0.706208646914 -0.367290005569
503096000 0.70371145928 -0.367183010945
503106500 0.706215636295 -0.366622618312
503117000 0.704553004813 -0.366676290909
503127500 0.709754945838 -0.364984722851
503138000 0.704611549914 -0.364654099699
503148500 0.704687905441 -0.364291310557
503159000 0.706061210639 -0.362464858759
503169500 0.70567212973 -0.365928408874
503180000 0.705702139524 -0.366709152966
503190500 0.706453835387 -0.364913833314
503201000 0.704689533857 -0.36788063711
503211500 0.702640286007 -0.368323769322
503222000 0.703804739457 -0.367669199326
503232500 0.705357973441 -0.367475922182
503243000 0.704816084243 -0.3678444409
503253500 0.703823553866 -0.36860863125
503264000 0.702705383118 -0.366765476577
503274500 0.706817460128 -0.370527440165
503285000 0.704026361727 -0.367180005466
503295500 0.706023117306 -0.369461970444
503306000 0.70585373681 -0.370253475785
503316500 0.703318175205 -0.366797138929
503327000 0.705342670885 -0.367049595113
503337500 0.704816336713 -0.367914513481
503348000 0.705506404688 -0.364897282886
503358500 0.705841796055 -0.367574392952
503369000 0.705932088671 -0.367732995008
503379500 0.704314930458 -0.367130420458
503390000 0.703899200363 -0.366251273842
503400500 0.70580929079 -0.369778001316
503411000 0.706206711419 -0.36833816431
503421500 0.703529864591 -0.368361767771
503432000 0.704822666821 -0.369042215365
503442500 0.704944101114 -0.369440030717
503453000 0.699585575696 -0.366515249544
503463500 0.703828002616 -0.369284193927
503474000 0.708764844513 -0.363727022123
503484500 0.70511000114 -0.369292454545
503495000 0.703224262383 -0.366537296953
503505500 0.705220052846 -0.368573805621
503516000 0.704317259224 -0.369935752989
503526500 0.702847825466 -0.368599489718
503537000 0.700269586414 -0.368577254223
503547500 0.70550504112 -0.368279631935
503558000 0.704875975057 -0.371107214235
503568500 0.707801691514 -0.368464603084
503579000 0.70470502356 -0.368312332623
503589500 0.706103343139 -0.366399316565
503600000 0.704987545408 -0.369532058154
503610500 0.70730814581 -0.370363638714
503621000 0.700255910711 -0.366783524158
503631500 0.703637827632 -0.369169750325
503642000 0.705310814136 -0.36919731713
503652500 0.704702000374 -0.370195557901
503663000 0.707708273637 -0.370521710446
503673500 0.709012514124 -0.367815846591
503684000 0.708921006814 -0.370069133849
503694500 0.706812195118 -0.369294523367
503705000 0.707081179356 -0.371967152915
503715500 0.705380056528 -0.36849454496
503726000 0.706547668116 -0.364157154776
503736500 0.70516989484 -0.361551332631
503747000 0.708625869765 -0.366980401993
503757500 0.703270240908 -0.368502814334
503768000 0.705310549509 -0.370135368252
503778500 0.706121303089 -0.370239719489
503789000 0.707017819855 -0.3694517756
503799500 0.705295951738 -0.369871044754
503810000 0.704743818215 -0.365685095404
503820500 0.70543534255 -0.371094773189
503831000 0.70635110051 -0.370374671178
503841500 0.704697821115 -0.368487305097
503852000 0.703050207122 -0.371529475124
503862500 0.704092073947 -0.371020552098
503873000 0.704900788994 -0.370058497197
503883500 0.705190888524 -0.371026330648
503894000 0.705701777424 -0.372188923066
503904500 0.706091617119 -0.371521052353
503915000 0.704966303391 -0.371604067487
503925500 0.705303680105 -0.371120970752
503936000 0.705522091553 -0.370238091684
503946500 0.704306601605 -0.37034370565
503957000 0.704159439551 -0.371950031423
503967500 0.704922760758 -0.371526540101
503978000 0.704601623852 -0.370923595863
503988500 0.705131639347 -0.371281951459
503999000 0.70600069774 -0.370783208861
504009500 0.70524842165 -0.371638570394
504020000 0.705358335027 -0.371866654256
504030500 0.704960141462 -0.371859583316
504041000 0.704683289598 -0.370994601987
504051500 0.705241103806 -0.37094504076
504062000 0.705198265971 -0.371380513987
504072500 0.705510241171 -0.372053990242
504083000 0.704959729414 -0.370297110777
504093500 0.705181205124 -0.372344919234
504104000 0.704410824882 -0.372552473962
504114500 0.705064918235 -0.372231804993
504125000 0.705565100301 -0.372216702459
504135500 0.704591617171 -0.372532812423
504146000 0.705187163095 -0.372339171754
504156500 0.704874755317 -0.371340408102
504167000 0.70577093679 -0.371813937516
504177500 0.704769880167 -0.3721141939
504188000 0.704679954921 -0.37302793125
504198500 0.705583856025 -0.372252606784
504209000 0.704663457565 -0.372678376204
504219500 0.705707768648 -0.372544483175
504230000 0.704551859541 -0.372087572618
504240500 0.70421729108 -0.372021628118
504251000 0.705137200992 -0.371997157412
504261500 0.70424005096 -0.371842476315
504272000 0.704877110812 -0.37235950113
504282500 0.704567053185 -0.372370541455
504293000 0.704450373839 -0.37203673528
504303500 0.703584056308 -0.372290432379
504314000 0.705036624037 -0.372203093716
504324500 0.704050046724 -0.373138595086
504335000 0.703792260492 -0.371651833366
504345500 0.703778602927 -0.373071239587
504356000 0.704907768831 -0.372203545782
504366500 0.705297819882 -0.372266662531
504377000 0.704757857705 -0.372005244825
504387500 0.70453738161 -0.372371474827
504398000 0.703858578875 -0.37247327705
504408500 0.704709377908 -0.372582467473
504419000 0.704623531001 -0.372857383176
504429500 0.704731300361 -0.37380635548
504440000 0.70500999697 -0.373756994195
504450500 0.705050770514 -0.373187103817
504461000 0.703743493604 -0.373286261022
504471500 0.704527747598 -0.373122465283
504482000 0.70498566526 -0.373612281263
504492500 0.702513203334 -0.372603477193
504503000 0.702487035635 -0.373319692464
504513500 0.700711577721 -0.373027958479
504524000 0.702865848318 -0.372842192769
504534500 0.704636111203 -0.373592035591
504545000 0.704738253294 -0.373811707365
504555500 0.704880055544 -0.374033018058
504566000 0.704996637213 -0.374273212878
504576500 0.704832637183 -0.37396842197
504587000 0.703509291856 -0.373770108824
504597500 0.704323124855 -0.374005429542
504608000 0.705387722305 -0.374135901679
504618500 0.704478842927 -0.374162404795
504629000 0.704460015255 -0.373755321936
504639500 0.704413672297 -0.374078465438
504650000 0.704947457406 -0.374658057692
504660500 0.704894823728 -0.373949129707
504671000 0.705472965109 -0.373831707129
504681500 0.705549009898 -0.373180900635
504692000 0.705123380292 -0.373284026402
504702500 0.704665945275 -0.372910936693
504713000 0.703880835556 -0.37374495062
504723500 0.704184248159 -0.374083640114
504734000 0.704224400416 -0.373896954728
504744500 0.704315805935 -0.374652750607
504755000 0.703986182025 -0.374464678296
504765500 0.704129561362 -0.374725240067
504776000 0.704566038811 -0.374735162002
504786500 0.704024768228 -0.374963451904
504797000 0.703744989816 -0.374570887912
504807500 0.703903728378 -0.3747827037
504818000 0.70470350702 -0.374031205845
504828500 0.704776126049 -0.3742959016
504839000 0.704684153418 -0.375075620405
504849500 0.70355141243 -0.37479241312
504860000 0.704018043347 -0.37523968229
504870500 0.703879560394 -0.375856009232
504881000 0.704709566065 -0.375757395761
504891500 0.704315873507 -0.375771854151
504902000 0.704111805751 -0.37484599879
504912500 0.705156334413 -0.375316566171
504923000 0.704948465221 -0.375432666565
504933500 0.704681204678 -0.375940917088
504944000 0.704032994757 -0.375517863937
504954500 0.704502903554 -0.376110502816
504965000 0.703487408688 -0.375968932602
504975500 0.703956532096 -0.376137034961
504986000 0.704367546957 -0.376296642963
504996500 0.703660742581 -0.375847915982
505007000 0.70361553123 -0.376546031827
505017500 0.70443449441 -0.375844670539
505028000 0.703693636153 -0.37561422823
505038500 0.704935095395 -0.376162194853
505049000 0.704613763544 -0.375793428827
505059500 0.704494975574 -0.375224978329
505070000 0.704956109464 -0.375309498027
505080500 0.70476901355 -0.375553077952
505091000 0.703164327956 -0.374650029009
505101500 0.704147981764 -0.375710428279
505112000 0.704055524616 -0.376265969987
505122500 0.704602984049 -0.376364311848
505133000 0.703723457213 -0.376606534937
505143500 0.703470573621 -0.377011845383
505154000 0.703872672334 -0.376954126693
505164500 0.704307392522 -0.374973362628
505175000 0.703648610354 -0.37683917048
505185500 0.704388973891 -0.377023260345
505196000 0.704632563213 -0.376608749264
505206500 0.704674303636 -0.376851959078
505217000 0.704370188509 -0.376996335047
505227500 0.704420685986 -0.37686719957
505238000 0.703818893815 -0.376944311367
505248500 0.704098112942 -0.376623025255
505259000 0.703570257837 -0.376617377777
505269500 0.703508309065 -0.376634833501
505280000 0.703265964499 -0.376789898861
505290500 0.70336307757 -0.377276747092
505301000 0.704152611968 -0.377189796698
505311500 0.703518122909 -0.377009361182
505322000 0.703707480883 -0.377322297461
505332500 0.704417584707 -0.377519275214
505343000 0.705030355467 -0.377164668926
505353500 0.704135380974 -0.377510941857
505364000 0.703967236443 -0.378086002723
505374500 0.704714451364 -0.37718976225
505385000 0.70401645008 -0.378119608771
505395500 0.704073588734 -0.378179090296
505406000 0.704257659977 -0.378455023143
505416500 0.703537673981 -0.377988410804
505427000 0.703499523511 -0.378075122986
505437500 0.703736162219 -0.377653547617
505448000 0.704362556471 -0.378417770027
505458500 0.704786871228 -0.378811559897
505469000 0.70387540999 -0.377967815036
505479500 0.703990324216 -0.378159545614
505490000 0.7029813772 -0.378228550826
505500500 0.703636551781 -0.377828185133
505511000 0.703672431315 -0.378297834041
505521500 0.702569217571 -0.377874019193
505532000 0.701968161079 -0.378028320247
505542500 0.702219562439 -0.379379409894
505553000 0.701827209104 -0.378357850016
505563500 0.701962205892 -0.378298273274
505574000 0.703314605046 -0.37884916377
505584500 0.702753839735 -0.378427157747
505595000 0.701878396247 -0.378917924043
505605500 0.702187711546 -0.379489983679
505616000 0.703063199026 -0.379241379537
505626500 0.703434725312 -0.378191648053
505637000 0.70316751929 -0.379189135362
505647500 0.703357178276 -0.378957073598
505658000 0.702446162377 -0.379380494759
505668500 0.702989274864 -0.379981851092
505679000 0.702881399169 -0.379357108492
505689500 0.702915655372 -0.379462454437
505700000 0.70324335292 -0.379156248831
505710500 0.70340309195 -0.378638869589
505721000 0.703306281427 -0.378884513552
505731500 0.703706121646 -0.378919544897
505742000 0.703550535152 -0.379063571208
505752500 0.703171395307 -0.379524096256
505763000 0.702965027512 -0.379564048142
505773500 0.702094538815 -0.38002031156
505784000 0.702501346744 -0.380318675079
505794500 0.702765782137 -0.380744112632
505805000 0.703188677504 -0.380174928128
505815500 0.703235990788 -0.38008969664
505826000 0.703090142819 -0.379743018152
505836500 0.703790496173 -0.379867399498
505847000 0.703192768339 -0.379628941372
505857500 0.704128689883 -0.380551685234
505868000 0.703675895983 -0.380316836194
505878500 0.703464640028 -0.379905950099
505889000 0.703735254245 -0.379709177761
505899500 0.702702893256 -0.379985971631
505910000 0.703821807057 -0.380343408127
505920500 0.703647820659 -0.380801014613
505931000 0.70321802322 -0.380079624173
505941500 0.703297098743 -0.380411996087
505952000 0.703758619702 -0.380180043832
505962500 0.703956533449 -0.379650041334
505973000 0.703457459173 -0.379537620204
505983500 0.702341411498 -0.379116795774
505994000 0.702808714717 -0.379240505173
506004500 0.701370443386 -0.381332788835
506015000 0.702941756345 -0.382007551586
506025500 0.703682274938 -0.38115273615
506036000 0.702861931682 -0.382430278575
506046500 0.702291440766 -0.380155899072
506057000 0.703251414801 -0.381094475507
506067500 0.703491725026 -0.380576948042
506078000 0.703332300158 -0.380955658412
506088500 0.7043911274 -0.379159309022
506099000 0.704504615338 -0.381158946805
506109500 0.702680660204 -0.381285085249
506120000 0.702956929146 -0.381475288797
506130500 0.702618006918 -0.381427111614
506141000 0.702924289295 -0.379643339828
506151500 0.702402574129 -0.380127352623
506162000 0.703215535012 -0.381976979331
506172500 0.704421551082 -0.381261555067
506183000 0.703990735056 -0.383406685051
506193500 0.701808292 -0.381400184664
506204000 0.701728347334 -0.382446096768
506214500 0.70322468557 -0.380833761146
506225000 0.702137732208 -0.382843526418
506235500 0.704441083298 -0.381626901545
506246000 0.702866938262 -0.384269686506
506256500 0.703256572377 -0.381391795347
506267000 0.701840358942 -0.383103471935
506277500 0.703015082394 -0.380152143784
506288000 0.701793439996 -0.381253414279
506298500 0.70250990715 -0.383726971855
506309000 0.701439499172 -0.382347564204
506319500 0.701534141589 -0.383401046269
506330000 0.702545085025 -0.38247430071
506340500 0.70243417055 -0.382435892227
506351000 0.70264352815 -0.38292780664
506361500 0.70278461651 -0.382764322591
506372000 0.702530555363 -0.382800044061
506382500 0.70238011812 -0.383396668998
506393000 0.70223486233 -0.383254567272
506403500 0.70180692494 -0.382432105631
506414000 0.701429939258 -0.383181289026
506424500 0.702295715414 -0.383206368476
506435000 0.70200437672 -0.382993677539
506445500 0.702413762456 -0.382968139312
506456000 0.701534939147 -0.38253175792
506466500 0.701852362347 -0.382559018061
506477000 0.702188433845 -0.382448306842
506487500 0.702314387371 -0.382826321503
506498000 0.702611503914 -0.383707505657
506508500 0.70262417479 -0.382546092112
506519000 0.703005161523 -0.384547457482
506529500 0.701195930691 -0.38347377283
506540000 0.70317216115 -0.382514176137
506550500 0.702789221562 -0.38394019901
506561000 0.702295816755 -0.384772032711
506571500 0.703145199304 -0.382592892444
506582000 0.700836454825 -0.384774863371
506592500 0.701427468126 -0.383940642304
506603000 0.701331369214 -0.384538536057
506613500 0.703007037806 -0.384163654183
506624000 0.702396197371 -0.384776950374
506634500 0.701216311577 -0.384186215172
506645000 0.701125616197 -0.383985414684
506655500 0.701494387095 -0.381806438058
506666000 0.701447031998 -0.383899960923
506676500 0.701762776738 -0.383875377852
506687000 0.701457320368 -0.384542561761
506697500 0.702284790153 -0.384949218986
506708000 0.700415635442 -0.384054445542
506718500 0.702305634081 -0.38403770616
506729000 0.700956242858 -0.383693786965
506739500 0.7005891263 -0.38397085913
506750000 0.700889179805 -0.38607666053
506760500 0.70357171567 -0.3828327907
506771000 0.702799979955 -0.385193212956
506781500 0.701032026507 -0.38372376959
506792000 0.702570208658 -0.382987844245
506802500 0.701693778012 -0.385134701027
506813000 0.702640372482 -0.385406488546
506823500 0.702266969092 -0.386019558322
506834000 0.701397879961 -0.383027955259
506844500 0.701294171352 -0.383303115361
506855000 0.701050875048 -0.385143701011
506865500 0.703326365431 -0.385354645376
506876000 0.701839193719 -0.385184342204
506886500 0.701886298353 -0.385616183694
506897000 0.702092541083 -0.385530530619
506907500 0.702228823319 -0.385196845132
506918000 0.70212281297 -0.385324828893
506928500 0.702290861891 -0.385624559476
506939000 0.701841432253 -0.385314338377
506949500 0.701289971503 -0.385688098032
506960000 0.701140299084 -0.386009938123
506970500 0.702462474612 -0.385573442918
506981000 0.702594247769 -0.385048721275
506991500 0.701701132742 -0.386560921045
507002000 0.702899801405 -0.385143761398
507012500 0.701585923689 -0.384714894824
507023000 0.701923671487 -0.386151403526
507033500 0.703251092846 -0.386385279145
507044000 0.701732738827 -0.385447579602
507054500 0.70339469717 -0.387418753608
507065000 0.702330908728 -0.386496167222
507075500 0.701861210305 -0.382633049273
507086000 0.701769739089 -0.386167037706
507096500 0.699710176861 -0.386151715868
507107000 0.702188236767 -0.383809171141
507117500 0.702306005951 -0.384525156769
507128000 0.703894450184 -0.388453657029
507138500 0.700851093989 -0.386656266078
507149000 0.699766585759 -0.383731915461
507159500 0.699205275758 -0.384821417618
507170000 0.699370580025 -0.391600055007
507180500 0.694601372924 -0.386247104102
507191000 0.698522496394 -0.387573971851
507201500 0.698894982893 -0.390849666297
507212000 0.704722781136 -0.381828346568
507222500 0.70157191816 -0.388772648471
507233000 0.696570096898 -0.388541375921
507243500 0.703436631407 -0.383864870776
507254000 0.703115397177 -0.38448309282
507264500 0.698031413993 -0.384505896131
507275000 0.704049660369 -0.388166384273
507285500 0.703420342503 -0.38136359702
507296000 0.703403257038 -0.385721409537
507306500 0.700360134092 -0.387237463413
507317000 0.699766093796 -0.389055979849
507327500 0.703355301557 -0.389027545695
507338000 0.701804608565 -0.388127597175
507348500 0.70123976844 -0.383136647686
507359000 0.698933889366 -0.387699879063
507369500 0.706773737245 -0.389949994543
507380000 0.69781250644 -0.380969643206
507390500 0.701430519637 -0.388626487514
507401000 0.701229347244 -0.391586594069
507411500 0.6938749197 -0.384658885718
507422000 0.692470540033 -0.390261204837
507432500 0.694205423552 -0.386751547595
507443000 0.703552250197 -0.391757258072
507453500 0.70406491589 -0.38546883379
507464000 0.699053298599 -0.385659004737
507474500 0.703429506005 -0.388489774968
507485000 0.708215430709 -0.38977869805
507495500 0.701134631972 -0.387660838096
507506000 0.696261595746 -0.38473486313
507516500 0.699045241251 -0.393502559203
507527000 0.703845654475 -0.388879157355
507537500 0.697753690959 -0.389415109587
507548000 0.699160117203 -0.384037646625
507558500 0.708649169998 -0.389730713466
507569000 0.707771348314 -0.385479883616
507579500 0.700435958665 -0.389289265124
507590000 0.701114156833 -0.38557390542
507600500 0.703286954016 -0.386178291801
507611000 0.701929422226 -0.391851001924
507621500 0.696058884109 -0.390530370784
507632000 0.70124368224 -0.389720404391
507642500 0.696256120533 -0.379965711741
507653000 0.703562448573 -0.389054158202
507663500 0.696984609741 -0.388129425848
507674000 0.700869625 -0.386620949946
507684500 0.701537451797 -0.390421368335
507695000 0.701536619829 -0.389216447048
507705500 0.701581691342 -0.388020939725
507716000 0.701518302655 -0.385527567341
507726500 0.701689153766 -0.389277726126
507737000 0.703483885185 -0.392307392431
507747500 0.694024881412 -0.385152665897
507758000 0.699918341123 -0.390195594903
507768500 0.701454470471 -0.389025540827
507779000 0.704535111271 -0.385928603808
507789500 0.700525135539 -0.393597837207
507800000 0.700212004346 -0.384775861486
507810500 0.699249634788 -0.388512216726
507821000 0.70081868618 -0.389149160537
507831500 0.700341218638 -0.390443357125
507842000 0.700591586635 -0.390007690076
507852500 0.701397679605 -0.391877116713
507863000 0.701471885769 -0.390199560009
507873500 0.700107441089 -0.390065690239
507884000 0.701816844659 -0.390056283424
507894500 0.700415844257 -0.391811028252
507905000 0.700233113058 -0.390394690513
507915500 0.698930978925 -0.390284290528
507926000 0.700251362644 -0.390107719749
507936500 0.701642776866 -0.390202190438
507947000 0.700240544358 -0.390443444911
507957500 0.701046257871 -0.390270982735
507968000 0.70017336757 -0.390292537498
507978500 0.700840923483 -0.390815328713
507989000 0.699666348911 -0.389662112772
507999500 0.700530976505 -0.390478065357
508010000 0.700542486432 -0.389451351113
508020500 0.698487708378 -0.389466811861
508031000 0.699038855942 -0.388761325033
508041500 0.699788295523 -0.389598183945
508052000 0.700630911824 -0.389540907156
508062500 0.701111627019 -0.390587988609
508073000 0.700610971248 -0.390746077063
508083500 0.700702482067 -0.391190578827
508094000 0.700047166689 -0.390185211551
508104500 0.700209372947 -0.391290007108
508115000 0.700115289888 -0.391318929638
508125500 0.698928092695 -0.390486649156
508136000 0.700117263786 -0.391069305387
508146500 0.700260856477 -0.390808287687
508157000 0.700058611378 -0.391230875831
508167500 0.700287763306 -0.390334553325
508178000 0.699721855766 -0.391230896362
508188500 0.699845045327 -0.390823001734
508199000 0.700608296754 -0.391698589197
508209500 0.700149046238 -0.390509273749
508220000 0.699953669706 -0.392085009579
508230500 0.70044213995 -0.391385918134
508241000 0.700626455891 -0.391528072664
508251500 0.700393658831 -0.3908375349
508262000 0.70039391296 -0.39140945538
508272500 0.700409245601 -0.391871107134
508283000 0.699561383739 -0.39194276495
508293500 0.700608530942 -0.392522712896
508304000 0.700119803197 -0.391391302014
508314500 0.699730027224 -0.390855185244
508325000 0.700180123799 -0.392159626675
508335500 0.699602182439 -0.392148089419
508346000 0.70020152099 -0.393374438225
508356500 0.699730838671 -0.392345171817
508367000 0.700677882759 -0.392794726066
508377500 0.699721915293 -0.392697181086
508388000 0.69965582756 -0.392209040617
508398500 0.700056186136 -0.39210734419
508409000 0.699535582208 -0.39288007709
508419500 0.700046654927 -0.39187031752
508430000 0.699206626779 -0.391592895067
508440500 0.699928060398 -0.392220791887
508451000 0.699707965713 -0.392919381409
508461500 0.699876655108 -0.392795659386
508472000 0.699169835966 -0.392287184091
508482500 0.699281684789 -0.39237740421
508493000 0.699402234389 -0.392727467071
508503500 0.699226916146 -0.391823389212
508514000 0.699938867338 -0.393156262103
508524500 0.699728690249 -0.392763708461
508535000 0.699678361762 -0.393075492929
508545500 0.699404904312 -0.393078353662
508556000 0.699377270906 -0.39307290063
508566500 0.698618531157 -0.393440683326
508577000 0.699355199142 -0.393682814556
508587500 0.699564733787 -0.393629879676
508598000 0.69933415713 -0.393127898585
508608500 0.699329232971 -0.393193236118
508619000 0.699591097061 -0.393521252447
508629500 0.699633241144 -0.393150493915
508640000 0.698476168246 -0.39315555282
508650500 0.699051729244 -0.393490659568
508661000 0.698427327298 -0.393634032146
508671500 0.698816861857 -0.393865141045
508682000 0.698449075035 -0.393544159796
508692500 0.698723150709 -0.393383709602
508703000 0.698858568546 -0.393285641876
508713500 0.698834222239 -0.39390948725
508724000 0.699134994391 -0.393005423613
508734500 0.699459644077 -0.39332536335
508745000 0.699318256917 -0.393428486972
508755500 0.699592174597 -0.3936827926
508766000 0.699420624311 -0.393897907259
508776500 0.698948292113 -0.393989260281
508787000 0.699715642858 -0.39329610728
508797500 0.698781251009 -0.393591571321
508808000 0.699059571764 -0.394177470233
508818500 0.699264486867 -0.394112579884
508829000 0.698992355854 -0.393596087944
508839500 0.699066354135 -0.393343226393
508850000 0.698564943448 -0.39266089179
508860500 0.699301401458 -0.393643474829
508871000 0.6992921735 -0.39423443483
508881500 0.699289889898 -0.394806539852
508892000 0.699078120313 -0.394363164641
508902500 0.698623943712 -0.395072806483
508913000 0.698844998148 -0.39492366529
508923500 0.698681405615 -0.394364986829
508934000 0.698807139776 -0.394020253669
508944500 0.698995866835 -0.393773148759
508955000 0.698900144397 -0.39448229923
508965500 0.698504714427 -0.394481326408
508976000 0.698693789928 -0.394209712241
508986500 0.697840543709 -0.393818932607
508997000 0.697917784144 -0.394340731941
509007500 0.698229605673 -0.393903227489
509018000 0.698417130117 -0.394873317796
509028500 0.699016137364 -0.394800727575
509039000 0.699074897538 -0.39496632945
509049500 0.698037506218 -0.394522062398
509060000 0.698397597169 -0.39421572471
509070500 0.698972101136 -0.394424745152
509081000 0.698234029063 -0.394120118045
509091500 0.698320176801 -0.395058146998
509102000 0.698141077619 -0.395331675302
509112500 0.698270274668 -0.395263119331
509123000 0.69817593719 -0.394498891835
509133500 0.698268681944 -0.39465884333
509144000 0.695219922004 -0.393164074665
509154500 0.696316926737 -0.398366367291
509165000 0.699199661655 -0.401140868376
509175500 0.696077419052 -0.397033517094
509186000 0.698006557414 -0.396560050349
509196500 0.698481813027 -0.396044221477
509207000 0.698377759835 -0.396521990813
509217500 0.698501038725 -0.396185480116
509228000 0.699173548955 -0.396621478559
509238500 0.698036601631 -0.396265805911
509249000 0.697987699734 -0.395623522276
509259500 0.698979724848 -0.396663231374
509270000 0.698246828856 -0.396113650575
509280500 0.6986472335 -0.39669953392
509291000 0.698851990041 -0.396679077217
509301500 0.697825955055 -0.396917693346
509312000 0.697910212025 -0.397243477723
509322500 0.698438313362 -0.396819775304
509333000 0.697981538436 -0.396224190165
509343500 0.698621332657 -0.396231443411
509354000 0.697987268898 -0.396381810063
509364500 0.698025650515 -0.396511324202
509375000 0.697970337345 -0.396397517593
509385500 0.697775059914 -0.396359705016
509396000 0.697810899321 -0.396673837059
509406500 0.697124770653 -0.396684824805
509417000 0.697371195618 -0.396745810484
509427500 0.697660544714 -0.396224414783
509438000 0.698209788349 -0.397289090813
509448500 0.698166445682 -0.397290140442
509459000 0.698314130574 -0.396603427359
509469500 0.697715128634 -0.397240077223
509480000 0.697674753017 -0.397457355853
509490500 0.697941331971 -0.396735358274
509501000 0.69769651782 -0.396732243028
509511500 0.697438358986 -0.397588334659
509522000 0.697469172365 -0.397205402726
509532500 0.697292261853 -0.396439111344
509543000 0.697616387933 -0.396988729507
509553500 0.697554327416 -0.396939695733
509564000 0.697543560423 -0.397343308248
509574500 0.697731265892 -0.397368347044
509585000 0.697520524034 -0.396588485277
509595500 0.697338719151 -0.396333813723
509606000 0.697444444305 -0.396861823152
509616500 0.697821154521 -0.39782024925
509627000 0.698022269854 -0.39767896675
509637500 0.697695076378 -0.398039011133
509648000 0.697764332688 -0.397444191224
509658500 0.697616063791 -0.397097448318
509669000 0.69765139142 -0.398036630978
509679500 0.697497820426 -0.397952596071
509690000 0.697421431255 -0.397619038415
509700500 0.697717674335 -0.398367509473
509711000 0.697511442228 -0.398128768385
509721500 0.697585729509 -0.397801096189
509732000 0.697179915125 -0.397951489356
509742500 0.697271720904 -0.398361004034
509753000 0.697174570638 -0.397992758303
509763500 0.697881821915 -0.398706530826
509774000 0.697369844543 -0.397933302391
509784500 0.69774131828 -0.398214759041
509795000 0.697539375341 -0.398047358824
509805500 0.697245990704 -0.398579404232
509816000 0.697630669583 -0.398360248499
509826500 0.696959126447 -0.3982314146
509837000 0.697910347733 -0.398402373329
509847500 0.698005254271 -0.398957547991
509858000 0.699015709506 -0.399396726015
509868500 0.6979322454 -0.39936904807
509879000 0.697885312471 -0.398608763575
509889500 0.697849115388 -0.399370453202
509900000 0.697533199361 -0.398935494392
509910500 0.697543345516 -0.399352020908
509921000 0.697677874523 -0.399227343921
509931500 0.697699856245 -0.398953223972
509942000 0.697946313784 -0.398844618995
509952500 0.697011909169 -0.399127457169
509963000 0.697060351523 -0.399086554143
509973500 0.69662236317 -0.398802280182
509984000 0.697285773071 -0.399426301283
509994500 0.696867883071 -0.400477114088
510005000 0.696600272125 -0.399594491583
510015500 0.697502107734 -0.400098226759
510026000 0.696693815122 -0.399326249846
510036500 0.697170187643 -0.399438529276
510047000 0.697141548461 -0.399082355609
510057500 0.697380151993 -0.399230701197
510068000 0.696881839644 -0.399627015309
510078500 0.696789982633 -0.399079767219
510089000 0.69692767481 -0.399241533795
510099500 0.696648977472 -0.399747516854
510110000 0.696385831881 -0.399637057131
510120500 0.696577782587 -0.400109951242
510131000 0.69607458825 -0.40000166654
510141500 0.696297559595 -0.400124561641
510152000 0.696102272755 -0.399917887084
510162500 0.696497131267 -0.399951514689
510173000 0.697399569454 -0.400690368091
510183500 0.696874198955 -0.400473183697
510194000 0.695874549603 -0.400463304253
510204500 0.696322076272 -0.400864675091
510215000 0.69594525498 -0.400122437666
510225500 0.695695776188 -0.401262326868
510236000 0.696585825335 -0.400540549092
510246500 0.696212304575 -0.401215828497
510257000 0.696618459185 -0.400992542828
510267500 0.697427168796 -0.401043842842
510278000 0.69680798669 -0.400456701441
510288500 0.697460163532 -0.40004237116
510299000 0.69636366278 -0.400404696418
510309500 0.696523224149 -0.400859385494
510320000 0.696016367017 -0.399550039728
510330500 0.695907244025 -0.400583474306
510341000 0.696059654067 -0.400649412477
510351500 0.695888703969 -0.400695945918
510362000 0.696026052072 -0.400737595591
510372500 0.696224824093 -0.400959165386
510383000 0.696081638077 -0.401091531838
510393500 0.696449549102 -0.401065098723
510404000 0.695691111873 -0.40138578539
510414500 0.696589805624 -0.402426727751
510425000 0.695535422426 -0.401410376887
510435500 0.695275569469 -0.400803767996
510446000 0.695049804967 -0.401323945617
510456500 0.69551380705 -0.401313932081
510467000 0.695641454713 -0.401607243298
510477500 0.696093741117 -0.400861403356
510488000 0.69710835302 -0.401141731167
510498500 0.69621966334 -0.400643218489
510509000 0.694841598561 -0.401331262906
510519500 0.695493425474 -0.401994621608
510530000 0.695833313219 -0.401848140119
510540500 0.695271157507 -0.402134004504
510551000 0.696030085666 -0.402288184613
510561500 0.695927389045 -0.402433475066
510572000 0.695963576986 -0.402248554333
510582500 0.695425310067 -0.402373949228
510593000 0.695029922205 -0.40244170635
510603500 0.69566990909 -0.40251347735
510614000 0.695687361497 -0.402222516054
510624500 0.695739278832 -0.402834252938
510635000 0.695968868824 -0.402366920169
510645500 0.69578455837 -0.402707917015
510656000 0.695605281394 -0.401586046448
510666500 0.695224532934 -0.402668109127
510677000 0.696011622232 -0.402756776465
510687500 0.695477386382 -0.402540476652
510698000 0.695504594187 -0.402339975094
510708500 0.695727288897 -0.403180854145
510719000 0.69547127471 -0.402622768481
510729500 0.696261409013 -0.402567871724
510740000 0.696328983783 -0.402697472111
510750500 0.697105264606 -0.402910349784
510761000 0.695704436219 -0.402914888262
510771500 0.696294572036 -0.403386836808
510782000 0.695597357081 -0.40340904788
510792500 0.695686681749 -0.403015717211
510803000 0.69553588721 -0.402771057969
510813500 0.695493747112 -0.40285455425
510824000 0.69557292575 -0.402653904749
510834500 0.696453834531 -0.403583928607
510845000 0.69507679912 -0.403952539996
510855500 0.695014384085 -0.403383865792
510866000 0.693987040459 -0.402860763672
510876500 0.694835444497 -0.403190281545
510887000 0.695395468807 -0.403423797077
510897500 0.69546985651 -0.402650425023
510908000 0.695407936353 -0.402692744953
510918500 0.694778632143 -0.402520240176
510929000 0.695011087284 -0.402277165375
510939500 0.695654768482 -0.403213492036
510950000 0.695493881028 -0.403412811597
510960500 0.695089339446 -0.402781944435
510971000 0.69546904697 -0.403522022401
510981500 0.694974752689 -0.404142077685
510992000 0.694781179941 -0.403756722997
511002500 0.694350405477 -0.404081640744
511013000 0.694191768294 -0.403786543016
511023500 0.694903687628 -0.403847184949
511034000 0.695480208257 -0.403224083335
511044500 0.69555850844 -0.403863227916
511055000 0.695760033525 -0.403962606303
511065500 0.695895805818 -0.40456574117
511076000 0.695024696009 -0.404550581587
511086500 0.694424261842 -0.404434865891
511097000 0.694461436923 -0.403866436423
511107500 0.695111557374 -0.403985236469
511118000 0.69383995519 -0.404609763187
511128500 0.694987643422 -0.405080865938
511139000 0.695178083225 -0.404934712787
511149500 0.695012870751 -0.405132778951
511160000 0.695421191373 -0.40600601386
511170500 0.695580279106 -0.405002597418
511181000 0.694600210907 -0.405422271361
511191500 0.694072900071 -0.406701771986
511202000 0.692748514058 -0.40671883448
511212500 0.69243842731 -0.407186761865
511223000 0.693280336268 -0.406385231499
511233500 0.694061421333 -0.405169844037
511244000 0.6945002261 -0.4049573662
511254500 0.694956311628 -0.404666431477
511265000 0.695166792741 -0.405290826899
511275500 0.694262388822 -0.405109960648
511286000 0.693965089127 -0.40509631333
511296500 0.693802015412 -0.404849861831
511307000 0.694312952459 -0.404912104756
511317500 0.694432209669 -0.404587919148
511328000 0.694247437589 -0.404667147481
511338500 0.694727680952 -0.405048798697
511349000 0.694664443876 -0.405481461381
511359500 0.693747386924 -0.406187925095
511370000 0.694184601257 -0.405781333074
511380500 0.693500314855 -0.406219602584
511391000 0.693794450605 -0.405696350399
511401500 0.694239844376 -0.404736302911
511412000 0.694251100725 -0.404667970768
511422500 0.694342315807 -0.405509890298
511433000 0.694224971389 -0.404824723069
511443500 0.694851418929 -0.406877451585
511454000 0.69397972108 -0.406414813346
511464500 0.696369969529 -0.407321563902
511475000 0.694464199641 -0.404826738161
511485500 0.692330715229 -0.403927918951
511496000 0.696377106538 -0.405574455593
511506500 0.694994586648 -0.404396157873
511517000 0.694818437656 -0.407020637399
511527500 0.691676114443 -0.406368142549
511538000 0.693491689823 -0.407717865617
511548500 0.694597027451 -0.405294677405
511559000 0.695465406916 -0.407379820659
511569500 0.693397317171 -0.405949893443
511580000 0.695570755177 -0.406370514504
511590500 0.695060389067 -0.405965342319
511601000 0.697630154247 -0.406581921644
511611500 0.693551296043 -0.406241085198
511622000 0.694393693072 -0.409165288632
511632500 0.694090293964 -0.406653756172
511643000 0.694316104447 -0.4047235635
511653500 0.694486110535 -0.406814910482
511664000 0.695164424633 -0.408434122338
511674500 0.692807725465 -0.407658682746
511685000 0.69369533287 -0.408074039998
511695500 0.692619356475 -0.408042713458
511706000 0.692647248808 -0.406333503
511716500 0.691041356184 -0.408650377613
511727000 0.695528560915 -0.407935665923
511737500 0.693264861853 -0.4051421783
511748000 0.696440163623 -0.406647558142
511758500 0.693912553035 -0.406623648969
511769000 0.691137193098 -0.40844531018
511779500 0.693521739054 -0.408376701522
511790000 0.692773221523 -0.407364074057
511800500 0.692926595986 -0.406866264829
511811000 0.692016593982 -0.407932162192
511821500 0.692307408027 -0.406618848624
511832000 0.692680978162 -0.40812837659
511842500 0.691010480446 -0.408559410412
511853000 0.695498562973 -0.407069687091
511863500 0.692773909577 -0.408075612306
511874000 0.69469573893 -0.408196351088
511884500 0.694672569994 -0.408696148793
511895000 0.693153031018 -0.407657792912
511905500 0.692343975441 -0.407814815506
511916000 0.692124345357 -0.407427287303
511926500 0.693631453376 -0.408241239962
511937000 0.692366513498 -0.407065277264
511947500 0.693574634024 -0.408337958214
511958000 0.693338536189 -0.407971664458
511968500 0.694287853026 -0.407475151953
511979000 0.695210554761 -0.407051656791
511989500 0.694819277442 -0.408869763225
512000000 0.693395613885 -0.408303709962
