! Calibrated averaged scanner-service zoom
# Hz S RI R 50
420000000 0.636420872472 -0.237610079759
420010000 0.635705258512 -0.236049464584
420020000 0.63508741384 -0.236390452651
420030000 0.636080038625 -0.23548174345
420040000 0.636422859339 -0.235670665489
420050000 0.635641023925 -0.235941979934
420060000 0.636551494755 -0.235810433004
420070000 0.636340526488 -0.236262026925
420080000 0.635772282713 -0.236274899952
420090000 0.636155053435 -0.236815553964
420100000 0.635568677465 -0.236410278005
420110000 0.637050975228 -0.23588017972
420120000 0.636865570804 -0.235604457029
420130000 0.63761210995 -0.235929971047
420140000 0.637575968593 -0.236298463974
420150000 0.636357522624 -0.236511536192
420160000 0.636616474113 -0.237233737719
420170000 0.636640567027 -0.236360842328
420180000 0.636424467636 -0.235775277207
420190000 0.637104816816 -0.236335973025
420200000 0.637197583989 -0.23596662051
420210000 0.63721695856 -0.235601086101
420220000 0.637973925103 -0.236268055636
420230000 0.637043328982 -0.236240135452
420240000 0.638322566649 -0.236330895389
420250000 0.638652387405 -0.236237678806
420260000 0.638575608832 -0.236603470377
420270000 0.638962636022 -0.236217244003
420280000 0.637320727675 -0.236907012766
420290000 0.63837252994 -0.236805813251
420300000 0.637977276031 -0.23625331032
420310000 0.638890321909 -0.236037253182
420320000 0.632708226893 -0.244126698243
420330000 0.6385855894 -0.236099872451
420340000 0.639144899676 -0.237112819548
420350000 0.638979622864 -0.23672622228
420360000 0.638539926247 -0.237238288368
420370000 0.638959790604 -0.234907041289
420380000 0.638552837227 -0.236224388115
420390000 0.638684733804 -0.2369766704
420400000 0.638207536072 -0.23586337499
420410000 0.638927958041 -0.236766831951
420420000 0.639064490817 -0.235628790805
420430000 0.639470993295 -0.236559414011
420440000 0.638124965345 -0.236919413954
420450000 0.639770414966 -0.236099649217
420460000 0.63881596203 -0.236252632667
420470000 0.640201197399 -0.236276516644
420480000 0.637827085722 -0.236660303379
420490000 0.639121664119 -0.236541030856
420500000 0.639217376902 -0.235655648384
420510000 0.639317928937 -0.236484324817
420520000 0.639857085196 -0.235757596143
420530000 0.638533484074 -0.236033613518
420540000 0.639916538989 -0.236590045301
420550000 0.640484521255 -0.235986665604
420560000 0.64018502267 -0.236616982385
420570000 0.639817258587 -0.236772961069
420580000 0.639608716237 -0.236853632592
420590000 0.639708730778 -0.236469222251
420600000 0.640128015707 -0.237477258075
420610000 0.640354596546 -0.23655854609
420620000 0.639332795446 -0.23700384755
420630000 0.640284968482 -0.237027150939
420640000 0.641037551723 -0.23728802298
420650000 0.640642998135 -0.237819505185
420660000 0.640168212909 -0.236933482691
420670000 0.640039195655 -0.237393170402
420680000 0.640778282566 -0.237406361106
420690000 0.641262092754 -0.237129488385
420700000 0.641382103981 -0.236415946593
420710000 0.64070711938 -0.236225046558
420720000 0.640622915172 -0.23658526214
420730000 0.641938779336 -0.236668738891
420740000 0.640689848861 -0.236730746939
420750000 0.641923541839 -0.237653379391
420760000 0.64116347527 -0.238078999052
420770000 0.64087285672 -0.237674507721
420780000 0.641855407646 -0.237901493898
420790000 0.6420390306 -0.237840941795
420800000 0.641129636358 -0.237353502177
420810000 0.641081556462 -0.237955452883
420820000 0.641535288209 -0.237321330323
420830000 0.641317245345 -0.23743384523
420840000 0.641154400405 -0.236858339955
420850000 0.641054479686 -0.237210793354
420860000 0.640403841874 -0.236700907152
420870000 0.641169899624 -0.238377309375
420880000 0.642142689658 -0.237649213551
420890000 0.641701779023 -0.237211518386
420900000 0.641107159376 -0.237228547268
420910000 0.642216805712 -0.237998902848
420920000 0.642637213781 -0.237682769144
420930000 0.641668644038 -0.237670396509
420940000 0.64337772363 -0.237041484674
420950000 0.642331106184 -0.237743252956
420960000 0.643109055179 -0.237631589019
420970000 0.642312227874 -0.237421683978
420980000 0.642282962021 -0.238328195042
420990000 0.641492570484 -0.238111651871
421000000 0.641747639642 -0.238266991543
421010000 0.642010492074 -0.237887509117
421020000 0.643180538767 -0.238130882321
421030000 0.643112543411 -0.238121082424
421040000 0.6427396589 -0.237690756227
421050000 0.641738442095 -0.237624714589
421060000 0.641340008753 -0.237584507616
421070000 0.64286344426 -0.2371800127
421080000 0.643068000413 -0.237953271242
421090000 0.64301073453 -0.238502313381
421100000 0.642404880414 -0.237450882348
421110000 0.642947696668 -0.238256211075
421120000 0.643477771716 -0.237574149817
421130000 0.644328206155 -0.239118659096
421140000 0.643799283415 -0.239616147178
421150000 0.644271043494 -0.239349422824
421160000 0.642912677977 -0.237350384963
421170000 0.643560071028 -0.238337319531
421180000 0.642990693977 -0.238452957859
421190000 0.642735646748 -0.237427653516
421200000 0.642718776844 -0.237198869575
421210000 0.643050055812 -0.237465811639
421220000 0.643362200207 -0.237888980546
421230000 0.643814128646 -0.237929798867
421240000 0.644454826403 -0.238894526218
421250000 0.645190435887 -0.238495842854
421260000 0.644349285814 -0.237879511846
421270000 0.645307512382 -0.238428556136
421280000 0.645862171105 -0.239327839849
421290000 0.644606998985 -0.236651591223
421300000 0.644651042026 -0.238824939837
421310000 0.643413242155 -0.238152217106
421320000 0.644701051338 -0.238629334406
421330000 0.643421236798 -0.239118733464
421340000 0.644482856296 -0.240266421784
421350000 0.64371522493 -0.238962274252
421360000 0.645222311921 -0.23814741311
421370000 0.643064220862 -0.238993068115
421380000 0.643893691074 -0.238368962908
421390000 0.644447412303 -0.238131849251
421400000 0.644911601197 -0.237686583728
421410000 0.644647701184 -0.237785066631
421420000 0.644743348883 -0.238291926011
421430000 0.644234738345 -0.238594258475
421440000 0.645159645613 -0.239060951021
421450000 0.645457406039 -0.23939253513
421460000 0.645931325552 -0.238251620816
421470000 0.646006911027 -0.238126201031
421480000 0.645679313698 -0.237696032192
421490000 0.645672412946 -0.238409782377
421500000 0.645616278198 -0.238649367492
421510000 0.645140810744 -0.238554884923
421520000 0.645746104397 -0.240165042189
421530000 0.645969921383 -0.239299517318
421540000 0.645946660608 -0.239590840564
421550000 0.645816158573 -0.238948362678
421560000 0.644819847237 -0.239513090199
421570000 0.646686025185 -0.239024182681
421580000 0.646346477096 -0.238999019606
421590000 0.646321448552 -0.239555568568
421600000 0.645563313914 -0.239382697335
421610000 0.645083184121 -0.240107028766
421620000 0.645174504738 -0.240408401216
421630000 0.645137796586 -0.239973409471
421640000 0.647713267179 -0.239643827772
421650000 0.646172762915 -0.239052279378
421660000 0.645950658221 -0.239596014203
421670000 0.646591403925 -0.239541982669
421680000 0.646438933677 -0.240392796697
421690000 0.646069526458 -0.239318404786
421700000 0.646522399834 -0.239346513869
421710000 0.645973710226 -0.238973338493
421720000 0.646639698492 -0.239836339329
421730000 0.646309265005 -0.239695048351
421740000 0.647150985584 -0.240454537743
421750000 0.646798296319 -0.239184693507
421760000 0.647818525847 -0.238783513463
421770000 0.648198520305 -0.239340821193
421780000 0.648396432812 -0.238956857644
421790000 0.646214095027 -0.240503428671
421800000 0.647685143141 -0.239633166876
421810000 0.647525596678 -0.240580359967
421820000 0.646718941619 -0.239832485339
421830000 0.646759399174 -0.239660868142
421840000 0.648092811494 -0.239648103391
421850000 0.64742798692 -0.240245460246
421860000 0.647758047796 -0.240446669224
421870000 0.648149260857 -0.2406529562
421880000 0.648264410056 -0.239915052711
421890000 0.648895338903 -0.240626436802
421900000 0.647215234341 -0.241727134734
421910000 0.647925257945 -0.240527087899
421920000 0.648370762172 -0.239466548455
421930000 0.648031569462 -0.241031899787
421940000 0.649332070252 -0.239955766618
421950000 0.648779571707 -0.240332560606
421960000 0.649263582201 -0.240867614053
421970000 0.649034633021 -0.240356626969
421980000 0.648768944582 -0.239900861014
421990000 0.648461870024 -0.240099430404
422000000 0.648585510437 -0.24004342792
422010000 0.648544589052 -0.239630395268
422020000 0.64841854517 -0.240369745376
422030000 0.648721356239 -0.239867149897
422040000 0.649132213602 -0.240126416492
422050000 0.649284323892 -0.240099415542
422060000 0.649446041704 -0.239944583849
422070000 0.649350125059 -0.24055769727
422080000 0.649065534257 -0.241401725988
422090000 0.648719655297 -0.241238951075
422100000 0.648310170184 -0.240944466259
422110000 0.648326766746 -0.240462178741
422120000 0.649270071207 -0.240639096812
422130000 0.649302753582 -0.24098706102
422140000 0.649562838148 -0.241212907988
422150000 0.649527645015 -0.241183663861
422160000 0.649359970988 -0.240969353935
422170000 0.649591279242 -0.240544711159
422180000 0.649750369819 -0.241777850629
422190000 0.649822210031 -0.240979645641
422200000 0.650321612241 -0.240273665762
422210000 0.650530935523 -0.241822723184
422220000 0.650857715364 -0.240819366483
422230000 0.649999142678 -0.240666513651
422240000 0.648866310228 -0.239994476763
422250000 0.649344850427 -0.240944885855
422260000 0.65047830067 -0.240893673337
422270000 0.649569884422 -0.241076072146
422280000 0.649995259411 -0.240993533382
422290000 0.64931748695 -0.241317920215
422300000 0.649512651365 -0.24142095997
422310000 0.65101027705 -0.241078627604
422320000 0.65172738958 -0.241489467843
422330000 0.652044850951 -0.241126441969
422340000 0.649898693289 -0.24147604329
422350000 0.650617936485 -0.241336515296
422360000 0.650926404184 -0.24249541443
422370000 0.650939535047 -0.240993360076
422380000 0.650432412871 -0.241747777256
422390000 0.649923070286 -0.242842494743
422400000 0.650203581484 -0.241620188709
422410000 0.649932232174 -0.241335033419
422420000 0.650486950394 -0.242194522905
422430000 0.650431747681 -0.240591993122
422440000 0.649846059593 -0.241178429279
422450000 0.651111587163 -0.241276109183
422460000 0.650522347723 -0.24012933258
422470000 0.652161445452 -0.239365050461
422480000 0.651302678131 -0.239159192426
422490000 0.647432310859 -0.233527076266
422500000 0.651270579891 -0.23683815287
422510000 0.65133721436 -0.24072962313
422520000 0.650478419476 -0.242088332317
422530000 0.650502940009 -0.242408725163
422540000 0.650718195603 -0.242759906525
422550000 0.651959841056 -0.24259146531
422560000 0.651817451027 -0.243052692709
422570000 0.651174087332 -0.242934054974
422580000 0.651747902807 -0.242402383446
422590000 0.652378649665 -0.242822506943
422600000 0.651741623298 -0.242962656382
422610000 0.651098305054 -0.242987128376
422620000 0.652141973733 -0.242303700592
422630000 0.652504646015 -0.241522688808
422640000 0.651107185447 -0.242477606238
422650000 0.653001147971 -0.242224185552
422660000 0.65210985956 -0.242684928922
422670000 0.652289631856 -0.242237884971
422680000 0.652150813189 -0.242097082276
422690000 0.651682364262 -0.242621167408
422700000 0.652776368156 -0.242386937976
422710000 0.652392441862 -0.242782398364
422720000 0.652426847688 -0.242809968908
422730000 0.651876345493 -0.242390765466
422740000 0.650200608048 -0.24257336073
422750000 0.650912013556 -0.242958188109
422760000 0.652114045264 -0.243113334488
422770000 0.651854132633 -0.242611682449
422780000 0.652856172553 -0.242555028272
422790000 0.652708370008 -0.242161171101
422800000 0.652119319187 -0.2430490436
422810000 0.652002848404 -0.242824093469
422820000 0.651948988777 -0.243072321627
422830000 0.651134651539 -0.242566381339
422840000 0.651822997608 -0.243577780853
422850000 0.652557628145 -0.243858410538
422860000 0.652882354547 -0.243924709346
422870000 0.652255857647 -0.24379747993
422880000 0.652809709441 -0.24374732391
422890000 0.6531396178 -0.24410486029
422900000 0.653245695357 -0.242444670143
422910000 0.654137149104 -0.242675360479
422920000 0.654737969671 -0.243345420468
422930000 0.654030222663 -0.243631069431
422940000 0.654147273692 -0.243457374297
422950000 0.654577140604 -0.24401625315
422960000 0.65302871354 -0.244362103429
422970000 0.653100947487 -0.244995977452
422980000 0.65336852994 -0.243031454923
422990000 0.652893178681 -0.244369581093
423000000 0.653986467724 -0.243646489639
423010000 0.65403136848 -0.244551555813
423020000 0.653646098003 -0.244774815073
423030000 0.654051898917 -0.244325256346
423040000 0.654392345853 -0.244315806777
423050000 0.654879217438 -0.244128490542
423060000 0.654595689006 -0.244420490936
423070000 0.653917006307 -0.244469938079
423080000 0.65427460731 -0.244277758268
423090000 0.654977738471 -0.244392410763
423100000 0.654388203499 -0.243535447025
423110000 0.65400505495 -0.244368748093
423120000 0.654000801019 -0.243705345226
423130000 0.654027221258 -0.244639682049
423140000 0.654733544356 -0.244903880634
423150000 0.654986405914 -0.244911329264
423160000 0.654704237433 -0.244789564672
423170000 0.654752177767 -0.244382901388
423180000 0.65463313947 -0.244290109561
423190000 0.655030142228 -0.244263528129
423200000 0.655802553397 -0.243798407423
423210000 0.657290066206 -0.245654574777
423220000 0.65501592254 -0.244653621196
423230000 0.655315208313 -0.244900510231
423240000 0.654697597287 -0.244270946676
423250000 0.655250033853 -0.2449108039
423260000 0.655143198562 -0.2441791646
423270000 0.655094968563 -0.244802350994
423280000 0.655939891722 -0.245528232923
423290000 0.656321074335 -0.245189185493
423300000 0.655155237595 -0.245446421746
423310000 0.65524512991 -0.245080799259
423320000 0.654926211192 -0.244940145516
423330000 0.655445763663 -0.245269652723
423340000 0.655792621681 -0.244389897063
423350000 0.655694880907 -0.244845658115
423360000 0.656124051781 -0.244992928956
423370000 0.656465019451 -0.245016344818
423380000 0.656155278844 -0.245357034917
423390000 0.65642669306 -0.245779398434
423400000 0.65558033084 -0.245321981826
423410000 0.656510851458 -0.245592184402
423420000 0.656750008215 -0.243574546311
423430000 0.656579070357 -0.246382445733
423440000 0.656411921835 -0.245320588776
423450000 0.656390037426 -0.24553534994
423460000 0.656532280934 -0.24578044813
423470000 0.656230438584 -0.245950269437
423480000 0.65666968857 -0.245678306625
423490000 0.656531550188 -0.246114991698
423500000 0.656934333488 -0.246854258259
423510000 0.657623747344 -0.246736795896
423520000 0.656854997769 -0.24630751334
423530000 0.656999149958 -0.246068891435
423540000 0.657126528374 -0.246251442842
423550000 0.658065594049 -0.246289382005
423560000 0.657898396635 -0.246715621181
423570000 0.657597888212 -0.246836719122
423580000 0.657606311376 -0.246349430748
423590000 0.657298784217 -0.246722806873
423600000 0.658273157867 -0.246560347238
423610000 0.65749606542 -0.246572282372
423620000 0.657599507374 -0.246831891911
423630000 0.656940315069 -0.247292623725
423640000 0.657728344662 -0.24730801965
423650000 0.657845738474 -0.247198275296
423660000 0.657561488542 -0.246547638627
423670000 0.658722187798 -0.246860562779
423680000 0.658521554112 -0.24723182668
423690000 0.657818222416 -0.247688218328
423700000 0.6581940359 -0.247274556496
423710000 0.658005530899 -0.24687425143
423720000 0.657973321857 -0.246927571804
423730000 0.657216951509 -0.247593965269
423740000 0.657927747886 -0.247274568684
423750000 0.657825911893 -0.24718158052
423760000 0.657463772904 -0.247011781324
423770000 0.658380434502 -0.247210901734
423780000 0.658660767104 -0.246977143812
423790000 0.657944353512 -0.246886249597
423800000 0.659173947835 -0.24736118766
423810000 0.659434816213 -0.24731312513
423820000 0.658563254706 -0.247178624962
423830000 0.658794660491 -0.247658141602
423840000 0.658928671635 -0.24738285632
423850000 0.658343513965 -0.247038550671
423860000 0.658403625674 -0.247266963326
423870000 0.658678571267 -0.247395547964
423880000 0.658732562725 -0.247806211063
423890000 0.659417952611 -0.248366941512
423900000 0.659205856453 -0.247849526848
423910000 0.659409022116 -0.247983116165
423920000 0.659088491952 -0.247387914223
423930000 0.659858222274 -0.24780687025
423940000 0.659420032546 -0.247977272431
423950000 0.659084368706 -0.247794470023
423960000 0.659737004284 -0.248383920529
423970000 0.658811037962 -0.24840317255
423980000 0.65917553892 -0.247710783742
423990000 0.658881245625 -0.248074004983
424000000 0.658981942266 -0.248742253915
424010000 0.659190299851 -0.24885624759
424020000 0.658807576056 -0.247901713888
424030000 0.658138080341 -0.249021251093
424040000 0.658265419127 -0.248945039497
424050000 0.65885036527 -0.248702438279
424060000 0.659647980549 -0.248430730094
424070000 0.659418874187 -0.248829044347
424080000 0.660011543059 -0.248711843186
424090000 0.659626324197 -0.248867545337
424100000 0.659956157956 -0.249273031323
424110000 0.659922258684 -0.248914205237
424120000 0.659894182423 -0.248890301928
424130000 0.659161884537 -0.249387854608
424140000 0.660122035686 -0.248497264143
424150000 0.659814267418 -0.248474097981
424160000 0.660154348194 -0.248655375238
424170000 0.660532150001 -0.249000522751
424180000 0.659859626134 -0.249318893672
424190000 0.660497920358 -0.249002763377
424200000 0.660472580909 -0.248721673404
424210000 0.660687322508 -0.249142254934
424220000 0.660509313239 -0.248907899305
424230000 0.661057740137 -0.248532551481
424240000 0.660659030528 -0.249169197668
424250000 0.66086793639 -0.248981735753
424260000 0.660952189855 -0.249166240018
424270000 0.660528593407 -0.249410814215
424280000 0.660790281269 -0.248695957779
424290000 0.660793264162 -0.249228372741
424300000 0.661318933867 -0.249453273009
424310000 0.661501173386 -0.249360889859
424320000 0.662142974187 -0.249475281569
424330000 0.661954917846 -0.249228261337
424340000 0.662001168516 -0.24963818708
424350000 0.661044727357 -0.250162007885
424360000 0.661280822177 -0.25039099378
424370000 0.661814248889 -0.250052490919
424380000 0.661742283459 -0.250298752996
424390000 0.661486651 -0.250715212675
424400000 0.658961807972 -0.249795117127
424410000 0.660459934323 -0.250338568768
424420000 0.660925199983 -0.250209429823
424430000 0.661651699445 -0.249858538764
424440000 0.662397584816 -0.249842513943
424450000 0.662352926845 -0.250043261359
424460000 0.662365995476 -0.250129393611
424470000 0.662261668187 -0.251133623704
424480000 0.662263335263 -0.250780266931
424490000 0.662384651429 -0.250960026223
424500000 0.662141741579 -0.250753646109
424510000 0.661835802385 -0.251041273722
424520000 0.661762941361 -0.250662089952
424530000 0.661598181094 -0.250144792942
424540000 0.662187742977 -0.250441358547
424550000 0.662157133781 -0.251090906382
424560000 0.662506406129 -0.251539733785
424570000 0.661961574192 -0.25101586887
424580000 0.662874021361 -0.251134995667
424590000 0.662516350953 -0.251043997964
424600000 0.66226245252 -0.251753373785
424610000 0.66334640274 -0.25170334673
424620000 0.662521392032 -0.251435125747
424630000 0.663262679991 -0.252676590215
424640000 0.662955927032 -0.252497027857
424650000 0.66300607152 -0.252311715754
424660000 0.663516084432 -0.251778619493
424670000 0.663360883191 -0.251739380426
424680000 0.663204922494 -0.252020320771
424690000 0.662955682119 -0.251450276175
424700000 0.66333730639 -0.251675734342
424710000 0.662880707129 -0.251961065175
424720000 0.662480218433 -0.251762372874
424730000 0.662999059451 -0.251988264216
424740000 0.662229819103 -0.252395986691
424750000 0.662847584908 -0.251653984379
424760000 0.661519676465 -0.251355188055
424770000 0.662451572298 -0.252012082578
424780000 0.66290109821 -0.251656516976
424790000 0.663339314905 -0.252743650111
424800000 0.663813420404 -0.254939303374
424810000 0.663690949855 -0.257161420374
424820000 0.664651909592 -0.255869661247
424830000 0.663906245076 -0.254609897774
424840000 0.663562108017 -0.252984965776
424850000 0.663414615949 -0.25269056026
424860000 0.663095527931 -0.251775144129
424870000 0.662834647567 -0.25214943094
424880000 0.663470785368 -0.251791567582
424890000 0.663729709948 -0.251869936412
424900000 0.663542606622 -0.252243048957
424910000 0.663787312824 -0.252042681209
424920000 0.664183170809 -0.253038340412
424930000 0.66415217772 -0.252890292146
424940000 0.664389431217 -0.252942353643
424950000 0.664286634115 -0.252633933323
424960000 0.664546110858 -0.252950179541
424970000 0.664381020986 -0.252843257478
424980000 0.663468078572 -0.252645897124
424990000 0.663909557825 -0.251967591415
425000000 0.66443875606 -0.252976155888
425010000 0.66415012817 -0.252655967248
425020000 0.663983952223 -0.252772712546
425030000 0.664498942683 -0.253276547458
425040000 0.664392483536 -0.253309226511
425050000 0.664580770995 -0.253447830464
425060000 0.664381756585 -0.252972387176
425070000 0.663031533664 -0.251491202352
425080000 0.665705976344 -0.252614697162
425090000 0.663350018248 -0.252855049688
425100000 0.664390150025 -0.254345377983
425110000 0.664359302046 -0.253499403179
425120000 0.664554587349 -0.253775723847
425130000 0.664087354711 -0.253884694231
425140000 0.664103444814 -0.253424649649
425150000 0.664712233783 -0.253736878738
425160000 0.664578533567 -0.25406971667
425170000 0.663834277323 -0.253627343533
425180000 0.665429638201 -0.253744798105
425190000 0.664081641351 -0.253276615539
425200000 0.665533246748 -0.253514679751
425210000 0.664587810471 -0.254583591728
425220000 0.664752912909 -0.25427857808
425230000 0.666075127212 -0.254214993503
425240000 0.665602379164 -0.25488039042
425250000 0.665375593191 -0.254046135935
425260000 0.665532742479 -0.254817623509
425270000 0.66614881028 -0.253866265923
425280000 0.666468289383 -0.253802568535
425290000 0.666126575788 -0.254680294522
425300000 0.666333475443 -0.254069801705
425310000 0.665470638049 -0.25430907129
425320000 0.6656178504 -0.254810191
425330000 0.664983938102 -0.254087482781
425340000 0.666144313747 -0.254227018567
425350000 0.664769690123 -0.25437417769
425360000 0.665134129623 -0.254435910076
425370000 0.665272639064 -0.254576726933
425380000 0.665383856825 -0.25452709911
425390000 0.666128448634 -0.254090190832
425400000 0.666225270269 -0.254607628004
425410000 0.666627953646 -0.255042541618
425420000 0.665900917517 -0.254934219771
425430000 0.665984472609 -0.25555839524
425440000 0.66580889222 -0.254357852937
425450000 0.666028276209 -0.255253540616
425460000 0.665989838999 -0.255229824729
425470000 0.666023072034 -0.255619564257
425480000 0.666062076386 -0.25681563013
425490000 0.666379568058 -0.256259797933
425500000 0.666081565477 -0.255652123147
425510000 0.666197192773 -0.255767696973
425520000 0.666396653816 -0.255595672448
425530000 0.666617716805 -0.255253359771
425540000 0.666558305451 -0.255427405176
425550000 0.666085454286 -0.254755968887
425560000 0.666197966497 -0.255142646119
425570000 0.666049017431 -0.255389445454
425580000 0.665138920569 -0.255259437623
425590000 0.666098077095 -0.255687093815
425600000 0.666346086907 -0.255514348184
425610000 0.666446468264 -0.255994360419
425620000 0.666813521068 -0.256189789921
425630000 0.667133266358 -0.255672335804
425640000 0.666432033689 -0.255745026216
425650000 0.665975033981 -0.256724170211
425660000 0.666483918986 -0.256495658885
425670000 0.666793628315 -0.255954536414
425680000 0.667072461244 -0.257038401374
425690000 0.667296633607 -0.256519444128
425700000 0.666699698772 -0.257707202682
425710000 0.667431150017 -0.257247915583
425720000 0.666503610194 -0.256937884176
425730000 0.66624305935 -0.256649809643
425740000 0.667047961226 -0.256586383932
425750000 0.667173738805 -0.256441039828
425760000 0.668084097741 -0.256896130206
425770000 0.668128515004 -0.256669431126
425780000 0.666972758112 -0.256985897296
425790000 0.667602590212 -0.256929338144
425800000 0.667341013659 -0.256465415149
425810000 0.667518589491 -0.257265310528
425820000 0.666566742582 -0.257380807266
425830000 0.667356048581 -0.25740985583
425840000 0.668680395404 -0.257284563889
425850000 0.668585813643 -0.257158326882
425860000 0.667961911352 -0.257810068395
425870000 0.66788940194 -0.257867237856
425880000 0.667490252253 -0.258315270602
425890000 0.66737209092 -0.257858281974
425900000 0.667237091764 -0.257917024767
425910000 0.66823271707 -0.257836654906
425920000 0.668027572995 -0.257653895278
425930000 0.667989133595 -0.256943898165
425940000 0.668161612105 -0.257215930643
425950000 0.668593011045 -0.256970545131
425960000 0.668377548912 -0.257433960474
425970000 0.667844902606 -0.25759104423
425980000 0.66747300007 -0.258158370217
425990000 0.667904989549 -0.258266842611
426000000 0.668149143721 -0.258083791729
426010000 0.667921614843 -0.258247695865
426020000 0.669019561174 -0.258594577465
426030000 0.668020270091 -0.258579718122
426040000 0.668408134007 -0.258640225474
426050000 0.667953744812 -0.258183774862
426060000 0.668295176543 -0.257882536602
426070000 0.668001880115 -0.258183227371
426080000 0.667751146313 -0.258242359979
426090000 0.668495225095 -0.257968922557
426100000 0.667007147151 -0.257126969746
426110000 0.668962290626 -0.257092977588
426120000 0.668759419631 -0.257550256862
426130000 0.668930868967 -0.258018732106
426140000 0.667893843344 -0.25896827622
426150000 0.66793282976 -0.258999375045
426160000 0.668203738932 -0.258995621197
426170000 0.668637717338 -0.259584603967
426180000 0.668526092507 -0.259125469125
426190000 0.668739287623 -0.259436281857
426200000 0.668207788388 -0.259892558241
426210000 0.668575442672 -0.259852457364
426220000 0.668799814216 -0.259801797375
426230000 0.668242164708 -0.26009815466
426240000 0.668745449326 -0.259483809067
426250000 0.669724079515 -0.259718464228
426260000 0.668669391244 -0.259448784532
426270000 0.668927035425 -0.259286084227
426280000 0.668640045466 -0.260179140405
426290000 0.668365238865 -0.26014435516
426300000 0.669357955685 -0.25987469045
426310000 0.669350013494 -0.259600007755
426320000 0.669148728053 -0.259531052345
426330000 0.668680545459 -0.259170051076
426340000 0.668907414452 -0.259315143787
426350000 0.669106728879 -0.259457458043
426360000 0.669418200598 -0.260317326308
426370000 0.669986184767 -0.260580390148
426380000 0.669953562325 -0.260382833899
426390000 0.669385699137 -0.260120661371
426400000 0.669537883463 -0.260205035521
426410000 0.66895646313 -0.260877702788
426420000 0.669351671494 -0.260422248982
426430000 0.6690885864 -0.26067600712
426440000 0.669375498733 -0.260584279622
426450000 0.669856355792 -0.260530758377
426460000 0.669715262848 -0.261055706328
426470000 0.66970381379 -0.260761775242
426480000 0.669575622806 -0.259891060581
426490000 0.669375160171 -0.261053208218
426500000 0.669798813051 -0.261215650795
426510000 0.669710424795 -0.261105679259
426520000 0.670319126644 -0.260847960974
426530000 0.6697777352 -0.261250194296
426540000 0.670159573016 -0.261128478101
426550000 0.670497465756 -0.260887638709
426560000 0.670425552529 -0.261121719478
426570000 0.670146882272 -0.261221658532
426580000 0.670141359792 -0.260997645308
426590000 0.66986240992 -0.261043304161
426600000 0.669767768316 -0.261546151458
426610000 0.669141837397 -0.261041327751
426620000 0.668952770829 -0.262259791555
426630000 0.670351604696 -0.261378287439
426640000 0.670551489112 -0.262501312735
426650000 0.671281872845 -0.262716023128
426660000 0.670730451061 -0.262114510712
426670000 0.67092950838 -0.261384463387
426680000 0.669880094774 -0.261084094978
426690000 0.670235034001 -0.260812671869
426700000 0.670975908714 -0.261577134752
426710000 0.67132004556 -0.262575982562
426720000 0.671097991489 -0.262468608538
426730000 0.670784861618 -0.262100223308
426740000 0.670138715376 -0.262139925349
426750000 0.669707364019 -0.261866193531
426760000 0.67024302468 -0.262609496791
426770000 0.670154858535 -0.262978530228
426780000 0.671004313008 -0.263602412704
426790000 0.670258901487 -0.263351455692
426800000 0.670411431583 -0.263080263605
426810000 0.669950137591 -0.262970885049
426820000 0.670428416836 -0.263105395878
426830000 0.670523921101 -0.263352370226
426840000 0.670829177321 -0.262558882986
426850000 0.670976063132 -0.262760470109
426860000 0.671222615402 -0.263062034226
426870000 0.671766023759 -0.262787163475
426880000 0.67102515842 -0.26151621336
426890000 0.671056287321 -0.262206579317
426900000 0.670801453807 -0.262437024184
426910000 0.670756266743 -0.262341563194
426920000 0.670959803487 -0.262118520198
426930000 0.670419551173 -0.262626461879
426940000 0.670459868345 -0.262715473323
426950000 0.670491760451 -0.262562752617
426960000 0.671204056124 -0.262232621994
426970000 0.671644717125 -0.263120304291
426980000 0.671361711428 -0.262671789671
426990000 0.671153257243 -0.263009073735
427000000 0.671077993623 -0.262108746961
427010000 0.671248474315 -0.262668399267
427020000 0.670809844814 -0.26250859213
427030000 0.670693079177 -0.262617803481
427040000 0.671222119174 -0.263281584415
427050000 0.670727058755 -0.263395545194
427060000 0.670930753093 -0.262881767423
427070000 0.671223059455 -0.263281270894
427080000 0.671123167346 -0.263232906581
427090000 0.671040903527 -0.263226626456
427100000 0.671346734652 -0.263964823388
427110000 0.671294100004 -0.262793037422
427120000 0.670981733439 -0.263754768582
427130000 0.673126803205 -0.263820842923
427140000 0.671097244976 -0.264377687436
427150000 0.670701451266 -0.263614405904
427160000 0.671566991837 -0.263921908098
427170000 0.67119475828 -0.263126135694
427180000 0.671488075805 -0.263140577321
427190000 0.671606984261 -0.264098200144
427200000 0.671501685364 -0.263933797319
427210000 0.672365885669 -0.264215903711
427220000 0.672380112951 -0.264130833677
427230000 0.672336842453 -0.263741542948
427240000 0.672648891905 -0.263971711979
427250000 0.672319956145 -0.264450610937
427260000 0.672783249322 -0.264761583469
427270000 0.672333209889 -0.26500700618
427280000 0.67188615846 -0.264186321305
427290000 0.672347557968 -0.26539712776
427300000 0.672916903155 -0.264793093894
427310000 0.672216218374 -0.265001272386
427320000 0.671987459675 -0.265019272566
427330000 0.671698723132 -0.266046316342
427340000 0.672141571894 -0.265776213284
427350000 0.671938823028 -0.265742173295
427360000 0.67204723283 -0.265632909716
427370000 0.671883117065 -0.265602896465
427380000 0.671433940372 -0.26543612228
427390000 0.671435454338 -0.265931163879
427400000 0.671839895353 -0.266076286104
427410000 0.672339916746 -0.264935351779
427420000 0.671101286293 -0.265839394268
427430000 0.671390457095 -0.265272094461
427440000 0.671936537358 -0.26528137541
427450000 0.672399422468 -0.265654767052
427460000 0.673454881046 -0.266163507519
427470000 0.672884021621 -0.265735419274
427480000 0.672250322659 -0.265678496801
427490000 0.672827434199 -0.265729800524
427500000 0.672588658139 -0.266066744779
427510000 0.672714817456 -0.266332136061
427520000 0.672686664412 -0.266510065065
427530000 0.672497466779 -0.266559914888
427540000 0.672633661531 -0.265952202234
427550000 0.67259684775 -0.266502680514
427560000 0.672623359447 -0.266021487588
427570000 0.673231629766 -0.266216517109
427580000 0.673020587892 -0.266603566144
427590000 0.67354265909 -0.266562946498
427600000 0.673259345377 -0.266796096888
427610000 0.673213326241 -0.266591064556
427620000 0.673464329279 -0.266525008392
427630000 0.674281545829 -0.266831136238
427640000 0.673462133633 -0.266996572863
427650000 0.673457060932 -0.266130824874
427660000 0.673165011629 -0.266301867225
427670000 0.672930658361 -0.268086164664
427680000 0.673006772453 -0.26681865318
427690000 0.673269414215 -0.267097499746
427700000 0.673298025759 -0.267175687529
427710000 0.673970397514 -0.266530369979
427720000 0.673755059141 -0.267441152924
427730000 0.672728958965 -0.267021056009
427740000 0.67306831718 -0.266898012159
427750000 0.672887959673 -0.26664614362
427760000 0.672971008561 -0.266568575987
427770000 0.673408786839 -0.267354522424
427780000 0.673044222291 -0.267113101312
427790000 0.672596714479 -0.267590836417
427800000 0.673167917402 -0.267726314213
427810000 0.672998569965 -0.26847055636
427820000 0.672277526336 -0.268326322515
427830000 0.67304907927 -0.267422525909
427840000 0.672673304138 -0.267697015204
427850000 0.673467583832 -0.268720330668
427860000 0.67367711024 -0.267763951546
427870000 0.673870989752 -0.268471567684
427880000 0.673955012561 -0.267801287385
427890000 0.673162562493 -0.267545298018
427900000 0.671369353426 -0.264546394498
427910000 0.672041484761 -0.266157082927
427920000 0.675050371083 -0.267990003966
427930000 0.674746070048 -0.268445352662
427940000 0.673949321629 -0.269030911128
427950000 0.673996967603 -0.268725059496
427960000 0.673994242389 -0.267948522688
427970000 0.673408883763 -0.268152377396
427980000 0.673658853465 -0.267781423393
427990000 0.674132233404 -0.268077755017
428000000 0.674353482224 -0.267843442992
428010000 0.674159370806 -0.268142282321
428020000 0.673794891526 -0.267859183493
428030000 0.672960395555 -0.268293660781
428040000 0.673311806123 -0.268206956334
428050000 0.674003191404 -0.268135328631
428060000 0.674046739838 -0.268139042604
428070000 0.674047522359 -0.267641700433
428080000 0.67421876623 -0.267974323599
428090000 0.674341454472 -0.26859340865
428100000 0.67424658445 -0.269333688656
428110000 0.674288581875 -0.268488826527
428120000 0.674094109441 -0.268628503597
428130000 0.674044524399 -0.268579065607
428140000 0.673952709793 -0.268415093368
428150000 0.673557999019 -0.268802219715
428160000 0.674272086445 -0.268436707913
428170000 0.674467800076 -0.268166742458
428180000 0.674791168659 -0.26912545694
428190000 0.674457257519 -0.268336536617
428200000 0.672938934375 -0.268154130196
428210000 0.674123556844 -0.268864912672
428220000 0.67430893943 -0.269650202656
428230000 0.674011427033 -0.269278764447
428240000 0.674175217406 -0.269170712931
428250000 0.6745291985 -0.270884514707
428260000 0.67488272114 -0.269797934627
428270000 0.674788604086 -0.270445228761
428280000 0.675009203465 -0.269257404726
428290000 0.674633706489 -0.269806200087
428300000 0.674664010649 -0.269316005599
428310000 0.674264649946 -0.269313516425
428320000 0.673042804741 -0.269167070977
428330000 0.674271535101 -0.269954273959
428340000 0.674267720385 -0.270173423057
428350000 0.67466616596 -0.270201704255
428360000 0.674788465197 -0.270305120613
428370000 0.675198881071 -0.270152801767
428380000 0.674647089269 -0.270029852174
428390000 0.674265740151 -0.270263287433
428400000 0.675170127295 -0.270129233726
428410000 0.675169698929 -0.270319228512
428420000 0.675546194033 -0.270381009466
428430000 0.674662960406 -0.270771033886
428440000 0.675569846198 -0.270442169715
428450000 0.675291924683 -0.270307184156
428460000 0.674838932154 -0.270437771872
428470000 0.674864487487 -0.271085980138
428480000 0.674843288997 -0.271114882028
428490000 0.674777598627 -0.270919298571
428500000 0.674898967736 -0.271182273441
428510000 0.675062862601 -0.270637199782
428520000 0.674710795028 -0.271204264631
428530000 0.674435984218 -0.270784385975
428540000 0.674659444598 -0.270787737488
428550000 0.674830881239 -0.271034639945
428560000 0.67509779776 -0.270917691421
428570000 0.675104055233 -0.271312823233
428580000 0.674902586523 -0.27102022628
428590000 0.674809716621 -0.2707596475
428600000 0.674349714898 -0.270833311614
428610000 0.674852612174 -0.271892273389
428620000 0.674721361157 -0.272163359463
428630000 0.674953352098 -0.271849646632
428640000 0.675644556823 -0.271831215193
428650000 0.6751260066 -0.271782116198
428660000 0.674786051152 -0.27117784997
428670000 0.675447550494 -0.271890264184
428680000 0.672810925518 -0.27181450114
428690000 0.67517271704 -0.271567540134
428700000 0.675538309233 -0.271100353532
428710000 0.675746338832 -0.271779406466
428720000 0.675535395266 -0.271581425394
428730000 0.675186325824 -0.272183172647
428740000 0.675429733364 -0.271605884007
428750000 0.675024183782 -0.271916269369
428760000 0.674967461837 -0.271874804131
428770000 0.67506664554 -0.272233156478
428780000 0.675375491979 -0.272467352139
428790000 0.675667328452 -0.272693359022
428800000 0.67513330507 -0.272536966628
428810000 0.674869234618 -0.272319167852
428820000 0.674667025943 -0.27274182485
428830000 0.675377329598 -0.272989116382
428840000 0.675411275068 -0.273744772635
428850000 0.675675244111 -0.273423240472
428860000 0.676122649389 -0.272096443139
428870000 0.676173992646 -0.2731916194
428880000 0.675856021974 -0.272835763786
428890000 0.67409234528 -0.273998793344
428900000 0.675918464884 -0.273210012247
428910000 0.675693271924 -0.273727462637
428920000 0.676197009004 -0.273272685485
428930000 0.675771623003 -0.273737840413
428940000 0.676206528057 -0.27345853456
428950000 0.676053422819 -0.273646571341
428960000 0.675341140679 -0.272770179452
428970000 0.674894333103 -0.271781011595
428980000 0.672938840262 -0.269857853012
428990000 0.67725411281 -0.264186966999
429000000 0.658553308546 -0.270299398349
429010000 0.674847801712 -0.271009536773
429020000 0.675206940173 -0.272310813416
429030000 0.675611812332 -0.273559727649
429040000 0.675546365591 -0.274262262351
429050000 0.676021360497 -0.274021644846
429060000 0.676022368191 -0.27452219319
429070000 0.676229909574 -0.274827728593
429080000 0.676550421759 -0.274451363704
429090000 0.67628522039 -0.274376436502
429100000 0.675907207324 -0.274326499229
429110000 0.676173058164 -0.274414501518
429120000 0.675576731493 -0.275148584895
429130000 0.67624864461 -0.275371769016
429140000 0.676315594102 -0.274683008077
429150000 0.677081587801 -0.274569024871
429160000 0.676838856153 -0.274794608019
429170000 0.676549331843 -0.274851239347
429180000 0.675739710126 -0.274948928262
429190000 0.675480659204 -0.275377416491
429200000 0.675169274377 -0.275061830411
429210000 0.6748378979 -0.274828339711
429220000 0.675944448793 -0.274998144674
429230000 0.675901531047 -0.274691103836
429240000 0.676387561141 -0.275093401501
429250000 0.676919404359 -0.274852496256
429260000 0.675053922373 -0.275330087203
429270000 0.677638821553 -0.275154323915
429280000 0.676966467049 -0.275203885797
429290000 0.677414401758 -0.275198458056
429300000 0.676758790789 -0.275542940018
429310000 0.676804815434 -0.275043100568
429320000 0.67675475144 -0.275793307308
429330000 0.677533984172 -0.275519670337
429340000 0.676614526571 -0.27498141936
429350000 0.676396891163 -0.275072143623
429360000 0.676542534882 -0.275049989355
429370000 0.676267964891 -0.275093689738
429380000 0.676580443804 -0.277606128096
429390000 0.6758954509 -0.274522665909
429400000 0.676680949397 -0.275701537371
429410000 0.676107181081 -0.276318726422
429420000 0.677303540039 -0.276373777731
429430000 0.677158577634 -0.276259024719
429440000 0.67666597198 -0.276027314446
429450000 0.676689988913 -0.27610601481
429460000 0.677349313152 -0.276154470102
429470000 0.677121732976 -0.275922086279
429480000 0.676455507997 -0.276363940568
429490000 0.676782780444 -0.276514105752
429500000 0.676720201936 -0.276638518646
429510000 0.676938338334 -0.277096634713
429520000 0.676389878035 -0.276965784824
429530000 0.676141826355 -0.277118049872
429540000 0.676750370734 -0.276108213795
429550000 0.67719063885 -0.27608044562
429560000 0.677222874554 -0.276603581776
429570000 0.676617892655 -0.276391526032
429580000 0.677429312944 -0.276530997429
429590000 0.676967589268 -0.276696758562
429600000 0.677223747288 -0.27651937847
429610000 0.677025701209 -0.276731767927
429620000 0.677189192452 -0.276417431561
429630000 0.676841858915 -0.277202240378
429640000 0.676498165147 -0.277852575529
429650000 0.676432643038 -0.277722886521
429660000 0.676802557666 -0.278017961319
429670000 0.677078657246 -0.277084054554
429680000 0.676481698582 -0.277286829044
429690000 0.67714081644 -0.277666723148
429700000 0.677140409717 -0.276876494112
429710000 0.676924227791 -0.277362182105
429720000 0.677757854979 -0.277345681157
429730000 0.677282659966 -0.277679170341
429740000 0.677175840952 -0.277700540678
429750000 0.677453214243 -0.278193553546
429760000 0.677440501051 -0.277831099588
429770000 0.67745286832 -0.278157821144
429780000 0.677569440878 -0.278486505627
429790000 0.677296895772 -0.278426812017
429800000 0.677830952192 -0.27791001719
429810000 0.677667177076 -0.278243056929
429820000 0.677504720456 -0.278088825086
429830000 0.678331728403 -0.278099896192
429840000 0.67678623582 -0.277627204603
429850000 0.677180930198 -0.278239800503
429860000 0.677094691632 -0.278332254107
429870000 0.677764474819 -0.278913863209
429880000 0.678140849046 -0.279488981734
429890000 0.677555745836 -0.278480077933
429900000 0.678582386008 -0.278059870559
429910000 0.677156939441 -0.278346438441
429920000 0.677722201295 -0.278314180119
429930000 0.67806933971 -0.278575508445
429940000 0.677211123832 -0.278656259839
429950000 0.677827936515 -0.278604698769
429960000 0.678040337897 -0.278560904134
429970000 0.678406877692 -0.279678514237
429980000 0.678711087069 -0.280847198398
429990000 0.678470529921 -0.281456952848
430000000 0.678702475932 -0.280558252731
430010000 0.67711749336 -0.279352742879
430020000 0.679873786377 -0.278015686099
430030000 0.678388456738 -0.278490649541
430040000 0.677935196268 -0.279119585358
430050000 0.678114574186 -0.278885833056
430060000 0.678392471987 -0.278386864622
430070000 0.678207141601 -0.278308998824
430080000 0.678308551693 -0.278306458468
430090000 0.677953330051 -0.278548449678
430100000 0.678475717708 -0.278652927743
430110000 0.678208632734 -0.279172198251
430120000 0.6779405335 -0.279151553252
430130000 0.678815859739 -0.279502735997
430140000 0.678286925972 -0.27938708194
430150000 0.678387671281 -0.278824802922
430160000 0.678619284736 -0.279685893545
430170000 0.676742937889 -0.278580030216
430180000 0.67813820592 -0.279713729845
430190000 0.678730948612 -0.279833772342
430200000 0.678703423403 -0.279406113696
430210000 0.67831246809 -0.279408946967
430220000 0.678709824827 -0.279556060027
430230000 0.678309281954 -0.279504303425
430240000 0.67859995324 -0.279559414142
430250000 0.678571819854 -0.280497991131
430260000 0.678621824914 -0.280149496144
430270000 0.678911793158 -0.280269710357
430280000 0.679260734985 -0.279765370841
430290000 0.679005927942 -0.280149457669
430300000 0.679356870906 -0.280552657006
430310000 0.678847344539 -0.281188649098
430320000 0.678989230271 -0.281118766189
430330000 0.678620551178 -0.280048957137
430340000 0.67951141724 -0.280758906496
430350000 0.679512380068 -0.2810413821
430360000 0.679331497166 -0.280534822946
430370000 0.679511143008 -0.281289129137
430380000 0.679367384034 -0.281335544628
430390000 0.678637779081 -0.281392451118
430400000 0.678815608104 -0.280693546323
430410000 0.678483510625 -0.281408359402
430420000 0.67875334737 -0.280736248705
430430000 0.678589733415 -0.280652061035
430440000 0.678988222628 -0.2810663372
430450000 0.679124311297 -0.281380300277
430460000 0.678732321343 -0.28179698191
430470000 0.678857461184 -0.282276747588
430480000 0.679229029342 -0.281924436846
430490000 0.678789931359 -0.281167214968
430500000 0.679508970079 -0.281752496844
430510000 0.67963701986 -0.281550773251
430520000 0.679544535901 -0.281869964736
430530000 0.679176974923 -0.282111069923
430540000 0.678555997149 -0.282048570689
430550000 0.679195926734 -0.282035425901
430560000 0.679233781627 -0.281796930878
430570000 0.679323135189 -0.28179954638
430580000 0.678938479186 -0.28188554359
430590000 0.678997995257 -0.281498872763
430600000 0.679102142912 -0.282004690423
430610000 0.67955281991 -0.282330994765
430620000 0.679451401493 -0.282452661679
430630000 0.67893260021 -0.282212071552
430640000 0.679545081357 -0.282881021219
430650000 0.679679746201 -0.282553615948
430660000 0.679568340012 -0.281931230614
430670000 0.679631393826 -0.282384227298
430680000 0.679279544643 -0.282326437299
430690000 0.679620010549 -0.282531711614
430700000 0.678991064032 -0.282366609907
430710000 0.679031409565 -0.282866697249
430720000 0.678911634154 -0.282851187531
430730000 0.67948456969 -0.282569982539
430740000 0.679735805266 -0.28297174944
430750000 0.679273578345 -0.282739602295
430760000 0.679067627508 -0.282625230354
430770000 0.679845856521 -0.282486671308
430780000 0.679167006951 -0.282905400537
430790000 0.678817987727 -0.282983554977
430800000 0.679259887792 -0.283524161305
430810000 0.679572151104 -0.283201928684
430820000 0.679856173138 -0.283462433854
430830000 0.679391839551 -0.283435211201
430840000 0.679108851573 -0.283765467484
430850000 0.680391162244 -0.28319185442
430860000 0.679315247027 -0.28380888819
430870000 0.679400360778 -0.283307048529
430880000 0.679586139234 -0.283715843063
430890000 0.679903363918 -0.283403618644
430900000 0.680027548829 -0.284009953546
430910000 0.680231816552 -0.284097181293
430920000 0.679926122487 -0.283917473218
430930000 0.680103927895 -0.284180968119
430940000 0.68056728761 -0.28456979699
430950000 0.679443212983 -0.283915334863
430960000 0.679377509776 -0.283770433455
430970000 0.680065668515 -0.283666561505
430980000 0.679731187824 -0.283277721601
430990000 0.679390196568 -0.283195288298
431000000 0.679443355286 -0.283696830493
431010000 0.680384669238 -0.2839946394
431020000 0.680317308416 -0.284568268083
431030000 0.681641848092 -0.28381403122
431040000 0.680747469422 -0.284395828958
431050000 0.679308333138 -0.284083284524
431060000 0.679962239136 -0.284535721603
431070000 0.680777604174 -0.284474168044
431080000 0.680576259206 -0.282988697127
431090000 0.680265402697 -0.284058688738
431100000 0.680960543177 -0.284616826857
431110000 0.679915858412 -0.284096744431
431120000 0.680557487615 -0.284132311231
431130000 0.680923202055 -0.284541880352
431140000 0.681061195656 -0.285205959192
431150000 0.681231313119 -0.285079684447
431160000 0.680573114872 -0.284547260549
431170000 0.681014354392 -0.28455699037
431180000 0.68083888586 -0.284459600861
431190000 0.680635015875 -0.284480452475
431200000 0.681061551814 -0.285553809048
431210000 0.680639932053 -0.285258793366
431220000 0.680807417502 -0.284893156672
431230000 0.680426772173 -0.284959530313
431240000 0.680647247502 -0.285485264558
431250000 0.680597108865 -0.285732991675
431260000 0.680733646423 -0.28614255882
431270000 0.679907725238 -0.286372303123
431280000 0.679892479727 -0.286823970415
431290000 0.679401058287 -0.287046201719
431300000 0.679534461961 -0.286850452357
431310000 0.679646797519 -0.286009064683
431320000 0.679831617809 -0.286570361723
431330000 0.680502170491 -0.285869803827
431340000 0.680135431077 -0.286466698079
431350000 0.681269566184 -0.282827027055
431360000 0.681163223649 -0.286312655111
431370000 0.681213413312 -0.286034088529
431380000 0.680913695402 -0.286097626983
431390000 0.681054459034 -0.285847431578
431400000 0.680595669042 -0.286183411946
431410000 0.680826169675 -0.286546437355
431420000 0.6809367191 -0.287455649225
431430000 0.680800184837 -0.287865816309
431440000 0.680533734131 -0.287273241135
431450000 0.680556117664 -0.286886993791
431460000 0.680377081455 -0.286310839621
431470000 0.679834959633 -0.286816850511
431480000 0.680413567298 -0.287293510867
431490000 0.68124237516 -0.28726768235
431500000 0.68051905807 -0.28697469258
431510000 0.680966333682 -0.286804867214
431520000 0.681160292142 -0.287221334692
431530000 0.680795505232 -0.286807132931
431540000 0.680501522754 -0.287285211732
431550000 0.681193078565 -0.287157890615
431560000 0.681703492844 -0.287265016364
431570000 0.68201319229 -0.287327372402
431580000 0.68162258549 -0.287545448833
431590000 0.680704026467 -0.287769679125
431600000 0.680908303769 -0.286902107578
431610000 0.680817945902 -0.286880868716
431620000 0.681348887976 -0.286611017565
431630000 0.680668940229 -0.286665408442
431640000 0.678884060677 -0.284287788161
431650000 0.677851833881 -0.282338999244
431660000 0.67721383261 -0.281182388399
431670000 0.678613076539 -0.283926388205
431680000 0.680657675008 -0.286510122508
431690000 0.681337958734 -0.287959561457
431700000 0.681237286458 -0.288429294808
431710000 0.681217217099 -0.287809499395
431720000 0.68091287174 -0.287966579818
431730000 0.681731545839 -0.288355640953
431740000 0.682242246888 -0.288076360841
431750000 0.681667139218 -0.287809309032
431760000 0.681645286605 -0.28736289127
431770000 0.6813449126 -0.287743689703
431780000 0.681628424351 -0.287632525807
431790000 0.68175654259 -0.288315952335
431800000 0.681574406662 -0.289272927967
431810000 0.68139379547 -0.289131359524
431820000 0.681705252071 -0.288558749982
431830000 0.681058158827 -0.288186640966
431840000 0.681118648093 -0.288447631233
431850000 0.681578963944 -0.288674335332
431860000 0.681338383954 -0.288912783778
431870000 0.68104918477 -0.288592190915
431880000 0.680997811616 -0.289114662971
431890000 0.681447891581 -0.289149879073
431900000 0.681234594438 -0.289034020956
431910000 0.681460359887 -0.289096150995
431920000 0.68165402309 -0.289009643309
431930000 0.680696607257 -0.289011029595
431940000 0.681016980992 -0.288303769243
431950000 0.681308922158 -0.288857184392
431960000 0.680777745804 -0.288851664826
431970000 0.681241534547 -0.28936581426
431980000 0.681329897044 -0.290153679035
431990000 0.681217459474 -0.290092071383
432000000 0.682238336563 -0.289687125123
432010000 0.681321158968 -0.289542923418
432020000 0.680890145136 -0.289137151809
432030000 0.680879487799 -0.28908280227
432040000 0.680622649969 -0.288844561625
432050000 0.682019502129 -0.28957875413
432060000 0.681194796226 -0.289350575304
432070000 0.681078340237 -0.289575498516
432080000 0.681688888602 -0.289625939773
432090000 0.681782468972 -0.288715803493
432100000 0.681103167326 -0.28892444622
432110000 0.680990352877 -0.28883960425
432120000 0.680612842732 -0.289326531101
432130000 0.680860460926 -0.288540929126
432140000 0.681747089284 -0.288861408042
432150000 0.681108630727 -0.288719909674
432160000 0.682145516259 -0.289369804998
432170000 0.682233090687 -0.289873904234
432180000 0.681950481252 -0.289600158687
432190000 0.681058069119 -0.289537651807
432200000 0.680894437405 -0.289580008999
432210000 0.680930887849 -0.289703046109
432220000 0.680726399282 -0.28979893735
432230000 0.681014450132 -0.289360773416
432240000 0.681654971972 -0.289707354942
432250000 0.681999834657 -0.289599722513
432260000 0.682165792127 -0.289418138552
432270000 0.68124381331 -0.289746053757
432280000 0.68128538027 -0.290098421069
432290000 0.68181472264 -0.290177661221
432300000 0.681291073796 -0.289879262333
432310000 0.681255744117 -0.28986662828
432320000 0.682033605419 -0.289391716301
432330000 0.681598928127 -0.289559084078
432340000 0.682395580525 -0.290052362343
432350000 0.682065542188 -0.289648345603
432360000 0.682805646557 -0.289483761533
432370000 0.682592257006 -0.29011835036
432380000 0.683054092358 -0.290437832738
432390000 0.682623733548 -0.29035948502
432400000 0.681155210909 -0.290922221923
432410000 0.682362592088 -0.290444696707
432420000 0.682295738619 -0.291459620504
432430000 0.682716937853 -0.290370752276
432440000 0.682196882413 -0.29086208714
432450000 0.683301296773 -0.290561702359
432460000 0.682818985025 -0.290650291521
432470000 0.682864685173 -0.290620959661
432480000 0.682413996521 -0.291036543464
432490000 0.682100571927 -0.290729511076
432500000 0.682244884369 -0.291423612846
432510000 0.682973102076 -0.291302415742
432520000 0.683140646132 -0.292102808811
432530000 0.681869012232 -0.291590006903
432540000 0.682536120377 -0.292116488275
432550000 0.683115150721 -0.291966419443
432560000 0.683536256641 -0.291646841904
432570000 0.68331558695 -0.291309008598
432580000 0.682315351608 -0.291571987593
432590000 0.684139487703 -0.291225996949
432600000 0.68360383979 -0.291930291415
432610000 0.682738894401 -0.292246301917
432620000 0.683332862604 -0.291967850852
432630000 0.683143888874 -0.29224990654
432640000 0.683071646974 -0.291578760178
432650000 0.683684351486 -0.292134293045
432660000 0.682925229649 -0.291801242427
432670000 0.683509136166 -0.291860586987
432680000 0.682503152833 -0.292240454846
432690000 0.683098425938 -0.291549468362
432700000 0.682967862339 -0.292270950384
432710000 0.683883170512 -0.292667014153
432720000 0.685462923932 -0.292548025613
432730000 0.684730068521 -0.292861519773
432740000 0.683748070203 -0.292491992781
432750000 0.683721078096 -0.292960228926
432760000 0.683792314536 -0.292817403989
432770000 0.683629416079 -0.292388460407
432780000 0.683012502868 -0.292823606956
432790000 0.683113816781 -0.293070406018
432800000 0.682494230189 -0.293005016417
432810000 0.682271910537 -0.293552061005
432820000 0.682472672001 -0.29279161678
432830000 0.68173848305 -0.293981921163
432840000 0.681628098216 -0.295135466437
432850000 0.682157279191 -0.294294231617
432860000 0.682141763155 -0.293584862007
432870000 0.682800245519 -0.29370642216
432880000 0.683256589027 -0.293600908126
432890000 0.682917538368 -0.293337143658
432900000 0.682798054964 -0.293643447978
432910000 0.683019666093 -0.293877749672
432920000 0.683159935806 -0.293904352494
432930000 0.683357733091 -0.294428226918
432940000 0.683101483725 -0.293723058109
432950000 0.682962392897 -0.293666819941
432960000 0.683083475903 -0.292972705923
432970000 0.682456064605 -0.293770274361
432980000 0.683016451308 -0.293384712581
432990000 0.682889792635 -0.293579478053
433000000 0.683290261693 -0.294260443251
433010000 0.683048682768 -0.294230161465
433020000 0.682380941559 -0.293921347222
433030000 0.682655006765 -0.294103782221
433040000 0.683218951523 -0.294558918002
433050000 0.682901515066 -0.294779883985
433060000 0.682710185013 -0.294921725206
433070000 0.683749458881 -0.295252399755
433080000 0.682180257884 -0.29441699379
433090000 0.682795719005 -0.295517552633
433100000 0.682210300782 -0.294975756891
433110000 0.681966187688 -0.294669398983
433120000 0.682017059389 -0.295122829613
433130000 0.682124407311 -0.295053644442
433140000 0.682219921526 -0.294639140618
433150000 0.68180914097 -0.295935244968
433160000 0.682255520806 -0.295889267854
433170000 0.682485472165 -0.296095894073
433180000 0.683333895635 -0.295785683688
433190000 0.682056080007 -0.295496878386
433200000 0.683240713888 -0.296283524769
433210000 0.683162044917 -0.295651094789
433220000 0.682574592222 -0.296399395568
433230000 0.683804305586 -0.296095357043
433240000 0.682926496072 -0.296180788623
433250000 0.68356170697 -0.296164884742
433260000 0.682674135597 -0.29686843785
433270000 0.682276081485 -0.298012129364
433280000 0.680523647072 -0.300770524094
433290000 0.678486581715 -0.302398567748
433300000 0.684214136706 -0.297636175293
433310000 0.669495600773 -0.305381669668
433320000 0.684389205435 -0.300793819293
433330000 0.670542874459 -0.300556582961
433340000 0.69050544509 -0.321191862648
433350000 0.683845228898 -0.30106163876
433360000 0.683302841199 -0.292102890649
433370000 0.682298559469 -0.295378028494
433380000 0.683250531193 -0.295214682326
433390000 0.681594527557 -0.296084042768
433400000 0.682373265534 -0.297276333182
433410000 0.682998165864 -0.297470178579
433420000 0.682771132567 -0.298264737656
433430000 0.683084044535 -0.297895600656
433440000 0.68278188868 -0.297571784319
433450000 0.683364247686 -0.298064446646
433460000 0.683623413353 -0.298503117529
433470000 0.683910276494 -0.297665964866
433480000 0.683194512528 -0.298265972517
433490000 0.68338951544 -0.298341376148
433500000 0.683293827578 -0.297619199031
433510000 0.682963652754 -0.297970206103
433520000 0.682974241505 -0.297318745879
433530000 0.682951677222 -0.296509122505
433540000 0.684076522064 -0.298070095469
433550000 0.682870011541 -0.297548262816
433560000 0.683653494007 -0.297911533184
433570000 0.684096209317 -0.298021817212
433580000 0.684224451019 -0.298091523995
433590000 0.683706394565 -0.297856050646
433600000 0.683516849824 -0.297621992861
433610000 0.683324820634 -0.297474226113
433620000 0.683238649616 -0.297870003432
433630000 0.682641268922 -0.29827320539
433640000 0.682606070299 -0.297989732212
433650000 0.683248322786 -0.298174416486
433660000 0.68308710104 -0.298033088794
433670000 0.682868767311 -0.298080237383
433680000 0.682992029688 -0.297853356593
433690000 0.682004006461 -0.29784471291
433700000 0.682780844819 -0.299274296944
433710000 0.682982140288 -0.298892968819
433720000 0.682923469285 -0.298304695926
433730000 0.682802763058 -0.298281531852
433740000 0.683320949011 -0.298340529092
433750000 0.683038996599 -0.299098102417
433760000 0.683040308329 -0.29944758252
433770000 0.682594598053 -0.29959451419
433780000 0.683418452002 -0.299609459667
433790000 0.682784710144 -0.298903911922
433800000 0.682942733299 -0.298610170947
433810000 0.682854615845 -0.299825363123
433820000 0.683103513633 -0.299303657159
433830000 0.683952005884 -0.300065581497
433840000 0.683623882183 -0.298830363079
433850000 0.684105948434 -0.299747842178
433860000 0.683254177249 -0.299262746267
433870000 0.683103337284 -0.299484879695
433880000 0.682754637918 -0.299266061725
433890000 0.682521290919 -0.300244062109
433900000 0.681919541772 -0.300244879174
433910000 0.68321103451 -0.300170731328
433920000 0.683551859323 -0.299810303792
433930000 0.685360242303 -0.298831143636
433940000 0.683053784032 -0.299855637427
433950000 0.682990843515 -0.299421744683
433960000 0.682417449376 -0.300005634081
433970000 0.682663697186 -0.300393250969
433980000 0.683369198601 -0.300476194461
433990000 0.683536169155 -0.30096200643
434000000 0.68419666165 -0.300553346868
434010000 0.683946108531 -0.300584798857
434020000 0.683537702908 -0.300981772488
434030000 0.682854268629 -0.300466519003
434040000 0.683181696337 -0.300537957985
434050000 0.683118219729 -0.300777732055
434060000 0.683172699649 -0.301275581354
434070000 0.683844595067 -0.301605959443
434080000 0.682895783703 -0.301363809162
434090000 0.68338283703 -0.301866097831
434100000 0.683708090055 -0.30144056751
434110000 0.683200184685 -0.30218425366
434120000 0.683578966469 -0.30214874809
434130000 0.684336854293 -0.302386025024
434140000 0.683388565539 -0.301673102332
434150000 0.683299033903 -0.301527371161
434160000 0.683378378684 -0.301326973207
434170000 0.683259868699 -0.301069420483
434180000 0.683505420718 -0.301450271095
434190000 0.683777266133 -0.301369225548
434200000 0.682460263528 -0.30143048191
434210000 0.68293417793 -0.301398628296
434220000 0.683518627924 -0.301416044949
434230000 0.684583291871 -0.301787869634
434240000 0.685570919511 -0.301963491153
434250000 0.686082841446 -0.302484033085
434260000 0.685220054723 -0.302368227115
434270000 0.683690541811 -0.302025924002
434280000 0.682817959424 -0.301875566689
434290000 0.682960403667 -0.302206034616
434300000 0.683662713254 -0.302391792495
434310000 0.683250532732 -0.302572921507
434320000 0.682542436226 -0.302308999962
434330000 0.682803605697 -0.302883247806
434340000 0.682897546781 -0.302920771225
434350000 0.683566589215 -0.302725773768
434360000 0.682988454186 -0.302292562129
434370000 0.68330281117 -0.302684987989
434380000 0.683162518495 -0.302206198722
434390000 0.683388832377 -0.302365246955
434400000 0.683850879081 -0.303112207975
434410000 0.683162007821 -0.302673732536
434420000 0.683918939305 -0.302866828903
434430000 0.6830158324 -0.303505262817
434440000 0.683701547931 -0.30349582601
434450000 0.683201098837 -0.302737613763
434460000 0.683662404147 -0.302708447886
434470000 0.683502107154 -0.303270675174
434480000 0.68423543507 -0.30294309242
434490000 0.683792303944 -0.302724042313
434500000 0.683403522304 -0.302353812287
434510000 0.683864686997 -0.302734382586
434520000 0.684077955277 -0.302300545356
434530000 0.684590219442 -0.301870054646
434540000 0.685717977873 -0.304095270429
434550000 0.686922873428 -0.307425498799
434560000 0.69213724033 -0.311974534593
434570000 0.685746592049 -0.307707928775
434580000 0.683416601886 -0.305277429247
434590000 0.682467191435 -0.30323031214
434600000 0.682120190679 -0.304139604776
434610000 0.682728351919 -0.302953706871
434620000 0.682783770824 -0.304006359812
434630000 0.682903596864 -0.304502726404
434640000 0.683815452409 -0.303935418893
434650000 0.683140929555 -0.304307163238
434660000 0.683160381789 -0.305106385346
434670000 0.683324220079 -0.304508363122
434680000 0.684441203952 -0.304495762894
434690000 0.684017630025 -0.304990373991
434700000 0.683564071175 -0.30460662506
434710000 0.683658358514 -0.304724647088
434720000 0.683505066061 -0.304706003014
434730000 0.68344247707 -0.305427096631
434740000 0.683430574568 -0.304770914516
434750000 0.684402473253 -0.304314858463
434760000 0.683664839934 -0.304308657987
434770000 0.683958676127 -0.304325563216
434780000 0.684067590293 -0.304363325865
434790000 0.684038511308 -0.304814324571
434800000 0.683617932787 -0.305531367603
434810000 0.683447210672 -0.304953748589
434820000 0.683579706529 -0.30611111048
434830000 0.6834381372 -0.305100720939
434840000 0.683148123075 -0.305064963328
434850000 0.683484956323 -0.304934381804
434860000 0.684142182488 -0.305907955411
434870000 0.684673075809 -0.306636287495
434880000 0.683570402712 -0.305914744475
434890000 0.683488244056 -0.305927086409
434900000 0.684146008231 -0.306047477553
434910000 0.684060228915 -0.305843057205
434920000 0.683194248858 -0.305187992629
434930000 0.683989218379 -0.305931028547
434940000 0.683699819908 -0.305780386389
434950000 0.683669224733 -0.305820504646
434960000 0.683477769777 -0.305979062191
434970000 0.683470835466 -0.305448163877
434980000 0.683467765247 -0.305891851923
434990000 0.683666335936 -0.305382545962
435000000 0.683224523944 -0.305692508752
435010000 0.683353212215 -0.306200872253
435020000 0.683728162991 -0.306848304441
435030000 0.682989017937 -0.306791992111
435040000 0.683102556033 -0.307542646464
435050000 0.68296052149 -0.30733785885
435060000 0.683258754322 -0.307627044985
435070000 0.682706207904 -0.307930409045
435080000 0.683891641418 -0.307578972846
435090000 0.683891584058 -0.307329547481
435100000 0.684015101367 -0.306603019086
435110000 0.683548750871 -0.307115436103
435120000 0.683333839013 -0.306594164163
435130000 0.683167871909 -0.306439423547
435140000 0.682699168012 -0.306865284697
435150000 0.68275435426 -0.307371724258
435160000 0.68325988481 -0.306394544961
435170000 0.682723638121 -0.306783499878
435180000 0.683278392941 -0.307059857817
435190000 0.681914743235 -0.307138302977
435200000 0.682684359439 -0.306693941454
435210000 0.682957162197 -0.307366654962
435220000 0.682978279778 -0.307374210309
435230000 0.683095079345 -0.307571822223
435240000 0.683607518509 -0.307921039911
435250000 0.683347362656 -0.307679977334
435260000 0.683105059828 -0.30766902257
435270000 0.683154351582 -0.307066711825
435280000 0.683770638264 -0.306378637335
435290000 0.682189402558 -0.307373898299
435300000 0.682625334706 -0.307638543485
435310000 0.682690322607 -0.307736115164
435320000 0.683281304236 -0.307699266516
435330000 0.683801648224 -0.308120414936
435340000 0.683611763378 -0.307407580352
435350000 0.684082821876 -0.307456330005
435360000 0.682656995725 -0.306590275633
435370000 0.682789709952 -0.307246866719
435380000 0.683720486673 -0.307927184824
435390000 0.683914567973 -0.307682491385
435400000 0.683124342885 -0.308226954452
435410000 0.683679978506 -0.308862946317
435420000 0.683487028911 -0.308723685191
435430000 0.682818196336 -0.309080415482
435440000 0.68266026774 -0.308768193256
435450000 0.683418720515 -0.308553298389
435460000 0.683317405063 -0.309184497586
435470000 0.683460198352 -0.308724797217
435480000 0.683646936785 -0.308579263652
435490000 0.683453676945 -0.288792842776
435500000 0.683560999463 -0.309579756643
435510000 0.682739418562 -0.309422079231
435520000 0.682137380721 -0.309411632986
435530000 0.68266284231 -0.309583275576
435540000 0.682809544004 -0.309477317669
435550000 0.682859726479 -0.309768612465
435560000 0.683292122964 -0.310044907483
435570000 0.68306023227 -0.309896304509
435580000 0.683035443397 -0.309510131836
435590000 0.682987895986 -0.309766222637
435600000 0.682385905402 -0.309017231588
435610000 0.682006115349 -0.309761415603
435620000 0.681860915932 -0.310550559519
435630000 0.681885717761 -0.310298619978
435640000 0.682922264437 -0.309913523269
435650000 0.683097251663 -0.309076447713
435660000 0.682983981871 -0.309386456841
435670000 0.683028294234 -0.30919935023
435680000 0.683274957329 -0.309393885179
435690000 0.682918991246 -0.310592571905
435700000 0.683705800926 -0.310034818303
435710000 0.683225762208 -0.310915316835
435720000 0.68329107455 -0.310832148337
435730000 0.681489346835 -0.31077238411
435740000 0.68230867637 -0.310238991937
435750000 0.682467111714 -0.310358558588
435760000 0.682893972875 -0.311118515845
435770000 0.682942814871 -0.310410208035
435780000 0.684023821313 -0.310811367551
435790000 0.683081335551 -0.310999293112
435800000 0.682996293887 -0.310786372009
435810000 0.68270450201 -0.310636951905
435820000 0.68237097886 -0.310979869646
435830000 0.683439265217 -0.310409935266
435840000 0.682774401831 -0.311362652183
435850000 0.683594365079 -0.31149174395
435860000 0.683218767457 -0.311672632236
435870000 0.682918759039 -0.311071154682
435880000 0.68310689451 -0.310671349248
435890000 0.681918719879 -0.310656579226
435900000 0.682396965944 -0.311353953847
435910000 0.682747660075 -0.311274587787
435920000 0.682972326254 -0.311110717408
435930000 0.683104773051 -0.310964281702
435940000 0.683175699902 -0.311753467026
435950000 0.683009435155 -0.311661592128
435960000 0.683590345984 -0.31151481478
435970000 0.683062459105 -0.311231258381
435980000 0.683269359304 -0.310888055258
435990000 0.683352087287 -0.312285461863
436000000 0.682916700194 -0.31123587303
436010000 0.682541271929 -0.310733044314
436020000 0.682646583938 -0.310857209611
436030000 0.681966840166 -0.309758097671
436040000 0.682402124481 -0.310297039131
436050000 0.682754011111 -0.311215129897
436060000 0.683120683147 -0.311398027779
436070000 0.682367883035 -0.311372006257
436080000 0.682756264545 -0.311328672186
436090000 0.682784944747 -0.311614030084
436100000 0.68181792459 -0.312299425137
436110000 0.681966529434 -0.31141344857
436120000 0.682305146051 -0.311004092082
436130000 0.68233502711 -0.311409075851
436140000 0.68333011094 -0.311563615836
436150000 0.682993311565 -0.311581701003
436160000 0.682930990249 -0.311095143025
436170000 0.683005731896 -0.311795712562
436180000 0.682505331027 -0.312049872285
436190000 0.681930623524 -0.311365497238
436200000 0.681710419277 -0.31196703823
436210000 0.683094927296 -0.310382082702
436220000 0.682750432255 -0.312137975549
436230000 0.682586514299 -0.311700792822
436240000 0.682531376527 -0.311910809238
436250000 0.682735536603 -0.312286301047
436260000 0.682900061976 -0.312584803334
436270000 0.682953232232 -0.312437871357
436280000 0.683501632404 -0.312396985211
436290000 0.682901945418 -0.312210288698
436300000 0.68265013415 -0.31304840705
436310000 0.682669470999 -0.312654487247
436320000 0.682715220461 -0.313274185637
436330000 0.682780622887 -0.313200459159
436340000 0.682263070284 -0.314205377466
436350000 0.682613972694 -0.313645299034
436360000 0.6825199579 -0.313348116133
436370000 0.682498316676 -0.313154547195
436380000 0.682584331019 -0.313108053101
436390000 0.682450433096 -0.313207189729
436400000 0.682590708881 -0.312856681597
436410000 0.68218696532 -0.313123715121
436420000 0.681373621666 -0.31387273509
436430000 0.682779783299 -0.313381832681
436440000 0.68258132792 -0.313186469558
436450000 0.681733697142 -0.313487426712
436460000 0.681669797839 -0.313433810861
436470000 0.682056587693 -0.31412657436
436480000 0.682028383358 -0.314125644624
436490000 0.681559457594 -0.314019684206
436500000 0.682122713073 -0.314265312845
436510000 0.682414917073 -0.313240989185
436520000 0.682149290081 -0.314098269568
436530000 0.682210659101 -0.313419902378
436540000 0.68278479397 -0.313866629073
436550000 0.682286905168 -0.313720764875
436560000 0.682717812419 -0.313987181353
436570000 0.682422279009 -0.312803711995
436580000 0.682263268163 -0.313280836058
436590000 0.682542017225 -0.313864323053
436600000 0.682279682448 -0.313720891888
436610000 0.681790633328 -0.314199428999
436620000 0.682204954656 -0.31450521638
436630000 0.681679037311 -0.314337758323
436640000 0.681992959672 -0.313911789715
436650000 0.68222968183 -0.313608380991
436660000 0.681793001176 -0.313691108984
436670000 0.680088049369 -0.314494314928
436680000 0.682521497169 -0.314044753758
436690000 0.682196807921 -0.314409609082
436700000 0.682288897213 -0.314603151331
436710000 0.682351048347 -0.31488336962
436720000 0.681636687599 -0.314424190213
436730000 0.681894464221 -0.314419015384
436740000 0.682275294377 -0.314286751693
436750000 0.68211448596 -0.314221863312
436760000 0.681887949824 -0.314177398139
436770000 0.681637676423 -0.314338519744
436780000 0.681245405587 -0.314244789915
436790000 0.681328236385 -0.314195818978
436800000 0.680921926931 -0.315461461121
436810000 0.68160942567 -0.314570603545
436820000 0.682000433051 -0.3143299672
436830000 0.680900831433 -0.313745012752
436840000 0.681849852104 -0.314182376491
436850000 0.681369103814 -0.313967489563
436860000 0.680701564071 -0.314293762352
436870000 0.681244699954 -0.314043153085
436880000 0.681792531319 -0.314383993176
436890000 0.682503303947 -0.314773496542
436900000 0.681623799602 -0.314826533462
436910000 0.681124411888 -0.314717344414
436920000 0.681032454823 -0.314400010788
436930000 0.681468506362 -0.313636344444
436940000 0.681957196353 -0.314883891702
436950000 0.681874153449 -0.313740681944
436960000 0.681158808916 -0.31502738366
436970000 0.681201054058 -0.315374214484
436980000 0.680814030858 -0.315848905474
436990000 0.681079087355 -0.315520573422
437000000 0.681275193806 -0.315458187671
437010000 0.677587580032 -0.317675910287
437020000 0.677099225608 -0.317463482974
437030000 0.676358878863 -0.317828347972
437040000 0.676706416634 -0.317934750677
437050000 0.677664662182 -0.318238379515
437060000 0.67746432723 -0.318223018264
437070000 0.677556508982 -0.318088499064
437080000 0.677666155214 -0.318326508229
437090000 0.677162704229 -0.318467905564
437100000 0.677278648194 -0.318226266433
437110000 0.676621617282 -0.318299861941
437120000 0.676448039727 -0.31897166288
437130000 0.676053614854 -0.318938837422
437140000 0.677177170853 -0.319668373275
437150000 0.677389351649 -0.319924184085
437160000 0.676635818304 -0.319794587259
437170000 0.676575534659 -0.319359798304
437180000 0.675466945734 -0.319152800911
437190000 0.676531499539 -0.319402385118
437200000 0.677154454602 -0.31960975668
437210000 0.676433317238 -0.319675275531
437220000 0.676792959243 -0.319282093516
437230000 0.677161048583 -0.318981434591
437240000 0.678952386797 -0.318066913321
437250000 0.681020512735 -0.317254403773
437260000 0.684139692167 -0.315119228401
437270000 0.682946189912 -0.315558181088
437280000 0.679961512115 -0.317294479594
437290000 0.677425013703 -0.318541066789
437300000 0.676509739568 -0.319811320303
437310000 0.676702476602 -0.320161343039
437320000 0.676482520459 -0.320628501761
437330000 0.677058056193 -0.320814432894
437340000 0.676918249942 -0.321294035139
437350000 0.677477686473 -0.320412683387
437360000 0.67829860752 -0.320231128481
437370000 0.678500352293 -0.321092279766
437380000 0.677567871697 -0.321354944915
437390000 0.677049212851 -0.32079741123
437400000 0.675858563512 -0.322745016756
437410000 0.676944661048 -0.321848066373
437420000 0.676060650532 -0.321329236687
437430000 0.67495118648 -0.320947841501
437440000 0.675440375315 -0.320507506521
437450000 0.67615566738 -0.321557962295
437460000 0.676616890587 -0.321651291374
437470000 0.677382172899 -0.321850514895
437480000 0.676846708565 -0.321480770555
437490000 0.676938625949 -0.321001089469
437500000 0.677099679506 -0.321756495007
437510000 0.676850252068 -0.321691200666
437520000 0.677072344371 -0.322252851496
437530000 0.677755158058 -0.322539799008
437540000 0.677202805306 -0.322908334026
437550000 0.678323028367 -0.322877611038
437560000 0.677348201585 -0.322810020165
437570000 0.677383039171 -0.321625806793
437580000 0.676813402812 -0.322377314673
437590000 0.67710183262 -0.322563200369
437600000 0.678119621681 -0.322957787831
437610000 0.677835860801 -0.323678200204
437620000 0.677587614893 -0.324060267641
437630000 0.677737899936 -0.323424017974
437640000 0.677640030851 -0.323099783702
437650000 0.678089544662 -0.322883455304
437660000 0.678530825714 -0.323155488167
437670000 0.678794629243 -0.323933505824
437680000 0.678011376859 -0.323066244585
437690000 0.677620281268 -0.323750032131
437700000 0.677739801599 -0.323280935288
437710000 0.67786443035 -0.323665563247
437720000 0.678311704566 -0.323167345678
437730000 0.678457330601 -0.324001428758
437740000 0.67866450527 -0.324225845995
437750000 0.678807941324 -0.324629527534
437760000 0.679051641337 -0.324521788491
437770000 0.678492202296 -0.323879526722
437780000 0.678399920336 -0.324165210923
437790000 0.678690907539 -0.324452538694
437800000 0.678577959001 -0.325220460828
437810000 0.678697515039 -0.324594482569
437820000 0.678618264044 -0.325084177241
437830000 0.678744218935 -0.325668073584
437840000 0.678389713562 -0.325300305405
437850000 0.678033292354 -0.325049954614
437860000 0.678781007802 -0.324800784772
437870000 0.678558923921 -0.324785147901
437880000 0.678874735709 -0.324989015048
437890000 0.678957863063 -0.324827176901
437900000 0.678838986632 -0.325066606673
437910000 0.678985360673 -0.325762189466
437920000 0.67973549324 -0.325895287503
437930000 0.679226426397 -0.3259725376
437940000 0.678050178876 -0.325173824198
437950000 0.67915192385 -0.325557245524
437960000 0.679788947043 -0.326811220382
437970000 0.679963298306 -0.32631504326
437980000 0.67985117614 -0.325932279159
437990000 0.680189247307 -0.326691554152
438000000 0.680352219549 -0.326385486548
438010000 0.679551730333 -0.326666637125
438020000 0.679861267874 -0.326302286958
438030000 0.678941235206 -0.32629858481
438040000 0.67913938233 -0.325618488013
438050000 0.679913444341 -0.326877921762
438060000 0.679247968472 -0.326781522581
438070000 0.679739465633 -0.326686840262
438080000 0.679633730999 -0.32683717389
438090000 0.679240677316 -0.327068500317
438100000 0.67951194136 -0.326541945092
438110000 0.678981428048 -0.326655789102
438120000 0.678780885846 -0.326628570379
438130000 0.678694580143 -0.326461790698
438140000 0.679122959638 -0.32685160751
438150000 0.678806387731 -0.327163759413
438160000 0.678968037575 -0.326962281161
438170000 0.678989821259 -0.326687890574
438180000 0.67914970384 -0.326719703876
438190000 0.678752517864 -0.326590045017
438200000 0.678058243715 -0.32684982269
438210000 0.678207569998 -0.32702698336
438220000 0.678036784606 -0.327480469083
438230000 0.678802983541 -0.326662481665
438240000 0.678823860703 -0.326115982578
438250000 0.678888976898 -0.32644167745
438260000 0.678709802836 -0.326785219464
438270000 0.678838366135 -0.326678409455
438280000 0.679067319127 -0.326755033056
438290000 0.678699246016 -0.326049506461
438300000 0.679308485026 -0.326478747025
438310000 0.678251784224 -0.326535875248
438320000 0.678162405329 -0.325833784954
438330000 0.677757740569 -0.326553482642
438340000 0.678186406381 -0.32667422292
438350000 0.677808321928 -0.327070992299
438360000 0.677165121164 -0.325863181865
438370000 0.677637702292 -0.326547900387
438380000 0.678026478158 -0.326777840072
438390000 0.677967613732 -0.326761994842
438400000 0.678376808014 -0.326855155795
438410000 0.678117585285 -0.326504032966
438420000 0.67883655811 -0.328114362699
438430000 0.677793695937 -0.326499911626
438440000 0.677917117592 -0.326715707114
438450000 0.677987693169 -0.326001106266
438460000 0.677393620366 -0.325353561369
438470000 0.677661618842 -0.325920531064
438480000 0.678101194614 -0.326841470591
438490000 0.678313418288 -0.326726081478
438500000 0.678874965343 -0.326667267474
438510000 0.678719924482 -0.327306758448
438520000 0.678218507088 -0.326612539052
438530000 0.677721497207 -0.32585873385
438540000 0.677654754672 -0.326594620566
438550000 0.678142428086 -0.327355750886
438560000 0.677838269869 -0.327327280702
438570000 0.677678598964 -0.326440556134
438580000 0.677672014493 -0.326952759929
438590000 0.678050396896 -0.326981607179
438600000 0.67799008316 -0.326484475663
438610000 0.678915856716 -0.326986018741
438620000 0.67858604757 -0.3269023803
438630000 0.678541060721 -0.326631094017
438640000 0.678846470545 -0.326235829235
438650000 0.67919915871 -0.326219150008
438660000 0.679513898744 -0.325910360057
438670000 0.679218708759 -0.325314366283
438680000 0.678705884644 -0.325808250645
438690000 0.678672584337 -0.326148583522
438700000 0.67782524492 -0.326749746384
438710000 0.678246603205 -0.327074603309
438720000 0.680634987676 -0.326853872868
438730000 0.678921011063 -0.328171849168
438740000 0.680354190656 -0.327503300585
438750000 0.678290484612 -0.328418563922
438760000 0.678205436664 -0.328287105352
438770000 0.67861834184 -0.327474147851
438780000 0.678300749172 -0.326826284862
438790000 0.678182592142 -0.326597074767
438800000 0.677773551919 -0.327164248697
438810000 0.677287392568 -0.327658507082
438820000 0.67736846069 -0.327757547002
438830000 0.677577855867 -0.327684825976
438840000 0.678461657916 -0.327348216556
438850000 0.677523564879 -0.328747899227
438860000 0.677825447162 -0.327449974593
438870000 0.677749128892 -0.327939560027
438880000 0.677710625922 -0.327560563589
438890000 0.67739530193 -0.327270165857
438900000 0.677584472533 -0.327100729462
438910000 0.678241194789 -0.326614773479
438920000 0.678147498888 -0.327081755427
438930000 0.678593792278 -0.327160704155
438940000 0.678155092287 -0.327078485523
438950000 0.67797732629 -0.327054933864
438960000 0.67827319182 -0.327075614413
438970000 0.677987950113 -0.328109622376
438980000 0.678300694112 -0.327324637796
438990000 0.677352938323 -0.32772622827
439000000 0.67743985648 -0.327832234406
439010000 0.677474787414 -0.32623239453
439020000 0.67815387487 -0.326330931954
439030000 0.678007477017 -0.326296525485
439040000 0.677562466141 -0.32631426562
439050000 0.677675953453 -0.32689892923
439060000 0.678096702303 -0.32622686765
439070000 0.678180854282 -0.32622104603
439080000 0.677845618638 -0.326601589816
439090000 0.677296714693 -0.327535945367
439100000 0.678418354612 -0.327271848403
439110000 0.678433428625 -0.327108875683
439120000 0.678055482566 -0.327524685895
439130000 0.677977616324 -0.326465259762
439140000 0.677749622098 -0.326847637651
439150000 0.678182773756 -0.326088009804
439160000 0.677813906111 -0.326635587868
439170000 0.677565209601 -0.326380823394
439180000 0.677691805312 -0.326772082437
439190000 0.678297374465 -0.326034006267
439200000 0.677439423582 -0.326983621746
439210000 0.677910033149 -0.327139823313
439220000 0.677981218642 -0.327435473287
439230000 0.678601210444 -0.327925124843
439240000 0.67867039069 -0.327554091786
439250000 0.678119853102 -0.327539158585
439260000 0.678310165129 -0.327584399235
439270000 0.67785101199 -0.327288092891
439280000 0.678023237024 -0.327931863378
439290000 0.678517842457 -0.327908362752
439300000 0.677257975924 -0.327754669635
439310000 0.67770886208 -0.328021266375
439320000 0.67829604361 -0.328273282181
439330000 0.677910484098 -0.327375305935
439340000 0.677791204303 -0.328542448877
439350000 0.67713668337 -0.328146203402
439360000 0.67789470452 -0.327946828029
439370000 0.678001503811 -0.327590597067
439380000 0.678149601906 -0.327946303452
439390000 0.678089781692 -0.327772062591
439400000 0.677887664273 -0.328058023971
439410000 0.678072368052 -0.328495660101
439420000 0.678098271455 -0.328410565001
439430000 0.678497401672 -0.328476003167
439440000 0.678192060388 -0.328206516492
439450000 0.678264105638 -0.327623573674
439460000 0.677869677405 -0.327744410413
439470000 0.677468859394 -0.329096709834
439480000 0.677906041575 -0.329162962363
439490000 0.677367623681 -0.328249547561
439500000 0.677795991311 -0.328161957191
439510000 0.677505620828 -0.328074448011
439520000 0.677117285997 -0.32801382367
439530000 0.677305031519 -0.328211421481
439540000 0.676991566705 -0.328458807297
439550000 0.677214144311 -0.327961212815
439560000 0.677309591263 -0.327820678615
439570000 0.67712075787 -0.328276800456
439580000 0.677675484698 -0.32890750434
439590000 0.677325614003 -0.329372030655
439600000 0.676574905472 -0.329126203815
439610000 0.676381960696 -0.328819920621
439620000 0.678887576313 -0.328847137904
439630000 0.675315936942 -0.328556489241
439640000 0.676053075629 -0.329490199754
439650000 0.676031027471 -0.32912381249
439660000 0.676539858302 -0.32946349603
439670000 0.676788049903 -0.328959402558
439680000 0.676708785981 -0.329280994678
439690000 0.675941479535 -0.328441015598
439700000 0.676142538336 -0.328810594854
439710000 0.676085743211 -0.328708449018
439720000 0.677208369094 -0.329576543915
439730000 0.677457306863 -0.32923636593
439740000 0.677089929947 -0.330045044394
439750000 0.677174398769 -0.329578132871
439760000 0.677043464169 -0.330070445985
439770000 0.677085632735 -0.33082238326
439780000 0.677740295229 -0.329936262132
439790000 0.677238637387 -0.329635420178
439800000 0.676596226537 -0.330740799353
439810000 0.676964388697 -0.330500890076
439820000 0.676070804852 -0.330062482865
439830000 0.676388889727 -0.330055121333
439840000 0.676532547771 -0.329816854128
439850000 0.67775583845 -0.330078727053
439860000 0.677272884221 -0.330060543221
439870000 0.676277543653 -0.330867744572
439880000 0.677712014462 -0.329584068532
439890000 0.677017854034 -0.329940631256
439900000 0.676576671024 -0.329922883649
439910000 0.677365368812 -0.329830380997
439920000 0.676781980566 -0.329331695154
439930000 0.675924995616 -0.329991051773
439940000 0.676364714071 -0.330466720697
439950000 0.676250982944 -0.330564061971
439960000 0.676249316112 -0.330259207291
439970000 0.675627943193 -0.330865066004
439980000 0.675834762042 -0.330585312222
439990000 0.676363485737 -0.330623105438
440000000 0.676519651476 -0.330510836263
440010000 0.67599686828 -0.331186652466
440020000 0.676254852056 -0.330682393711
440030000 0.67607723539 -0.331033185872
440040000 0.676763791452 -0.330778054189
440050000 0.676425793106 -0.32999808917
440060000 0.675608743452 -0.331674421326
440070000 0.676068273265 -0.331296667408
440080000 0.675709709965 -0.33118753609
440090000 0.675385416853 -0.330761456806
440100000 0.675049348038 -0.330334869474
440110000 0.675406288463 -0.3301691586
440120000 0.675430410858 -0.330491758125
440130000 0.675426497352 -0.329665540983
440140000 0.675850746789 -0.330883419162
440150000 0.675835839291 -0.331240318132
440160000 0.675429033113 -0.331247933805
440170000 0.67552091779 -0.331764885462
440180000 0.676077406495 -0.331680848057
440190000 0.675794751693 -0.331857655105
440200000 0.675699610698 -0.331764904983
440210000 0.675083223194 -0.331594191419
440220000 0.675052155742 -0.331693772864
440230000 0.675073264704 -0.331755812808
440240000 0.676004136201 -0.332074351693
440250000 0.674869032647 -0.3325462383
440260000 0.675260293534 -0.332375125087
440270000 0.675645654918 -0.332405804103
440280000 0.675515532007 -0.331907610615
440290000 0.675372699514 -0.332254006882
440300000 0.67567482587 -0.332354898147
440310000 0.675661594119 -0.332276410958
440320000 0.675059332233 -0.33209480047
440330000 0.675065868091 -0.332455809846
440340000 0.675136544143 -0.332175733987
440350000 0.675232832459 -0.332775793182
440360000 0.674761107718 -0.332369360996
440370000 0.67495696993 -0.332567286383
440380000 0.674088131412 -0.331561133992
440390000 0.674146224556 -0.331792129998
440400000 0.673903030394 -0.332280171294
440410000 0.67431717831 -0.332028043168
440420000 0.675724830133 -0.332633096812
440430000 0.674757648478 -0.332888144231
440440000 0.675214957267 -0.332388494701
440450000 0.674536532774 -0.332579697096
440460000 0.67526644287 -0.333023910818
440470000 0.674787354609 -0.332786106862
440480000 0.675378033728 -0.332943696086
440490000 0.675269484093 -0.33292608284
440500000 0.675336905007 -0.332688087315
440510000 0.67532935701 -0.332453965886
440520000 0.671021887726 -0.331461344498
440530000 0.666103907912 -0.329031710213
440540000 0.667577741519 -0.328611540447
440550000 0.682386896781 -0.336914220449
440560000 0.670566413737 -0.331955588706
440570000 0.675001650874 -0.332532202969
440580000 0.674318141921 -0.333556098988
440590000 0.675309892981 -0.334038036951
440600000 0.674154367499 -0.333097767586
440610000 0.67397608859 -0.333374251562
440620000 0.674440696806 -0.333672935539
440630000 0.674273510995 -0.333501139288
440640000 0.674571331122 -0.332707713624
440650000 0.673522980539 -0.332647127334
440660000 0.673801300174 -0.333420096152
440670000 0.674389563236 -0.334220244686
440680000 0.675011108626 -0.333710268879
440690000 0.675215271882 -0.333847561892
440700000 0.674540044599 -0.334303304246
440710000 0.674825455061 -0.334118335477
440720000 0.674611514181 -0.334322714989
440730000 0.67521671588 -0.333960167751
440740000 0.675061483718 -0.334047644356
440750000 0.6750888011 -0.335271542029
440760000 0.674601976029 -0.334398287966
440770000 0.674388351964 -0.334757187546
440780000 0.674147096334 -0.334349464252
440790000 0.674590674645 -0.334493108947
440800000 0.674669007453 -0.333956918051
440810000 0.673804335665 -0.334253733564
440820000 0.674586770586 -0.334173925472
440830000 0.674160679477 -0.33453216668
440840000 0.67365274375 -0.334260612079
440850000 0.672684725138 -0.335051437029
440860000 0.672703801666 -0.334087557752
440870000 0.673105117478 -0.334764939515
440880000 0.673820432678 -0.334523242005
440890000 0.674058497477 -0.334973468995
440900000 0.673952433285 -0.335664051782
440910000 0.674290003114 -0.335688587672
440920000 0.673953057551 -0.335868241238
440930000 0.673665468055 -0.33521889727
440940000 0.673968453281 -0.335253760378
440950000 0.674155759904 -0.335167672528
440960000 0.673735833457 -0.334311177401
440970000 0.673606794528 -0.334720413138
440980000 0.674044701956 -0.335142151715
440990000 0.674084549948 -0.335367178654
441000000 0.673996258912 -0.335555736133
441010000 0.673779822239 -0.335575977321
441020000 0.673968903311 -0.335515536784
441030000 0.67324283693 -0.335134529756
441040000 0.672948675378 -0.335656174969
441050000 0.673101134471 -0.336095459325
441060000 0.673538660698 -0.336112786329
441070000 0.67386289831 -0.335354519292
441080000 0.673397011734 -0.336157967258
441090000 0.673749349369 -0.335982893655
441100000 0.673829930323 -0.335633385724
441110000 0.673838446104 -0.335587908028
441120000 0.674091254878 -0.335442891112
441130000 0.673728919016 -0.33555198644
441140000 0.673614370424 -0.336056361109
441150000 0.673238795876 -0.335527364714
441160000 0.67375066923 -0.335523863383
441170000 0.673028122246 -0.336044917814
441180000 0.673552302304 -0.335737685541
441190000 0.673722637847 -0.335181463673
441200000 0.674481596359 -0.335242540354
441210000 0.673624362707 -0.3358391473
441220000 0.67403553638 -0.335808486056
441230000 0.673024541855 -0.335900077937
441240000 0.672608597547 -0.335594356565
441250000 0.67238703057 -0.336186750445
441260000 0.673010744568 -0.335928073789
441270000 0.672837606922 -0.336463379419
441280000 0.672981819131 -0.336048274988
441290000 0.673065082657 -0.336833664055
441300000 0.671837704206 -0.335868542245
441310000 0.671908754558 -0.333028735292
441320000 0.673176659301 -0.335952424977
441330000 0.67273863224 -0.336061562375
441340000 0.673180713484 -0.336080604816
441350000 0.672700755096 -0.336355341062
441360000 0.673485464169 -0.33611050408
441370000 0.672835484764 -0.336127199748
441380000 0.672659430735 -0.336257418023
441390000 0.673264671097 -0.336631855134
441400000 0.673085772135 -0.335983160549
441410000 0.673001522032 -0.336526929642
441420000 0.673269663867 -0.337033402335
441430000 0.673177582149 -0.33727945539
441440000 0.673648664985 -0.336479098024
441450000 0.673267615049 -0.337407721529
441460000 0.672605268686 -0.337432673482
441470000 0.672336054145 -0.337120277241
441480000 0.67267109795 -0.336705586202
441490000 0.672966088982 -0.336430720621
441500000 0.672894070543 -0.336789830122
441510000 0.672616858745 -0.337489841192
441520000 0.672275999856 -0.337430723156
441530000 0.671941070317 -0.337038757251
441540000 0.671982017219 -0.33720283036
441550000 0.671971772692 -0.337271318574
441560000 0.672086579086 -0.337548473719
441570000 0.672136770653 -0.337551144362
441580000 0.672319932707 -0.337434127539
441590000 0.671479079234 -0.337114887957
441600000 0.672106262573 -0.337121268151
441610000 0.672500244754 -0.337957845619
441620000 0.67242989359 -0.338009701566
441630000 0.672371753202 -0.337596624116
441640000 0.672904030177 -0.338133866587
441650000 0.673195678168 -0.338315160105
441660000 0.67274000119 -0.33802312944
441670000 0.673053897041 -0.337872607931
441680000 0.672940880745 -0.338218564073
441690000 0.673403585578 -0.338966139959
441700000 0.67247901841 -0.338158214529
441710000 0.672435465011 -0.338392523934
441720000 0.672344109108 -0.339519531237
441730000 0.673110739857 -0.337500394693
441740000 0.672863547318 -0.338183079553
441750000 0.67330733769 -0.337929578213
441760000 0.672283773987 -0.33851153631
441770000 0.672627605294 -0.338623444206
441780000 0.67187664739 -0.338434708135
441790000 0.6714798103 -0.338664257397
441800000 0.671541714113 -0.337274161223
441810000 0.672017670426 -0.338331108347
441820000 0.672061511584 -0.338955500147
441830000 0.671997782559 -0.339318276064
441840000 0.671587913616 -0.339929794281
441850000 0.67145055351 -0.339763202679
441860000 0.671357950996 -0.339465822448
441870000 0.670950869323 -0.338929383171
441880000 0.671613072856 -0.339194184479
441890000 0.672096444973 -0.339198594078
441900000 0.671790470565 -0.338397378943
441910000 0.671392268032 -0.337902833583
441920000 0.672084495494 -0.338497731856
441930000 0.671884130714 -0.339011652059
441940000 0.671849363805 -0.338651883677
441950000 0.67136062503 -0.338732761602
441960000 0.671671653167 -0.33876523365
441970000 0.671455840689 -0.338576887815
441980000 0.671902950449 -0.3382462407
441990000 0.65989235056 -0.327823196621
442000000 0.670470327676 -0.336084465169
442010000 0.670296714747 -0.339464869581
442020000 0.670640654782 -0.33994881845
442030000 0.671198925797 -0.340590885949
442040000 0.670893663422 -0.340462394143
442050000 0.670506101399 -0.340583922082
442060000 0.670662582742 -0.340631802793
442070000 0.671116221446 -0.339646148593
442080000 0.67115248873 -0.339969700305
442090000 0.671604832285 -0.339865263378
442100000 0.671676838854 -0.339704072472
442110000 0.671606098744 -0.340033718873
442120000 0.671780536884 -0.340817072286
442130000 0.6709514716 -0.340794432554
442140000 0.671807227808 -0.340774989171
442150000 0.671581444512 -0.341816288837
442160000 0.671277795229 -0.340922309863
442170000 0.671149238916 -0.341026593565
442180000 0.670746083606 -0.341011780936
442190000 0.670781652956 -0.341141148707
442200000 0.672326995222 -0.341966858108
442210000 0.671819782435 -0.341777662221
442220000 0.671113440406 -0.341130733886
442230000 0.671774174168 -0.341224600522
442240000 0.671072266924 -0.341155768196
442250000 0.671076730196 -0.341983328644
442260000 0.672345875324 -0.342036320188
442270000 0.671635404715 -0.341510379393
442280000 0.670383246048 -0.341152705805
442290000 0.672428919547 -0.341266389145
442300000 0.671207414853 -0.34258952554
442310000 0.671318690073 -0.338810683492
442320000 0.671079600266 -0.341426856391
442330000 0.669716113387 -0.34141538901
442340000 0.673064387104 -0.339717379178
442350000 0.670261698126 -0.342905864755
442360000 0.671148799484 -0.341956600521
442370000 0.674223722065 -0.338282931376
442380000 0.670818625482 -0.339981492257
442390000 0.670963286782 -0.343383780414
442400000 0.671473589754 -0.342767498412
442410000 0.669766051771 -0.340936365087
442420000 0.67187932489 -0.340486596675
442430000 0.671704059873 -0.343184581337
442440000 0.670784579248 -0.342887420922
442450000 0.669348670261 -0.339541087445
442460000 0.673911727327 -0.342734161091
442470000 0.669428337008 -0.34195624405
442480000 0.670276146751 -0.340291288244
442490000 0.670343018738 -0.342160277708
442500000 0.669707699991 -0.345514685328
442510000 0.671159468642 -0.342449418931
442520000 0.668556707778 -0.342926586353
442530000 0.671535782425 -0.340956348118
442540000 0.670657854058 -0.342771214077
442550000 0.673446135418 -0.340376016022
442560000 0.672695672503 -0.343558218399
442570000 0.671066071101 -0.343710302743
442580000 0.669906124 -0.341493632096
442590000 0.667149041617 -0.346659875044
442600000 0.668383873453 -0.349503991395
442610000 0.663118075036 -0.357156887781
442620000 0.667385275641 -0.349216726806
442630000 0.668882210191 -0.344783703245
442640000 0.669988762447 -0.344360595749
442650000 0.669863490879 -0.342758423006
442660000 0.66910860078 -0.342722992687
442670000 0.669045269208 -0.342958071098
442680000 0.671429285535 -0.342375813403
442690000 0.669953911763 -0.342294812574
442700000 0.670753558073 -0.342941211169
442710000 0.671661481557 -0.343090766077
442720000 0.66837565087 -0.342742236154
442730000 0.670047453709 -0.343069076194
442740000 0.669958022876 -0.342683793397
442750000 0.669594075447 -0.342244750985
442760000 0.669978140423 -0.342756390677
442770000 0.669556373086 -0.343140863812
442780000 0.669546312406 -0.342796264031
442790000 0.669526237715 -0.342147479511
442800000 0.669802896181 -0.343234910869
442810000 0.669527818318 -0.343025339766
442820000 0.669578633431 -0.342876154348
442830000 0.669859031757 -0.343718210981
442840000 0.670731246311 -0.342891293672
442850000 0.669658399674 -0.343579190033
442860000 0.669656228012 -0.343053808574
442870000 0.669523504173 -0.343375488567
442880000 0.669376731764 -0.344054495607
442890000 0.669724322616 -0.343671501544
442900000 0.669966109494 -0.343902141391
442910000 0.669734697055 -0.343575858008
442920000 0.669568421203 -0.342868159642
442930000 0.669342117475 -0.343742067884
442940000 0.669731315786 -0.342895179528
442950000 0.669643101305 -0.34322287187
442960000 0.670202260374 -0.34364703575
442970000 0.670196257588 -0.343775667214
442980000 0.670808642111 -0.344212696442
442990000 0.670912901943 -0.344575835644
443000000 0.670042709228 -0.344119437996
443010000 0.669682521725 -0.343875907183
443020000 0.669223851074 -0.343853197196
443030000 0.669138102787 -0.344480262528
443040000 0.668798108641 -0.34400198945
443050000 0.668955086857 -0.343902314652
443060000 0.668657603481 -0.343973868318
443070000 0.669469849723 -0.343937592651
443080000 0.669017665302 -0.344124598937
443090000 0.6693387566 -0.344461706678
443100000 0.670174337737 -0.34445068958
443110000 0.670027678638 -0.345016659083
443120000 0.669989325653 -0.344571892599
443130000 0.669511898099 -0.344656661238
443140000 0.669890357523 -0.344334580067
443150000 0.670029731739 -0.34498770015
443160000 0.66970451301 -0.345091194056
443170000 0.670218345536 -0.345009502044
443180000 0.669642337614 -0.345188854455
443190000 0.669685409768 -0.344359778472
443200000 0.669622059683 -0.344469265537
443210000 0.669542341969 -0.34444107762
443220000 0.669546954888 -0.343656467269
443230000 0.668657484192 -0.343952104345
443240000 0.669509912909 -0.344894285776
443250000 0.669027072465 -0.344437464762
443260000 0.669495794741 -0.344706707373
443270000 0.668555833808 -0.344382239889
443280000 0.668680207405 -0.344645087007
443290000 0.667934923693 -0.345662513731
443300000 0.668195278152 -0.345122685245
443310000 0.668282967728 -0.344416555237
443320000 0.66887664944 -0.344893751882
443330000 0.668957447451 -0.34391391376
443340000 0.669247859772 -0.345045947013
443350000 0.668708905364 -0.344446626366
443360000 0.668342149274 -0.344560418614
443370000 0.668906678086 -0.345186411785
443380000 0.669225659202 -0.345003058747
443390000 0.669073650217 -0.346001462267
443400000 0.668832279783 -0.344610699808
443410000 0.66870993621 -0.34516113746
443420000 0.668483061405 -0.346029229423
443430000 0.669050236493 -0.345190476895
443440000 0.669087707919 -0.345595592981
443450000 0.66890578472 -0.345550799164
443460000 0.668594018855 -0.344218830289
443470000 0.669623035276 -0.344846685809
443480000 0.668787601033 -0.344560186632
443490000 0.668271035613 -0.34504916293
443500000 0.667582179737 -0.345607907076
443510000 0.668325322511 -0.345529027394
443520000 0.668051613426 -0.345162002776
443530000 0.667451129897 -0.345456147779
443540000 0.668178029642 -0.34565166147
443550000 0.668814875184 -0.345047317839
443560000 0.668612543559 -0.34435524739
443570000 0.668785589443 -0.34503877375
443580000 0.667894494206 -0.34571494633
443590000 0.667875143702 -0.346388524195
443600000 0.668167204075 -0.346306047353
443610000 0.667609295208 -0.345988876713
443620000 0.668489154862 -0.346132473136
443630000 0.668032783518 -0.345618983657
443640000 0.668115258575 -0.345474121866
443650000 0.668360247576 -0.345092417061
443660000 0.66808496811 -0.345208351291
443670000 0.668287078014 -0.345567199041
443680000 0.667833363379 -0.344719518288
443690000 0.667426067159 -0.345543373012
443700000 0.667497692966 -0.345908258218
443710000 0.667363841567 -0.345969959393
443720000 0.667373744395 -0.345452661873
443730000 0.666995245665 -0.345364743787
443740000 0.668026409835 -0.345977376615
443750000 0.667980021351 -0.345964021598
443760000 0.668027188702 -0.346197793887
443770000 0.668248960387 -0.345945150099
443780000 0.667916922497 -0.346435672373
443790000 0.667719256536 -0.346759637611
443800000 0.668507604077 -0.346879678219
443810000 0.66803930905 -0.347552861234
443820000 0.668061661074 -0.346965943975
443830000 0.668146031754 -0.347092893924
443840000 0.667264420267 -0.346753240818
443850000 0.667816668647 -0.346805083508
443860000 0.667490348201 -0.346628200407
443870000 0.666598194551 -0.345994860641
443880000 0.667489727022 -0.345912645297
443890000 0.667696412964 -0.346726464067
443900000 0.667646407194 -0.3470160703
443910000 0.667477797707 -0.34646515838
443920000 0.666859720114 -0.347075145082
443930000 0.666760958606 -0.346805009806
443940000 0.66724221286 -0.347044485745
443950000 0.667549177969 -0.347222752265
443960000 0.667494224632 -0.347290606811
443970000 0.667305219946 -0.346805213677
443980000 0.667244519644 -0.346811841137
443990000 0.666900735179 -0.346718761279
444000000 0.666788174183 -0.347527491236
444010000 0.666464086591 -0.346809175767
444020000 0.666571755079 -0.346771310471
444030000 0.666438989666 -0.346467214882
444040000 0.665950807728 -0.34721424274
444050000 0.665828438154 -0.346792412212
444060000 0.666464758305 -0.347221049122
444070000 0.665937916034 -0.346866156349
444080000 0.666395316747 -0.347177092464
444090000 0.666215784048 -0.347011537584
444100000 0.666229704197 -0.347389230589
444110000 0.666889264914 -0.3471360418
444120000 0.666782411192 -0.346512863131
444130000 0.66658095052 -0.346079889472
444140000 0.667500197203 -0.345886921916
444150000 0.678226475316 -0.337308036866
444160000 0.673619682586 -0.339408712887
444170000 0.671755478948 -0.344168342676
444180000 0.668123423256 -0.345480716728
444190000 0.666308105823 -0.34638299629
444200000 0.666124719929 -0.346930498797
444210000 0.666535139938 -0.347469765935
444220000 0.666638794905 -0.3479345733
444230000 0.666384478821 -0.348046899271
444240000 0.665384333967 -0.347601599839
444250000 0.666178457815 -0.34772639139
444260000 0.665537831011 -0.347292457808
444270000 0.665838399911 -0.347915611348
444280000 0.665903420912 -0.346999360228
444290000 0.665568955884 -0.347477182283
444300000 0.665140562118 -0.347635095483
444310000 0.665165142671 -0.347766064226
444320000 0.665454295548 -0.347642837649
444330000 0.665981274481 -0.347039617548
444340000 0.666309541783 -0.348208899333
444350000 0.666207228909 -0.347827674242
444360000 0.666266207676 -0.348182791644
444370000 0.665498132865 -0.347711670084
444380000 0.665536395899 -0.347859084303
444390000 0.66544456381 -0.347354817681
444400000 0.664998986883 -0.347660224026
444410000 0.665319755223 -0.348030450671
444420000 0.665840344762 -0.348602293249
444430000 0.665626957612 -0.348498805249
444440000 0.66590195745 -0.348002810069
444450000 0.665312273905 -0.347805767785
444460000 0.665886433983 -0.34799031683
444470000 0.665727320483 -0.347996222382
444480000 0.665682242916 -0.348177274719
444490000 0.665064551132 -0.348236837342
444500000 0.664935950656 -0.348041776372
444510000 0.665557563366 -0.348318122469
444520000 0.66521495652 -0.348013936438
444530000 0.665101493603 -0.348188976539
444540000 0.665696292475 -0.347884032732
444550000 0.665487065108 -0.348079643179
444560000 0.664646815461 -0.347686062099
444570000 0.664748070824 -0.348226350057
444580000 0.665270313352 -0.347876175973
444590000 0.664935699287 -0.34735001322
444600000 0.665494834325 -0.347921943977
444610000 0.665146092531 -0.347518946924
444620000 0.665649949487 -0.347406291382
444630000 0.665803539052 -0.348086627044
444640000 0.665248529118 -0.348612010838
444650000 0.665887986511 -0.348407696682
444660000 0.664644130676 -0.347987693509
444670000 0.664595966116 -0.348174019422
444680000 0.664822291659 -0.348254541521
444690000 0.665218847117 -0.34910557937
444700000 0.665281305178 -0.349211382491
444710000 0.665110005757 -0.348861616068
444720000 0.665534150955 -0.348818639165
444730000 0.665380345657 -0.349054943736
444740000 0.665681840009 -0.348537536698
444750000 0.665386395866 -0.348971040529
444760000 0.664588108112 -0.348747524891
444770000 0.664813526739 -0.34854890396
444780000 0.664324810243 -0.34867008377
444790000 0.664773620609 -0.348271692893
444800000 0.664629468203 -0.348597282346
444810000 0.66468851747 -0.348812337508
444820000 0.664603222733 -0.348428040838
444830000 0.66460023211 -0.34908180409
444840000 0.664994555695 -0.349379447006
444850000 0.664201124868 -0.349269631783
444860000 0.664645538764 -0.349140777111
444870000 0.664424785913 -0.34904213977
444880000 0.663658367602 -0.349857279798
444890000 0.665150380162 -0.349264808084
444900000 0.666147547907 -0.349930760623
444910000 0.666772604705 -0.349698027459
444920000 0.666694074294 -0.34905634927
444930000 0.6654471072 -0.348704743782
444940000 0.664430286738 -0.348716777046
444950000 0.66446452884 -0.348826496306
444960000 0.664041691362 -0.349064694454
444970000 0.664145524573 -0.349115193755
444980000 0.664246906765 -0.348952008383
444990000 0.664872400491 -0.348991531225
445000000 0.664802304347 -0.34872357148
445010000 0.66478618007 -0.349345442979
445020000 0.664146289342 -0.348760460886
445030000 0.664286651638 -0.348592745463
445040000 0.664689762415 -0.348298344515
445050000 0.664723118658 -0.348361066919
445060000 0.664248631832 -0.348268108998
445070000 0.665132663016 -0.349226645833
445080000 0.664724558607 -0.349257732119
445090000 0.664743409213 -0.349274736595
445100000 0.66508343344 -0.348900914523
445110000 0.664885252564 -0.348528659015
445120000 0.664386476394 -0.348531763445
445130000 0.664735906308 -0.348948220995
445140000 0.665618835242 -0.350522929264
445150000 0.66451614053 -0.349202859719
445160000 0.664308926743 -0.350077141659
445170000 0.664423463242 -0.349351395671
445180000 0.663436952206 -0.349901140388
445190000 0.663996998916 -0.350024175062
445200000 0.664126975685 -0.349919857095
445210000 0.664623107296 -0.349385163238
445220000 0.664628198683 -0.349614391509
445230000 0.665189650344 -0.349415466206
445240000 0.664415269121 -0.34931087749
445250000 0.664229805365 -0.349199524938
445260000 0.664084996957 -0.348911613594
445270000 0.66359315215 -0.349006098792
445280000 0.663445087634 -0.34933242541
445290000 0.66352316132 -0.34933126654
445300000 0.663955905881 -0.349123382491
445310000 0.663556723138 -0.348621301918
445320000 0.66439429649 -0.349007720617
445330000 0.664042136173 -0.34861305831
445340000 0.663245123497 -0.349208143455
445350000 0.663904395628 -0.350013104773
445360000 0.664827613262 -0.350311159906
445370000 0.664159198847 -0.349954944245
445380000 0.664459650128 -0.348979599007
445390000 0.66416219117 -0.349481827854
445400000 0.664222769357 -0.349858013829
445410000 0.664112299236 -0.350556239177
445420000 0.663860209117 -0.3493245603
445430000 0.663284086119 -0.349403337108
445440000 0.663177136942 -0.349928491603
445450000 0.663539162093 -0.351060704689
445460000 0.663556475612 -0.350862298175
445470000 0.66348923438 -0.350612726333
445480000 0.664195854708 -0.350450854408
445490000 0.664516248368 -0.350098530209
445500000 0.664166451812 -0.350124518922
445510000 0.664898716113 -0.351105670949
445520000 0.665177132395 -0.350042244165
445530000 0.663763865756 -0.350282414802
445540000 0.664408223166 -0.350451038884
445550000 0.664100435754 -0.350191107834
445560000 0.663226040019 -0.350371211297
445570000 0.664418149072 -0.350284054092
445580000 0.664100148464 -0.3497700411
445590000 0.663476934073 -0.349559140678
445600000 0.66385652877 -0.350085306553
445610000 0.663767441101 -0.350465359839
445620000 0.663717088268 -0.349951752416
445630000 0.663873023634 -0.349986681798
445640000 0.663307067413 -0.350518442071
445650000 0.663622018162 -0.350088151547
445660000 0.663488815679 -0.350041794302
445670000 0.663143514698 -0.350374424233
445680000 0.663139735565 -0.350637889535
445690000 0.663450957337 -0.350412760604
445700000 0.664240756663 -0.351229835559
445710000 0.662986942913 -0.350930014731
445720000 0.666082498539 -0.352866216124
445730000 0.664214930158 -0.351172750012
445740000 0.66409982957 -0.351406946421
445750000 0.66329526536 -0.351755139985
445760000 0.663010165025 -0.351374189773
445770000 0.663224365267 -0.350689403366
445780000 0.663371075292 -0.350491330097
445790000 0.663694199687 -0.350772883534
445800000 0.66289224729 -0.350904804658
445810000 0.663457052591 -0.351229724263
445820000 0.663595243596 -0.351373847336
445830000 0.664142596551 -0.350750303682
445840000 0.662328791726 -0.352083004608
445850000 0.663763698536 -0.350818780205
445860000 0.663645634001 -0.350740549374
445870000 0.663035989979 -0.350808909765
445880000 0.66280312004 -0.351641165557
445890000 0.662839057823 -0.351426199934
445900000 0.662842026386 -0.350916306705
445910000 0.662851642822 -0.350617775634
445920000 0.663104597042 -0.350701641719
445930000 0.66329964009 -0.350841728515
445940000 0.663053017654 -0.350883683619
445950000 0.663236040659 -0.350787647309
445960000 0.662603160085 -0.350636106801
445970000 0.662506280417 -0.351239753005
445980000 0.662819133246 -0.351149871809
445990000 0.662779004152 -0.350895129854
446000000 0.662448043631 -0.351663263739
446010000 0.66268184296 -0.350778490664
446020000 0.662653228274 -0.350677268143
446030000 0.662098796343 -0.350481532395
446040000 0.662668254067 -0.35018524991
446050000 0.662399818917 -0.350528267932
446060000 0.662147165058 -0.350801265063
446070000 0.662463285331 -0.350785063941
446080000 0.662218838261 -0.350768863983
446090000 0.662762346959 -0.350413681451
446100000 0.662539817311 -0.350573995387
446110000 0.661602108291 -0.351253808121
446120000 0.661448109389 -0.350778458325
446130000 0.662164874081 -0.351052189076
446140000 0.661713301558 -0.350547800239
446150000 0.662380706462 -0.351754750672
446160000 0.662134909676 -0.350907968338
446170000 0.66204417641 -0.351252728543
446180000 0.661565306174 -0.350927601532
446190000 0.66106475247 -0.351060699065
446200000 0.660687403791 -0.351050606966
446210000 0.660967614257 -0.350773175744
446220000 0.661674085475 -0.351190515941
446230000 0.661580373314 -0.352214872843
446240000 0.661882706341 -0.351640188248
446250000 0.662389653228 -0.351145515174
446260000 0.662542161911 -0.350922900888
446270000 0.662627945654 -0.350926082996
446280000 0.662548889706 -0.351318004852
446290000 0.662201433171 -0.352179928214
446300000 0.661571717332 -0.352549273392
446310000 0.661595968341 -0.353366162521
446320000 0.665705557725 -0.348573268461
446330000 0.661286386757 -0.353146963792
446340000 0.661580505697 -0.352339558619
446350000 0.661547829195 -0.351240148273
446360000 0.660960287815 -0.351857304411
446370000 0.661114699173 -0.351783977954
446380000 0.661166312695 -0.351303164269
446390000 0.661207571131 -0.351487888481
446400000 0.661350365193 -0.351261378036
446410000 0.661408531571 -0.351024121091
446420000 0.661263535485 -0.351392196524
446430000 0.661095045397 -0.351608900292
446440000 0.660778326623 -0.351659433498
446450000 0.66151158668 -0.350815482747
446460000 0.661664019893 -0.351181513905
446470000 0.661632865462 -0.351589642726
446480000 0.661556294598 -0.352280964073
446490000 0.661114001656 -0.352222870165
446500000 0.661014974121 -0.35216699279
446510000 0.661328737559 -0.35204240737
446520000 0.660973628747 -0.351987092089
446530000 0.660806137169 -0.351621956988
446540000 0.66091140558 -0.351686724227
446550000 0.661041978943 -0.351537363271
446560000 0.661168114229 -0.352134366286
446570000 0.661276946119 -0.35183172935
446580000 0.660328531758 -0.352071473854
446590000 0.660743168251 -0.351978950745
446600000 0.660195698154 -0.352468932711
446610000 0.660867975959 -0.352121117765
446620000 0.661415034949 -0.352107385589
446630000 0.66091412447 -0.351731111094
446640000 0.661249002027 -0.351944332866
446650000 0.661339902989 -0.352000875849
446660000 0.660843105233 -0.352877603365
446670000 0.660956863117 -0.352609746087
446680000 0.661010423512 -0.351745056439
446690000 0.660399763872 -0.351919937639
446700000 0.660182901654 -0.351819173114
446710000 0.660637007312 -0.351908050917
446720000 0.660365888604 -0.352002622731
446730000 0.660239769583 -0.352656289198
446740000 0.660478882293 -0.352314352066
446750000 0.660622826457 -0.351810265136
446760000 0.659995782976 -0.351667631663
446770000 0.659688873619 -0.351776083624
446780000 0.659636801769 -0.352813828526
446790000 0.660301710478 -0.352928858294
446800000 0.66182776074 -0.353073336021
446810000 0.66100941729 -0.353392960358
446820000 0.660931912433 -0.352675331053
446830000 0.660675001521 -0.352088420675
446840000 0.66147177523 -0.351076800228
446850000 0.661631430101 -0.350861928162
446860000 0.660813422286 -0.350954631665
446870000 0.661097760353 -0.351421120493
446880000 0.660744072216 -0.352083960741
446890000 0.66003264208 -0.352724702861
446900000 0.660393261196 -0.353436696582
446910000 0.660756127778 -0.353066579562
446920000 0.6607656629 -0.352855876493
446930000 0.660993322016 -0.352947044287
446940000 0.660309464972 -0.352419622939
446950000 0.660894177931 -0.352671574778
446960000 0.660801921773 -0.352363441488
446970000 0.660476512828 -0.352739060441
446980000 0.660422015801 -0.351815468798
446990000 0.660693889622 -0.352462670442
447000000 0.660686190142 -0.353436925626
447010000 0.660305211926 -0.354853157982
447020000 0.660144102424 -0.354266478555
447030000 0.660112979403 -0.354204644624
447040000 0.660028347738 -0.354167961328
447050000 0.660212226433 -0.354783445843
447060000 0.660476887456 -0.354779745604
447070000 0.660076395974 -0.354787857051
447080000 0.65972194619 -0.355634970503
447090000 0.659239773672 -0.356342969153
447100000 0.659042973988 -0.356661101158
447110000 0.660007263405 -0.355593145917
447120000 0.65986384624 -0.354890878064
447130000 0.658882676689 -0.354142348952
447140000 0.659165803958 -0.353680439894
447150000 0.658766230017 -0.353504419541
447160000 0.659278709117 -0.353710584977
447170000 0.659284758947 -0.353912419729
447180000 0.658988045375 -0.353635260454
447190000 0.659784720913 -0.354458804459
447200000 0.659394545545 -0.354878678743
447210000 0.659799340355 -0.354612343279
447220000 0.658140203216 -0.354689794255
447230000 0.660320284561 -0.354719830352
447240000 0.658514252682 -0.354492098859
447250000 0.65864780692 -0.354195286243
447260000 0.659090427362 -0.354283765933
447270000 0.659189600301 -0.353592849156
447280000 0.65993814707 -0.353966733137
447290000 0.661262855442 -0.352332055443
447300000 0.659009895487 -0.353696611419
447310000 0.659742542225 -0.354525313073
447320000 0.659322227224 -0.355053243337
447330000 0.65880538019 -0.354365771868
447340000 0.657054905414 -0.355187781266
447350000 0.660914660061 -0.354524541103
447360000 0.657172904438 -0.355367436108
447370000 0.65807745302 -0.356613305577
447380000 0.657082564657 -0.354797517016
447390000 0.658820369047 -0.3544998972
447400000 0.660204107902 -0.35492030024
447410000 0.661444473772 -0.354027271421
447420000 0.659954595421 -0.353451456379
447430000 0.660015850802 -0.352754772703
447440000 0.658083751658 -0.354302994906
447450000 0.659384429273 -0.354954459027
447460000 0.661026331735 -0.354677871238
447470000 0.659936964006 -0.353965980543
447480000 0.657820191109 -0.353594037139
447490000 0.658659379289 -0.356166771806
447500000 0.659162288675 -0.353849783509
447510000 0.65897180542 -0.354205898898
447520000 0.659753376708 -0.355282773902
447530000 0.660717558509 -0.353281744364
447540000 0.660250946098 -0.354031359831
447550000 0.659410351561 -0.353850503623
447560000 0.656401437682 -0.358230255711
447570000 0.658875858044 -0.355123737582
447580000 0.657797452183 -0.351738380779
447590000 0.659554895273 -0.352003298527
447600000 0.661731107844 -0.354596591948
447610000 0.658465276917 -0.353611138898
447620000 0.65888670686 -0.352456343681
447630000 0.65961347221 -0.353787960289
447640000 0.657292878943 -0.354923079122
447650000 0.657726548507 -0.354213266721
447660000 0.657074868637 -0.352550481766
447670000 0.659222231859 -0.355650536767
447680000 0.658663267662 -0.354869652507
447690000 0.659284336973 -0.354488238097
447700000 0.658438770827 -0.355136559916
447710000 0.65936489611 -0.355277100272
447720000 0.657770703261 -0.354317207672
447730000 0.658732212862 -0.354097749666
447740000 0.658355442302 -0.354508799576
447750000 0.657589446447 -0.354710563025
447760000 0.658408654573 -0.357908185606
447770000 0.660788200411 -0.359052289718
447780000 0.65794125682 -0.355290649829
447790000 0.658213882795 -0.355212803415
447800000 0.658463102136 -0.35538880331
447810000 0.658848895616 -0.354551914595
447820000 0.658226139361 -0.354670050166
447830000 0.658202041993 -0.355104477666
447840000 0.658260719493 -0.354880594571
447850000 0.658538097468 -0.354942888171
447860000 0.658394002241 -0.35511218132
447870000 0.658384849516 -0.354613271828
447880000 0.657197201081 -0.35455182423
447890000 0.657428420546 -0.355059840873
447900000 0.657505247906 -0.355447399554
447910000 0.657304378184 -0.355010812554
447920000 0.657677074922 -0.355102296064
447930000 0.657686089552 -0.354992765157
447940000 0.657357069393 -0.355257659148
447950000 0.657227833225 -0.355107697635
447960000 0.657694235179 -0.35546821375
447970000 0.657355404158 -0.355640440294
447980000 0.657742475886 -0.355149819235
447990000 0.657265368696 -0.355149139216
448000000 0.657413112803 -0.3558984887
448010000 0.657750865897 -0.355497808818
448020000 0.657706368887 -0.354972967498
448030000 0.657820372633 -0.354766110763
448040000 0.657895476346 -0.354530578187
448050000 0.658165055917 -0.354710428096
448060000 0.656654395317 -0.354633561209
448070000 0.657815837142 -0.354263397791
448080000 0.65739425 -0.355048387248
448090000 0.658622612585 -0.354596595038
448100000 0.658203515247 -0.354965764998
448110000 0.65712277044 -0.354854021235
448120000 0.65783773747 -0.35556789266
448130000 0.657497480778 -0.354787839203
448140000 0.657920277306 -0.355299636821
448150000 0.657203199172 -0.354785392362
448160000 0.65770709019 -0.35547348595
448170000 0.657185883186 -0.354844343767
448180000 0.658066164334 -0.354920462749
448190000 0.658704731214 -0.354944996246
448200000 0.657976964501 -0.354281622948
448210000 0.65736837503 -0.354509459189
448220000 0.657602713465 -0.354086063629
448230000 0.657436589733 -0.354323796888
448240000 0.6567459058 -0.35473439511
448250000 0.657273125673 -0.35486949554
448260000 0.656951668051 -0.354900078114
448270000 0.65718487894 -0.354683417108
448280000 0.657656038961 -0.354485906492
448290000 0.657670218263 -0.354647274366
448300000 0.657028169029 -0.355294060427
448310000 0.656765742174 -0.354920649119
448320000 0.656910128235 -0.356233942383
448330000 0.658565874197 -0.356699268855
448340000 0.658562782631 -0.355985532502
448350000 0.657680352317 -0.355672482208
448360000 0.657888700099 -0.355457753757
448370000 0.65770735398 -0.354847819734
448380000 0.658056527014 -0.355396876266
448390000 0.657549871074 -0.355711396085
448400000 0.657372999981 -0.355616194495
448410000 0.65768274692 -0.354455829825
448420000 0.657205608661 -0.354748834823
448430000 0.657322901832 -0.355383563488
448440000 0.656810646884 -0.355231959474
448450000 0.657419121786 -0.355221969279
448460000 0.657763431568 -0.355953274227
448470000 0.657242990942 -0.35546427225
448480000 0.656593961308 -0.356167340801
448490000 0.651618127031 -0.350882666593
448500000 0.656954989698 -0.350936502394
448510000 0.657250024938 -0.355589742477
448520000 0.657388057164 -0.355237119345
448530000 0.657962118259 -0.355049075801
448540000 0.657965722284 -0.354963400845
448550000 0.657363855943 -0.35488015654
448560000 0.657132517821 -0.354762394744
448570000 0.657176644936 -0.355154724533
448580000 0.657617330733 -0.355412325095
448590000 0.658285856551 -0.355833273139
448600000 0.657912001255 -0.356144735582
448610000 0.65742282987 -0.354933054972
448620000 0.656937011807 -0.355205630424
448630000 0.657226570821 -0.355330430167
448640000 0.656660261286 -0.355853429315
448650000 0.65685135297 -0.355515317703
448660000 0.656422302018 -0.355376933651
448670000 0.657018922312 -0.355320800091
448680000 0.657031392348 -0.35524331323
448690000 0.656823116282 -0.355044607196
448700000 0.656500818553 -0.355195235592
448710000 0.656853759525 -0.35459539353
448720000 0.656417984043 -0.354492522552
448730000 0.657118995894 -0.355091078692
448740000 0.65681610486 -0.354450415278
448750000 0.657258074631 -0.354828367861
448760000 0.657086843809 -0.354745916506
448770000 0.656602504817 -0.355101725432
448780000 0.656343862953 -0.355561831345
448790000 0.656225799705 -0.355798707674
448800000 0.658046465247 -0.35351681
448810000 0.65673039423 -0.355472407718
448820000 0.65606163768 -0.355522430948
448830000 0.656949597001 -0.356203783717
448840000 0.656820539292 -0.355734881485
448850000 0.656891485634 -0.355815893234
448860000 0.655067077534 -0.355314302402
448870000 0.656062900313 -0.355533052416
448880000 0.656798641391 -0.355051607945
448890000 0.656748513654 -0.354824750858
448900000 0.657400028957 -0.354657578578
448910000 0.656760680419 -0.353565877626
448920000 0.656708900276 -0.355606875891
448930000 0.657194547211 -0.355319556582
448940000 0.656934944058 -0.355170768911
448950000 0.656914484168 -0.355494100465
448960000 0.656921564879 -0.355134908086
448970000 0.657855962131 -0.355170694788
448980000 0.656957745007 -0.355173656171
448990000 0.656307925126 -0.354177980118
449000000 0.657355742857 -0.35526347744
449010000 0.657913891578 -0.35489943714
449020000 0.658327009645 -0.354800514883
449030000 0.658527336671 -0.354745297741
449040000 0.658068764914 -0.354360162927
449050000 0.658428417378 -0.354796878866
449060000 0.658675712242 -0.35492863286
449070000 0.659109058527 -0.355476051022
449080000 0.659324501178 -0.355234109576
449090000 0.658885550596 -0.355053449361
449100000 0.658848976824 -0.354891493344
449110000 0.658828601467 -0.355553444803
449120000 0.659012443956 -0.35520869542
449130000 0.658607737072 -0.355397352955
449140000 0.658753686071 -0.355213950501
449150000 0.658968281133 -0.354901226977
449160000 0.659430607062 -0.354963123942
449170000 0.658877098481 -0.354867905717
449180000 0.658703454847 -0.355053262655
449190000 0.658633447459 -0.355402749579
449200000 0.658176877346 -0.35493459477
449210000 0.657229317915 -0.355138458606
449220000 0.658018843507 -0.35515857804
449230000 0.657794735109 -0.355870384974
449240000 0.658073062201 -0.355636215979
449250000 0.658110456545 -0.356002006799
449260000 0.658641866036 -0.355881342929
449270000 0.658517518796 -0.355409867007
449280000 0.658624009581 -0.355242875812
449290000 0.658838843641 -0.355558679334
449300000 0.658443518495 -0.354932694409
449310000 0.658465379104 -0.35513841519
449320000 0.658327790888 -0.355569561957
449330000 0.658794298808 -0.356178003677
449340000 0.658278620821 -0.355954081284
449350000 0.658030069348 -0.355607177856
449360000 0.657726324686 -0.355927047649
449370000 0.657887457218 -0.354415866807
449380000 0.658022395804 -0.35574381279
449390000 0.6581133757 -0.356537302184
449400000 0.65816528564 -0.356413285094
449410000 0.658055508486 -0.35609470374
449420000 0.657756450885 -0.356234627642
449430000 0.657534610457 -0.356036369302
449440000 0.658180361746 -0.356342672622
449450000 0.65794610684 -0.356690440356
449460000 0.658298128116 -0.356875759061
449470000 0.658002849804 -0.35666635633
449480000 0.658320084188 -0.356128240923
449490000 0.658703385811 -0.356027099237
449500000 0.657477849271 -0.355721877693
449510000 0.657846168133 -0.355606753644
449520000 0.658121265416 -0.355942258886
449530000 0.658112415672 -0.356301564795
449540000 0.657876371158 -0.355823142147
449550000 0.659420505792 -0.357822053524
449560000 0.660961896712 -0.359935790854
449570000 0.661604478047 -0.35870230798
449580000 0.660116988878 -0.36000890022
449590000 0.659282820213 -0.358113406374
449600000 0.658625438083 -0.356619675523
449610000 0.658322473336 -0.356643112577
449620000 0.658363303514 -0.356033701634
449630000 0.657963306095 -0.35597789984
449640000 0.657961188123 -0.356048567923
449650000 0.657622580459 -0.355841088405
449660000 0.658028905651 -0.356163697623
449670000 0.657961185083 -0.357749044394
449680000 0.659158894247 -0.356299794851
449690000 0.658664843046 -0.356951010353
449700000 0.658215952561 -0.356448142556
449710000 0.658006491578 -0.355691354528
449720000 0.65771252401 -0.356720153798
449730000 0.658027509659 -0.355934312173
449740000 0.657354556703 -0.355980246907
449750000 0.657988808673 -0.355953136597
449760000 0.658075034927 -0.357022230897
449770000 0.658939704997 -0.356843178182
449780000 0.658778159632 -0.356495256395
449790000 0.659747398727 -0.357106281446
449800000 0.659246867906 -0.357495166817
449810000 0.658785757474 -0.357144585266
449820000 0.657869421186 -0.357679012487
449830000 0.658779789444 -0.357804405581
449840000 0.658248110048 -0.357614481713
449850000 0.658159733919 -0.356939546228
449860000 0.657601832885 -0.356834099614
449870000 0.658380230242 -0.356682285214
449880000 0.657968138124 -0.35686022318
449890000 0.658274468868 -0.356447065849
449900000 0.65831873677 -0.357385806208
449910000 0.658227484817 -0.35749715558
449920000 0.658709118016 -0.357055871048
449930000 0.65796880005 -0.35732224898
449940000 0.659346176332 -0.357368943376
449950000 0.658090555174 -0.357164777865
449960000 0.65781695114 -0.356781547523
449970000 0.657963491466 -0.356582626404
449980000 0.657085780578 -0.356802000138
449990000 0.658042777335 -0.357127476738
450000000 0.657590451455 -0.357980441478
