! Calibrated averaged scanner-service zoom
# Hz S RI R 50
851000000 0.601240542661 -0.492535351986
851009000 0.600513237619 -0.492133532051
851018000 0.599658852631 -0.493152403114
851027000 0.600348534516 -0.492095066797
851036000 0.600318284937 -0.492041453977
851045000 0.600345546984 -0.491857284002
851054000 0.600215371269 -0.491483125336
851063000 0.600007432201 -0.491575276747
851072000 0.599916804568 -0.491861216019
851081000 0.600770670857 -0.491653973281
851090000 0.599843685065 -0.492411404329
851099000 0.600262887993 -0.492195306032
851108000 0.600455904402 -0.491949621461
851117000 0.600241498322 -0.491776447237
851126000 0.600334653449 -0.491948413619
851135000 0.600916275026 -0.492461400506
851144000 0.60059628294 -0.492806876558
851153000 0.600555713146 -0.492892434058
851162000 0.601013299578 -0.493418454033
851171000 0.601200728199 -0.492059849104
851180000 0.600863832458 -0.492351464458
851189000 0.600891433854 -0.492707050308
851198000 0.600455139731 -0.491379366926
851207000 0.600344973209 -0.493154324441
851216000 0.60037303906 -0.492587464249
851225000 0.6000680452 -0.492621155799
851234000 0.600502517836 -0.491652702668
851243000 0.599746690387 -0.491480721197
851252000 0.600302432851 -0.491457302514
851261000 0.599933213869 -0.492026097162
851270000 0.59934056784 -0.491668155999
851279000 0.599300884024 -0.49125700179
851288000 0.599382887445 -0.491844219721
851297000 0.599340176408 -0.492652901146
851306000 0.600341674693 -0.491561316333
851315000 0.600773747971 -0.492233399043
851324000 0.60058642922 -0.491678692881
851333000 0.600616999268 -0.492013626621
851342000 0.599777001748 -0.49251873492
851351000 0.599663952042 -0.492868061654
851360000 0.599106686822 -0.492658791807
851369000 0.599885905166 -0.492881664014
851378000 0.599175926137 -0.492138023396
851387000 0.599560858843 -0.492060132431
851396000 0.599033896115 -0.492993107659
851405000 0.599903477433 -0.492661308618
851414000 0.599790888276 -0.492471341192
851423000 0.599808666012 -0.492485180564
851432000 0.600264582732 -0.492247242438
851441000 0.600089163502 -0.491848868602
851450000 0.599830260818 -0.492885579412
851459000 0.599156240443 -0.492824363761
851468000 0.599194765638 -0.491837860309
851477000 0.599037389408 -0.49195374829
851486000 0.598010160553 -0.492658049302
851495000 0.599384188094 -0.490890587482
851504000 0.600231367646 -0.491222890299
851513000 0.599493455147 -0.492263197614
851522000 0.599153603321 -0.492063710959
851531000 0.599928532284 -0.492259956831
851540000 0.600667776859 -0.492677797212
851549000 0.600388905919 -0.492490367867
851558000 0.601459829253 -0.492031000536
851567000 0.60050665741 -0.491266545868
851576000 0.600557571951 -0.49279522959
851585000 0.600747366691 -0.492224953391
851594000 0.60107033209 -0.492140447606
851603000 0.601207728641 -0.49184177835
851612000 0.60075767415 -0.492354266453
851621000 0.600375964742 -0.493075562549
851630000 0.600110834504 -0.492275682403
851639000 0.599527115093 -0.492402009486
851648000 0.599871378222 -0.492699679505
851657000 0.599816882177 -0.493011775051
851666000 0.600413504741 -0.492685734775
851675000 0.60081105463 -0.492026617139
851684000 0.599615887126 -0.491790590518
851693000 0.600069686551 -0.491137714694
851702000 0.599416814351 -0.491798714508
851711000 0.600191660833 -0.492313723655
851720000 0.600097563551 -0.492386951634
851729000 0.60009158998 -0.4932674633
851738000 0.600410475277 -0.492973132622
851747000 0.600553392831 -0.493120612047
851756000 0.599870605056 -0.491915465309
851765000 0.600350700278 -0.492227542483
851774000 0.600203965912 -0.492100350581
851783000 0.599478693769 -0.492635411718
851792000 0.598592578227 -0.492314968542
851801000 0.598835465083 -0.491254991947
851810000 0.597943718501 -0.49183315765
851819000 0.598587009122 -0.49202801097
851828000 0.598522458391 -0.492879684647
851837000 0.598597992884 -0.493224763815
851846000 0.600051103793 -0.492812192951
851855000 0.599752167345 -0.493400733264
851864000 0.600235162782 -0.492948498696
851873000 0.599640448553 -0.492319922451
851882000 0.600316139232 -0.491891492297
851891000 0.599873501626 -0.492654875619
851900000 0.599654084401 -0.492520641245
851909000 0.59906348491 -0.492239489762
851918000 0.598698674132 -0.492776587237
851927000 0.599655246178 -0.492787280789
851936000 0.599384466807 -0.491865449369
851945000 0.599057918343 -0.492642902088
851954000 0.599331476036 -0.491646605325
851963000 0.598582312025 -0.492410207545
851972000 0.599007738183 -0.493212069913
851981000 0.598082201316 -0.493393214554
851990000 0.598453955976 -0.493704492015
851999000 0.599513797959 -0.492939426771
852008000 0.600575374103 -0.4935829437
852017000 0.600208169131 -0.493753904126
852026000 0.599971374065 -0.493989156156
852035000 0.600083128773 -0.495309749253
852044000 0.600669996208 -0.494158427288
852053000 0.60030139289 -0.493931701637
852062000 0.599635242378 -0.492278683939
852071000 0.59812610192 -0.493710891787
852080000 0.599180456285 -0.493090535298
852089000 0.59895092729 -0.493741621045
852098000 0.599377032034 -0.493923559656
852107000 0.600288329245 -0.493549568293
852116000 0.600282540565 -0.493291002861
852125000 0.600004639031 -0.492984796052
852134000 0.600524781816 -0.492076883025
852143000 0.600506887146 -0.492816770437
852152000 0.600395738408 -0.491608645255
852161000 0.600037049642 -0.492773259262
852170000 0.599887785516 -0.493190198199
852179000 0.599399028844 -0.493215934134
852188000 0.598823168599 -0.493207071648
852197000 0.599508740719 -0.493100391279
852206000 0.598895505609 -0.493057813143
852215000 0.599747214372 -0.494177363519
852224000 0.599444455415 -0.493669881534
852233000 0.599502950788 -0.492946092443
852242000 0.599299042918 -0.493690818594
852251000 0.599882698867 -0.492933849178
852260000 0.599585080094 -0.493207073469
852269000 0.599635446628 -0.493317336088
852278000 0.600259721317 -0.492983533219
852287000 0.599810989484 -0.492385851521
852296000 0.599160217216 -0.49169531044
852305000 0.598846593043 -0.491253118364
852314000 0.598898393181 -0.491988442602
852323000 0.59877254459 -0.492077420621
852332000 0.598875701314 -0.492935622097
852341000 0.598717586006 -0.492124696337
852350000 0.598646024762 -0.493163814422
852359000 0.598703311606 -0.492738926119
852368000 0.599158818039 -0.492717935336
852377000 0.599382611273 -0.492702532675
852386000 0.599802333351 -0.493145541139
852395000 0.59931278949 -0.492658338678
852404000 0.599579520457 -0.491854194951
852413000 0.599747509823 -0.492244823362
852422000 0.599715648824 -0.492857134958
852431000 0.599511222767 -0.491952741966
852440000 0.598478062636 -0.492182742112
852449000 0.599004193366 -0.49278005562
852458000 0.598547186087 -0.493609962267
852467000 0.598764245689 -0.493730351608
852476000 0.599277955612 -0.493349791593
852485000 0.599422966694 -0.493083028709
852494000 0.599309250315 -0.491812102342
852503000 0.598872032039 -0.492265118182
852512000 0.599332237611 -0.492646856343
852521000 0.598866158158 -0.493210975275
852530000 0.598602139848 -0.493277476226
852539000 0.598761284799 -0.492524847361
852548000 0.598891940156 -0.492920501309
852557000 0.599292042595 -0.492631511717
852566000 0.598875676101 -0.493251858299
852575000 0.598621080834 -0.493764671579
852584000 0.599049362347 -0.494244094739
852593000 0.599225457874 -0.49358432586
852602000 0.59823329836 -0.492779550645
852611000 0.599376954081 -0.492238587631
852620000 0.599550151153 -0.492384731651
852629000 0.599193339692 -0.493179964109
852638000 0.598420112357 -0.49279233272
852647000 0.598847221366 -0.493176481066
852656000 0.599132041693 -0.492416989104
852665000 0.599704942219 -0.49265496836
852674000 0.600870753356 -0.492527306144
852683000 0.600186757398 -0.493276181719
852692000 0.599460514393 -0.493706454844
852701000 0.599687073918 -0.494197954169
852710000 0.59889259564 -0.494084565675
852719000 0.599164545311 -0.493454665861
852728000 0.599223771222 -0.493905990527
852737000 0.598748288363 -0.493848227098
852746000 0.59872674396 -0.49273428454
852755000 0.59824682648 -0.49316490641
852764000 0.598759756307 -0.4924673261
852773000 0.59890965525 -0.492724277505
852782000 0.598531340926 -0.493563935879
852791000 0.599275274723 -0.4932406257
852800000 0.598826210658 -0.493197500348
852809000 0.598913488582 -0.493411728677
852818000 0.599244081534 -0.493607671622
852827000 0.598948837616 -0.492863327951
852836000 0.5989973698 -0.493072354894
852845000 0.599338825685 -0.49228670089
852854000 0.599208362583 -0.493142563482
852863000 0.599117435419 -0.4937813073
852872000 0.598657715346 -0.493805240615
852881000 0.599062185959 -0.493891662744
852890000 0.599634508843 -0.493024225043
852899000 0.600020835036 -0.492601490669
852908000 0.599258909561 -0.492658292493
852917000 0.598852156847 -0.493957449052
852926000 0.598470943503 -0.494383821415
852935000 0.598574410952 -0.494317650217
852944000 0.598506505007 -0.494424332418
852953000 0.598533298798 -0.494206105195
852962000 0.598751950535 -0.493579923447
852971000 0.598613390576 -0.494365205487
852980000 0.599356669441 -0.493459885533
852989000 0.599728638278 -0.493252088009
852998000 0.598379584298 -0.493813101769
853007000 0.598461785162 -0.493927602081
853016000 0.598538641788 -0.493239041331
853025000 0.599126607146 -0.493676447097
853034000 0.598786757113 -0.49310983486
853043000 0.598367049184 -0.493331644373
853052000 0.598915922786 -0.493318688271
853061000 0.597945876005 -0.494301038655
853070000 0.598336532569 -0.493979420679
853079000 0.5987506849 -0.49303348962
853088000 0.599757325092 -0.492969053232
853097000 0.599696487911 -0.492120787869
853106000 0.597226926788 -0.492736633609
853115000 0.599713306868 -0.492064199627
853124000 0.599152064464 -0.492969758087
853133000 0.599763999099 -0.492907578026
853142000 0.599080242115 -0.49303072941
853151000 0.598023830127 -0.493622569578
853160000 0.598337870897 -0.492939590591
853169000 0.598740493333 -0.493605081959
853178000 0.598305463532 -0.494162765847
853187000 0.59828526444 -0.493677582108
853196000 0.59862911916 -0.492988853422
853205000 0.598214003037 -0.492167229333
853214000 0.598377969388 -0.492108590629
853223000 0.598092802819 -0.492680200153
853232000 0.598846809812 -0.492569115628
853241000 0.599276978572 -0.493422469422
853250000 0.598787207819 -0.492629598121
853259000 0.599135676676 -0.493280429334
853268000 0.598628875015 -0.492283553636
853277000 0.598658768306 -0.492478256161
853286000 0.598753875712 -0.492069770467
853295000 0.598548923795 -0.492004851166
853304000 0.598596371817 -0.492396428286
853313000 0.598424848203 -0.492049021735
853322000 0.598886487857 -0.492678514239
853331000 0.598785006405 -0.492973988724
853340000 0.599047258137 -0.493278745759
853349000 0.598076783801 -0.493640744593
853358000 0.598089275206 -0.493925987181
853367000 0.59748279128 -0.493905462919
853376000 0.597295759458 -0.493493553636
853385000 0.59805602795 -0.493294634369
853394000 0.59756486605 -0.49241214139
853403000 0.597776984712 -0.493075286686
853412000 0.598011231815 -0.493789863348
853421000 0.599472259997 -0.493938917954
853430000 0.59934992179 -0.493945485363
853439000 0.598538134925 -0.493091389314
853448000 0.599670976477 -0.493003669084
853457000 0.599136080869 -0.493150393825
853466000 0.599186105331 -0.492854030262
853475000 0.598583914976 -0.493652462126
853484000 0.598035057284 -0.493034489234
853493000 0.597822485122 -0.493680301177
853502000 0.597501013021 -0.493366886145
853511000 0.598226166725 -0.493537818962
853520000 0.598231886957 -0.493786780162
853529000 0.598037148946 -0.493261184177
853538000 0.598076439289 -0.493273549482
853547000 0.598880724712 -0.493549191971
853556000 0.598496466723 -0.494753328681
853565000 0.598521720205 -0.494644535296
853574000 0.598536760731 -0.493717092537
853583000 0.59886101221 -0.493234499863
853592000 0.597867123711 -0.493793825499
853601000 0.598546580824 -0.493995180579
853610000 0.598025243405 -0.494653174861
853619000 0.598508206624 -0.495185548036
853628000 0.598287120258 -0.493726236331
853637000 0.598373619939 -0.49335557539
853646000 0.59841701534 -0.492465487542
853655000 0.598898617834 -0.492891347676
853664000 0.597348870933 -0.49340569278
853673000 0.597009307347 -0.493163647351
853682000 0.597282240603 -0.492853745478
853691000 0.598040367249 -0.492921386151
853700000 0.598104926718 -0.492690417678
853709000 0.598362634622 -0.492768726095
853718000 0.598203836717 -0.493035805751
853727000 0.59821720064 -0.492739793477
853736000 0.598818264376 -0.493581026017
853745000 0.598130509034 -0.493315924029
853754000 0.598164127922 -0.494096578429
853763000 0.598295674783 -0.492878522505
853772000 0.597876312247 -0.49261144044
853781000 0.598187531739 -0.491883494705
853790000 0.597820560919 -0.492523450899
853799000 0.598303389661 -0.492546456416
853808000 0.598377065072 -0.493169393462
853817000 0.598349564622 -0.493340822848
853826000 0.598360544947 -0.493868884811
853835000 0.597683576715 -0.493312986018
853844000 0.597407444137 -0.492192791477
853853000 0.602736714946 -0.49579160465
853862000 0.597692484125 -0.491846829178
853871000 0.59808823515 -0.492827918752
853880000 0.598210888881 -0.492874689422
853889000 0.597608740064 -0.492610891993
853898000 0.598957804717 -0.492882199753
853907000 0.598365122121 -0.492662897724
853916000 0.597800794645 -0.492414641272
853925000 0.597918671957 -0.492187187829
853934000 0.598265308129 -0.49277221802
853943000 0.597724298982 -0.492678983639
853952000 0.598200168644 -0.49235942375
853961000 0.597514052832 -0.492296747206
853970000 0.598118719571 -0.492200090218
853979000 0.597945442599 -0.491621561826
853988000 0.598397805846 -0.492271594854
853997000 0.598192907185 -0.491981041535
854006000 0.597741903884 -0.492284102711
854015000 0.598836015681 -0.49211305582
854024000 0.597898683972 -0.492981862752
854033000 0.598197695884 -0.493004917816
854042000 0.597864652723 -0.493071052953
854051000 0.597992443732 -0.491947276303
854060000 0.598537460487 -0.492642639887
854069000 0.59863147447 -0.493026182098
854078000 0.598642630036 -0.493143499427
854087000 0.598357067439 -0.493535387794
854096000 0.598562207276 -0.492812837934
854105000 0.598745481374 -0.492754118265
854114000 0.598679227236 -0.493114067176
854123000 0.597835580452 -0.492978522042
854132000 0.598631791946 -0.492773934852
854141000 0.597918553047 -0.492038501528
854150000 0.597730322262 -0.493342976964
854159000 0.597840266455 -0.493534552323
854168000 0.598089894637 -0.492791125731
854177000 0.597573522562 -0.492942910554
854186000 0.597696554165 -0.493660359001
854195000 0.597980568688 -0.492875984866
854204000 0.597710840373 -0.493179086759
854213000 0.598217377871 -0.492195713728
854222000 0.598172026236 -0.491809934298
854231000 0.597416157539 -0.49311043657
854240000 0.598153036473 -0.493217744505
854249000 0.59823614472 -0.493427788057
854258000 0.598514049666 -0.493991745904
854267000 0.598200650787 -0.493597313588
854276000 0.596872806833 -0.493181457084
854285000 0.598189314338 -0.493595295515
854294000 0.59841585906 -0.492660209297
854303000 0.598112443348 -0.492682455098
854312000 0.59776364052 -0.492648074236
854321000 0.596986430446 -0.493110510218
854330000 0.597636057053 -0.492655125137
854339000 0.598276357111 -0.492893180581
854348000 0.596898097747 -0.492818711086
854357000 0.598106281991 -0.493244803225
854366000 0.598738944417 -0.494027271536
854375000 0.598182631714 -0.493956412984
854384000 0.598584627941 -0.493880140301
854393000 0.598903583492 -0.49437869259
854402000 0.599174847891 -0.494315826134
854411000 0.598876219429 -0.494257661554
854420000 0.597194108461 -0.493535778015
854429000 0.597552893888 -0.49417826445
854438000 0.597450254574 -0.493919103671
854447000 0.597396433398 -0.493563240291
854456000 0.597962387395 -0.493295137515
854465000 0.597493794745 -0.493465574841
854474000 0.597562889458 -0.493653175124
854483000 0.597465564532 -0.494260008898
854492000 0.597290427314 -0.494179547519
854501000 0.597411115541 -0.493895277732
854510000 0.596866245825 -0.49375877464
854519000 0.597489716632 -0.49407159853
854528000 0.597378755532 -0.493254383894
854537000 0.597862028964 -0.492399252751
854546000 0.597445494698 -0.492109808783
854555000 0.598039022301 -0.492526825735
854564000 0.597472020399 -0.492978636375
854573000 0.598192020566 -0.49289426095
854582000 0.598230425086 -0.49330087063
854591000 0.597653627434 -0.493474874741
854600000 0.597277663169 -0.493459147466
854609000 0.596772471342 -0.493618288357
854618000 0.597600604435 -0.492665724419
854627000 0.597786818099 -0.493205925087
854636000 0.597482665573 -0.493627037616
854645000 0.598088721365 -0.494036937698
854654000 0.598072633437 -0.493673155279
854663000 0.598072777198 -0.493296841067
854672000 0.597706706405 -0.491870376063
854681000 0.596500024843 -0.491858849435
854690000 0.597320978683 -0.492885977133
854699000 0.596855351647 -0.493045267487
854708000 0.598711602258 -0.493563477709
854717000 0.598151187678 -0.493280522433
854726000 0.59844574046 -0.493661999964
854735000 0.590308230259 -0.49182722549
854744000 0.598749216452 -0.492207745216
854753000 0.603142019173 -0.492254352483
854762000 0.597638063462 -0.492505195787
854771000 0.597956416804 -0.492664499411
854780000 0.599035816121 -0.492282124438
854789000 0.599463497096 -0.492105546866
854798000 0.600431704139 -0.492220678823
854807000 0.598568423345 -0.492303745314
854816000 0.598166488457 -0.492332909521
854825000 0.597888174378 -0.492177885955
854834000 0.597614016908 -0.492638890611
854843000 0.597695377865 -0.492845688359
854852000 0.597196241396 -0.494123499715
854861000 0.597266890932 -0.493717246613
854870000 0.597770389832 -0.493965668826
854879000 0.597897174674 -0.493319075771
854888000 0.59689179832 -0.493956415854
854897000 0.597134461559 -0.494001533581
854906000 0.597034851457 -0.493674607555
854915000 0.597922693214 -0.493670026871
854924000 0.597288727124 -0.493372229256
854933000 0.597336166837 -0.49260394828
854942000 0.597889209407 -0.492338492377
854951000 0.59815359934 -0.49268870414
854960000 0.597443043907 -0.491612793006
854969000 0.598498214111 -0.492141041366
854978000 0.597619292773 -0.49244419042
854987000 0.597701761549 -0.49374465061
854996000 0.597179157716 -0.493900712382
855005000 0.5968453771 -0.493783916844
855014000 0.597574769001 -0.493102216951
855023000 0.597419149532 -0.493052544311
855032000 0.597149134346 -0.492878502276
855041000 0.597323900114 -0.492236195679
855050000 0.596845802009 -0.492877345646
855059000 0.597659785548 -0.493289544946
855068000 0.596785181996 -0.493290947516
855077000 0.597507817815 -0.493958311987
855086000 0.598444747524 -0.493982626534
855095000 0.597357115786 -0.493227997821
855104000 0.59765629119 -0.493523259335
855113000 0.597199881024 -0.493361084007
855122000 0.597199364762 -0.492848980398
855131000 0.597475232295 -0.493111462278
855140000 0.598380474022 -0.491989286034
855149000 0.597910557471 -0.492149325421
855158000 0.597359556721 -0.492299159976
855167000 0.596647677407 -0.492600644669
855176000 0.596786197638 -0.493385750724
855185000 0.596206084102 -0.493003393074
855194000 0.596548705607 -0.493331560748
855203000 0.597014571381 -0.493553650043
855212000 0.596485388119 -0.493253299543
855221000 0.596971943012 -0.493105038995
855230000 0.597335544068 -0.493419351421
855239000 0.597434427284 -0.493738236457
855248000 0.597401358125 -0.493978153398
855257000 0.597219491603 -0.493332918908
855266000 0.597803031752 -0.493716561187
855275000 0.596423810368 -0.493017778349
855284000 0.596929189581 -0.493572776674
855293000 0.595985102761 -0.493041110219
855302000 0.596676260495 -0.493361365348
855311000 0.596804004158 -0.493369465466
855320000 0.596980272248 -0.492838447287
855329000 0.597074762212 -0.492621134668
855338000 0.596951424604 -0.492259160905
855347000 0.596578511605 -0.493356370616
855356000 0.596744113654 -0.492415121982
855365000 0.597013872324 -0.493091090928
855374000 0.597229286612 -0.493104123183
855383000 0.596791956131 -0.494035919722
855392000 0.596894847365 -0.494106884005
855401000 0.596539014737 -0.494559497741
855410000 0.59685322286 -0.494256681164
855419000 0.597352174221 -0.494172481238
855428000 0.596609201068 -0.493006959137
855437000 0.597410714646 -0.492964212834
855446000 0.596297424027 -0.492482409148
855455000 0.596894927181 -0.492828926843
855464000 0.596375968882 -0.493215746056
855473000 0.59724369361 -0.492846755091
855482000 0.596850410769 -0.492849045327
855491000 0.597479012637 -0.493135969978
855500000 0.597425590377 -0.493704498884
855509000 0.597725661487 -0.493644027357
855518000 0.598145663549 -0.493609421232
855527000 0.598477173116 -0.4940990906
855536000 0.598071153502 -0.494157710657
855545000 0.598470973034 -0.493469566542
855554000 0.597591925238 -0.493735575665
855563000 0.597793729991 -0.493507313343
855572000 0.597108744582 -0.493325015566
855581000 0.597079381545 -0.493482791475
855590000 0.597042885036 -0.493583362565
855599000 0.59694768559 -0.492976039842
855608000 0.597588958965 -0.49305664995
855617000 0.596972066507 -0.492172948046
855626000 0.597109209671 -0.492831314669
855635000 0.596808604106 -0.492982607585
855644000 0.596689740565 -0.492497512559
855653000 0.597093272217 -0.492801396107
855662000 0.597718419538 -0.493090775436
855671000 0.597643473187 -0.493399683267
855680000 0.597214135066 -0.493351908455
855689000 0.596864179912 -0.493466689445
855698000 0.597247490593 -0.492909629868
855707000 0.598080576308 -0.492243345679
855716000 0.596487065105 -0.493139373547
855725000 0.596645536729 -0.493666715086
855734000 0.597028012216 -0.493987093273
855743000 0.596525279859 -0.493471995943
855752000 0.597145097759 -0.493871867941
855761000 0.596979966596 -0.493433699296
855770000 0.597085796393 -0.492618536306
855779000 0.59734577665 -0.493637474217
855788000 0.597326266701 -0.493257707078
855797000 0.597035685285 -0.492967493763
855806000 0.597085317905 -0.494161734699
855815000 0.596165367616 -0.49397965623
855824000 0.597544820886 -0.494484411123
855833000 0.596970674549 -0.495554041903
855842000 0.596164994544 -0.494822016203
855851000 0.596394387253 -0.493947775455
855860000 0.596899819896 -0.493128562066
855869000 0.597805478351 -0.493009529367
855878000 0.597136256572 -0.493263927953
855887000 0.598229914357 -0.493511299599
855896000 0.598094427155 -0.492876948003
855905000 0.597669710126 -0.493767098879
855914000 0.596993058807 -0.493403912177
855923000 0.596726871133 -0.494388258811
855932000 0.597963138494 -0.493264545665
855941000 0.597982362751 -0.493493095737
855950000 0.597409633425 -0.493207744518
855959000 0.597689226147 -0.493516161964
855968000 0.597339704568 -0.493137983988
855977000 0.597075394232 -0.492892664105
855986000 0.597865095904 -0.492752455476
855995000 0.597738989494 -0.493265413039
856004000 0.597396049107 -0.493428259574
856013000 0.597283750002 -0.493139413872
856022000 0.596646601987 -0.494594465844
856031000 0.597049249809 -0.49300086306
856040000 0.597878114828 -0.492570264477
856049000 0.597718928631 -0.492846231458
856058000 0.597109595567 -0.493556732814
856067000 0.597782759831 -0.491767861934
856076000 0.596860445759 -0.492431780949
856085000 0.596696032501 -0.493038681649
856094000 0.596530163023 -0.493103520182
856103000 0.596560080301 -0.492784437257
856112000 0.59694682992 -0.492979535538
856121000 0.59661955604 -0.493485844039
856130000 0.597541047071 -0.494469837757
856139000 0.597297881836 -0.493728022955
856148000 0.597534962766 -0.493532243462
856157000 0.597881649167 -0.492997525652
856166000 0.597752074554 -0.492790818357
856175000 0.597845322094 -0.492469677563
856184000 0.598590707483 -0.492630886704
856193000 0.598844551601 -0.493063117894
856202000 0.597459433256 -0.492974995775
856211000 0.597784450278 -0.493712450944
856220000 0.598611109446 -0.493787858645
856229000 0.597898596849 -0.491959668241
856238000 0.597471679635 -0.492657671509
856247000 0.597404293946 -0.492750025457
856256000 0.59723401803 -0.493894240573
856265000 0.597768014634 -0.493049513127
856274000 0.596961551684 -0.494664867711
856283000 0.597472228275 -0.494393620546
856292000 0.596926118351 -0.494665609869
856301000 0.596165665437 -0.49430564555
856310000 0.597105035339 -0.493396109828
856319000 0.596885931252 -0.494300170737
856328000 0.596434972741 -0.493686494587
856337000 0.59699880913 -0.493200331749
856346000 0.597114789077 -0.492634119236
856355000 0.597181475637 -0.492601334723
856364000 0.596833809542 -0.49275097157
856373000 0.596577388997 -0.493259442985
856382000 0.596746565868 -0.493888669866
856391000 0.597429545302 -0.493199510975
856400000 0.596979024881 -0.493218321993
856409000 0.5979064974 -0.492638801683
856418000 0.597392878003 -0.49341208425
856427000 0.596957440943 -0.493695372754
856436000 0.596259362266 -0.493688153845
856445000 0.596916669804 -0.493490636345
856454000 0.596527130468 -0.493344797964
856463000 0.596821899312 -0.492325703543
856472000 0.596976697132 -0.492329532224
856481000 0.596398796159 -0.492395305261
856490000 0.595555032838 -0.493044069986
856499000 0.596036962086 -0.49362190849
856508000 0.596040881338 -0.492856811396
856517000 0.597337507332 -0.492823251329
856526000 0.596442988932 -0.49240873002
856535000 0.595887708136 -0.493229885452
856544000 0.596083936838 -0.493286452402
856553000 0.595525534822 -0.493235405837
856562000 0.596067176654 -0.493593756522
856571000 0.597132955542 -0.492301897976
856580000 0.597085955272 -0.492521532244
856589000 0.598088149536 -0.492949602923
856598000 0.598252660432 -0.493551560106
856607000 0.597743323099 -0.494660191596
856616000 0.598403715546 -0.494217400096
856625000 0.598104320963 -0.494318980299
856634000 0.597186530134 -0.4934962241
856643000 0.597366527689 -0.493697390685
856652000 0.597066342737 -0.493677664538
856661000 0.597293058045 -0.493728304672
856670000 0.597891237079 -0.493379491326
856679000 0.597814339764 -0.493430192481
856688000 0.597698380373 -0.49366071641
856697000 0.59823642291 -0.493613747132
856706000 0.598230338735 -0.492714637847
856715000 0.59668387659 -0.492776983427
856724000 0.596173739001 -0.492824429638
856733000 0.596556745686 -0.492483765136
856742000 0.596597072573 -0.493265772979
856751000 0.596299073791 -0.493981450275
856760000 0.596673251772 -0.493731642034
856769000 0.597443269499 -0.493474472371
856778000 0.597813032779 -0.49289790503
856787000 0.597534711828 -0.493674506474
856796000 0.597494284639 -0.492874468817
856805000 0.597212566459 -0.492723952457
856814000 0.597271139054 -0.492582535785
856823000 0.596285353103 -0.492734769966
856832000 0.597054435949 -0.493483676939
856841000 0.59842776514 -0.492436982274
856850000 0.597047126915 -0.492208891523
856859000 0.597599563227 -0.492471634006
856868000 0.596879532272 -0.492321224292
856877000 0.597056654742 -0.492704493088
856886000 0.597690840461 -0.491801443106
856895000 0.59721880209 -0.493012907128
856904000 0.597182554211 -0.493828812805
856913000 0.597727896397 -0.493282501677
856922000 0.598060703873 -0.493850476691
856931000 0.598453983179 -0.49356127375
856940000 0.598043971047 -0.494368358034
856949000 0.597728084475 -0.494689473108
856958000 0.598428807842 -0.494756797222
856967000 0.597563867461 -0.49402576206
856976000 0.597216353972 -0.493863364871
856985000 0.597547385769 -0.493485473955
856994000 0.596193422526 -0.493117582692
857003000 0.596880951032 -0.493697510477
857012000 0.596543983989 -0.492931203388
857021000 0.597423388704 -0.493182064425
857030000 0.596550663104 -0.493706828948
857039000 0.596476313769 -0.494109856721
857048000 0.597310805861 -0.494508153855
857057000 0.595768304567 -0.49458538167
857066000 0.596480558212 -0.494257724561
857075000 0.596648690083 -0.493981253427
857084000 0.59640760467 -0.493895221864
857093000 0.596988323892 -0.493702037596
857102000 0.596482893216 -0.493399054335
857111000 0.597647350572 -0.493768348508
857120000 0.597189356378 -0.493471471899
857129000 0.597534192613 -0.493242616195
857138000 0.597274609222 -0.493872391418
857147000 0.597190445398 -0.493568929947
857156000 0.596908368302 -0.493255998057
857165000 0.597146423332 -0.494539556259
857174000 0.596512285636 -0.493239754953
857183000 0.59716984265 -0.49363426511
857192000 0.597105718832 -0.49322809994
857201000 0.597699297726 -0.493727674919
857210000 0.597403563896 -0.493373335462
857219000 0.597120339164 -0.493589238368
857228000 0.597225330758 -0.493038815528
857237000 0.597165854629 -0.493142195208
857246000 0.596864551387 -0.493049865582
857255000 0.59641011578 -0.493056387964
857264000 0.596752984277 -0.4930350017
857273000 0.597002900725 -0.493613564463
857282000 0.596624370103 -0.492777517458
857291000 0.597338198107 -0.493472832133
857300000 0.59799007885 -0.493842645635
857309000 0.597374369163 -0.493346063497
857318000 0.597100105875 -0.493783992005
857327000 0.596095708059 -0.493312757007
857336000 0.596267734772 -0.492937606646
857345000 0.596383436909 -0.493821563978
857354000 0.597981603201 -0.492716966785
857363000 0.596952979062 -0.493532086277
857372000 0.596705078295 -0.493286993015
857381000 0.596117112922 -0.493633741075
857390000 0.595908737212 -0.49485497098
857399000 0.596830992111 -0.494365924211
857408000 0.596262378694 -0.494929745335
857417000 0.596581483733 -0.494046473366
857426000 0.59711647096 -0.494375470312
857435000 0.596581442063 -0.493600723089
857444000 0.596688074398 -0.492988940554
857453000 0.59753315827 -0.493114845185
857462000 0.596751802523 -0.492361586782
857471000 0.597160559881 -0.492801882249
857480000 0.59707906139 -0.493704630944
857489000 0.596768366359 -0.493786100953
857498000 0.596905330527 -0.493815416264
857507000 0.596154292635 -0.493617030977
857516000 0.596396673174 -0.49446409149
857525000 0.59727903488 -0.49422502141
857534000 0.597816976843 -0.494298796189
857543000 0.596652491967 -0.493939177506
857552000 0.596631898713 -0.492503080739
857561000 0.596702663064 -0.492520317311
857570000 0.596765864042 -0.493421771192
857579000 0.596905941093 -0.493229060183
857588000 0.597015125057 -0.49365880327
857597000 0.598317524559 -0.493203414935
857606000 0.597627364521 -0.492155383012
857615000 0.597135769105 -0.492552145783
857624000 0.596913904129 -0.492958125258
857633000 0.59669732548 -0.493846226348
857642000 0.596867166873 -0.493400583428
857651000 0.595995622852 -0.494026587486
857660000 0.59590705966 -0.493852742136
857669000 0.596034878563 -0.493495485154
857678000 0.595451887919 -0.493661636001
857687000 0.596053496582 -0.493111765986
857696000 0.596976281375 -0.493325185635
857705000 0.596258063009 -0.493365434105
857714000 0.596190614004 -0.492774136572
857723000 0.597059651486 -0.493090615444
857732000 0.597520601763 -0.493200446119
857741000 0.596619436692 -0.492941557977
857750000 0.597421002552 -0.493260186401
857759000 0.596719495634 -0.49347672141
857768000 0.595697626075 -0.492849256755
857777000 0.595613303293 -0.49374703707
857786000 0.595060096341 -0.493987110805
857795000 0.596470101485 -0.493393758065
857804000 0.595675858175 -0.493365889279
857813000 0.597010429718 -0.493069477008
857822000 0.597565419285 -0.493142091443
857831000 0.596577304255 -0.493864440231
857840000 0.596485016431 -0.493305241988
857849000 0.597241909957 -0.493355417605
857858000 0.59602080102 -0.493027947837
857867000 0.596089467078 -0.493247596087
857876000 0.596326835932 -0.494077849182
857885000 0.595797464326 -0.493704336173
857894000 0.596565374219 -0.493991667097
857903000 0.595559196302 -0.49369274692
857912000 0.596399424554 -0.49397988701
857921000 0.596624283974 -0.493486502277
857930000 0.596957650408 -0.493401229618
857939000 0.596625204808 -0.493404978394
857948000 0.596789885322 -0.493492386201
857957000 0.596659996 -0.493039409065
857966000 0.59790383757 -0.492543862666
857975000 0.598185961494 -0.493452505168
857984000 0.59963074638 -0.49245160589
857993000 0.599630562597 -0.495142177445
858002000 0.598473749511 -0.494150382604
858011000 0.597293161365 -0.493210441552
858020000 0.596163065277 -0.496095148076
858029000 0.596261953174 -0.49351279555
858038000 0.596356536647 -0.49269057846
858047000 0.595294480841 -0.492326654366
858056000 0.595156813695 -0.492493334144
858065000 0.596350515309 -0.492778705146
858074000 0.595944765848 -0.492922547801
858083000 0.596789327879 -0.492228184139
858092000 0.596856614956 -0.492343260029
858101000 0.596098436214 -0.49247239954
858110000 0.596343268119 -0.493015961629
858119000 0.596183803152 -0.492743752968
858128000 0.596038875246 -0.492499065948
858137000 0.595411444025 -0.492830069418
858146000 0.5963240464 -0.492491034878
858155000 0.596495265078 -0.494056774651
858164000 0.596457372849 -0.494287673058
858173000 0.596833832168 -0.493824937481
858182000 0.596949831898 -0.494944299024
858191000 0.595474171201 -0.495055272179
858200000 0.595743207839 -0.494196667024
858209000 0.596748561939 -0.493869390761
858218000 0.596977370818 -0.494542228292
858227000 0.59645541243 -0.494099899852
858236000 0.596722350485 -0.492983576451
858245000 0.596816705477 -0.492853778621
858254000 0.597373562249 -0.492776746959
858263000 0.596913997293 -0.493602202807
858272000 0.596784340975 -0.493900069544
858281000 0.596880526041 -0.494602159091
858290000 0.597219051705 -0.493959002279
858299000 0.597224951582 -0.493757792706
858308000 0.596827109959 -0.494062263215
858317000 0.596592005917 -0.494050108274
858326000 0.595865833722 -0.493899566401
858335000 0.596305341179 -0.493838054106
858344000 0.595810716636 -0.493564730674
858353000 0.596102701033 -0.493347377819
858362000 0.596190456109 -0.493116380879
858371000 0.596356642523 -0.492939809211
858380000 0.597488788612 -0.49358524529
858389000 0.598135212615 -0.493152115352
858398000 0.597451824429 -0.493941087039
858407000 0.5977930101 -0.493409164342
858416000 0.597550087898 -0.493841270717
858425000 0.597275166676 -0.493694070205
858434000 0.598217672819 -0.493631328115
858443000 0.598083437789 -0.493274163873
858452000 0.598596729624 -0.493723466477
858461000 0.597477898768 -0.492741128572
858470000 0.597147065421 -0.492855842603
858479000 0.596405161628 -0.493609095288
858488000 0.595970888249 -0.49391972995
858497000 0.596520139616 -0.493752045504
858506000 0.596010419516 -0.494358929194
858515000 0.595508178406 -0.494300932131
858524000 0.596344489743 -0.493353048359
858533000 0.596318635582 -0.492717856252
858542000 0.596404816869 -0.492943828621
858551000 0.596876768114 -0.493121622655
858560000 0.596268943081 -0.493345110494
858569000 0.595965941557 -0.493331739843
858578000 0.596431201664 -0.493614762274
858587000 0.596391303734 -0.493912027666
858596000 0.596129782688 -0.493061413847
858605000 0.596641631102 -0.493386546872
858614000 0.596843982857 -0.49264921631
858623000 0.597167589072 -0.492646208454
858632000 0.597033996829 -0.493591149167
858641000 0.59668069534 -0.493962747109
858650000 0.596545254945 -0.494282644779
858659000 0.596415515199 -0.493087687023
858668000 0.597107004746 -0.492926571392
858677000 0.596606831968 -0.493189809543
858686000 0.596321163354 -0.492074237337
858695000 0.596299360964 -0.493256778984
858704000 0.597178222 -0.492001839734
858713000 0.596734181856 -0.492427464813
858722000 0.596462756699 -0.492734567975
858731000 0.596072607627 -0.49400704557
858740000 0.596071964213 -0.494488900394
858749000 0.595801211164 -0.494138319392
858758000 0.595154357013 -0.493556164795
858767000 0.595428001381 -0.493351353314
858776000 0.596068161855 -0.493576291244
858785000 0.596441869649 -0.493204015101
858794000 0.596141970358 -0.49449483699
858803000 0.596276339489 -0.493390687691
858812000 0.595924352314 -0.493391770494
858821000 0.595984089784 -0.494335429821
858830000 0.595904803446 -0.493702584052
858839000 0.595455894963 -0.493582477737
858848000 0.595108681706 -0.493677710473
858857000 0.596495986232 -0.493130308787
858866000 0.595352747804 -0.493366871667
858875000 0.595998800938 -0.493597015786
858884000 0.595901843327 -0.493685100963
858893000 0.595783993728 -0.493026201094
858902000 0.596021187476 -0.492812956719
858911000 0.596135030016 -0.492984312888
858920000 0.595903346176 -0.492567125591
858929000 0.596210722277 -0.492780435448
858938000 0.595787303851 -0.492173820805
858947000 0.595135742613 -0.49311225646
858956000 0.596485061853 -0.493078166302
858965000 0.596958909314 -0.492447520234
858974000 0.59614616938 -0.492361425482
858983000 0.597125607377 -0.492722499564
858992000 0.59764920861 -0.492211791795
859001000 0.596448961646 -0.493523017296
859010000 0.596111735164 -0.492710844575
859019000 0.596108359441 -0.492959822728
859028000 0.596148626533 -0.493486448324
859037000 0.596031200333 -0.493222413019
859046000 0.596008833337 -0.492946613353
859055000 0.596567471991 -0.494021627389
859064000 0.596635585765 -0.493793787882
859073000 0.5974877889 -0.494293340927
859082000 0.596758829021 -0.493494709547
859091000 0.597146684615 -0.493674942582
859100000 0.59690191192 -0.494706596222
859109000 0.596595024245 -0.492919170097
859118000 0.594838058496 -0.494332481071
859127000 0.596431612077 -0.493372153716
859136000 0.596148729914 -0.493140168389
859145000 0.597224367678 -0.492746748633
859154000 0.596067920441 -0.493225313327
859163000 0.595795249803 -0.493208088252
859172000 0.59647295224 -0.492920195996
859181000 0.596857766288 -0.493223454456
859190000 0.597517801126 -0.493799226201
859199000 0.597323467032 -0.493246044351
859208000 0.597092889217 -0.493800165758
859217000 0.597145442153 -0.493692967079
859226000 0.596996246586 -0.493128561454
859235000 0.596145257552 -0.493413935503
859244000 0.596351052918 -0.493463339398
859253000 0.595526783845 -0.493653905587
859262000 0.595824536497 -0.493188643927
859271000 0.596230815095 -0.493492514156
859280000 0.595705810859 -0.49304673027
859289000 0.596683218769 -0.492706973868
859298000 0.596070712853 -0.492357248308
859307000 0.59677415226 -0.492536524699
859316000 0.596272559712 -0.493355166335
859325000 0.595801527846 -0.492408843606
859334000 0.596484348539 -0.493323670593
859343000 0.595979559588 -0.492366926911
859352000 0.595825692011 -0.492763848402
859361000 0.595927517694 -0.493731249006
859370000 0.596657325502 -0.493258106944
859379000 0.596463447905 -0.494332308877
859388000 0.596544339695 -0.492901189721
859397000 0.596860864756 -0.494034797644
859406000 0.596456442038 -0.493417746717
859415000 0.596921336266 -0.493754665902
859424000 0.596831780789 -0.49478269583
859433000 0.596648636625 -0.494403652368
859442000 0.596068031324 -0.493946633394
859451000 0.596239366705 -0.493903568289
859460000 0.59554788955 -0.493754191663
859469000 0.595877791497 -0.49304836842
859478000 0.595988817918 -0.491711456822
859487000 0.596651306294 -0.491875010236
859496000 0.596210157491 -0.492061794857
859505000 0.5964807988 -0.492426009009
859514000 0.596868385138 -0.492577774438
859523000 0.596233812697 -0.492846821405
859532000 0.597054195333 -0.493757603161
859541000 0.595370171408 -0.494901314363
859550000 0.595969485576 -0.49341379955
859559000 0.596381327708 -0.493465742273
859568000 0.596614509258 -0.493404386098
859577000 0.597396990218 -0.493525751998
859586000 0.596255456131 -0.492681016146
859595000 0.595839971447 -0.492423901858
859604000 0.596248272231 -0.491757330082
859613000 0.596578097915 -0.49287491517
859622000 0.596335979104 -0.492335139021
859631000 0.59725191258 -0.493014176339
859640000 0.5972927713 -0.492855322876
859649000 0.597591022915 -0.493628450119
859658000 0.59801973954 -0.493382140067
859667000 0.597016660588 -0.493671171785
859676000 0.595943512954 -0.49344564847
859685000 0.595606330464 -0.493292298313
859694000 0.595707011077 -0.492869434009
859703000 0.595609629353 -0.493074746599
859712000 0.595591285569 -0.493026803992
859721000 0.595262886587 -0.494083552599
859730000 0.595533813247 -0.494036856358
859739000 0.595692302677 -0.493592389751
859748000 0.59637470103 -0.494040760311
859757000 0.596602059027 -0.493689602872
859766000 0.596849490852 -0.493799501676
859775000 0.59667900959 -0.493670806575
859784000 0.597244803592 -0.493115140754
859793000 0.596139836148 -0.492564246657
859802000 0.595448650524 -0.49211104146
859811000 0.59629920708 -0.492998856434
859820000 0.595986310988 -0.493306554624
859829000 0.596267789402 -0.493578040662
859838000 0.595469058596 -0.493418279476
859847000 0.59614022379 -0.493361958672
859856000 0.595564590531 -0.493766765338
859865000 0.595924527136 -0.492846371079
859874000 0.596107038628 -0.493154738733
859883000 0.595740029281 -0.491856436524
859892000 0.595539406073 -0.492470511763
859901000 0.596320106961 -0.49250239239
859910000 0.596034765938 -0.491998157065
859919000 0.597035900988 -0.491857943163
859928000 0.596629562873 -0.493335033326
859937000 0.596216801453 -0.492695438715
859946000 0.596001509135 -0.492871654664
859955000 0.596497312007 -0.492899766643
859964000 0.596132848655 -0.493060979109
859973000 0.597023781703 -0.492907431329
859982000 0.596763509545 -0.493637737908
859991000 0.596670509954 -0.493238607681
860000000 0.596401433395 -0.493014648214
860009000 0.596793644798 -0.493031826426
860018000 0.596375869321 -0.493453872416
860027000 0.596979065174 -0.49330124226
860036000 0.596321224925 -0.49319850999
860045000 0.596658681054 -0.493277320714
860054000 0.596493416803 -0.493562323064
860063000 0.595478763024 -0.493594911873
860072000 0.596182575831 -0.494001230635
860081000 0.595283230346 -0.4939714711
860090000 0.595603105436 -0.495025029578
860099000 0.594649738701 -0.494128879741
860108000 0.596444285334 -0.493069510722
860117000 0.596099341758 -0.492313851873
860126000 0.596567786218 -0.49252719335
860135000 0.597741872156 -0.492966289043
860144000 0.596863652782 -0.492867576301
860153000 0.596642564638 -0.493357211601
860162000 0.597509417645 -0.492781203361
860171000 0.597030427821 -0.493191235053
860180000 0.596912154651 -0.493489081077
860189000 0.595995805338 -0.493180107338
860198000 0.595435028644 -0.493843945118
860207000 0.595343936328 -0.493712879874
860216000 0.595938417674 -0.493300892582
860225000 0.596752101552 -0.493238888295
860234000 0.59592783577 -0.492932308147
860243000 0.595997639055 -0.492449058772
860252000 0.596386808007 -0.493247044823
860261000 0.596700779961 -0.492864520096
860270000 0.595779233539 -0.493256327879
860279000 0.596236359758 -0.492801036612
860288000 0.596339739404 -0.493037565949
860297000 0.596691114936 -0.493658228413
860306000 0.595524945748 -0.492713580482
860315000 0.596087478501 -0.492004519781
860324000 0.596239147654 -0.492711272243
860333000 0.596563048712 -0.492440809031
860342000 0.59672686795 -0.492175356513
860351000 0.596576698978 -0.49223639854
860360000 0.59634746866 -0.492671565026
860369000 0.59614089299 -0.492971496143
860378000 0.595853976575 -0.493484253386
860387000 0.596358819356 -0.492217825241
860396000 0.596597834931 -0.492344231931
860405000 0.596631776252 -0.49197297949
860414000 0.597045835288 -0.492256779875
860423000 0.597033163231 -0.492252359331
860432000 0.59735568046 -0.492763281308
860441000 0.597330744104 -0.493147589554
860450000 0.596920664505 -0.493615085341
860459000 0.597465684576 -0.494604262738
860468000 0.596194147262 -0.493919992986
860477000 0.5967775881 -0.493882768648
860486000 0.596280362859 -0.494791603249
860495000 0.596349639055 -0.494136211653
860504000 0.596220899346 -0.494097452125
860513000 0.595869916979 -0.493806247742
860522000 0.595478485312 -0.493350114566
860531000 0.595908567603 -0.493192725293
860540000 0.595829296154 -0.493608467817
860549000 0.596161501874 -0.492714365898
860558000 0.596678102293 -0.493733783405
860567000 0.596121053526 -0.493965289702
860576000 0.597065353979 -0.494004943461
860585000 0.596341114591 -0.494108597608
860594000 0.596616521263 -0.49361012484
860603000 0.597013152546 -0.493349161011
860612000 0.596766076247 -0.492538847949
860621000 0.597412142819 -0.493091308297
860630000 0.59709008544 -0.492141687906
860639000 0.596888224057 -0.49223501597
860648000 0.597097947441 -0.491942537054
860657000 0.596732742713 -0.493199996941
860666000 0.596026870574 -0.492694384244
860675000 0.596338098271 -0.49254378225
860684000 0.596401085359 -0.491772067068
860693000 0.59614273094 -0.49226918797
860702000 0.595828134842 -0.491769086816
860711000 0.596006518821 -0.491868827172
860720000 0.595975177793 -0.491672968522
860729000 0.596380006656 -0.492391256475
860738000 0.59572529074 -0.493315673602
860747000 0.595793772967 -0.493723349266
860756000 0.595465214945 -0.493586406154
860765000 0.595374167167 -0.493763529406
860774000 0.596242054457 -0.493807484878
860783000 0.595116940215 -0.493300479603
860792000 0.595910130915 -0.493041408766
860801000 0.596131718818 -0.492589705546
860810000 0.596195212258 -0.493294917187
860819000 0.596356874229 -0.493122918178
860828000 0.59599157531 -0.492280383278
860837000 0.595936980871 -0.492719300194
860846000 0.596208306652 -0.4926836804
860855000 0.596387310789 -0.493211808552
860864000 0.597131807101 -0.492968435578
860873000 0.596739298447 -0.493271669924
860882000 0.596642383085 -0.492955108797
860891000 0.59592963234 -0.493522717978
860900000 0.596380056174 -0.492821213272
860909000 0.596897192579 -0.493305912505
860918000 0.59659581591 -0.492729392796
860927000 0.596889994894 -0.493148186918
860936000 0.597735973589 -0.49247052442
860945000 0.597285345758 -0.493346800123
860954000 0.597840958685 -0.492219577588
860963000 0.597267026859 -0.492482855627
860972000 0.597257896768 -0.492233368256
860981000 0.597510231141 -0.493103371484
860990000 0.595846788157 -0.492238827772
860999000 0.59630344965 -0.49318073794
861008000 0.596198474234 -0.492743714877
861017000 0.596162797889 -0.492945785224
861026000 0.595954660383 -0.49299232789
861035000 0.596844419461 -0.492565145694
861044000 0.596121458494 -0.49337457716
861053000 0.595886557892 -0.492378576253
861062000 0.595856628716 -0.492371183074
861071000 0.596938009646 -0.493029489349
861080000 0.595933259394 -0.493825277009
861089000 0.596778974444 -0.493764118595
861098000 0.595774942467 -0.493685665383
861107000 0.596443812862 -0.494076945427
861116000 0.596843030648 -0.493386092375
861125000 0.597047621288 -0.493523597374
861134000 0.597425232763 -0.493254323461
861143000 0.596972108988 -0.492939074723
861152000 0.596684389884 -0.493569383032
861161000 0.595847168994 -0.493093836126
861170000 0.595349149294 -0.493159808302
861179000 0.595929353196 -0.493400298198
861188000 0.595969093512 -0.492396237492
861197000 0.596025731843 -0.49290511107
861206000 0.596998469313 -0.492456746774
861215000 0.597565272969 -0.492854870255
861224000 0.593049759584 -0.490753623708
861233000 0.60473368491 -0.485100773983
861242000 0.599343294358 -0.491823375009
861251000 0.600524533736 -0.491931593292
861260000 0.59753716106 -0.492676276129
861269000 0.59726467452 -0.492288086364
861278000 0.597856347127 -0.493250256932
861287000 0.596619878939 -0.49302383177
861296000 0.59597594658 -0.493247867687
861305000 0.596887240116 -0.492909110115
861314000 0.596718705707 -0.493022252546
861323000 0.597641060842 -0.492874987061
861332000 0.596670395625 -0.493240027546
861341000 0.596986123787 -0.492875744035
861350000 0.596389580526 -0.49356988792
861359000 0.595914596013 -0.493697846574
861368000 0.595864266705 -0.49324531734
861377000 0.595582437347 -0.492768414945
861386000 0.596364723323 -0.493016368675
861395000 0.596476535786 -0.493313851673
861404000 0.596083569989 -0.492513541379
861413000 0.597059544924 -0.49284021585
861422000 0.596734908556 -0.49295009063
861431000 0.597264802666 -0.49195995875
861440000 0.596653533858 -0.492662197574
861449000 0.596688683992 -0.493464998536
861458000 0.597527691926 -0.493733553691
861467000 0.598265921624 -0.493544029215
861476000 0.597832330092 -0.493471028621
861485000 0.597262073914 -0.492156860113
861494000 0.597032736331 -0.493494790309
861503000 0.596627627563 -0.493784567483
861512000 0.596665761958 -0.492595058979
861521000 0.597795165143 -0.492384095451
861530000 0.597662340078 -0.492826066025
861539000 0.596684163151 -0.492869170403
861548000 0.596911724587 -0.492465504848
861557000 0.596826222796 -0.493026224946
861566000 0.596540218279 -0.492027557401
861575000 0.595818888417 -0.493597027625
861584000 0.595929785857 -0.49327782646
861593000 0.595421966099 -0.49362410517
861602000 0.595141354466 -0.493983640132
861611000 0.595598472166 -0.493526337435
861620000 0.595592469118 -0.492931804193
861629000 0.597086241028 -0.493309784909
861638000 0.596998857154 -0.492823213227
861647000 0.59821628803 -0.492615468338
861656000 0.59718574967 -0.49285313549
861665000 0.596381966081 -0.492671413802
861674000 0.596251941719 -0.492718275736
861683000 0.597030152771 -0.493051064964
861692000 0.596399082941 -0.493530225481
861701000 0.597328351207 -0.493528350228
861710000 0.597042481008 -0.493379691705
861719000 0.597418446824 -0.493659504425
861728000 0.597693116244 -0.493687413401
861737000 0.597212612193 -0.493933630029
861746000 0.597899678614 -0.493611932931
861755000 0.59744639915 -0.493130279917
861764000 0.596824228732 -0.492841789009
861773000 0.595925900699 -0.492402634488
861782000 0.597373911758 -0.492475381877
861791000 0.596553599028 -0.492048473664
861800000 0.595859704773 -0.492629952069
861809000 0.596550126635 -0.492421467218
861818000 0.596775401546 -0.492328558588
861827000 0.597113803446 -0.492102189964
861836000 0.597915304031 -0.492475900522
861845000 0.598329788909 -0.492925712998
861854000 0.59784610628 -0.492249155158
861863000 0.597313712126 -0.493085731724
861872000 0.5969310403 -0.493461188213
861881000 0.596964918686 -0.494169645292
861890000 0.596706853664 -0.493368405136
861899000 0.597171011313 -0.494373969228
861908000 0.597049869808 -0.493179296055
861917000 0.597714479035 -0.493444133507
861926000 0.597591153282 -0.492986453286
861935000 0.596694753472 -0.494041514329
861944000 0.597741226946 -0.492689587515
861953000 0.59638394937 -0.493320032247
861962000 0.597179201132 -0.492961863768
861971000 0.597397240006 -0.493228288392
861980000 0.59745835736 -0.493064639009
861989000 0.597471785211 -0.492455690944
861998000 0.598319492287 -0.492697291156
862007000 0.597096217959 -0.493518198663
862016000 0.597019412345 -0.492843045925
862025000 0.596867770228 -0.493434098146
862034000 0.59737458456 -0.493212784629
862043000 0.596840958365 -0.492045261033
862052000 0.598827528068 -0.493221986702
862061000 0.596778567975 -0.492854239675
862070000 0.596688810344 -0.493021422451
862079000 0.597295089591 -0.493376603151
862088000 0.596434942733 -0.493958852912
862097000 0.595890302245 -0.494304245612
862106000 0.596931263394 -0.494587447689
862115000 0.597238062374 -0.494154381765
862124000 0.597132973934 -0.493215356993
862133000 0.597760240436 -0.493122115388
862142000 0.597649186113 -0.493103411574
862151000 0.596854108302 -0.492769188642
862160000 0.596989717069 -0.492646821054
862169000 0.596293446867 -0.493238284887
862178000 0.596589981021 -0.493998575207
862187000 0.59660016893 -0.493498280994
862196000 0.596192964329 -0.493648189479
862205000 0.596594937484 -0.493540362195
862214000 0.596732979196 -0.493568975541
862223000 0.596888944195 -0.492796021746
862232000 0.59705063326 -0.492727716693
862241000 0.595945124165 -0.493459498725
862250000 0.596301941222 -0.493043101773
862259000 0.596570971849 -0.492559079954
862268000 0.597632900615 -0.493562805368
862277000 0.598244102946 -0.493719078349
862286000 0.597116493463 -0.493490150735
862295000 0.59718929079 -0.492671720966
862304000 0.597312052911 -0.492603646292
862313000 0.597112466596 -0.492778773962
862322000 0.595886203218 -0.491187995462
862331000 0.595564409662 -0.492139522402
862340000 0.596613666709 -0.492255025028
862349000 0.5963927111 -0.493801406033
862358000 0.596814848585 -0.49363102304
862367000 0.596547675253 -0.493609959242
862376000 0.596430033537 -0.493380515749
862385000 0.59688521693 -0.493492142241
862394000 0.597403615375 -0.493530861809
862403000 0.597306643886 -0.49321676522
862412000 0.596751218996 -0.493025505958
862421000 0.597040527665 -0.493132844397
862430000 0.596352064953 -0.49291967869
862439000 0.595774201299 -0.49274037457
862448000 0.595768392349 -0.493138292762
862457000 0.596335606001 -0.493808168738
862466000 0.596952127511 -0.494594730248
862475000 0.596677200913 -0.493537664269
862484000 0.596345662348 -0.494129277926
862493000 0.597033337007 -0.493910123804
862502000 0.59714990976 -0.493859838667
862511000 0.596877322092 -0.493783678346
862520000 0.597725302323 -0.49357233478
862529000 0.597009823544 -0.493758265
862538000 0.596720876639 -0.493861188089
862547000 0.597825168734 -0.493867187657
862556000 0.596994346344 -0.493537057874
862565000 0.596816680885 -0.493205615964
862574000 0.597307616523 -0.493509017145
862583000 0.596949761149 -0.494025314809
862592000 0.596846440293 -0.493578021898
862601000 0.596392773608 -0.4939604954
862610000 0.596280619004 -0.494107410511
862619000 0.596819330896 -0.494537151548
862628000 0.596208408102 -0.493767155698
862637000 0.59648631016 -0.494076309692
862646000 0.597198478606 -0.493296080529
862655000 0.597092238264 -0.494194086089
862664000 0.596717847389 -0.494219384255
862673000 0.59647056668 -0.493750214443
862682000 0.595949547085 -0.493916685199
862691000 0.596604538313 -0.493035483409
862700000 0.596629418877 -0.492636474212
862709000 0.597079742669 -0.491625494807
862718000 0.600804191523 -0.490118526674
862727000 0.597193797991 -0.492061784338
862736000 0.597124131457 -0.491310549429
862745000 0.596322685332 -0.492474627628
862754000 0.595775284873 -0.492771108458
862763000 0.596524692471 -0.492834101952
862772000 0.597078387933 -0.493452379309
862781000 0.596015236334 -0.493543071351
862790000 0.595514311712 -0.493798906982
862799000 0.597034930784 -0.493429276546
862808000 0.597446266009 -0.493109900993
862817000 0.598013740556 -0.492610503106
862826000 0.598090273395 -0.49240341405
862835000 0.59656197515 -0.493352006397
862844000 0.597101863968 -0.493561981801
862853000 0.597268824024 -0.494032485127
862862000 0.596589052127 -0.493217300325
862871000 0.596443610513 -0.493519308803
862880000 0.596085554097 -0.494001073221
862889000 0.597004790982 -0.493716667457
862898000 0.597546629594 -0.493787393668
862907000 0.597507112819 -0.494344212743
862916000 0.597368554993 -0.494408450827
862925000 0.596806153872 -0.494689426843
862934000 0.596244593254 -0.49381872814
862943000 0.596831135906 -0.49351766046
862952000 0.596789346476 -0.493473849674
862961000 0.596991396208 -0.49329244865
862970000 0.597302248569 -0.493376728398
862979000 0.597382559112 -0.493033538975
862988000 0.597729454777 -0.492230319793
862997000 0.597574145919 -0.493369344076
863006000 0.596812444296 -0.492964525352
863015000 0.596786903773 -0.492939974059
863024000 0.59713334162 -0.492304109462
863033000 0.596121553348 -0.492763131362
863042000 0.598961373846 -0.492881470485
863051000 0.597672483408 -0.494081007703
863060000 0.596712986623 -0.493958696081
863069000 0.59736930989 -0.4932485551
863078000 0.596688549501 -0.493000584772
863087000 0.596755555224 -0.492938573549
863096000 0.597724843356 -0.492766927589
863105000 0.597232554981 -0.49261900594
863114000 0.5972210962 -0.492340300418
863123000 0.596831358052 -0.492920385772
863132000 0.5970814557 -0.493439085463
863141000 0.597479151916 -0.493087059905
863150000 0.597486131614 -0.492738642396
863159000 0.598450768131 -0.492956584987
863168000 0.598031689001 -0.492089707329
863177000 0.597780336781 -0.492855921989
863186000 0.597124830297 -0.49307117823
863195000 0.596945272366 -0.493384367429
863204000 0.596467761339 -0.493760039039
863213000 0.597373439876 -0.493373304275
863222000 0.597804931122 -0.492422966596
863231000 0.597566865592 -0.493139248268
863240000 0.598041275821 -0.493051358546
863249000 0.59812678917 -0.493525165797
863258000 0.598753066566 -0.492953519886
863267000 0.598212741345 -0.492559520873
863276000 0.598712998815 -0.492843782575
863285000 0.598062072589 -0.492895831245
863294000 0.597355512946 -0.492345442365
863303000 0.596667092079 -0.493017589366
863312000 0.596561184948 -0.492976012627
863321000 0.598007329059 -0.49293819654
863330000 0.597056233588 -0.493582432089
863339000 0.598648705414 -0.493445938416
863348000 0.597990437825 -0.494015282672
863357000 0.597858904754 -0.493088616975
863366000 0.597929107604 -0.493297270818
863375000 0.597755153308 -0.493478318557
863384000 0.597841647128 -0.492461102663
863393000 0.597643909239 -0.493433705555
863402000 0.598075405666 -0.49330338743
863411000 0.597695134051 -0.493581787377
863420000 0.597597812118 -0.493837653734
863429000 0.597942174122 -0.493690047685
863438000 0.596658280686 -0.492838952831
863447000 0.596596226129 -0.493100328333
863456000 0.596954663267 -0.493629242832
863465000 0.596809588048 -0.493229025312
863474000 0.596637049703 -0.493548659162
863483000 0.597023880021 -0.493516243258
863492000 0.597755424253 -0.493236544589
863501000 0.598291730143 -0.492929621982
863510000 0.597670920476 -0.492324506728
863519000 0.597585672329 -0.49329910026
863528000 0.597641650909 -0.492743857256
863537000 0.597609987153 -0.492521667789
863546000 0.596843464422 -0.492099331029
863555000 0.598855046503 -0.489933752612
863564000 0.596221065399 -0.49431645322
863573000 0.597241544753 -0.492468968137
863582000 0.597206452108 -0.492817475461
863591000 0.596766965646 -0.492714249815
863600000 0.59685682637 -0.492331168869
863609000 0.597718043812 -0.493041177665
863618000 0.595902973317 -0.492628384459
863627000 0.597028474213 -0.492554752191
863636000 0.595830463623 -0.493133740724
863645000 0.596849538751 -0.492880661843
863654000 0.596289087768 -0.493297633418
863663000 0.596792272153 -0.492832292674
863672000 0.597031418195 -0.493707056508
863681000 0.597624426851 -0.493586353794
863690000 0.59786523922 -0.493184976674
863699000 0.597282732244 -0.493263104782
863708000 0.598642754273 -0.493358416216
863717000 0.597496524292 -0.493277321386
863726000 0.59730183898 -0.492010788955
863735000 0.596889713095 -0.493166308189
863744000 0.597301463627 -0.492920196504
863753000 0.597221233072 -0.493314675068
863762000 0.596446325338 -0.4935500445
863771000 0.597408455811 -0.492707530662
863780000 0.596234808706 -0.493741617088
863789000 0.59662282616 -0.492938921383
863798000 0.596563793777 -0.493381413572
863807000 0.596018679643 -0.493168991111
863816000 0.596597342146 -0.492667912969
863825000 0.595575118239 -0.492139290965
863834000 0.596187641431 -0.493183741853
863843000 0.596330985245 -0.493322236581
863852000 0.596361227762 -0.492866597621
863861000 0.5971429175 -0.492511818267
863870000 0.596222147187 -0.493225526427
863879000 0.597324920527 -0.492562040984
863888000 0.596685207276 -0.492132846275
863897000 0.596946143085 -0.49080042275
863906000 0.59715711409 -0.491324689991
863915000 0.59669085153 -0.49130537553
863924000 0.597533249739 -0.491539287199
863933000 0.596135736206 -0.49256327441
863942000 0.597159282399 -0.494254311576
863951000 0.596826755583 -0.492992910173
863960000 0.597267551168 -0.493625588298
863969000 0.59805874528 -0.494088666741
863978000 0.598226032333 -0.493705759183
863987000 0.598196000932 -0.493072662698
863996000 0.597465941984 -0.493209379728
864005000 0.598268904969 -0.492818192825
864014000 0.598429133522 -0.492411588452
864023000 0.598342524528 -0.49148659582
864032000 0.59785718743 -0.490926381913
864041000 0.596990548008 -0.491659434079
864050000 0.597073495217 -0.492765351092
864059000 0.596484123417 -0.492571823153
864068000 0.597060323842 -0.49250220935
864077000 0.597616447029 -0.493231668432
864086000 0.597608586516 -0.493417135421
864095000 0.597303182492 -0.492609968789
864104000 0.598397059269 -0.491511134944
864113000 0.597358119404 -0.492206488021
864122000 0.597893260807 -0.492351537845
864131000 0.598371167199 -0.492102266229
864140000 0.598439384085 -0.491903588251
864149000 0.598139147401 -0.492624668289
864158000 0.598070772836 -0.492810550623
864167000 0.596510674528 -0.493502163336
864176000 0.596160866041 -0.493387399651
864185000 0.59633412957 -0.492803922041
864194000 0.597235767466 -0.493417165774
864203000 0.597194269894 -0.492814819115
864212000 0.597601466784 -0.492447013715
864221000 0.597050796434 -0.491661994522
864230000 0.597542306416 -0.490800903199
864239000 0.597481034255 -0.491206760768
864248000 0.597316435591 -0.491720766485
864257000 0.597210366479 -0.491681955221
864266000 0.597088592921 -0.492535265114
864275000 0.597292306457 -0.492726970525
864284000 0.597196519306 -0.492144368526
864293000 0.597387714694 -0.492669573945
864302000 0.59619395366 -0.492409257364
864311000 0.596038405252 -0.492871962509
864320000 0.596261241704 -0.491659675589
864329000 0.596662517885 -0.492707348016
864338000 0.596278123716 -0.492030430806
864347000 0.596972395544 -0.492048820324
864356000 0.597038388791 -0.492172201928
864365000 0.596598918621 -0.492214274087
864374000 0.597295043739 -0.492734340196
864383000 0.597894557812 -0.49270193229
864392000 0.598193265079 -0.492447772174
864401000 0.598376707753 -0.49271410946
864410000 0.597599863058 -0.493365199616
864419000 0.597005766757 -0.493298396401
864428000 0.596124449406 -0.493144694174
864437000 0.596719466064 -0.492418355676
864446000 0.597310674136 -0.492871930749
864455000 0.599287547686 -0.492632354558
864464000 0.598730145529 -0.492396461233
864473000 0.598038574287 -0.493478054818
864482000 0.610415517155 -0.494209841045
864491000 0.608748790776 -0.492937090925
864500000 0.598792321618 -0.492683755088
864509000 0.596337380633 -0.492632779496
864518000 0.596668104318 -0.491955860326
864527000 0.596969976913 -0.491437046979
864536000 0.596964450901 -0.492239027602
864545000 0.59676821299 -0.491400869426
864554000 0.597035955934 -0.492137826146
864563000 0.598292732075 -0.492269892676
864572000 0.597142275474 -0.49249273302
864581000 0.597548472954 -0.492563469856
864590000 0.597369982885 -0.492155995603
864599000 0.596604247148 -0.492991811562
864608000 0.597160990431 -0.492841902959
864617000 0.59749048632 -0.493259078175
864626000 0.597111604972 -0.493171252894
864635000 0.598180350608 -0.493668799599
864644000 0.597525716874 -0.494035321004
864653000 0.597508314415 -0.494355535215
864662000 0.59633913727 -0.493588586713
864671000 0.597619782289 -0.493448911324
864680000 0.597349872296 -0.493318055753
864689000 0.597668639099 -0.493031304173
864698000 0.597442451917 -0.493235858722
864707000 0.597087798124 -0.493502334594
864716000 0.597482410813 -0.492738932923
864725000 0.596826989199 -0.493691639477
864734000 0.597281799314 -0.493398987552
864743000 0.597551663382 -0.492751496487
864752000 0.597117020789 -0.492848368447
864761000 0.596468140874 -0.49341662009
864770000 0.595567073765 -0.492515632959
864779000 0.595020570794 -0.492844711413
864788000 0.596297279965 -0.492189711693
864797000 0.59650903188 -0.491363106046
864806000 0.596900587175 -0.491402169766
864815000 0.596501875013 -0.491143648435
864824000 0.597889611178 -0.491487764005
864833000 0.5983832903 -0.491001681445
864842000 0.598127945171 -0.492316559023
864851000 0.598002429865 -0.492956653467
864860000 0.59778727386 -0.493360752809
864869000 0.59780069159 -0.493120642677
864878000 0.596400187958 -0.491906385017
864887000 0.595469104547 -0.491508151941
864896000 0.596661003318 -0.491430086598
864905000 0.596936338585 -0.49082008762
864914000 0.596360680351 -0.491471640368
864923000 0.596836977081 -0.492019762986
864932000 0.596230168292 -0.492864000732
864941000 0.597853061548 -0.492807235281
864950000 0.597050318396 -0.493997003241
864959000 0.59737688276 -0.493515102914
864968000 0.597415414028 -0.493721271453
864977000 0.596624102347 -0.493976520648
864986000 0.596090418221 -0.493394365132
864995000 0.596341517194 -0.49313954111
865004000 0.595998471227 -0.493686719641
865013000 0.596569939469 -0.492383681591
865022000 0.597296936511 -0.492014691731
865031000 0.598157171852 -0.491684240391
865040000 0.598393101906 -0.491395760732
865049000 0.597412396686 -0.492054862744
865058000 0.597688163355 -0.493136622939
865067000 0.597686129731 -0.49325458501
865076000 0.597958791636 -0.4924902996
865085000 0.59859461473 -0.493142487829
865094000 0.598439137715 -0.492881059254
865103000 0.597887075994 -0.493526023777
865112000 0.598026048421 -0.493267596233
865121000 0.596759963688 -0.492405884598
865130000 0.597547861636 -0.493015236355
865139000 0.59716507725 -0.492373094902
865148000 0.596798372033 -0.492049063184
865157000 0.597703466303 -0.492241228525
865166000 0.59792472816 -0.492217855779
865175000 0.598042312173 -0.492288460513
865184000 0.597470074383 -0.492840069372
865193000 0.597125488256 -0.492127696704
865202000 0.595977433459 -0.492808171678
865211000 0.596297359161 -0.493030679853
865220000 0.596430261984 -0.493076095521
865229000 0.596746377865 -0.492358672458
865238000 0.596376710312 -0.492861034632
865247000 0.596954733276 -0.49297571461
865256000 0.597128572147 -0.493858157822
865265000 0.597597468885 -0.493633707972
865274000 0.597079173189 -0.493159030335
865283000 0.597026381281 -0.49337897386
865292000 0.596846025331 -0.494290897684
865301000 0.59686436977 -0.491983671046
865310000 0.59772960591 -0.493072807196
865319000 0.597831153433 -0.492771839516
865328000 0.597424171321 -0.492884984551
865337000 0.596852739837 -0.492477090829
865346000 0.596835499198 -0.492625050722
865355000 0.596717315965 -0.492276468177
865364000 0.597768342342 -0.492907554722
865373000 0.597191804157 -0.493102264913
865382000 0.597725173415 -0.493358485296
865391000 0.598082246224 -0.494175730949
865400000 0.598061656402 -0.493418758186
865409000 0.598112307984 -0.493835444352
865418000 0.597810345668 -0.493473321619
865427000 0.598362093157 -0.493206256241
865436000 0.59742247366 -0.491577173918
865445000 0.598335025602 -0.492269610014
865454000 0.59765107904 -0.492941121357
865463000 0.597481313885 -0.493975362422
865472000 0.598040084786 -0.493390167484
865481000 0.597607409703 -0.493244699946
865490000 0.597391676151 -0.492887277727
865499000 0.597658048179 -0.49258423204
865508000 0.597083810529 -0.493637654102
865517000 0.598500619147 -0.494283725611
865526000 0.597933639496 -0.493428931622
865535000 0.597924651106 -0.493843083903
865544000 0.598405250367 -0.49384469951
865553000 0.598111783876 -0.493494276662
865562000 0.597810336784 -0.493630469713
865571000 0.597976115356 -0.493456633312
865580000 0.597082169194 -0.493906787397
865589000 0.598011370367 -0.492864617737
865598000 0.597752477321 -0.492928801348
865607000 0.597544817503 -0.493001622158
865616000 0.597558806951 -0.493185658082
865625000 0.597547624945 -0.493589512321
865634000 0.598082271951 -0.493150897475
865643000 0.597675562723 -0.49397756277
865652000 0.597031492921 -0.494024037868
865661000 0.596710229775 -0.494340390954
865670000 0.596631504931 -0.494060768517
865679000 0.597493045501 -0.494057403911
865688000 0.597661467831 -0.49289293426
865697000 0.597350083572 -0.492370865109
865706000 0.597601186766 -0.492310341519
865715000 0.59763001161 -0.491980326416
865724000 0.597115669731 -0.491296894945
865733000 0.598683549975 -0.492235599912
865742000 0.597519889689 -0.492876205287
865751000 0.598491171029 -0.493253718505
865760000 0.598625898226 -0.493383043284
865769000 0.598008877472 -0.492602544426
865778000 0.598071330111 -0.492949751904
865787000 0.598515703941 -0.492578570727
865796000 0.597856647823 -0.492812477851
865805000 0.597205009241 -0.493350425343
865814000 0.596741287398 -0.494507824446
865823000 0.597179753855 -0.493689382443
865832000 0.59650444599 -0.493293073307
865841000 0.596480849256 -0.492814163527
865850000 0.597041903305 -0.492591328532
865859000 0.596998523172 -0.492572614996
865868000 0.597095572882 -0.491988933192
865877000 0.596837013086 -0.492663809156
865886000 0.596815197498 -0.492979884745
865895000 0.596884549682 -0.492487159789
865904000 0.597490783143 -0.493008983975
865913000 0.596661243069 -0.493561665879
865922000 0.59793037134 -0.493418265746
865931000 0.597155361697 -0.493607439436
865940000 0.596673600948 -0.493784495588
865949000 0.59710646409 -0.49313634438
865958000 0.596268388657 -0.493503674861
865967000 0.597141227172 -0.494217700768
865976000 0.596743420658 -0.493288111394
865985000 0.596606174875 -0.493211469752
865994000 0.597495970532 -0.493209642598
866003000 0.597759833864 -0.493091150229
866012000 0.59831774025 -0.493551379151
866021000 0.597104470252 -0.492218335853
866030000 0.596171733452 -0.492823534823
866039000 0.59518613908 -0.492682747552
866048000 0.595986775809 -0.492363578829
866057000 0.597159852825 -0.492688161111
866066000 0.598179463843 -0.492332376016
866075000 0.597281649231 -0.492489918442
866084000 0.597317576873 -0.492379056049
866093000 0.597363409155 -0.493021581892
866102000 0.596926281612 -0.492250494858
866111000 0.59746567962 -0.492850804581
866120000 0.598063127174 -0.492284154949
866129000 0.597481887666 -0.491991797638
866138000 0.598157779404 -0.493608249268
866147000 0.597799974973 -0.492377654486
866156000 0.597299163919 -0.49254917504
866165000 0.597027955002 -0.492014012303
866174000 0.596502102383 -0.491180160958
866183000 0.594896901563 -0.492634246746
866192000 0.596030336473 -0.492017510654
866201000 0.596313935255 -0.492272574059
866210000 0.596737394325 -0.492157185348
866219000 0.596941515918 -0.492125513986
866228000 0.596238739145 -0.491655564213
866237000 0.597116962021 -0.49137210023
866246000 0.597287483646 -0.491649672684
866255000 0.597042186113 -0.492030874845
866264000 0.596523424452 -0.49176133288
866273000 0.597290519748 -0.491625845772
866282000 0.596767890968 -0.492297282697
866291000 0.597790048113 -0.492106068366
866300000 0.597406094954 -0.492789259888
866309000 0.596796470471 -0.493506492332
866318000 0.596399470433 -0.493366444438
866327000 0.596315533047 -0.493428440372
866336000 0.595856190586 -0.492943645941
866345000 0.596612652796 -0.493726888436
866354000 0.598056290222 -0.493095681805
866363000 0.596677901237 -0.493330874449
866372000 0.597594445998 -0.492502158495
866381000 0.597202043067 -0.492413548306
866390000 0.597160682879 -0.492722174297
866399000 0.596684937567 -0.494217604223
866408000 0.596269546525 -0.493399298774
866417000 0.59610683488 -0.493306426322
866426000 0.596656449047 -0.493986066283
866435000 0.597616437421 -0.493580846572
866444000 0.597338142755 -0.494051510529
866453000 0.597682020257 -0.493768866933
866462000 0.597490019486 -0.493603425677
866471000 0.596680987649 -0.494407678077
866480000 0.597929286126 -0.494009204235
866489000 0.597350973158 -0.493193335305
866498000 0.597010606814 -0.492947771308
866507000 0.597007047707 -0.492192230281
866516000 0.597045633259 -0.492764004426
866525000 0.596647812815 -0.492203663806
866534000 0.59654647828 -0.492189672658
866543000 0.596973244968 -0.49182240272
866552000 0.595568691627 -0.491013110866
866561000 0.596462881847 -0.490810192468
866570000 0.597272939811 -0.491788871613
866579000 0.597483524232 -0.491665485076
866588000 0.597956486798 -0.491870331502
866597000 0.597174061499 -0.491931097142
866606000 0.596719089083 -0.492041323174
866615000 0.595874691706 -0.491510685935
866624000 0.598271019682 -0.492520089071
866633000 0.598769412849 -0.493534435233
866642000 0.598509720453 -0.492915071404
866651000 0.600071988106 -0.494608323719
866660000 0.598311562039 -0.492183234502
866669000 0.596296707799 -0.493066380429
866678000 0.597551077013 -0.492894868917
866687000 0.597021660079 -0.492779388533
866696000 0.598283250418 -0.49212421647
866705000 0.59772207132 -0.492584854732
866714000 0.597964913027 -0.49256768323
866723000 0.59782970616 -0.493034080439
866732000 0.597997726252 -0.492469849853
866741000 0.597784939853 -0.493807374309
866750000 0.596969670618 -0.493650088225
866759000 0.596882182125 -0.492873570594
866768000 0.597714213726 -0.492839357992
866777000 0.597328341491 -0.492249612765
866786000 0.597597989025 -0.492527912884
866795000 0.596842541094 -0.492166870886
866804000 0.59726934675 -0.492958267752
866813000 0.597106383645 -0.493169718104
866822000 0.596873738753 -0.492413264015
866831000 0.597044732239 -0.492158017014
866840000 0.597705235625 -0.492132750604
866849000 0.597538446436 -0.492576267948
866858000 0.597363884039 -0.492226139851
866867000 0.595653102323 -0.491764819466
866876000 0.596280145828 -0.492729255793
866885000 0.596473200015 -0.492722423401
866894000 0.596520926646 -0.493173378184
866903000 0.597139341075 -0.492349851619
866912000 0.597189858375 -0.493794089486
866921000 0.597762168924 -0.493384810305
866930000 0.598647648574 -0.493781859688
866939000 0.597936027125 -0.494012903451
866948000 0.597722429098 -0.493771476994
866957000 0.598061385691 -0.493653771772
866966000 0.597734355282 -0.493298811577
866975000 0.597552101427 -0.493108371991
866984000 0.598050888891 -0.492164501425
866993000 0.597751665175 -0.491639833404
867002000 0.597251300487 -0.492534519261
867011000 0.597964395074 -0.491825941868
867020000 0.597446230977 -0.492500425076
867029000 0.596823256387 -0.491928758529
867038000 0.596362065353 -0.492771245984
867047000 0.596908328106 -0.492346827348
867056000 0.596675238468 -0.492902921316
867065000 0.597324112828 -0.49418015596
867074000 0.597614915455 -0.493865992171
867083000 0.596935537616 -0.493167067567
867092000 0.596835956634 -0.493555701964
867101000 0.596049928201 -0.493501049593
867110000 0.595935713184 -0.493532788664
867119000 0.596235463767 -0.49352665692
867128000 0.596983152844 -0.493428876681
867137000 0.597124069118 -0.493214650767
867146000 0.596579783835 -0.493274570462
867155000 0.596957887949 -0.493631473753
867164000 0.597474222135 -0.493680253259
867173000 0.59695730685 -0.493902657053
867182000 0.597076269731 -0.49346562497
867191000 0.597532871041 -0.493159957407
867200000 0.597717751755 -0.492923445461
867209000 0.597354652196 -0.492724715056
867218000 0.59793889163 -0.492452908431
867227000 0.598036949418 -0.492322484055
867236000 0.59869868592 -0.492704533788
867245000 0.597618958396 -0.493355817634
867254000 0.597295355817 -0.492799843334
867263000 0.597176733412 -0.493543742103
867272000 0.596998424304 -0.493717014707
867281000 0.596764599797 -0.49369946368
867290000 0.597276688481 -0.493044323191
867299000 0.597850737686 -0.492935986089
867308000 0.597942687939 -0.492834182725
867317000 0.597368944422 -0.492367048817
867326000 0.597410865741 -0.493117821315
867335000 0.597342314581 -0.492711833002
867344000 0.597462818961 -0.492682333921
867353000 0.597549784447 -0.492424894052
867362000 0.596418161429 -0.492567325449
867371000 0.597079141387 -0.492552278015
867380000 0.597667474833 -0.492624208748
867389000 0.598889097958 -0.492865988534
867398000 0.598652120487 -0.492391963945
867407000 0.597708276673 -0.493151329009
867416000 0.597659233148 -0.492589773613
867425000 0.598593279471 -0.492120500681
867434000 0.598212380299 -0.492210611453
867443000 0.598336145374 -0.492350265407
867452000 0.598353630006 -0.492852298222
867461000 0.599300951278 -0.494147291465
867470000 0.598530011116 -0.493602738772
867479000 0.597984219709 -0.493754197086
867488000 0.597974109978 -0.49370583731
867497000 0.598246962823 -0.493962238451
867506000 0.597079743077 -0.494160937744
867515000 0.597868327563 -0.493817575569
867524000 0.597720607939 -0.492931782056
867533000 0.597403368036 -0.491224854183
867542000 0.597530384368 -0.492557640783
867551000 0.598564207076 -0.493207974771
867560000 0.597216233468 -0.492511678693
867569000 0.596954486048 -0.492672848146
867578000 0.597392352375 -0.493501164517
867587000 0.597614135753 -0.493172445713
867596000 0.596620029861 -0.493268064658
867605000 0.597826109522 -0.493760997758
867614000 0.59835002969 -0.493715000041
867623000 0.59927084965 -0.494163388854
867632000 0.598195436568 -0.494743500195
867641000 0.5986391348 -0.493706524892
867650000 0.598734798947 -0.494393077789
867659000 0.598065369357 -0.493412022114
867668000 0.598893374325 -0.493536241138
867677000 0.598558251873 -0.492854906857
867686000 0.59930160398 -0.492738460621
867695000 0.599818618373 -0.493507697262
867704000 0.598599726023 -0.492453591865
867713000 0.598386566387 -0.493570147409
867722000 0.596783931217 -0.494099431504
867731000 0.597766507277 -0.494161876887
867740000 0.595326343824 -0.494947109676
867749000 0.598433169902 -0.493432873135
867758000 0.598242791417 -0.491714813013
867767000 0.599440180664 -0.493926180779
867776000 0.599352932199 -0.493251845949
867785000 0.599548553395 -0.493184184765
867794000 0.599562279358 -0.492137100529
867803000 0.599373434244 -0.492860904045
867812000 0.598329721324 -0.493713032389
867821000 0.598165350513 -0.49362069389
867830000 0.598008496472 -0.493920560613
867839000 0.598495202214 -0.492958256413
867848000 0.598138764199 -0.492797723669
867857000 0.598569199616 -0.49252612641
867866000 0.598721481291 -0.493104271944
867875000 0.599191329457 -0.492963297961
867884000 0.598341429682 -0.493895913689
867893000 0.599089227865 -0.493035943989
867902000 0.598067217264 -0.49378130344
867911000 0.598601297279 -0.494271028665
867920000 0.597912638896 -0.493949779602
867929000 0.598879630907 -0.493570586351
867938000 0.598195596944 -0.493662413251
867947000 0.597632145728 -0.492976401024
867956000 0.596993504035 -0.493488484834
867965000 0.597333559954 -0.49309538428
867974000 0.598211182057 -0.49287335478
867983000 0.598282716031 -0.4937220733
867992000 0.59783198304 -0.492626618658
868001000 0.597863231364 -0.492807879943
868010000 0.596738533999 -0.49325143188
868019000 0.596850713017 -0.49335086075
868028000 0.596877329366 -0.493945247996
868037000 0.598785995303 -0.492922676003
868046000 0.598859002092 -0.492740309616
868055000 0.599046359443 -0.493955972178
868064000 0.598673774326 -0.493979201371
868073000 0.599194953206 -0.493825087134
868082000 0.597768412614 -0.494210141662
868091000 0.598896234145 -0.493964239031
868100000 0.598362783483 -0.49340731262
868109000 0.598476860044 -0.493606624452
868118000 0.598777725662 -0.492911895736
868127000 0.599053148125 -0.494127280218
868136000 0.599766669029 -0.494954640897
868145000 0.598823921266 -0.492908670179
868154000 0.59880827819 -0.492514802448
868163000 0.598554490529 -0.492182300734
868172000 0.598493078804 -0.492799585825
868181000 0.59785275327 -0.492762294451
868190000 0.597051075338 -0.494245445405
868199000 0.597308179044 -0.494390951517
868208000 0.597697372524 -0.494113244294
868217000 0.598413791926 -0.492995222227
868226000 0.597890497471 -0.492817061275
868235000 0.599131613479 -0.493345816534
868244000 0.599162969468 -0.493809753169
868253000 0.600336402972 -0.494326413137
868262000 0.600201997285 -0.494091127533
868271000 0.599263714726 -0.493936779933
868280000 0.598805315081 -0.49451624002
868289000 0.598173661946 -0.494031279321
868298000 0.599326888781 -0.494878200299
868307000 0.59871163702 -0.49446286574
868316000 0.598370486661 -0.494053863292
868325000 0.598581624049 -0.494174558399
868334000 0.599276244638 -0.493982607501
868343000 0.599372039324 -0.49477483628
868352000 0.59934277798 -0.494977855114
868361000 0.599874847207 -0.494092287932
868370000 0.600058170249 -0.494586358342
868379000 0.599702686159 -0.494066698625
868388000 0.59993545938 -0.49400302647
868397000 0.598666036267 -0.493983479152
868406000 0.598854815155 -0.49392337289
868415000 0.59901448013 -0.494888864415
868424000 0.598903469538 -0.493878922277
868433000 0.598343512524 -0.494783372944
868442000 0.598570107166 -0.494126794159
868451000 0.598979116365 -0.494595580516
868460000 0.598687493158 -0.493607914816
868469000 0.5988893073 -0.493527749352
868478000 0.597244373164 -0.49318791176
868487000 0.597993060772 -0.493490404831
868496000 0.598095033198 -0.492876460087
868505000 0.59879896683 -0.493618026146
868514000 0.599600305166 -0.49360217452
868523000 0.598891282771 -0.494031620529
868532000 0.598963311601 -0.492881148311
868541000 0.599858474871 -0.492841384647
868550000 0.599710865946 -0.493723264521
868559000 0.599547763423 -0.494406082457
868568000 0.59835714283 -0.494843054269
868577000 0.59859054423 -0.494481746193
868586000 0.599286386047 -0.493815886244
868595000 0.598608582924 -0.49418171913
868604000 0.598520770757 -0.49327552604
868613000 0.599007931836 -0.493238672417
868622000 0.597412202723 -0.494748940169
868631000 0.598812842131 -0.493233599867
868640000 0.599301007458 -0.492735171041
868649000 0.598658728537 -0.492822110237
868658000 0.599595252565 -0.493410625635
868667000 0.599541691834 -0.494306063994
868676000 0.599057022282 -0.494303994138
868685000 0.598881877074 -0.494743693365
868694000 0.597949100384 -0.494467991057
868703000 0.598839918797 -0.494734865617
868712000 0.598992311453 -0.494114917661
868721000 0.59897156774 -0.493692865025
868730000 0.598492213891 -0.494290083222
868739000 0.59880955283 -0.493519891754
868748000 0.598306204055 -0.493199197119
868757000 0.598832773221 -0.493691455096
868766000 0.598680054198 -0.493822367039
868775000 0.598652183843 -0.493812007272
868784000 0.598976479486 -0.493686281741
868793000 0.598150744657 -0.493938306401
868802000 0.598252231553 -0.494204650956
868811000 0.598406439082 -0.493815660787
868820000 0.598801760032 -0.493271058722
868829000 0.599783497674 -0.493377831074
868838000 0.599541119617 -0.494283507715
868847000 0.599864285743 -0.494395145276
868856000 0.598885434696 -0.494631551127
868865000 0.59887229397 -0.494807829286
868874000 0.599406713526 -0.494469793909
868883000 0.599357838181 -0.494096460263
868892000 0.598677081832 -0.494223959069
868901000 0.598544532308 -0.494866542853
868910000 0.598707811035 -0.494125190395
868919000 0.599120587804 -0.494399496071
868928000 0.598553644484 -0.49414865087
868937000 0.599173315782 -0.494267877045
868946000 0.598597983205 -0.494918433016
868955000 0.59870368434 -0.494162926571
868964000 0.599674509223 -0.494796946763
868973000 0.600053484232 -0.494631190195
868982000 0.599128718205 -0.494310442598
868991000 0.598905053916 -0.493303336998
869000000 0.59894081666 -0.493071066888
