! Calibrated averaged scanner-service zoom
# Hz S RI R 50
159810000 0.895892411615 -0.267472799756
159811755 0.895733334006 -0.267351745032
159813510 0.895879248494 -0.267606955806
159815265 0.895710656672 -0.267452542901
159817020 0.896058904941 -0.267549775327
159818775 0.895899452356 -0.267401134435
159820530 0.89592305137 -0.267530353159
159822285 0.895962199504 -0.267596594393
159824040 0.895773128163 -0.267702697392
159825795 0.896045840656 -0.267706838582
159827550 0.895880431526 -0.267737414763
159829305 0.89608051025 -0.267646742911
159831060 0.896096590912 -0.267685652196
159832815 0.895794027305 -0.267735976546
159834570 0.895966119673 -0.26760329298
159836325 0.89580361495 -0.267605428906
159838080 0.895953456631 -0.267867574563
159839835 0.895983214835 -0.267697610569
159841590 0.895844432773 -0.267676540926
159843345 0.8957674024 -0.267622926427
159845100 0.89588650449 -0.267765142617
159846855 0.895898151559 -0.267782608405
159848610 0.895937026535 -0.267811263866
159850365 0.895784820354 -0.267848867511
159852120 0.895950783532 -0.267840261065
159853875 0.895885337611 -0.267917809166
159855630 0.895837322987 -0.26779947162
159857385 0.895658747109 -0.267686240616
159859140 0.895536700017 -0.267852726612
159860895 0.895933067159 -0.268025708005
159862650 0.895916800994 -0.267982216523
159864405 0.895631591615 -0.267940614652
159866160 0.895883363964 -0.267897306214
159867915 0.895957134151 -0.268027120051
159869670 0.895882239263 -0.267848360095
159871425 0.896040099289 -0.268059299165
159873180 0.895939987181 -0.26791764348
159874935 0.896012609691 -0.26811468144
159876690 0.896020847705 -0.268076860759
159878445 0.895899219993 -0.267918824334
159880200 0.895875745057 -0.268002818636
159881955 0.895812401745 -0.267977564772
159883710 0.895987922438 -0.268097054791
159885465 0.895870678299 -0.268028222632
159887220 0.895721870114 -0.26799809086
159888975 0.895464368385 -0.268819141929
159890730 0.895676576554 -0.268092627972
159892485 0.895890837324 -0.268200067711
159894240 0.895724904127 -0.268054466412
159895995 0.895795327152 -0.268172663883
159897750 0.895974350152 -0.268375521506
159899505 0.895972600875 -0.268290571534
159901260 0.895475391532 -0.268407328057
159903015 0.895777702151 -0.26816400388
159904770 0.895633358908 -0.268164504924
159906525 0.895833054235 -0.268344806293
159908280 0.895701897421 -0.268209213113
159910035 0.89564915903 -0.268279334201
159911790 0.895540376589 -0.2683407037
159913545 0.895491344762 -0.268344037997
159915300 0.89551318002 -0.26818581366
159917055 0.89554270521 -0.268270385371
159918810 0.895642833574 -0.268425057024
159920565 0.895649926392 -0.268511127462
159922320 0.895792268303 -0.268383176144
159924075 0.895699182187 -0.268500334851
159925830 0.895657556171 -0.268451699344
159927585 0.896008390964 -0.268497546233
159929340 0.895387379478 -0.268507417683
159931095 0.895655915261 -0.268376544432
159932850 0.895558626078 -0.268552534357
159934605 0.895635754763 -0.268513817049
159936360 0.895799376089 -0.268575382799
159938115 0.89549283106 -0.268501882483
159939870 0.895665680998 -0.268454219761
159941625 0.895633680711 -0.268513361214
159943380 0.895767092102 -0.268553851715
159945135 0.895633976289 -0.268483861341
159946890 0.895651771501 -0.268708162155
159948645 0.895738676971 -0.268713604469
159950400 0.895679229053 -0.268622505803
159952155 0.895522776636 -0.268474588043
159953910 0.895630252413 -0.268441202084
159955665 0.895760718697 -0.268541354653
159957420 0.895885158972 -0.268519516838
159959175 0.895527399763 -0.268728722894
159960930 0.895536462204 -0.268720091769
159962685 0.895736241734 -0.268752504627
159964440 0.895653554763 -0.268873929191
159966195 0.895718384172 -0.268749007239
159967950 0.895595546765 -0.268739070892
159969705 0.89561089671 -0.268841858254
159971460 0.895677340727 -0.268766469437
159973215 0.89571674996 -0.268821818505
159974970 0.89563976848 -0.268827864661
159976725 0.895709470487 -0.268836962153
159978480 0.895618808499 -0.268921642356
159980235 0.895519936457 -0.268875592868
159981990 0.895563847244 -0.2689521128
159983745 0.895560068193 -0.269042428709
159985500 0.89550435218 -0.268947850388
159987255 0.895702646051 -0.269143178354
159989010 0.895557881914 -0.268958921878
159990765 0.895031335985 -0.268730477356
159992520 0.895566493173 -0.269014708222
159994275 0.895576410452 -0.269169112014
159996030 0.895776723423 -0.269105993957
159997785 0.895552086081 -0.269082664034
159999540 0.894065368651 -0.268285855124
160001295 0.895396426505 -0.269176195293
160003050 0.895364128658 -0.269026023148
160004805 0.895506548894 -0.269181320618
160006560 0.89538777546 -0.269009755224
160008315 0.895705392829 -0.26927110124
160010070 0.895420888861 -0.26912407775
160011825 0.895239982178 -0.269269386152
160013580 0.895429666712 -0.269246586815
160015335 0.895785706774 -0.269330139395
160017090 0.895550158857 -0.26913748537
160018845 0.895430184914 -0.269167310637
160020600 0.89529458171 -0.269339346744
160022355 0.895514754673 -0.269247553316
160024110 0.895916029084 -0.269431217919
160025865 0.895485679958 -0.269255950609
160027620 0.895586981976 -0.269293574686
160029375 0.895390419476 -0.269283563686
160031130 0.895449868505 -0.269299817369
160032885 0.895520550762 -0.269243983482
160034640 0.895300116254 -0.26920356561
160036395 0.895536888896 -0.269273622341
160038150 0.895517890518 -0.269446937618
160039905 0.895603818334 -0.269273928558
160041660 0.895474956964 -0.269413513904
160043415 0.895510539194 -0.269537448263
160045170 0.895733730466 -0.269480086547
160046925 0.895640147824 -0.269529193346
160048680 0.895520499457 -0.269413949032
160050435 0.895579772167 -0.269533223252
160052190 0.895733636752 -0.269484427681
160053945 0.895708846973 -0.269552004375
160055700 0.895527320432 -0.269564636399
160057455 0.895279922569 -0.26947717387
160059210 0.895537004551 -0.269626116147
160060965 0.895380370849 -0.269638872743
160062720 0.895388766202 -0.269505836623
160064475 0.895528643883 -0.269585345395
160066230 0.895447656508 -0.269646109179
160067985 0.89555678409 -0.269643215135
160069740 0.895494257498 -0.269675439428
160071495 0.895498602441 -0.269681727199
160073250 0.89548946186 -0.269685749193
160075005 0.895477568409 -0.269691741604
160076760 0.895356557493 -0.269655501545
160078515 0.895423974041 -0.269613516792
160080270 0.895449777236 -0.269610555215
160082025 0.895428171484 -0.269654436455
160083780 0.895280551408 -0.269625035519
160085535 0.895136524935 -0.269741956729
160087290 0.895125071158 -0.269676351825
160089045 0.895168403103 -0.269749328415
160090800 0.895322150934 -0.269824679839
160092555 0.895098844774 -0.269983528281
160094310 0.895353246492 -0.269767784312
160096065 0.895469208784 -0.269880514397
160097820 0.895341584549 -0.269822120391
160099575 0.895055023225 -0.269874250122
160101330 0.895173666662 -0.269839710534
160103085 0.895283788929 -0.269815347308
160104840 0.895254459775 -0.269867725047
160106595 0.895065230893 -0.269966053691
160108350 0.895129788586 -0.269878240501
160110105 0.895306493542 -0.269921446235
160111860 0.895405198686 -0.270015575303
160113615 0.895338508209 -0.269989306803
160115370 0.895099202395 -0.269798806011
160117125 0.895246694635 -0.270043746566
160118880 0.895332143716 -0.270131240249
160120635 0.89535132366 -0.270036394121
160122390 0.895326648242 -0.27024290932
160124145 0.895077244412 -0.270172549342
160125900 0.895523900902 -0.270167674798
160127655 0.89519757277 -0.270101136089
160129410 0.895405683525 -0.270253300547
160131165 0.895311330404 -0.270176640607
160132920 0.895354088401 -0.270293058838
160134675 0.895496174047 -0.270159340001
160136430 0.894997778851 -0.270080571428
160138185 0.895333033535 -0.270248528932
160139940 0.895278186289 -0.27034327139
160141695 0.895320741408 -0.270398595047
160143450 0.895282214964 -0.270319265102
160145205 0.895239140701 -0.270322389966
160146960 0.895388827588 -0.270374190261
160148715 0.895302100727 -0.270407768346
160150470 0.895222701923 -0.270370375389
160152225 0.895109238762 -0.27032701584
160153980 0.895390830707 -0.270383973145
160155735 0.895160025265 -0.270378604142
160157490 0.895134451013 -0.270330851308
160159245 0.894976732035 -0.270426012082
160161000 0.895098809659 -0.270380468799
160162755 0.895131203199 -0.270318564205
160164510 0.894968070911 -0.270271257223
160166265 0.895041027788 -0.270428286122
160168020 0.895112980145 -0.270432322718
160169775 0.895123667905 -0.270472098522
160171530 0.895102771462 -0.270453225148
160173285 0.89497400462 -0.270411441263
160175040 0.895134209264 -0.270509392559
160176795 0.895165163615 -0.270490755707
160178550 0.89491736399 -0.270355690594
160180305 0.89501949667 -0.270342517494
160182060 0.895114715209 -0.27044480485
160183815 0.895272796905 -0.27055487997
160185570 0.894954894695 -0.270522925321
160187325 0.895104628604 -0.270560979263
160189080 0.895121856434 -0.270590683127
160190835 0.895165684374 -0.270521021641
160192590 0.895188056532 -0.270695841207
160194345 0.894760799266 -0.270543611074
160196100 0.895115394359 -0.270556489553
160197855 0.894472441006 -0.27043749534
160199610 0.894959111517 -0.270725513367
160201365 0.895081438492 -0.270702406596
160203120 0.895146202989 -0.270632297291
160204875 0.895074812379 -0.270740242646
160206630 0.895110233589 -0.270777557986
160208385 0.89504504641 -0.270746285972
160210140 0.895052867879 -0.270737363437
160211895 0.895318765019 -0.270821261561
160213650 0.895066410646 -0.270669062225
160215405 0.895160343125 -0.270754846427
160217160 0.895026531786 -0.270741242391
160218915 0.89499956084 -0.270856882034
160220670 0.895065757359 -0.270839365722
160222425 0.895292207038 -0.271034508004
160224180 0.895005014944 -0.270857378336
160225935 0.895208957922 -0.270885165967
160227690 0.895099438465 -0.271113898614
160229445 0.895133918459 -0.270956196243
160231200 0.895182246436 -0.270922874979
160232955 0.895133409934 -0.271019304051
160234710 0.895166488604 -0.270872049422
160236465 0.895056441077 -0.270904435874
160238220 0.895084950325 -0.271038452011
160239975 0.895137658681 -0.2709787995
160241730 0.895102262274 -0.270946666478
160243485 0.895060826741 -0.270887714793
160245240 0.895004218484 -0.270873770759
160246995 0.894970206419 -0.270980607358
160248750 0.895047112174 -0.270983142712
160250505 0.895003456463 -0.270938876535
160252260 0.89522855978 -0.271013937672
160254015 0.895042547141 -0.270982724782
160255770 0.894848831795 -0.270983771907
160257525 0.894931817257 -0.27107175012
160259280 0.894794688052 -0.271055469495
160261035 0.894761782212 -0.271184503255
160262790 0.894894540954 -0.270963783819
160264545 0.894754144209 -0.271019374537
160266300 0.894914344753 -0.271130580218
160268055 0.894702250093 -0.271180844541
160269810 0.894872986045 -0.271160897336
160271565 0.894607303746 -0.271052618279
160273320 0.894634745978 -0.271036571748
160275075 0.89467748212 -0.271151789659
160276830 0.894764759105 -0.271288981578
160278585 0.894871922407 -0.271103659271
160280340 0.896220373254 -0.271007068234
160282095 0.894427749732 -0.271210345059
160283850 0.894541243297 -0.271286850265
160285605 0.894558101842 -0.271251589863
160287360 0.894876157562 -0.271422114614
160289115 0.894755132349 -0.271197700464
160290870 0.894561726534 -0.27117564827
160292625 0.89461605716 -0.271281433817
160294380 0.894574538969 -0.271402712815
160296135 0.894493938924 -0.271265152791
160297890 0.894692599514 -0.271382430061
160299645 0.894816872395 -0.271439538093
160301400 0.894905872566 -0.271391346996
160303155 0.89476261972 -0.271315912764
160304910 0.8946553402 -0.271340976961
160306665 0.894655538853 -0.271372781653
160308420 0.894801554103 -0.271346539149
160310175 0.894853382278 -0.271355442372
160311930 0.894833490201 -0.27140933334
160313685 0.894949843973 -0.271506986121
160315440 0.894901527706 -0.271392422253
160317195 0.893996873793 -0.271077784261
160318950 0.894109489745 -0.271625905998
160320705 0.894774696862 -0.271197262751
160322460 0.895676699916 -0.271261959503
160324215 0.895386413988 -0.271923100585
160325970 0.895081783704 -0.271561664532
160327725 0.894969410694 -0.271425617947
160329480 0.894095664938 -0.271364442615
160331235 0.892406185241 -0.2721719
160332990 0.895459735667 -0.272060456947
160334745 0.895090155104 -0.27130037352
160336500 0.894979349011 -0.271488592487
160338255 0.895059243149 -0.271523884497
160340010 0.89496259985 -0.271490245724
160341765 0.894986879073 -0.271644349723
160343520 0.895125664222 -0.271553536407
160345275 0.894891000975 -0.271725628313
160347030 0.894946145031 -0.271704861634
160348785 0.895071264958 -0.271666929643
160350540 0.894930830505 -0.271682754894
160352295 0.894890324243 -0.271781639015
160354050 0.895031530372 -0.271813072676
160355805 0.894827612626 -0.271747916978
160357560 0.894868006873 -0.27182039196
160359315 0.894908896504 -0.271848915827
160361070 0.894916536117 -0.272037297445
160362825 0.894990383232 -0.271881092383
160364580 0.895048799443 -0.271931905444
160366335 0.894928442438 -0.272040250899
160368090 0.894896748912 -0.272003786772
160369845 0.894733660713 -0.272024393571
160371600 0.895181120612 -0.272089505323
160373355 0.894901161039 -0.272078322636
160375110 0.895149782795 -0.272125361184
160376865 0.894799096156 -0.271929735067
160378620 0.89504952487 -0.272124161843
160380375 0.894768332155 -0.272144200061
160382130 0.894859230639 -0.272255493383
160383885 0.894938248018 -0.272114182065
160385640 0.89491389584 -0.272061820764
160387395 0.89490645185 -0.272139009176
160389150 0.895055780836 -0.272221007333
160390905 0.894923166035 -0.271928969308
160392660 0.894693067854 -0.272059940641
160394415 0.894918523904 -0.272132767394
160396170 0.894860143339 -0.272056504863
160397925 0.894990009794 -0.272199119191
160399680 0.89506439845 -0.272138851458
160401435 0.895060684155 -0.272215483711
160403190 0.894918321131 -0.272152682914
160404945 0.894968733466 -0.272293037914
160406700 0.89467951697 -0.272055811273
160408455 0.894934722831 -0.272246213383
160410210 0.89460507833 -0.27228908722
160411965 0.894802349065 -0.272162519395
160413720 0.894663521051 -0.272076616015
160415475 0.894778772088 -0.272305284582
160417230 0.894749310607 -0.272106118954
160418985 0.894908138044 -0.272275590836
160420740 0.894784108219 -0.272284281411
160422495 0.894769611154 -0.272383294652
160424250 0.894715716755 -0.272306540617
160426005 0.894758995143 -0.272320658523
160427760 0.894796289082 -0.272366934148
160429515 0.894662353498 -0.272361609938
160431270 0.894088434161 -0.272191143738
160433025 0.894671967728 -0.272544013488
160434780 0.894561995906 -0.272472431012
160436535 0.894489784336 -0.272599400839
160438290 0.894359094236 -0.272660832002
160440045 0.894649005661 -0.272835164545
160441800 0.89446901626 -0.272631577598
160443555 0.894432936831 -0.272860122179
160445310 0.894588753316 -0.272940818352
160447065 0.894765604363 -0.272918725845
160448820 0.894481847703 -0.272939494174
160450575 0.8943052661 -0.27298434223
160452330 0.894238450672 -0.273077148754
160454085 0.894341967738 -0.273019535137
160455840 0.894434808856 -0.273208014064
160457595 0.894146345233 -0.273232848798
160459350 0.894221278584 -0.27321277157
160461105 0.894315806646 -0.273195404297
160462860 0.89451954011 -0.273302131991
160464615 0.894263655804 -0.273260067481
160466370 0.894469346154 -0.27320285258
160468125 0.894241667497 -0.273168695338
160469880 0.894591320763 -0.273172787709
160471635 0.894395962417 -0.273001994832
160473390 0.894364122458 -0.273001535942
160475145 0.894431355454 -0.272901512037
160476900 0.89448143914 -0.272920179703
160478655 0.894366236762 -0.272955935064
160480410 0.894537427106 -0.272939757722
160482165 0.894476382268 -0.272779757979
160483920 0.894376160335 -0.272884362286
160485675 0.894634515041 -0.272784684994
160487430 0.894619617687 -0.272676201466
160489185 0.894374309401 -0.272845340461
160490940 0.894422001474 -0.272722703966
160492695 0.894606996407 -0.272723248688
160494450 0.894386514927 -0.272827059347
160496205 0.894412982707 -0.27289609374
160497960 0.894480750001 -0.27277966938
160499715 0.894572286872 -0.272891098718
160501470 0.894489012052 -0.272800249519
160503225 0.894413160011 -0.272822670757
160504980 0.89461647513 -0.273003129479
160506735 0.89444304134 -0.272736635195
160508490 0.894548498045 -0.272918408173
160510245 0.894489921745 -0.27301613534
160512000 0.894470141771 -0.272848644751
160513755 0.894346120865 -0.272985219923
160515510 0.894498572091 -0.272952664098
160517265 0.894245838949 -0.272765778433
160519020 0.894301874473 -0.273005555134
160520775 0.89450753106 -0.272893126901
160522530 0.894360738434 -0.272962619721
160524285 0.894352784062 -0.27298238946
160526040 0.89447197362 -0.272959039731
160527795 0.894681371368 -0.273106485289
160529550 0.894674646947 -0.273092302065
160531305 0.894468603833 -0.272982106793
160533060 0.894413665908 -0.273029390877
160534815 0.894443426718 -0.27294425029
160536570 0.894672621109 -0.273028350229
160538325 0.894607990684 -0.273165195
160540080 0.894337725271 -0.273066537852
160541835 0.894522550263 -0.273198760856
160543590 0.894704540456 -0.273160463563
160545345 0.894742352798 -0.273305492118
160547100 0.894662061207 -0.273095094954
160548855 0.894452081557 -0.273124275525
160550610 0.894418272747 -0.274696471707
160552365 0.89460288356 -0.273252013926
160554120 0.894631561029 -0.273328454126
160555875 0.89467078147 -0.273407867406
160557630 0.894781595321 -0.273392705702
160559385 0.894878089234 -0.27333970215
160561140 0.894573376773 -0.273243281957
160562895 0.894692082562 -0.273464497613
160564650 0.894706942045 -0.27335350578
160566405 0.894907919633 -0.273525240989
160568160 0.894620023247 -0.273519456038
160569915 0.894643857823 -0.273430562503
160571670 0.894569602416 -0.273494817899
160573425 0.894784688263 -0.273441170513
160575180 0.89465347604 -0.273430666921
160576935 0.895309510548 -0.273582804389
160578690 0.894862369892 -0.273505210425
160580445 0.894887771965 -0.273495553859
160582200 0.894834176523 -0.273555193333
160583955 0.894652638929 -0.273393144459
160585710 0.894740167802 -0.272856634159
160587465 0.894869245855 -0.273619423131
160589220 0.894703064853 -0.273613502425
160590975 0.894662030042 -0.27346994128
160592730 0.894633163329 -0.273624726877
160594485 0.894790674462 -0.273596583723
160596240 0.894949780664 -0.273684876741
160597995 0.894614106128 -0.27349845838
160599750 0.894711525385 -0.2737080183
160601505 0.894899824535 -0.273753579081
160603260 0.894516899027 -0.27340824383
160605015 0.894421652549 -0.273190110977
160606770 0.894227686816 -0.273060623435
160608525 0.894099262868 -0.272862149256
160610280 0.894263278406 -0.272595706078
160612035 0.893916490612 -0.272272691343
160613790 0.893782061199 -0.27221744461
160615545 0.89361673953 -0.271896984091
160617300 0.893618422746 -0.271905770117
160619055 0.893281638423 -0.271557120259
160620810 0.893211041896 -0.271269093244
160622565 0.892980575958 -0.2711974091
160624320 0.893138097475 -0.270951867332
160626075 0.892804914155 -0.27073002941
160627830 0.892594794961 -0.270474690339
160629585 0.892462112329 -0.270244100197
160631340 0.892832465685 -0.270530697009
160633095 0.892663345389 -0.270593392438
160634850 0.892891889189 -0.270826559275
160636605 0.892998814768 -0.271164854963
160638360 0.89330672481 -0.271416126144
160640115 0.893143422793 -0.271665456879
160641870 0.893826514263 -0.271722754701
160643625 0.892530824208 -0.272034745827
160645380 0.893725109056 -0.272372108976
160647135 0.893802260557 -0.272644107661
160648890 0.893693046984 -0.272893135061
160650645 0.893995985454 -0.273167811105
160652400 0.893898066818 -0.273336374333
160654155 0.894427427659 -0.273635460575
160655910 0.894300368937 -0.273714877935
160657665 0.894589704874 -0.274106100128
160659420 0.894613404018 -0.274336466031
160661175 0.894731811057 -0.274270658283
160662930 0.89455980569 -0.274256953241
160664685 0.894669262928 -0.274309212317
160666440 0.894292531932 -0.274193936627
160668195 0.894710157019 -0.274455891095
160669950 0.894415247405 -0.274390984294
160671705 0.894563906653 -0.274445676019
160673460 0.894587237706 -0.274357593826
160675215 0.894576452965 -0.274359779966
160676970 0.894563113812 -0.274451626955
160678725 0.894584881736 -0.274295489491
160680480 0.895110779996 -0.274060172523
160682235 0.894606488941 -0.274516082343
160683990 0.894491259326 -0.27460180436
160685745 0.894541697156 -0.274443337981
160687500 0.894573304426 -0.274430092989
160689255 0.894591306154 -0.274477675335
160691010 0.894632791657 -0.274539636796
160692765 0.894501503837 -0.274489056452
160694520 0.894642712042 -0.27447633532
160696275 0.894758473594 -0.274529132696
160698030 0.89460075503 -0.274616605198
160699785 0.894612568205 -0.274622151471
160701540 0.894441559765 -0.274578188064
160703295 0.89478955291 -0.274611915747
160705050 0.894756540766 -0.274598432733
160706805 0.894641711093 -0.274711914972
160708560 0.894680539699 -0.274608350046
160710315 0.894656035398 -0.274712003162
160712070 0.894630403314 -0.274621686876
160713825 0.894658308429 -0.27476428138
160715580 0.895095758785 -0.274615335968
160717335 0.89485369707 -0.274815081557
160719090 0.894665241081 -0.274775290658
160720845 0.894605825128 -0.274826317577
160722600 0.89462362912 -0.274830750094
160724355 0.894600556497 -0.274875898216
160726110 0.894647213827 -0.274857300517
160727865 0.894494528822 -0.274771837041
160729620 0.894578846922 -0.274846311049
160731375 0.894519973941 -0.27482081658
160733130 0.89466794653 -0.274915940792
160734885 0.894348872804 -0.274860341562
160736640 0.894376160555 -0.274901860703
160738395 0.894305124832 -0.274883017795
160740150 0.89428034188 -0.274910605553
160741905 0.89427675376 -0.274989750993
160743660 0.894504387364 -0.274912020325
160745415 0.89425224185 -0.27487421087
160747170 0.894192369032 -0.274967667726
160748925 0.894310926002 -0.275033742495
160750680 0.894212424116 -0.274962631904
160752435 0.894319780483 -0.274986992141
160754190 0.894501978384 -0.274929746333
160755945 0.894431683251 -0.275070725007
160757700 0.894650596125 -0.275172951182
160759455 0.894360197032 -0.275159814109
160761210 0.89441107073 -0.275228316078
160762965 0.894562059384 -0.275319490459
160764720 0.8947520181 -0.275295722365
160766475 0.894702711418 -0.275347409915
160768230 0.894732426151 -0.275322787613
160769985 0.894648519035 -0.275374416377
160771740 0.894795566428 -0.275324748922
160773495 0.894814119543 -0.275281701254
160775250 0.894749465204 -0.275393621613
160777005 0.895006713678 -0.275360265002
160778760 0.894798985552 -0.275342140542
160780515 0.894701213091 -0.275398291582
160782270 0.89467933597 -0.275387407126
160784025 0.894594322714 -0.275479624746
160785780 0.894795115689 -0.275676373606
160787535 0.894530804106 -0.275434156022
160789290 0.894586977174 -0.275404258405
160791045 0.894537484099 -0.275313804781
160792800 0.894486929622 -0.275538784404
160794555 0.894424838571 -0.2755921953
160796310 0.894222167513 -0.275442599548
160798065 0.894521411747 -0.275701990351
160799820 0.894162274201 -0.275578035028
160801575 0.894155352272 -0.275535860299
160803330 0.894146793588 -0.275560569494
160805085 0.894118913144 -0.275589526679
160806840 0.89440189865 -0.27560685159
160808595 0.8942216404 -0.275626930647
160810350 0.894248254834 -0.27554506071
160812105 0.894152511936 -0.275800471358
160813860 0.894289190495 -0.275723333386
160815615 0.894105999601 -0.275752877392
160817370 0.894087902304 -0.275590145728
160819125 0.894110900372 -0.275785055855
160820880 0.894268627638 -0.275763688952
160822635 0.894009051742 -0.275825390662
160824390 0.894029612422 -0.275872961326
160826145 0.894177515702 -0.275828685925
160827900 0.894078580014 -0.275756890952
160829655 0.893830269972 -0.275707282003
160831410 0.894117741366 -0.27588065766
160833165 0.893910974162 -0.276037209991
160834920 0.893699772793 -0.276235403157
160836675 0.893311683392 -0.276420744168
160838430 0.893343425736 -0.276487784802
160840185 0.893160802951 -0.276633684699
160841940 0.892976766662 -0.276816203087
160843695 0.892709535943 -0.277009275334
160845450 0.892497363003 -0.277091382224
160847205 0.89244860969 -0.277331820242
160848960 0.892177820862 -0.277399984476
160850715 0.892195666862 -0.277655716177
160852470 0.891843806502 -0.277666073706
160854225 0.891587330251 -0.277986960291
160855980 0.891607763403 -0.278176884458
160857735 0.891664535969 -0.278353163425
160859490 0.891208396367 -0.278235670501
160861245 0.891134430307 -0.278257737855
160863000 0.891588370506 -0.278166952868
160864755 0.891750047834 -0.278262105024
160866510 0.89182272387 -0.277986130452
160868265 0.89178655407 -0.277564225232
160870020 0.892163579918 -0.277694638903
160871775 0.892198129143 -0.277670533016
160873530 0.891954983493 -0.274162788745
160875285 0.892299863368 -0.276962046958
160877040 0.892815871751 -0.277438229801
160878795 0.893197517344 -0.277148575393
160880550 0.893182443779 -0.277128800295
160882305 0.893700124057 -0.276908382768
160884060 0.893646113572 -0.276848924505
160885815 0.894007585442 -0.276692544856
160887570 0.893936504583 -0.276560867284
160889325 0.894057363446 -0.276537903542
160891080 0.894265486468 -0.276518527892
160892835 0.894336771997 -0.276732780541
160894590 0.89426293822 -0.276601608565
160896345 0.894203958162 -0.27650345761
160898100 0.894188275499 -0.276552589892
160899855 0.894225429155 -0.276613388847
160901610 0.89414335358 -0.276579813937
160903365 0.894050929832 -0.276609427232
160905120 0.894135859143 -0.276577665493
160906875 0.894342938881 -0.276656639901
160908630 0.894146329053 -0.276547057204
160910385 0.894258614934 -0.276747585476
160912140 0.894214544903 -0.276500876254
160913895 0.894237135006 -0.276528684247
160915650 0.894225042119 -0.276738076805
160917405 0.894139766537 -0.276695971493
160919160 0.894274224873 -0.27671718472
160920915 0.894330714511 -0.276627199488
160922670 0.894176349149 -0.276655481612
160924425 0.892632246598 -0.277058274668
160926180 0.894303432299 -0.276722981058
160927935 0.894225296868 -0.276707228165
160929690 0.894050560383 -0.276625374902
160931445 0.894199484557 -0.276891656682
160933200 0.8939586853 -0.276872784866
160934955 0.893814460065 -0.276768199388
160936710 0.893894339086 -0.27677912036
160938465 0.89395546197 -0.276939400592
160940220 0.894295660545 -0.276867070192
160941975 0.893920035845 -0.276693412631
160943730 0.893873081807 -0.276892578471
160945485 0.89390966551 -0.27679807403
160947240 0.894008885708 -0.276744543174
160948995 0.894043635143 -0.276899672558
160950750 0.894009631101 -0.276829273426
160952505 0.893827436746 -0.276876300375
160954260 0.894028928105 -0.276880786527
160956015 0.893999848106 -0.276945101214
160957770 0.89401238043 -0.276972432346
160959525 0.893845893456 -0.276784179871
160961280 0.893882481969 -0.276790205729
160963035 0.893979924396 -0.276893274177
160964790 0.89402126455 -0.276808602571
160966545 0.893985828422 -0.276748341999
160968300 0.893941503758 -0.276827499296
160970055 0.893975922068 -0.276938883785
160971810 0.894098486752 -0.276885376471
160973565 0.893873460554 -0.276935562281
160975320 0.893796000154 -0.276965693978
160977075 0.893992071919 -0.276862252186
160978830 0.893880194593 -0.276908478206
160980585 0.893976898418 -0.276899152604
160982340 0.89377101581 -0.276898403168
160984095 0.893733985273 -0.277074973255
160985850 0.893734279042 -0.277127499981
160987605 0.893980893327 -0.276778085113
160989360 0.893578632322 -0.277069035308
160991115 0.893685388372 -0.277027300768
160992870 0.893912062286 -0.277147613218
160994625 0.893695428111 -0.277043151835
160996380 0.893690308421 -0.277177310901
160998135 0.893892250973 -0.27726968412
160999890 0.893802951444 -0.277242530105
161001645 0.893645146914 -0.277231879621
161003400 0.893789902873 -0.277216320744
161005155 0.893820408857 -0.277327275757
161006910 0.893751969027 -0.277350799314
161008665 0.893775546113 -0.277355582294
161010420 0.893601065748 -0.277428984434
161012175 0.893730288648 -0.277462457411
161013930 0.893778953727 -0.277434844675
161015685 0.89369976854 -0.277389215694
161017440 0.89323461882 -0.277416322401
161019195 0.893671034623 -0.27741499582
161020950 0.893658093075 -0.277481542193
161022705 0.893772929678 -0.277464515598
161024460 0.893740116481 -0.277556714815
161026215 0.893513755346 -0.277517078259
161027970 0.89368758864 -0.277530512179
161029725 0.893611840626 -0.277504050057
161031480 0.893643944172 -0.277525656695
161033235 0.893604134088 -0.27753368813
161034990 0.893645809632 -0.27753072489
161036745 0.893612110112 -0.277488301123
161038500 0.893610117187 -0.277598013671
161040255 0.893544151012 -0.277719537023
161042010 0.893595961493 -0.277557579577
161043765 0.893603110832 -0.277897069131
161045520 0.893450434638 -0.277605706407
161047275 0.893731918557 -0.277591655359
161049030 0.893578829414 -0.277621203855
161050785 0.89350291743 -0.277696324351
161052540 0.893565908607 -0.27769737489
161054295 0.894005640953 -0.277595712645
161056050 0.893626681581 -0.277603583423
161057805 0.893472751927 -0.277779012465
161059560 0.893475173977 -0.277771879164
161061315 0.893784053704 -0.277392907607
161063070 0.8936632424 -0.2777731307
161064825 0.893630614995 -0.277741801763
161066580 0.893233008425 -0.277623669719
161068335 0.893596982056 -0.277680444661
161070090 0.893746748815 -0.277891582875
161071845 0.893649424291 -0.277716918669
161073600 0.89333993613 -0.277676847231
161075355 0.893637333223 -0.277961692528
161077110 0.893731121751 -0.277962288876
161078865 0.893531560364 -0.277796255988
161080620 0.89337684214 -0.277851434388
161082375 0.893609089197 -0.277923665022
161084130 0.893850573086 -0.277821489114
161085885 0.893418509783 -0.277959155467
161087640 0.893428035436 -0.277923672363
161089395 0.893633535096 -0.27789473911
161091150 0.893597476045 -0.278067414726
161092905 0.893592420104 -0.277822546408
161094660 0.893346216547 -0.277899497435
161096415 0.893458574554 -0.277894596451
161098170 0.893559955707 -0.277918511578
161099925 0.893689660506 -0.277938614549
161101680 0.89334782723 -0.27790817496
161103435 0.893271263566 -0.277918640942
161105190 0.893596184454 -0.27804595607
161106945 0.893828212179 -0.278187540445
161108700 0.893456924953 -0.278030235803
161110455 0.893581670668 -0.278055221506
161112210 0.89361387198 -0.278040327496
161113965 0.893537670927 -0.278032848273
161115720 0.893477332862 -0.27795280617
161117475 0.893451321977 -0.278095189245
161119230 0.893480672911 -0.278068913205
161120985 0.893579955516 -0.278144634379
161122740 0.893474752766 -0.278152844204
161124495 0.89335924254 -0.278125304146
161126250 0.893264679306 -0.278080206638
161128005 0.893627315531 -0.278150062033
161129760 0.8933857439 -0.278157953924
161131515 0.893252301569 -0.278346159927
161133270 0.893452064974 -0.27828705012
161135025 0.893545780777 -0.278293908013
161136780 0.893454319237 -0.2782255205
161138535 0.893301667632 -0.278122139484
161140290 0.893275525607 -0.278230091467
161142045 0.893764955757 -0.278409704725
161143800 0.893388491159 -0.278284686678
161145555 0.893488681757 -0.278215042766
161147310 0.893065666987 -0.278094206582
161149065 0.893623946107 -0.278446593089
161150820 0.89339447162 -0.278429033515
161152575 0.893184391561 -0.278208303363
161154330 0.893183322246 -0.278211493725
161156085 0.893550667847 -0.278475769109
161157840 0.893532159857 -0.278531233846
161159595 0.893255614068 -0.278411179776
161161350 0.893412648136 -0.277853188231
161163105 0.893458467499 -0.278550753144
161164860 0.89356754402 -0.27847476074
161166615 0.893657676156 -0.278582001966
161168370 0.893237611338 -0.278506906239
161170125 0.893466833206 -0.278582744501
161171880 0.893725515226 -0.278602580651
161173635 0.893322222424 -0.278419608322
161175390 0.89343459721 -0.278483194033
161177145 0.893313519731 -0.278487483703
161178900 0.893473076816 -0.278822714139
161180655 0.893542926572 -0.278596066031
161182410 0.893287704932 -0.278489894011
161184165 0.893330135167 -0.27858888555
161185920 0.893474219078 -0.278770420672
161187675 0.893468693208 -0.278757557642
161189430 0.89355636862 -0.278362953068
161191185 0.893242074238 -0.278702622516
161192940 0.893446715129 -0.278910897657
161194695 0.893666279157 -0.278909622435
161196450 0.89349954759 -0.278729511199
161198205 0.893471498998 -0.278984964086
161199960 0.893132741475 -0.279041473603
161201715 0.893594140645 -0.278957433128
161203470 0.893250546268 -0.278847809756
161205225 0.893167656064 -0.278980651226
161206980 0.893445160483 -0.278942825705
161208735 0.893489302116 -0.278873508831
161210490 0.893200543423 -0.278797816564
161212245 0.893316738467 -0.278708091428
161214000 0.893178671813 -0.278936153995
161215755 0.893255210934 -0.278898843483
161217510 0.893290283681 -0.2788471687
161219265 0.89329752303 -0.27897932802
161221020 0.893409056314 -0.279057484595
161222775 0.893383300514 -0.278811391033
161224530 0.893157633936 -0.278858231751
161226285 0.893230093462 -0.278917918368
161228040 0.893180061138 -0.278904979616
161229795 0.893001225866 -0.278803914221
161231550 0.892895935789 -0.278830509627
161233305 0.893166575399 -0.278864168068
161235060 0.893664982215 -0.278972130577
161236815 0.893127074767 -0.278850013432
161238570 0.892824622897 -0.278931386743
161240325 0.893075590606 -0.278952592707
161242080 0.892966983964 -0.279038453344
161243835 0.892949692913 -0.278866527494
161245590 0.892991687849 -0.27880238052
161247345 0.893213150825 -0.279089655635
161249100 0.893218954993 -0.279069072892
161250855 0.893074494279 -0.279089330569
161252610 0.893137002955 -0.279074966806
161254365 0.893294495636 -0.279190878793
161256120 0.893368170867 -0.279241655526
161257875 0.893103816362 -0.279184556823
161259630 0.892944917916 -0.279231660963
161261385 0.893367399509 -0.279469063352
161263140 0.893246503854 -0.279295089923
161264895 0.893481425323 -0.279453219119
161266650 0.893127758196 -0.279310125001
161268405 0.893263752617 -0.279371833097
161270160 0.893253554773 -0.279547381505
161271915 0.893220632537 -0.279335547308
161273670 0.89319877035 -0.279258968674
161275425 0.893072997444 -0.279340969937
161277180 0.893492876267 -0.279440568052
161278935 0.893317035979 -0.279425039951
161280690 0.893014750884 -0.279348985581
161282445 0.893165758341 -0.279540232428
161284200 0.893276721985 -0.279536767355
161285955 0.893362976851 -0.279569995452
161287710 0.893115210024 -0.279553744718
161289465 0.893268879822 -0.279516812579
161291220 0.89330535254 -0.279474474987
161292975 0.893406449866 -0.279569368462
161294730 0.893127894411 -0.279592060577
161296485 0.893087504025 -0.279451291929
161298240 0.893330144465 -0.279468625761
161299995 0.89338590576 -0.279637649183
161301750 0.893154463061 -0.279530138077
161303505 0.893000498891 -0.279467901152
161305260 0.893140740975 -0.279601957838
161307015 0.893363411077 -0.279746664784
161308770 0.893316803158 -0.279689855221
161310525 0.893150167008 -0.27958476547
161312280 0.893045947266 -0.279653538198
161314035 0.893208382775 -0.279728583825
161315790 0.893265700673 -0.279665471842
161317545 0.893027402111 -0.279724866627
161319300 0.893081024694 -0.279786226127
161321055 0.892995231345 -0.279845789641
161322810 0.893174434869 -0.279731089963
161324565 0.893007837882 -0.279816464892
161326320 0.893074566538 -0.279868912391
161328075 0.89328704372 -0.279877807193
161329830 0.893159011683 -0.279951771528
161331585 0.892966571063 -0.279947842818
161333340 0.893046639491 -0.27999223414
161335095 0.893301332958 -0.280071105635
161336850 0.893121681333 -0.280038290448
161338605 0.893129064473 -0.279937867249
161340360 0.89325353246 -0.280170943033
161342115 0.892951903679 -0.280050102139
161343870 0.893205968089 -0.280147905156
161345625 0.893066007374 -0.280020449858
161347380 0.892977755686 -0.28024005299
161349135 0.893129404492 -0.280185179998
161350890 0.893450258269 -0.280173850199
161352645 0.893128483096 -0.280384361775
161354400 0.893135560002 -0.280231246219
161356155 0.89311344257 -0.280337672538
161357910 0.893218000491 -0.280201018282
161359665 0.89319512313 -0.280158273249
161361420 0.892955496781 -0.280236363785
161363175 0.89321126224 -0.280194193497
161364930 0.893263705077 -0.280286746732
161366685 0.893081508279 -0.280207137382
161368440 0.893030554368 -0.280195051728
161370195 0.893052708272 -0.280244516272
161371950 0.892949947663 -0.28038482906
161373705 0.893037241668 -0.280357522803
161375460 0.892914999242 -0.280206951813
161377215 0.893178630836 -0.280177185493
161378970 0.89323026868 -0.280425772827
161380725 0.893348022999 -0.280322976364
161382480 0.893103518699 -0.280304282911
161384235 0.8930392415 -0.280347636147
161385990 0.893167802922 -0.280290576802
161387745 0.893095619333 -0.280419660926
161389500 0.89299491589 -0.280409526089
161391255 0.892998556182 -0.280408510349
161393010 0.892921070763 -0.28042106542
161394765 0.892994020412 -0.280376341625
161396520 0.893053122375 -0.28049666465
161398275 0.893163867607 -0.280463288351
161400030 0.893096412555 -0.280521175107
161401785 0.892856647426 -0.280452155275
161403540 0.892772455094 -0.280514808118
161405295 0.892663957633 -0.280258192695
161407050 0.893044542376 -0.28061289022
161408805 0.892983342508 -0.280372626913
161410560 0.89295271438 -0.280584865253
161412315 0.893013687619 -0.280585122349
161414070 0.893003547753 -0.280575443565
161415825 0.893372213161 -0.280741340168
161417580 0.893069627698 -0.28085934418
161419335 0.893026300274 -0.280529909618
161421090 0.892947977523 -0.280631145529
161422845 0.892796740234 -0.280552861549
161424600 0.892926744336 -0.280506311119
161426355 0.893142647535 -0.280660971747
161428110 0.893134965155 -0.280696748405
161429865 0.892959878108 -0.280621320438
161431620 0.8929826426 -0.28054308041
161433375 0.893067785519 -0.280620711736
161435130 0.892955917575 -0.280563500722
161436885 0.893069019186 -0.280625494951
161438640 0.893091593261 -0.280555024408
161440395 0.892961447294 -0.280807807345
161442150 0.892956991197 -0.28073734435
161443905 0.893025389901 -0.280739841763
161445660 0.893024627753 -0.280763330275
161447415 0.893216539567 -0.280950957539
161449170 0.893216814332 -0.280965676165
161450925 0.893186073331 -0.281015871756
161452680 0.893234239646 -0.280887764
161454435 0.893362137134 -0.281015984367
161456190 0.89327708444 -0.281049023729
161457945 0.893375421444 -0.281029458789
161459700 0.893141036628 -0.281044844336
161461455 0.893378799608 -0.28109453996
161463210 0.893327646019 -0.281070979204
161464965 0.893149233953 -0.281110020735
161466720 0.893245027976 -0.281064974793
161468475 0.893120910342 -0.281182832179
161470230 0.893140401938 -0.28116596806
161471985 0.893210217105 -0.281007288658
161473740 0.893058087876 -0.281129626742
161475495 0.893234343763 -0.281254064333
161477250 0.893005075948 -0.281201217587
161479005 0.892939370806 -0.281174258768
161480760 0.893057691456 -0.281171396932
161482515 0.892961522321 -0.281199440841
161484270 0.892973156126 -0.281251234761
161486025 0.89314400143 -0.281150080355
161487780 0.893036444192 -0.281151228866
161489535 0.892977191164 -0.281241301627
161491290 0.892816875204 -0.281174691298
161493045 0.892851421852 -0.281221419374
161494800 0.892883823337 -0.28127334784
161496555 0.892897951433 -0.281246880848
161498310 0.893115320781 -0.281369963324
161500065 0.893283669864 -0.281718758707
161501820 0.892955701409 -0.28147095283
161503575 0.892840231089 -0.281359923163
161505330 0.892872405995 -0.281476952098
161507085 0.892922788824 -0.281506828785
161508840 0.892790089961 -0.28150573034
161510595 0.892768661873 -0.281476657249
161512350 0.893028075345 -0.281408522558
161514105 0.892844027998 -0.281538475505
161515860 0.892810584237 -0.281425845608
161517615 0.892797544769 -0.28148265815
161519370 0.892724895888 -0.281495449101
161521125 0.892849755815 -0.281605200646
161522880 0.892676004391 -0.281607082734
161524635 0.892711605387 -0.281741858194
161526390 0.892708081048 -0.2816998953
161528145 0.892879041419 -0.281819037229
161529900 0.892866594873 -0.281669266443
161531655 0.892677218325 -0.281683144863
161533410 0.892731652948 -0.281529089158
161535165 0.892841242685 -0.281907000012
161536920 0.892813006648 -0.281837690909
161538675 0.892700629008 -0.281805787518
161540430 0.89259632935 -0.28176745281
161542185 0.89267846245 -0.281846991144
161543940 0.893465602 -0.282160996244
161545695 0.89256451343 -0.281836304121
161547450 0.892663952289 -0.28184512841
161549205 0.892759930447 -0.281921766287
161550960 0.892658750308 -0.281954629978
161552715 0.892801226842 -0.281881455068
161554470 0.892620882244 -0.281902192014
161556225 0.892734393248 -0.281881927815
161557980 0.892843797167 -0.281945132178
161559735 0.892668046527 -0.281944116415
161561490 0.892654362646 -0.282043851109
161563245 0.892582124469 -0.281982280398
161565000 0.892795427377 -0.282090033776
