! Calibrated averaged scanner-service zoom
# Hz S RI R 50
470000000 0.624862441034 -0.406614128108
470010500 0.623851447142 -0.40677505117
470021000 0.624617990521 -0.406951328393
470031500 0.624863520207 -0.406813102936
470042000 0.623601760892 -0.406935560303
470052500 0.624905239996 -0.406302230673
470063000 0.625206392964 -0.407484610753
470073500 0.625474203932 -0.40649734724
470084000 0.623756389013 -0.407133597354
470094500 0.623598369312 -0.406992551845
470105000 0.625822309664 -0.407331179903
470115500 0.624595717433 -0.406395956203
470126000 0.623119330127 -0.405748419578
470136500 0.626489978987 -0.405778908294
470147000 0.622792217698 -0.40757335526
470157500 0.624648357991 -0.407231914443
470168000 0.625955316848 -0.405910894964
470178500 0.624330672389 -0.406978044199
470189000 0.624207180157 -0.407381799149
470199500 0.627641148497 -0.406687814534
470210000 0.626031280218 -0.406667968665
470220500 0.627952409204 -0.408647400626
470231000 0.625621888994 -0.407408279236
470241500 0.623921429527 -0.406949584045
470252000 0.624432884727 -0.407202629678
470262500 0.624864980172 -0.403119572934
470273000 0.625183772994 -0.408754568396
470283500 0.622484474805 -0.406570832203
470294000 0.623723366139 -0.409497818932
470304500 0.622433858331 -0.407324526393
470315000 0.623624151012 -0.4085811769
470325500 0.624569000659 -0.406766070218
470336000 0.621224897532 -0.407750318219
470346500 0.623754328143 -0.408576508986
470357000 0.622854876202 -0.408800708424
470367500 0.625010013321 -0.408226357138
470378000 0.624225594596 -0.407629149135
470388500 0.623903694527 -0.409150676641
470399000 0.624004620945 -0.406562666751
470409500 0.624370253291 -0.40747558718
470420000 0.623289173418 -0.409188385078
470430500 0.626665215752 -0.407978701129
470441000 0.622397036459 -0.408552361487
470451500 0.624215895391 -0.407876421654
470462000 0.62427797243 -0.405753571463
470472500 0.623409373748 -0.406540113463
470483000 0.624410143272 -0.406735602512
470493500 0.623138767468 -0.40685361173
470504000 0.624476557028 -0.406845432214
470514500 0.623468009014 -0.406096996
470525000 0.622583714332 -0.406163464082
470535500 0.622508637777 -0.406912731824
470546000 0.621989944219 -0.406785589287
470556500 0.624507230564 -0.409324145826
470567000 0.62325237382 -0.407862369417
470577500 0.622010531044 -0.407657786841
470588000 0.62346981619 -0.408503043023
470598500 0.624344090461 -0.405045404743
470609000 0.62279376803 -0.409016902841
470619500 0.623765061565 -0.40747457554
470630000 0.623402655669 -0.407946748783
470640500 0.622268785072 -0.4081444093
470651000 0.622746391947 -0.407392918191
470661500 0.622579830267 -0.406195406254
470672000 0.619532025614 -0.407449053847
470682500 0.6223964133 -0.408576100461
470693000 0.621918056816 -0.407837141702
470703500 0.622142144497 -0.408100583028
470714000 0.621777667523 -0.407518109084
470724500 0.621815931786 -0.407924961246
470735000 0.622097996827 -0.408071153713
470745500 0.622216612611 -0.408236481317
470756000 0.621324458967 -0.406553435431
470766500 0.622709690776 -0.407984271046
470777000 0.62178756436 -0.408002328821
470787500 0.62102213679 -0.408232194108
470798000 0.622350264982 -0.408034485461
470808500 0.622713969054 -0.407393531554
470819000 0.623346365604 -0.40831743858
470829500 0.621763847918 -0.407379567636
470840000 0.620745684266 -0.407892590104
470850500 0.621605555824 -0.40769751284
470861000 0.62199196722 -0.407880034123
470871500 0.621927401482 -0.407946562153
470882000 0.621782998058 -0.407369786933
470892500 0.622367528519 -0.407780730307
470903000 0.622285426463 -0.40805897083
470913500 0.622174097093 -0.408663605549
470924000 0.622163760097 -0.408246212598
470934500 0.622454103812 -0.408723023067
470945000 0.622319384803 -0.407801029423
470955500 0.622369941528 -0.407893303465
470966000 0.621268854941 -0.408148282364
470976500 0.621284225747 -0.407905782307
470987000 0.622072638709 -0.408729386614
470997500 0.621742775479 -0.408681128764
471008000 0.622127268742 -0.408374957345
471018500 0.621615003499 -0.409483982017
471029000 0.621647903254 -0.408702667192
471039500 0.62099545293 -0.408382398121
471050000 0.621608169006 -0.409284253958
471060500 0.621391555198 -0.407635576713
471071000 0.621317370431 -0.40696973959
471081500 0.620203709297 -0.408128039633
471092000 0.621953254475 -0.40864320979
471102500 0.621924691373 -0.40796538793
471113000 0.621096419489 -0.407384062487
471123500 0.622148993084 -0.408279372733
471134000 0.622025037921 -0.408538434713
471144500 0.621632501368 -0.407912487569
471155000 0.621574375562 -0.40890858574
471165500 0.620926195793 -0.408669877048
471176000 0.621531812769 -0.408875633071
471186500 0.621435830904 -0.409193020029
471197000 0.620802012261 -0.408704441041
471207500 0.621085282658 -0.408872558563
471218000 0.620736737915 -0.408953456943
471228500 0.620448100899 -0.408677378898
471239000 0.626072505077 -0.407794160055
471249500 0.621332932732 -0.407840886513
471260000 0.621442309202 -0.409088893093
471270500 0.621995348332 -0.408524974389
471281000 0.621792535629 -0.408039450165
471291500 0.621122887082 -0.408349702215
471302000 0.620243179202 -0.408345183592
471312500 0.620456545039 -0.407822741582
471323000 0.620655684871 -0.409297993627
471333500 0.620157529157 -0.409056959859
471344000 0.621106658602 -0.408718300367
471354500 0.621929413954 -0.408551039431
471365000 0.621048436244 -0.408241358199
471375500 0.621645490082 -0.409558513031
471386000 0.621594119624 -0.407807662718
471396500 0.620886306099 -0.408371428773
471407000 0.619863443975 -0.409492406242
471417500 0.619374076267 -0.40872012131
471428000 0.619576286404 -0.408458298263
471438500 0.619199482176 -0.409281181111
471449000 0.619393570584 -0.408563606082
471459500 0.618634921523 -0.409266055152
471470000 0.619639094253 -0.408779068637
471480500 0.62013547433 -0.408755843776
471491000 0.620151896095 -0.408962407798
471501500 0.619938412672 -0.408455191543
471512000 0.62000710112 -0.408910200263
471522500 0.619922029183 -0.409929026739
471533000 0.619665108637 -0.410545384843
471543500 0.619662523147 -0.40988163549
471554000 0.619425839002 -0.409415176869
471564500 0.619026767397 -0.409651429564
471575000 0.619700739517 -0.409490928891
471585500 0.618826197509 -0.408915006025
471596000 0.619503245505 -0.40952662041
471606500 0.620013603333 -0.409177605434
471617000 0.620255997411 -0.408597110866
471627500 0.620400696992 -0.408620083695
471638000 0.620267154573 -0.409610730849
471648500 0.619285921724 -0.408247326108
471659000 0.619348793236 -0.408738197862
471669500 0.619622425546 -0.408796761255
471680000 0.619951497725 -0.408825493025
471690500 0.619494706362 -0.409521586249
471701000 0.619243795868 -0.409385377357
471711500 0.61959446501 -0.40910564898
471722000 0.619650826889 -0.40930456227
471732500 0.619337145695 -0.408950687397
471743000 0.619559322597 -0.409749067007
471753500 0.619994972689 -0.408504593458
471764000 0.61991670819 -0.408764563871
471774500 0.619973627487 -0.408578371017
471785000 0.619920145104 -0.40954868346
471795500 0.619279589848 -0.409256539886
471806000 0.619044122332 -0.409088130689
471816500 0.618896276408 -0.409717672834
471827000 0.618934588954 -0.409491747878
471837500 0.619550062069 -0.409574969955
471848000 0.61912809585 -0.410075943009
471858500 0.618789634106 -0.40924877242
471869000 0.618960721107 -0.409171369798
471879500 0.618852346382 -0.409413748532
471890000 0.618752162561 -0.409201710107
471900500 0.618478342328 -0.409149817828
471911000 0.618571699068 -0.410334701792
471921500 0.619129009865 -0.409800508637
471932000 0.619611823276 -0.410906019382
471942500 0.61988830561 -0.411062412581
471953000 0.61850676114 -0.410711681788
471963500 0.61795612286 -0.410180959731
471974000 0.617877370193 -0.410321482135
471984500 0.617472895053 -0.410446925858
471995000 0.616749429821 -0.410230417357
472005500 0.617292892881 -0.409834740936
472016000 0.617158834425 -0.40968938351
472026500 0.617352886724 -0.409826105643
472037000 0.617864365457 -0.410232718337
472047500 0.617627633478 -0.409768092238
472058000 0.618229966703 -0.410537400274
472068500 0.618117176921 -0.410397536075
472079000 0.61845952177 -0.410128232722
472089500 0.617961790318 -0.411086249306
472100000 0.616090571899 -0.409795026727
472110500 0.617829414729 -0.410246762906
472121000 0.617736721931 -0.408813000863
472131500 0.618190870267 -0.409214283438
472142000 0.617471973301 -0.409028886911
472152500 0.61689814102 -0.408663862204
472163000 0.617224486235 -0.407534191196
472173500 0.617059945099 -0.407968620091
472184000 0.617517783409 -0.409353242566
472194500 0.617166837743 -0.40896538034
472205000 0.616874351261 -0.409296360476
472215500 0.616163465675 -0.40959556273
472226000 0.615641696667 -0.409248218934
472236500 0.616556510942 -0.408707442344
472247000 0.617528925646 -0.408741626959
472257500 0.617592488038 -0.408647334739
472268000 0.616687118961 -0.408981655733
472278500 0.616831924461 -0.409043148669
472289000 0.617032510622 -0.409351970053
472299500 0.617676018145 -0.40842710729
472310000 0.617047568703 -0.408552523819
472320500 0.617350454238 -0.408680429089
472331000 0.617162772028 -0.40948523002
472341500 0.61734975792 -0.408802369484
472352000 0.616597763524 -0.409443866204
472362500 0.616746858629 -0.40891531447
472373000 0.61655429204 -0.409458527933
472383500 0.616540889632 -0.409587633278
472394000 0.616198416338 -0.40902920199
472404500 0.616680324008 -0.40911628975
472415000 0.617018858747 -0.409213120029
472425500 0.616314923644 -0.408481070983
472436000 0.616484769354 -0.408609473618
472446500 0.616721662232 -0.408244193481
472457000 0.616572454329 -0.409201772176
472467500 0.616008186921 -0.40907671774
472478000 0.616878267493 -0.409051725161
472488500 0.616726501288 -0.408821660767
472499000 0.616274504318 -0.409454367179
472509500 0.616420106838 -0.410238617551
472520000 0.616815353419 -0.410673014658
472530500 0.616546528494 -0.409591523694
472541000 0.617078771736 -0.409076842684
472551500 0.616697958945 -0.408746424725
472562000 0.617553497534 -0.409123211636
472572500 0.616712377087 -0.408620316025
472583000 0.61606093117 -0.408460628051
472593500 0.6142668568 -0.409399379367
472604000 0.615939283855 -0.408555414138
472614500 0.615760365143 -0.409162179624
472625000 0.616319506451 -0.409012448303
472635500 0.616405261922 -0.409537125081
472646000 0.616124099266 -0.409811184672
472656500 0.616824057413 -0.409894555405
472667000 0.616524413535 -0.409554510108
472677500 0.616160559576 -0.410475484543
472688000 0.616779474769 -0.41075671544
472698500 0.615428567533 -0.410068040844
472709000 0.615900581438 -0.410082877431
472719500 0.616333782057 -0.409775581504
472730000 0.614751431788 -0.410525150224
472740500 0.616080091288 -0.409733220031
472751000 0.615774924763 -0.409556307187
472761500 0.616059099945 -0.409583820625
472772000 0.615188989994 -0.41008658614
472782500 0.61522102981 -0.410079559957
472793000 0.61520313396 -0.409997561199
472803500 0.615280019549 -0.409856091477
472814000 0.615404736981 -0.409843063396
472824500 0.61548554848 -0.40984966851
472835000 0.615199942016 -0.410189923945
472845500 0.615550291651 -0.409597567855
472856000 0.614675683045 -0.409648270317
472866500 0.615163858177 -0.409965334634
472877000 0.615505094228 -0.40977452621
472887500 0.615782901782 -0.409809288616
472898000 0.614912965864 -0.410381613469
472908500 0.614979202672 -0.409787669777
472919000 0.614410606173 -0.410635023006
472929500 0.614886708036 -0.41052365649
472940000 0.61472534373 -0.410659968347
472950500 0.614552040993 -0.410362648126
472961000 0.61403361975 -0.410623658613
472971500 0.61476074461 -0.410719620579
472982000 0.614439518727 -0.410084275376
472992500 0.614474601136 -0.410863472368
473003000 0.614516740741 -0.410728923857
473013500 0.614113660147 -0.410510951183
473024000 0.613878684997 -0.409605732903
473034500 0.614649468046 -0.410228646611
473045000 0.615570214774 -0.410825723868
473055500 0.615007441339 -0.409656148281
473066000 0.615131816081 -0.409506445024
473076500 0.61602890929 -0.410083801136
473087000 0.615989282714 -0.410339088592
473097500 0.613483857849 -0.40995234592
473108000 0.614293300872 -0.410761561706
473118500 0.614191744128 -0.410520702882
473129000 0.614878367832 -0.411158094111
473139500 0.614399399833 -0.41055247421
473150000 0.614132135701 -0.410437591006
473160500 0.613768527577 -0.410381837866
473171000 0.613148193418 -0.409844358097
473181500 0.613342251422 -0.410106454089
473192000 0.613133488521 -0.409758678026
473202500 0.61345444931 -0.410882094553
473213000 0.613758346072 -0.410880731964
473223500 0.613858734174 -0.410494193
473234000 0.613161441606 -0.409896973072
473244500 0.613660237353 -0.410023650315
473255000 0.614338128597 -0.409813256358
473265500 0.613236051647 -0.409834859097
473276000 0.613482666953 -0.409493240491
473286500 0.613655409928 -0.409769331122
473297000 0.613632752747 -0.40989961629
473307500 0.613639937853 -0.410043137127
473318000 0.613828453915 -0.410216232516
473328500 0.613385362002 -0.410480000607
473339000 0.613261863338 -0.409818489262
473349500 0.61313753332 -0.41045413084
473360000 0.613361451391 -0.409112532611
473370500 0.613382754844 -0.408867145113
473381000 0.613976005645 -0.40909741457
473391500 0.61331532391 -0.409965602612
473402000 0.612994802553 -0.410532876171
473412500 0.613368395673 -0.41051463625
473423000 0.613438474902 -0.410396084541
473433500 0.614127803745 -0.410407737494
473444000 0.614131131456 -0.410194181195
473454500 0.613515310253 -0.410219838812
473465000 0.614392030806 -0.410399941046
473475500 0.61380751835 -0.410524393928
473486000 0.613372998999 -0.410540152973
473496500 0.613217328254 -0.409958131961
473507000 0.613028283168 -0.410362610822
473517500 0.613838093218 -0.411646933281
473528000 0.612662737083 -0.410475483789
473538500 0.612937243831 -0.410830510682
473549000 0.612656249037 -0.410936651586
473559500 0.612218321349 -0.410907325597
473570000 0.613234056927 -0.411529082821
473580500 0.612692588157 -0.411301069631
473591000 0.612672154939 -0.410592428452
473601500 0.614124639129 -0.410283444812
473612000 0.612310463804 -0.411004103773
473622500 0.61429970217 -0.411587547938
473633000 0.612337220155 -0.410116586148
473643500 0.611959786152 -0.410226986812
473654000 0.611452689655 -0.411617336263
473664500 0.612185024909 -0.410374221989
473675000 0.612165059527 -0.411400009723
473685500 0.612282933944 -0.410698218278
473696000 0.61200312132 -0.410385615496
473706500 0.611661543174 -0.411437252801
473717000 0.611764034486 -0.411081133827
473727500 0.611559053653 -0.411071310309
473738000 0.612845857621 -0.410768845552
473748500 0.611960609606 -0.411153485013
473759000 0.612304286628 -0.411306560124
473769500 0.612109222847 -0.410020310512
473780000 0.612191310518 -0.410319745203
473790500 0.612549278579 -0.410083499082
473801000 0.612443066231 -0.410501523046
473811500 0.612006614301 -0.410894230821
473822000 0.611466032619 -0.410338702389
473832500 0.611722436784 -0.410756525914
473843000 0.611634058551 -0.410652977198
473853500 0.61086529661 -0.410227016574
473864000 0.612388275558 -0.410621691784
473874500 0.611166592334 -0.41054418664
473885000 0.611943823266 -0.410129072436
473895500 0.611740143923 -0.410231921135
473906000 0.612124940197 -0.410731828441
473916500 0.612171886657 -0.411314295941
473927000 0.612734952387 -0.412010364317
473937500 0.61301731946 -0.411675528553
473948000 0.614050734895 -0.411003677675
473958500 0.612960067248 -0.411590942991
473969000 0.611950107728 -0.410928733166
473979500 0.611298253456 -0.411125264561
473990000 0.611764943544 -0.410295561516
474000500 0.611727304596 -0.410529402093
474011000 0.611845056344 -0.410848982876
474021500 0.61164113204 -0.41134613791
474032000 0.611949018801 -0.411774234194
474042500 0.61210573771 -0.411712741295
474053000 0.611521186307 -0.411040796289
474063500 0.611612521612 -0.410527646101
474074000 0.61155863302 -0.410784794871
474084500 0.611116978591 -0.411110335897
474095000 0.611692140653 -0.411437505207
474105500 0.612548272531 -0.411236235782
474116000 0.612370416951 -0.410924089865
474126500 0.61259624538 -0.410411695398
474137000 0.61186076001 -0.410802154286
474147500 0.612121183463 -0.410382452165
474158000 0.610602220677 -0.414890264223
474168500 0.611463618376 -0.411692826453
474179000 0.611558258591 -0.411313214808
474189500 0.611824293615 -0.411248775132
474200000 0.611858208354 -0.410278014973
474210500 0.61157617156 -0.411459855319
474221000 0.611588953915 -0.410813956029
474231500 0.610684150492 -0.411565798636
474242000 0.610791608737 -0.411843153346
474252500 0.611356038679 -0.411012441667
474263000 0.610529606625 -0.410867258293
474273500 0.610579333517 -0.411509686922
474284000 0.608133188579 -0.411247629973
474294500 0.609776176272 -0.413874784113
474305000 0.61024836983 -0.412603673898
474315500 0.610913689313 -0.412852153442
474326000 0.612054611951 -0.412021055422
474336500 0.609897884461 -0.412226673284
474347000 0.610709139807 -0.412558511054
474357500 0.610986049992 -0.414566634749
474368000 0.610647910532 -0.412366568054
474378500 0.610897969142 -0.412297827003
474389000 0.61373523628 -0.410562572412
474399500 0.608934971538 -0.410814198104
474410000 0.61113479698 -0.410776023708
474420500 0.610014864729 -0.414241502663
474431000 0.601939202119 -0.415052801525
474441500 0.612064234021 -0.410411015027
474452000 0.609601871483 -0.410870692429
474462500 0.611321372863 -0.411899631034
474473000 0.608272476315 -0.413915442507
474483500 0.609983729693 -0.410995957895
474494000 0.613736416824 -0.415927279744
474504500 0.614307276311 -0.414671637455
474515000 0.61104729281 -0.413082379555
474525500 0.607605184808 -0.410384555706
474536000 0.61110373614 -0.411489933332
474546500 0.617750271658 -0.41444601712
474557000 0.607286319429 -0.413712397788
474567500 0.60822038205 -0.414490377354
474578000 0.609639852228 -0.414959619854
474588500 0.613239408233 -0.413670742803
474599000 0.610557325331 -0.410268097138
474609500 0.608307553531 -0.412648177976
474620000 0.610705839707 -0.410470936195
474630500 0.610205097393 -0.41098124197
474641000 0.607620071773 -0.409640571926
474651500 0.610698742255 -0.411806988597
474662000 0.609649350636 -0.413101824815
474672500 0.609393158935 -0.412357536337
474683000 0.609069596714 -0.411598881381
474693500 0.61053640901 -0.412682822968
474704000 0.610054240684 -0.412293384356
474714500 0.609806870153 -0.411383730934
474725000 0.609566544816 -0.413551589762
474735500 0.609338911297 -0.412123287282
474746000 0.610932451735 -0.412081146429
474756500 0.609472406494 -0.411889545878
474767000 0.609516800944 -0.412081433001
474777500 0.610039869912 -0.412082095764
474788000 0.610265359575 -0.41163908481
474798500 0.60892082937 -0.411825749245
474809000 0.609297661472 -0.412222340345
474819500 0.609138858876 -0.412291562748
474830000 0.609113019564 -0.412479428168
474840500 0.608475777758 -0.412570301803
474851000 0.608480647587 -0.41207007812
474861500 0.608776294067 -0.412689428836
474872000 0.608992631689 -0.412692006602
474882500 0.608808087719 -0.412153767409
474893000 0.608595196403 -0.412131604562
474903500 0.608584966088 -0.411575688439
474914000 0.608991050175 -0.412200074787
474924500 0.608669028777 -0.411733937788
474935000 0.60854454604 -0.411980420808
474945500 0.608902965691 -0.41165379796
474956000 0.608181868383 -0.411902347861
474966500 0.608132121666 -0.411643852608
474977000 0.608385110704 -0.412108543835
474987500 0.60991386293 -0.411705050356
474998000 0.608506122568 -0.412101882889
475008500 0.608922932063 -0.411546363968
475019000 0.609480428124 -0.411672915694
475029500 0.609203021343 -0.412516620299
475040000 0.608665182991 -0.411155780995
475050500 0.608582923833 -0.411352199661
475061000 0.609008217124 -0.41140833639
475071500 0.608262692316 -0.411606810536
475082000 0.608525987561 -0.412061895672
475092500 0.608028930341 -0.411709557395
475103000 0.607939711754 -0.411103135425
475113500 0.607910544555 -0.411756381107
475124000 0.607668263948 -0.411831495888
475134500 0.607383375377 -0.412343018615
475145000 0.607919862159 -0.411358634094
475155500 0.60749774012 -0.411234181582
475166000 0.607651143251 -0.411504714439
475176500 0.60732426531 -0.411620300634
475187000 0.608060374252 -0.411804456196
475197500 0.607717965258 -0.411675519491
475208000 0.607497192649 -0.411004651121
475218500 0.608035588375 -0.410556782832
475229000 0.607836698735 -0.411230092453
475239500 0.607946788496 -0.411407036862
475250000 0.60704559064 -0.412447152254
475260500 0.60778993908 -0.412034846477
475271000 0.607986747122 -0.412178662222
475281500 0.607102656688 -0.410864178485
475292000 0.607198166892 -0.410808499158
475302500 0.606588638893 -0.41130389764
475313000 0.607214430489 -0.412088760413
475323500 0.607622181824 -0.41191880765
475334000 0.607533983659 -0.411847396864
475344500 0.607319076046 -0.411375225991
475355000 0.60642849161 -0.41195736074
475365500 0.606619274267 -0.41150262556
475376000 0.607576594506 -0.411289700553
475386500 0.607806959137 -0.412061500741
475397000 0.607449796748 -0.412454859825
475407500 0.607744543754 -0.412317713573
475418000 0.607001492709 -0.412797530962
475428500 0.606850085609 -0.411750048029
475439000 0.607272238773 -0.410856918374
475449500 0.607774038491 -0.411170618642
475460000 0.607103857785 -0.41177393927
475470500 0.607016121391 -0.412540124249
475481000 0.606740388713 -0.412380118032
475491500 0.607222462426 -0.413318976727
475502000 0.606343061684 -0.41259919974
475512500 0.606918250363 -0.412329740519
475523000 0.60644960852 -0.412165554883
475533500 0.606371057096 -0.412372993059
475544000 0.606241195514 -0.412830649202
475554500 0.606656342691 -0.412603329504
475565000 0.606308278263 -0.412599771968
475575500 0.60631617414 -0.412354282919
475586000 0.606468272518 -0.411623374794
475596500 0.606788131902 -0.412084818535
475607000 0.606141258419 -0.412794473259
475617500 0.60642291157 -0.412611068683
475628000 0.606684831874 -0.412578681206
475638500 0.606343504882 -0.412903286125
475649000 0.606336411844 -0.4117785411
475659500 0.606341432614 -0.41218531354
475670000 0.606682175619 -0.411986385166
475680500 0.606474182579 -0.4116881778
475691000 0.606709300411 -0.412130913401
475701500 0.60670310448 -0.412780276198
475712000 0.606608118259 -0.412314553856
475722500 0.60622783587 -0.412279681253
475733000 0.605850952858 -0.412514788109
475743500 0.605430591133 -0.412825731135
475754000 0.605832878582 -0.412220753325
475764500 0.605164129053 -0.411690173658
475775000 0.6053883743 -0.412067501423
475785500 0.605585040371 -0.411489652455
475796000 0.605491378843 -0.411700532548
475806500 0.605641322635 -0.41182602088
475817000 0.605781299091 -0.411906320875
475827500 0.605620594206 -0.412098235573
475838000 0.60611875559 -0.412673730937
475848500 0.605673424144 -0.412685475682
475859000 0.605400735039 -0.413471345311
475869500 0.605109703564 -0.412030140068
475880000 0.605967526034 -0.411853256218
475890500 0.60565631555 -0.412404105501
475901000 0.605830770642 -0.41306675142
475911500 0.605476850742 -0.41257047582
475922000 0.605897385389 -0.412450397164
475932500 0.605882379694 -0.412880561322
475943000 0.605083340893 -0.411673149092
475953500 0.604825133549 -0.412153360964
475964000 0.605141844831 -0.412607957584
475974500 0.60487230867 -0.412755296023
475985000 0.604828939076 -0.412457510363
475995500 0.60501195227 -0.412374507677
476006000 0.605096910484 -0.411956046186
476016500 0.605187810892 -0.411678424909
476027000 0.605560073853 -0.412114422275
476037500 0.605250920441 -0.412167852053
476048000 0.605108436207 -0.412038545967
476058500 0.605402086388 -0.41200315937
476069000 0.604723027187 -0.412247254764
476079500 0.605053037154 -0.411938437614
476090000 0.604608987358 -0.411472136937
476100500 0.605046625322 -0.411475134031
476111000 0.605079526759 -0.411442779851
476121500 0.605349152524 -0.411891226094
476132000 0.60511432207 -0.411156974637
476142500 0.60598925368 -0.411579473687
476153000 0.605415513483 -0.411696953253
476163500 0.605160906812 -0.412165959305
476174000 0.605522365067 -0.411800558897
476184500 0.605495726494 -0.411543453301
476195000 0.605451171553 -0.411771802193
476205500 0.605114409057 -0.412401756258
476216000 0.604884075396 -0.412481556577
476226500 0.605569650959 -0.412379831441
476237000 0.605673803688 -0.412797525259
476247500 0.605541039312 -0.411819986219
476258000 0.605292123467 -0.41190879353
476268500 0.60299174835 -0.412131228251
476279000 0.603539299754 -0.413351281838
476289500 0.604676473138 -0.412527507444
476300000 0.603984041768 -0.413946605616
476310500 0.604189772064 -0.412226191791
476321000 0.604075378845 -0.412683374931
476331500 0.602464242381 -0.413388717501
476342000 0.604259492177 -0.412576250043
476352500 0.604494512718 -0.412928201761
476363000 0.604374627251 -0.413030422715
476373500 0.604091987945 -0.41359563797
476384000 0.603527875375 -0.412446546276
476394500 0.603868079773 -0.412515889622
476405000 0.603192655244 -0.412758291814
476415500 0.604302391883 -0.412503687955
476426000 0.603493200494 -0.412299926362
476436500 0.604281740631 -0.412086410278
476447000 0.605015342161 -0.412215680934
476457500 0.604942211054 -0.411167199301
476468000 0.603827647881 -0.412690956515
476478500 0.603954212896 -0.412345607761
476489000 0.603345894517 -0.411960171264
476499500 0.602700534721 -0.412072434597
476510000 0.603679805612 -0.411823862237
476520500 0.603105049139 -0.411537260611
476531000 0.603479054375 -0.412229972119
476541500 0.603181183424 -0.412379795013
476552000 0.603231554859 -0.41157638035
476562500 0.603215502877 -0.412382070476
476573000 0.602985271433 -0.411985555077
476583500 0.603693076551 -0.41167593737
476594000 0.603659999426 -0.412009412623
476604500 0.603487317749 -0.411833778331
476615000 0.604089531132 -0.412605255486
476625500 0.601414682444 -0.411843553383
476636000 0.600119641098 -0.413106688988
476646500 0.590874562678 -0.414474362268
476657000 0.590167626983 -0.411302942323
476667500 0.597067480151 -0.410536460759
476678000 0.604470691218 -0.413665102629
476688500 0.604644093401 -0.413641493584
476699000 0.603591907085 -0.412794476973
476709500 0.603472864971 -0.412708770315
476720000 0.603190157103 -0.412018343363
476730500 0.604072261863 -0.411221477121
476741000 0.603347130776 -0.41261901385
476751500 0.602786738587 -0.412058182679
476762000 0.602747629602 -0.412201693595
476772500 0.60280526112 -0.412529276948
476783000 0.602589426785 -0.413204000001
476793500 0.602433029097 -0.413850826013
476804000 0.603376443547 -0.412745194785
476814500 0.603304152412 -0.411968605022
476825000 0.602332291467 -0.41231702403
476835500 0.603466921447 -0.412206644046
476846000 0.601996381241 -0.41239932204
476856500 0.603068143292 -0.412131581837
476867000 0.602833623596 -0.412158238921
476877500 0.603224059975 -0.413184228612
476888000 0.603348129224 -0.4122570457
476898500 0.603218233044 -0.412188297493
476909000 0.602022944168 -0.41231257047
476919500 0.602506664511 -0.412970105289
476930000 0.602552260187 -0.412673117188
476940500 0.602323755836 -0.41100754132
476951000 0.602733827888 -0.412543284833
476961500 0.603023451251 -0.412645849178
476972000 0.60278474052 -0.412724372781
476982500 0.603312847623 -0.412667692566
476993000 0.60250004339 -0.412408800175
477003500 0.602766301148 -0.412080073955
477014000 0.602627710357 -0.412004186195
477024500 0.60299601248 -0.412398434569
477035000 0.602431431632 -0.412858742329
477045500 0.601989686479 -0.412903693544
477056000 0.602212409755 -0.412300902218
477066500 0.602174515741 -0.412269600286
477077000 0.602391657173 -0.412097992209
477087500 0.602808811954 -0.412173265366
477098000 0.602494873953 -0.412543857607
477108500 0.602584471249 -0.412939235806
477119000 0.60268148805 -0.412938877305
477129500 0.60225594625 -0.412806515678
477140000 0.60224370633 -0.413000829205
477150500 0.602632821906 -0.412907523919
477161000 0.602211532701 -0.41233386163
477171500 0.601531185371 -0.412059659796
477182000 0.601754050499 -0.413326878828
477192500 0.60148047026 -0.41423562899
477203000 0.60191795421 -0.413546479306
477213500 0.601145142666 -0.41306927269
477224000 0.601191460323 -0.412333090201
477234500 0.601357193574 -0.412286917822
477245000 0.602448226675 -0.412745549015
477255500 0.601660009931 -0.412461953488
477266000 0.601623730075 -0.412239710508
477276500 0.601380818103 -0.412475632171
477287000 0.602591700985 -0.412675465238
477297500 0.601349456697 -0.41240495492
477308000 0.601484848918 -0.412101090379
477318500 0.601699961396 -0.412667209474
477329000 0.601426544008 -0.413279329641
477339500 0.601648985867 -0.412898768354
477350000 0.601328326807 -0.412820848869
477360500 0.60231570392 -0.412308926691
477371000 0.602510103281 -0.412714679452
477381500 0.602385734857 -0.412695068708
477392000 0.602629055414 -0.412191094783
477402500 0.600347239712 -0.413266200161
477413000 0.601518527594 -0.412750268114
477423500 0.60140459407 -0.41217577308
477434000 0.60100390494 -0.412106398753
477444500 0.601440083406 -0.411974889549
477455000 0.600340265628 -0.411013302979
477465500 0.601108778252 -0.413365233236
477476000 0.600835993193 -0.41482894518
477486500 0.602786394632 -0.412032783804
477497000 0.599750847822 -0.414134178371
477507500 0.600605300002 -0.412463953124
477518000 0.601711634093 -0.410929957012
477528500 0.600416180426 -0.410619066469
477539000 0.602648623194 -0.411414076416
477549500 0.602078039835 -0.413808675564
477560000 0.601248838059 -0.412906091711
477570500 0.60165027801 -0.41109550486
477581000 0.600485094327 -0.412420112638
477591500 0.599212879207 -0.409865538768
477602000 0.599746268291 -0.411020762002
477612500 0.601155792745 -0.41009618941
477623000 0.601500485371 -0.413254986367
477633500 0.602230329744 -0.413296260848
477644000 0.603512588463 -0.41262550587
477654500 0.601646418989 -0.412726735761
477665000 0.602202790276 -0.411831573982
477675500 0.601421122442 -0.410396851107
477686000 0.598095652676 -0.412623461871
477696500 0.600563190525 -0.411150437556
477707000 0.599574421838 -0.41337667149
477717500 0.60079340103 -0.413451719859
477728000 0.60169577754 -0.410612010324
477738500 0.602223010912 -0.414416467047
477749000 0.600989224366 -0.410614737305
477759500 0.604931797902 -0.413496662292
477770000 0.600478199295 -0.413897741632
477780500 0.601155376806 -0.412176239511
477791000 0.599817626757 -0.41378146965
477801500 0.601582413246 -0.413365616201
477812000 0.600295188804 -0.412739204823
477822500 0.599078429064 -0.41386895055
477833000 0.598400414102 -0.413937364003
477843500 0.600248148743 -0.411870860798
477854000 0.599445752017 -0.412597245999
477864500 0.599945823378 -0.411433736195
477875000 0.599552630753 -0.412664931821
477885500 0.598701200508 -0.413476344047
477896000 0.599744551692 -0.412373591808
477906500 0.599891603649 -0.412377693169
477917000 0.600437823138 -0.413154376761
477927500 0.598604139204 -0.411747486546
477938000 0.598613309875 -0.412924234061
477948500 0.599568600033 -0.413370276371
477959000 0.600295179112 -0.413735690044
477969500 0.600915544359 -0.41156986408
477980000 0.600332747657 -0.411771408185
477990500 0.600193876919 -0.411746730779
478001000 0.597944404357 -0.413345772793
478011500 0.600852748406 -0.410496203877
478022000 0.599257717527 -0.412593577024
478032500 0.599502553115 -0.413225220372
478043000 0.600123255698 -0.412780025211
478053500 0.597356446104 -0.414932854355
478064000 0.600165315837 -0.413962885195
478074500 0.596990000271 -0.415617421739
478085000 0.602483340519 -0.413490632923
478095500 0.598669382509 -0.412410042261
478106000 0.598957625526 -0.413159108364
478116500 0.598939885786 -0.411136361601
478127000 0.597697829409 -0.41488933498
478137500 0.601528909073 -0.412837417512
478148000 0.604404734901 -0.402700271993
478158500 0.59831346055 -0.411500170672
478169000 0.604978214205 -0.420901784393
478179500 0.585518933474 -0.408099576005
478190000 0.605178468381 -0.411889155974
478200500 0.604320139127 -0.420172642817
478211000 0.598985065074 -0.410383769865
478221500 0.602854516548 -0.408705569241
478232000 0.596215858366 -0.411159070153
478242500 0.599388708277 -0.4145703385
478253000 0.599186859441 -0.418214566799
478263500 0.597883246803 -0.394796793198
478274000 0.586721760366 -0.403777476487
478284500 0.623826519325 -0.428568055233
478295000 0.611085571104 -0.419993101869
478305500 0.588956226884 -0.414348008117
478316000 0.609818397318 -0.400966643347
478326500 0.597258454828 -0.414514611456
478337000 0.605797799261 -0.413763140562
478347500 0.589836690653 -0.41122785467
478358000 0.601938716931 -0.416670859243
478368500 0.607158091635 -0.41373125785
478379000 0.586337045584 -0.411612002561
478389500 0.595975594348 -0.416393585357
478400000 0.605076735744 -0.40581339927
478410500 0.650678394291 -0.384537516682
478421000 0.63277284997 -0.439641542344
478431500 0.617811041879 -0.404033489799
478442000 0.58740284189 -0.394719554249
478452500 0.607685865053 -0.396823400683
478463000 0.582484415613 -0.432869987018
478473500 0.594150152952 -0.422633869641
478484000 0.584575232376 -0.363824822076
478494500 0.59238488656 -0.44582248054
478505000 0.594739775266 -0.407167690172
478515500 0.570973624984 -0.429698956077
478526000 0.616189001217 -0.410824712565
478536500 0.611441388109 -0.418432072865
478547000 0.597077836893 -0.423434639388
478557500 0.633957669207 -0.421585787467
478568000 0.58125138773 -0.398853414132
478578500 0.595634992852 -0.41750246868
478589000 0.591930355363 -0.411874646571
478599500 0.626001487352 -0.419585301977
478610000 0.584899364115 -0.39553629794
478620500 0.602510120819 -0.423296361346
478631000 0.592604125451 -0.399826795211
478641500 0.581800071994 -0.401643434741
478652000 0.593384032484 -0.395417803752
478662500 0.589391402603 -0.402123502763
478673000 0.582032878952 -0.410047585143
478683500 0.616566623721 -0.417517365219
478694000 0.598905174403 -0.413199885456
478704500 0.60189533285 -0.408235608644
478715000 0.583565566857 -0.416024936271
478725500 0.601629194084 -0.419734850118
478736000 0.599453111242 -0.415499144049
478746500 0.599194879339 -0.40568170823
478757000 0.59022625684 -0.409639345287
478767500 0.574749783981 -0.4248996172
478778000 0.574150108458 -0.417808327144
478788500 0.600988066233 -0.416118715264
478799000 0.59720557882 -0.408103556712
478809500 0.617650873096 -0.428005486358
478820000 0.597416161218 -0.416063009294
478830500 0.597939168282 -0.412148228127
478841000 0.598920205838 -0.412424033768
478851500 0.605341425095 -0.411318573776
478862000 0.601649997556 -0.414877988099
478872500 0.587628484666 -0.40624520065
478883000 0.579997027665 -0.407750681803
478893500 0.594503050562 -0.407038018882
478904000 0.580525871147 -0.402842419468
478914500 0.597601491018 -0.413322409882
478925000 0.600629115692 -0.414484808282
478935500 0.597941998368 -0.416109183923
478946000 0.59795430806 -0.414477550118
478956500 0.598669342627 -0.413644894233
478967000 0.597461782478 -0.410890409688
478977500 0.596657504394 -0.412599912813
478988000 0.597109096523 -0.414224393533
478998500 0.597102892693 -0.40873798324
479009000 0.597712925435 -0.412550421703
479019500 0.596402333446 -0.412322474382
479030000 0.598461353779 -0.412058119109
479040500 0.597312050763 -0.413645283321
479051000 0.597991272468 -0.411869627028
479061500 0.598112327371 -0.411283476996
479072000 0.598149350792 -0.412607574007
479082500 0.597938060861 -0.411489141891
479093000 0.598939677836 -0.41315384888
479103500 0.597603827588 -0.413301626815
479114000 0.595782582098 -0.412965150798
479124500 0.595725177748 -0.412466842665
479135000 0.596789917777 -0.413407199043
479145500 0.5970029799 -0.412933551888
479156000 0.597421479862 -0.411706025224
479166500 0.59616669285 -0.412990801236
479177000 0.596335839357 -0.414459563187
479187500 0.59819866805 -0.411635822896
479198000 0.599143475367 -0.413173054391
479208500 0.595821267509 -0.412265738052
479219000 0.599129238802 -0.4125273541
479229500 0.596966544211 -0.412268794887
479240000 0.595944740524 -0.413285579386
479250500 0.59815030029 -0.413745158309
479261000 0.595647243135 -0.412399615344
479271500 0.59690498273 -0.414278895985
479282000 0.596321359048 -0.41426872688
479292500 0.598627514366 -0.410745087739
479303000 0.598373244839 -0.415104817491
479313500 0.594602719515 -0.413071398888
479324000 0.596984390496 -0.413056857256
479334500 0.59647586605 -0.414660093466
479345000 0.597510456154 -0.41319412299
479355500 0.599003595186 -0.410684707141
479366000 0.595952129726 -0.411261130388
479376500 0.596146252613 -0.411298803504
479387000 0.596828791062 -0.413658886607
479397500 0.595583801522 -0.411651669185
479408000 0.596195267746 -0.411048309233
479418500 0.596970107615 -0.411793406764
479429000 0.595123061152 -0.41260000721
479439500 0.596089015831 -0.41089961904
479450000 0.597849206493 -0.411969710108
479460500 0.596971583198 -0.41265496475
479471000 0.595138464967 -0.413571317987
479481500 0.595955771354 -0.412876367583
479492000 0.59574246037 -0.411478505022
479502500 0.596341149689 -0.41093175007
479513000 0.595500467996 -0.413541082033
479523500 0.599361521414 -0.411567336945
479534000 0.595030229414 -0.412123372004
479544500 0.596309128299 -0.412575576012
479555000 0.595763982144 -0.412738263455
479565500 0.596320639693 -0.413364490312
479576000 0.596372074586 -0.412338800399
479586500 0.596191311953 -0.411885787908
479597000 0.595199280251 -0.412881153979
479607500 0.595977460846 -0.412313686522
479618000 0.596431289825 -0.412377800766
479628500 0.596232379864 -0.412312333095
479639000 0.597109966334 -0.412727109219
479649500 0.596537516654 -0.413115485955
479660000 0.596217833114 -0.412928957695
479670500 0.595576999981 -0.413439280761
479681000 0.597039992925 -0.412630446135
479691500 0.595282292096 -0.413257819289
479702000 0.596237803218 -0.412791291015
479712500 0.595552033518 -0.413065690828
479723000 0.59598665065 -0.412555095362
479733500 0.596375245661 -0.413360357696
479744000 0.596725538231 -0.413568867455
479754500 0.596701535937 -0.412955712336
479765000 0.596817534105 -0.412807666973
479775500 0.596261419428 -0.412944045276
479786000 0.596449974508 -0.413203705296
479796500 0.596282006363 -0.413257298987
479807000 0.596473156727 -0.412686443973
479817500 0.596377278273 -0.413045637282
479828000 0.596003395421 -0.413948476733
479838500 0.596468564079 -0.414408096742
479849000 0.596754561833 -0.414748884595
479859500 0.596446301302 -0.413683766896
479870000 0.595904087363 -0.413180498779
479880500 0.595840631798 -0.412402507222
479891000 0.59618692723 -0.413432010493
479901500 0.596263127938 -0.412864832309
479912000 0.595322921689 -0.412699274021
479922500 0.594708552404 -0.41395055439
479933000 0.595585357416 -0.413062849461
479943500 0.596399620608 -0.412873078656
479954000 0.597473609793 -0.412672085278
479964500 0.597621700685 -0.412846333127
479975000 0.596389482859 -0.41259602277
479985500 0.594629295675 -0.412548852574
479996000 0.595197693177 -0.412273709308
480006500 0.595675663496 -0.412641200871
480017000 0.595220268483 -0.41348045844
480027500 0.595915966795 -0.413516122335
480038000 0.594392018934 -0.413570488783
480048500 0.595820613222 -0.413477527564
480059000 0.595022469733 -0.412499756214
480069500 0.595445229416 -0.413106345722
480080000 0.595313630981 -0.413037193083
480090500 0.595278146379 -0.413192534245
480101000 0.59573312368 -0.413417286855
480111500 0.597550903345 -0.412978602057
480122000 0.596152063126 -0.414298382173
480132500 0.595634039849 -0.413362791735
480143000 0.596195379183 -0.413691141229
480153500 0.597046143413 -0.413259373092
480164000 0.59662553634 -0.413793487602
480174500 0.596538523381 -0.413410192213
480185000 0.595224775917 -0.412707198274
480195500 0.593809918949 -0.412696523841
480206000 0.594659658522 -0.412541475824
480216500 0.596081612419 -0.413618914887
480227000 0.593701501495 -0.412666114486
480237500 0.594870222469 -0.41333044009
480248000 0.59443169006 -0.412708070382
480258500 0.595296649425 -0.413281750736
480269000 0.595380152557 -0.413810464713
480279500 0.5941404416 -0.41330894339
480290000 0.595123831344 -0.412809237655
480300500 0.596253459079 -0.412906066241
480311000 0.59530993735 -0.413728098744
480321500 0.595522105035 -0.413898618914
480332000 0.594856976446 -0.413713174358
480342500 0.594754446326 -0.413316329141
480353000 0.594815225926 -0.413265496597
480363500 0.594678991519 -0.412762134135
480374000 0.595064105207 -0.412911599929
480384500 0.594648041538 -0.412940798794
480395000 0.594253686094 -0.413197670536
480405500 0.594868950192 -0.413682488355
480416000 0.594697541194 -0.413714491176
480426500 0.594755356002 -0.412864448217
480437000 0.594874639278 -0.413050829753
480447500 0.595325736928 -0.413334274826
480458000 0.595069078533 -0.413328619991
480468500 0.594807664316 -0.412658811427
480479000 0.594919615553 -0.412625289088
480489500 0.595111516376 -0.412991385016
480500000 0.594986917115 -0.412521453047
480510500 0.594885653687 -0.413178878631
480521000 0.595353590165 -0.412710425213
480531500 0.595379335357 -0.413192834869
480542000 0.594590329745 -0.412755869436
480552500 0.594494844652 -0.413468983764
480563000 0.594505851945 -0.412937598651
480573500 0.594986879932 -0.413452554438
480584000 0.594766649442 -0.412842068819
480594500 0.594067582448 -0.413021678262
480605000 0.593707275598 -0.412783560963
480615500 0.594605017932 -0.413227013288
480626000 0.593941342 -0.412207529486
480636500 0.594371236297 -0.412983333182
480647000 0.593458357232 -0.414270249891
480657500 0.595689362059 -0.41284022945
480668000 0.594211917467 -0.412961467093
480678500 0.594896988464 -0.414971928951
480689000 0.595282345155 -0.413484387464
480699500 0.594562287388 -0.413296006966
480710000 0.594757922264 -0.412271772625
480720500 0.594295931554 -0.413549226267
480731000 0.594638068063 -0.413280102482
480741500 0.594227030925 -0.413892806281
480752000 0.59541747541 -0.413341371662
480762500 0.592934957322 -0.414985243145
480773000 0.594406593194 -0.413480528194
480783500 0.594345970235 -0.413927032158
480794000 0.593100697587 -0.411692952084
480804500 0.594008286174 -0.413321263907
480815000 0.593676808821 -0.412898884988
480825500 0.594240637419 -0.413071383608
480836000 0.594693873718 -0.412860681139
480846500 0.595422856425 -0.412215996479
480857000 0.592796203847 -0.412837456462
480867500 0.59443538902 -0.413096019085
480878000 0.59402729553 -0.414745587421
480888500 0.593388168312 -0.413264764401
480899000 0.594260428964 -0.413990865913
480909500 0.593918474863 -0.413300803221
480920000 0.594326213279 -0.413189496972
480930500 0.593899628599 -0.413276799771
480941000 0.593327777844 -0.412966716128
480951500 0.593661537606 -0.412649700363
480962000 0.593620734245 -0.412606269493
480972500 0.592278194469 -0.411900956161
480983000 0.59267163506 -0.411796200794
480993500 0.591598858656 -0.412060337014
481004000 0.592904244806 -0.414947716365
481014500 0.592600933896 -0.41336115754
481025000 0.59284161168 -0.413695175702
481035500 0.593050359525 -0.413393984293
481046000 0.593239530661 -0.412764116853
481056500 0.593195685779 -0.412981154583
481067000 0.593120174132 -0.413889118014
481077500 0.593110822021 -0.41393799231
481088000 0.593374643593 -0.413051399604
481098500 0.593945985651 -0.413087721306
481109000 0.593130785545 -0.412633556545
481119500 0.593503131104 -0.412736660916
481130000 0.593080332617 -0.41298321555
481140500 0.593799148385 -0.41346474113
481151000 0.593753684604 -0.413671366622
481161500 0.593915811545 -0.415117497359
481172000 0.592972685007 -0.413051304927
481182500 0.59379050034 -0.411982785309
481193000 0.596035241941 -0.412197808981
481203500 0.592861256943 -0.412778359544
481214000 0.593334090237 -0.412687627268
481224500 0.593626321199 -0.414737389717
481235000 0.593301281911 -0.414243922411
481245500 0.592561225581 -0.416204789149
481256000 0.591788900925 -0.414091813509
481266500 0.592063860591 -0.414082755777
481277000 0.593311528904 -0.412872506033
481287500 0.592395262683 -0.413472375205
481298000 0.590580150871 -0.411734160079
481308500 0.59299493415 -0.412810134073
481319000 0.594121345439 -0.412811019507
481329500 0.593714986187 -0.413366523569
481340000 0.592611063675 -0.414231580827
481350500 0.592129660038 -0.413575040092
481361000 0.593498024325 -0.413035154866
481371500 0.59245037199 -0.412703453471
481382000 0.59325321312 -0.413832856858
481392500 0.591769569362 -0.413148512567
481403000 0.593714540872 -0.414096494235
481413500 0.592889509183 -0.413574367689
481424000 0.593636027449 -0.41373402925
481434500 0.593746229594 -0.412950857131
481445000 0.592282513117 -0.41345401008
481455500 0.593195749253 -0.41317597303
481466000 0.593378327629 -0.413598545284
481476500 0.593943660134 -0.414015136941
481487000 0.5934150125 -0.414530102058
481497500 0.593464112477 -0.413463504786
481508000 0.59299506074 -0.414757713276
481518500 0.593531535106 -0.414165493469
481529000 0.592922268097 -0.413603641651
481539500 0.593329905029 -0.414179546989
481550000 0.593090066826 -0.414581213279
481560500 0.593081700228 -0.414332615098
481571000 0.593545144204 -0.413765004197
481581500 0.593438513496 -0.414123333136
481592000 0.593889842118 -0.413632424946
481602500 0.593134864601 -0.413613358923
481613000 0.592994921477 -0.412350111109
481623500 0.5936408826 -0.412776809474
481634000 0.593114891099 -0.412477862714
481644500 0.592776414562 -0.413118037275
481655000 0.592754346907 -0.413940880689
481665500 0.591108277196 -0.413261279412
481676000 0.59340214639 -0.414616763316
481686500 0.59114766831 -0.413078490685
481697000 0.591635763821 -0.41422679745
481707500 0.592270096017 -0.417683202489
481718000 0.590738898885 -0.414514526026
481728500 0.590655995971 -0.415283411791
481739000 0.593842445925 -0.41392160656
481749500 0.592322109453 -0.414299700597
481760000 0.592462120847 -0.414817104616
481770500 0.591758082526 -0.41556058351
481781000 0.59357276548 -0.413035442871
481791500 0.594523418312 -0.413003099785
481802000 0.59371072306 -0.410290154293
481812500 0.591965508981 -0.412163467927
481823000 0.59267229936 -0.414091004414
481833500 0.593498820296 -0.413827440245
481844000 0.593184987981 -0.413971593134
481854500 0.593566556773 -0.414758475872
481865000 0.591719892123 -0.412203797543
481875500 0.59229982298 -0.413942269247
481886000 0.591513337525 -0.413206098713
481896500 0.592811666462 -0.413042017203
481907000 0.593081318041 -0.414319350248
481917500 0.592815698434 -0.412915234593
481928000 0.592884860567 -0.412895473259
481938500 0.591806575125 -0.413468762197
481949000 0.592913810827 -0.416126506266
481959500 0.592229709321 -0.41732133485
481970000 0.591782991337 -0.418079055589
481980500 0.59212664694 -0.417239548423
481991000 0.592526691123 -0.416412734297
482001500 0.592191685848 -0.414272970757
482012000 0.592481334649 -0.414543208974
482022500 0.592208351722 -0.413282003274
482033000 0.593445715152 -0.414969926911
482043500 0.590581647684 -0.413679687336
482054000 0.592765106758 -0.412683839294
482064500 0.590160219244 -0.415690814186
482075000 0.59187088187 -0.41647056915
482085500 0.593270566127 -0.413882258093
482096000 0.591394143759 -0.407797588933
482106500 0.592100139644 -0.413587933259
482117000 0.591326807878 -0.411137970621
482127500 0.592182846007 -0.415558656539
482138000 0.590546318765 -0.415005681306
482148500 0.59443039002 -0.41273820649
482159000 0.59505106277 -0.41734986647
482169500 0.590200904995 -0.413573641312
482180000 0.586564642943 -0.415834895864
482190500 0.593553433797 -0.415480491486
482201000 0.598956923886 -0.405144858848
482211500 0.596140036699 -0.41395123444
482222000 0.598537977282 -0.409225940042
482232500 0.59161219766 -0.408702278656
482243000 0.583733370989 -0.40523371534
482253500 0.596602102784 -0.417266298955
482264000 0.587853180504 -0.406352945635
482274500 0.594584893612 -0.410976249632
482285000 0.599417637351 -0.410282886999
482295500 0.585075987989 -0.413211919936
482306000 0.602559145746 -0.415145071688
482316500 0.599738699763 -0.413634080951
482327000 0.599555677521 -0.415753599634
482337500 0.587286939527 -0.408501306618
482348000 0.590128730781 -0.410669142084
482358500 0.586859334445 -0.420663272189
482369000 0.585393556212 -0.417753525387
482379500 0.590085490745 -0.410732419999
482390000 0.59957686129 -0.419963308846
482400500 0.583064769565 -0.398079166401
482411000 0.59621170579 -0.416673312302
482421500 0.596516490762 -0.409494604259
482432000 0.59382474563 -0.421724203867
482442500 0.586863451216 -0.407192946655
482453000 0.576483961 -0.411427945072
482463500 0.602007338884 -0.417435737472
482474000 0.578341322728 -0.412384165955
482484500 0.590401847507 -0.429806862591
482495000 0.581252865149 -0.414585143372
482505500 0.588863737492 -0.410070603827
482516000 0.606344234272 -0.412085574067
482526500 0.583962358495 -0.414359881783
482537000 0.588888019954 -0.420848225691
482547500 0.583045095423 -0.422615247586
482558000 0.588877034703 -0.406719744283
482568500 0.59536331756 -0.419826318526
482579000 0.584496134255 -0.429028648196
482589500 0.600002651155 -0.402443365024
482600000 0.592628964861 -0.41395185869
482610500 0.582183682834 -0.423065767485
482621000 0.594718665434 -0.406663509732
482631500 0.592015977946 -0.416849275599
482642000 0.576205022665 -0.41285139621
482652500 0.594775105834 -0.423570731989
482663000 0.596996907029 -0.399090760332
482673500 0.582197976698 -0.407650270915
482684000 0.586875863663 -0.415566326765
482694500 0.588458222343 -0.420841989275
482705000 0.596531695893 -0.41800883013
482715500 0.590406441399 -0.420979821869
482726000 0.588941868791 -0.420570854829
482736500 0.597970794344 -0.412197248523
482747000 0.595986073444 -0.417918797166
482757500 0.598698381412 -0.422528793892
482768000 0.594084337765 -0.415532266909
482778500 0.583956313795 -0.407129484204
482789000 0.597081157316 -0.425284954862
482799500 0.588257020286 -0.40739353192
482810000 0.593660384623 -0.41308109394
482820500 0.586853624134 -0.415237593824
482831000 0.581759242498 -0.413429363768
482841500 0.588894449903 -0.418646420453
482852000 0.590179306122 -0.417210500558
482862500 0.5865855397 -0.412755206188
482873000 0.590775256521 -0.414191255571
482883500 0.594841285091 -0.413463046491
482894000 0.582015904944 -0.417447507287
482904500 0.589382572508 -0.414839297016
482915000 0.595557470372 -0.414226400787
482925500 0.588945092864 -0.414069528375
482936000 0.587311636458 -0.416683099543
482946500 0.590347032387 -0.413922909161
482957000 0.591537636684 -0.415571264904
482967500 0.588597231892 -0.414353483358
482978000 0.590009173721 -0.413027050161
482988500 0.589801778772 -0.415109849442
482999000 0.591541491325 -0.414122238834
483009500 0.592363769604 -0.415227064641
483020000 0.589776179797 -0.415904569389
483030500 0.592582503436 -0.414889502245
483041000 0.59006065359 -0.415649399442
483051500 0.592219789605 -0.415543117185
483062000 0.591505272057 -0.414935950185
483072500 0.592155047664 -0.414198580692
483083000 0.591797145581 -0.415071860708
483093500 0.591874890066 -0.415486828726
483104000 0.588165004882 -0.413903377036
483114500 0.590888298274 -0.414958405022
483125000 0.589375984853 -0.415155723356
483135500 0.589390626997 -0.420239896977
483146000 0.591688066055 -0.418276966812
483156500 0.587134814629 -0.414175318645
483167000 0.58901952227 -0.417461562025
483177500 0.591184205783 -0.416929915058
483188000 0.589135265014 -0.4127765386
483198500 0.588414268635 -0.416422864443
483209000 0.591898468206 -0.41606835669
483219500 0.594257767323 -0.413212655895
483230000 0.588333054928 -0.416085078199
483240500 0.589908702863 -0.41486967963
483251000 0.590258617101 -0.415061910568
483261500 0.589441426563 -0.414753887486
483272000 0.586053036969 -0.415627451663
483282500 0.588153692837 -0.416029107098
483293000 0.590645371643 -0.417368855981
483303500 0.590400111984 -0.414430416428
483314000 0.588856009442 -0.412896457463
483324500 0.590727319267 -0.414177238906
483335000 0.59288423918 -0.415521246583
483345500 0.588951573456 -0.416984932404
483356000 0.585459214133 -0.417857144736
483366500 0.585552608524 -0.414838601703
483377000 0.588276833731 -0.415143220957
483387500 0.585814429209 -0.417025209604
483398000 0.588466432195 -0.413066955874
483408500 0.588002002862 -0.414993520518
483419000 0.587089150649 -0.41378216592
483429500 0.59043947287 -0.41530513085
483440000 0.588841318409 -0.41418575023
483450500 0.591013360106 -0.415752742971
483461000 0.588864763811 -0.416500431408
483471500 0.590792784044 -0.416763403736
483482000 0.589601308009 -0.416417476588
483492500 0.589622817484 -0.417169862127
483503000 0.592395843922 -0.416213368847
483513500 0.589474378674 -0.416585714057
483524000 0.59108819408 -0.415320000248
483534500 0.591290381708 -0.416005881766
483545000 0.590980747466 -0.41586000131
483555500 0.589825759326 -0.416095331845
483566000 0.588470610922 -0.415654606334
483576500 0.588845927649 -0.415682748913
483587000 0.587922487522 -0.416562251759
483597500 0.588717720058 -0.416551269668
483608000 0.589048672229 -0.414451313203
483618500 0.58951433256 -0.416392917137
483629000 0.588901521409 -0.416356001052
483639500 0.588649255557 -0.416625666334
483650000 0.588749230987 -0.416732669534
483660500 0.589764986006 -0.416616196316
483671000 0.589490854367 -0.416471213385
483681500 0.589630557272 -0.416116454906
483692000 0.58960756626 -0.416168333785
483702500 0.589107715709 -0.415865990326
483713000 0.588726083989 -0.41579315014
483723500 0.588842186651 -0.416023353372
483734000 0.588476896957 -0.416171458413
483744500 0.588757326812 -0.416401289054
483755000 0.58858423924 -0.416611058064
483765500 0.588321951665 -0.416159457702
483776000 0.588458558588 -0.416629978485
483786500 0.588258638356 -0.415592439087
483797000 0.588759552079 -0.41608508717
483807500 0.589092929305 -0.416351847715
483818000 0.588116243021 -0.41641531164
483828500 0.588808498056 -0.416174041402
483839000 0.588968480817 -0.416200052731
483849500 0.589325840375 -0.416194223881
483860000 0.589953607162 -0.416749665502
483870500 0.588446998136 -0.416979038134
483881000 0.587312101093 -0.415349302642
483891500 0.588114291211 -0.416452524882
483902000 0.587687910683 -0.415976751608
483912500 0.588107805899 -0.416222397129
483923000 0.588156822546 -0.417020033308
483933500 0.588773789628 -0.415796152699
483944000 0.587149995586 -0.41577066571
483954500 0.58868083307 -0.415324645259
483965000 0.588019775492 -0.416566964977
483975500 0.58764383428 -0.417818349364
483986000 0.588136527542 -0.416902521432
483996500 0.588086623304 -0.41725430171
484007000 0.588154570425 -0.416853164222
484017500 0.587834194186 -0.416185771657
484028000 0.587515960554 -0.416077160925
484038500 0.587409407894 -0.41559047452
484049000 0.586840379077 -0.416313672289
484059500 0.586631304259 -0.416216843351
484070000 0.588174955315 -0.416259908113
484080500 0.587621550906 -0.417132141376
484091000 0.588446914992 -0.416777346343
484101500 0.588009174714 -0.416522964356
484112000 0.587496013928 -0.416841234859
484122500 0.587757073861 -0.416023983225
484133000 0.587482060259 -0.415993183733
484143500 0.587501217658 -0.416461750491
484154000 0.5873238235 -0.416016658839
484164500 0.587121199797 -0.41676017558
484175000 0.587230502654 -0.417466989747
484185500 0.587358149527 -0.416509313373
484196000 0.587674268488 -0.416569318765
484206500 0.588155582361 -0.41639799762
484217000 0.588217662685 -0.416491812693
484227500 0.587913918135 -0.416990233739
484238000 0.587798799464 -0.416535342256
484248500 0.587741051369 -0.415945178848
484259000 0.587591393707 -0.416279661547
484269500 0.587231861991 -0.416439545094
484280000 0.587101852406 -0.416435923191
484290500 0.587042128723 -0.416290058076
484301000 0.58815012131 -0.416417249933
484311500 0.587154464001 -0.416326865323
484322000 0.587259556152 -0.416987048602
484332500 0.587414446746 -0.416946533774
484343000 0.587705453461 -0.417892830731
484353500 0.587739866899 -0.416898390938
484364000 0.587644144676 -0.417094653449
484374500 0.587473371419 -0.416269021558
484385000 0.587462580971 -0.416918934891
484395500 0.587781309013 -0.41713922958
484406000 0.587338257391 -0.416505382646
484416500 0.586867405885 -0.416680207369
484427000 0.586829688206 -0.417024171382
484437500 0.586914907029 -0.417075711714
484448000 0.587457885173 -0.417527291713
484458500 0.586203932841 -0.416367284207
484469000 0.586889423416 -0.416821883203
484479500 0.586924247864 -0.417267007596
484490000 0.587737335719 -0.415890250493
484500500 0.586696247644 -0.415867941208
484511000 0.586819665615 -0.416506303587
484521500 0.587031769241 -0.41733825849
484532000 0.587066466373 -0.41718001858
484542500 0.58668436928 -0.417456221141
484553000 0.587813353732 -0.417124155674
484563500 0.587001937216 -0.418419462911
484574000 0.586602195739 -0.416955058492
484584500 0.586164002436 -0.416762842788
484595000 0.585740702921 -0.417621592301
484605500 0.586513907421 -0.417764499592
484616000 0.585282247545 -0.417842543111
484626500 0.586597039178 -0.417127336781
484637000 0.58641068088 -0.417762792966
484647500 0.586489476558 -0.417077197309
484658000 0.586957684303 -0.417229418163
484668500 0.586458120801 -0.417057339934
484679000 0.587409806795 -0.417284039262
484689500 0.587356725776 -0.417463728107
484700000 0.587460576675 -0.41743433297
484710500 0.58775431956 -0.417345426255
484721000 0.58674586974 -0.417164659123
484731500 0.587100439772 -0.417050282487
484742000 0.586617690178 -0.417086306504
484752500 0.586096140583 -0.417618629555
484763000 0.586176281862 -0.417798336922
484773500 0.585696423964 -0.417517908477
484784000 0.585639297075 -0.417507449621
484794500 0.586314174419 -0.417512302495
484805000 0.586139128674 -0.417551223352
484815500 0.586309892376 -0.416751343069
484826000 0.586483760348 -0.417480308088
484836500 0.58669485483 -0.417235056344
484847000 0.585482622186 -0.416865195692
484857500 0.585992254392 -0.41735309781
484868000 0.585194413307 -0.417197521391
484878500 0.58486360202 -0.417059667737
484889000 0.585787221508 -0.417028985944
484899500 0.585848459139 -0.417506197592
484910000 0.585478025479 -0.417705438709
484920500 0.58609680022 -0.417550747342
484931000 0.585979506379 -0.416962871876
484941500 0.585865125522 -0.417316784036
484952000 0.585295178219 -0.416861227893
484962500 0.585574864661 -0.416774306875
484973000 0.586047567263 -0.416919040549
484983500 0.585790899552 -0.416573763238
484994000 0.586137083887 -0.416289186343
485004500 0.58529411536 -0.417217129047
485015000 0.585543812969 -0.41768874394
485025500 0.585071368691 -0.417818126576
485036000 0.585683637776 -0.417156304887
485046500 0.585468328794 -0.417948421154
485057000 0.585607718333 -0.417904392556
485067500 0.585951898038 -0.418388391128
485078000 0.585051880952 -0.418071791891
485088500 0.584933722236 -0.417696063121
485099000 0.584287563501 -0.41822999547
485109500 0.584647033231 -0.417924272942
485120000 0.584179051793 -0.418433668252
485130500 0.585340132545 -0.418461013627
485141000 0.585405820566 -0.417914098864
485151500 0.584989874486 -0.418138461476
485162000 0.585033899826 -0.417345290915
485172500 0.58503125719 -0.417848800757
485183000 0.585209032013 -0.417297585527
485193500 0.584377660777 -0.41793316591
485204000 0.584641509995 -0.417705063673
485214500 0.584594746883 -0.417008818956
485225000 0.584323023852 -0.417828497752
485235500 0.584875621772 -0.418150023285
485246000 0.585030724352 -0.418632812744
485256500 0.584788418267 -0.418631117219
485267000 0.58490671159 -0.418663134508
485277500 0.584325702141 -0.418925258857
485288000 0.585058267815 -0.419088090581
485298500 0.584785356568 -0.418696563143
485309000 0.585174177659 -0.418405369138
485319500 0.584623120655 -0.419189430766
485330000 0.584661985905 -0.419546797452
485340500 0.584142680956 -0.418353164301
485351000 0.583998292049 -0.418494976832
485361500 0.583832032103 -0.418123883233
485372000 0.584097626271 -0.418313638541
485382500 0.584249436723 -0.418491140182
485393000 0.583737251033 -0.418168643027
485403500 0.584063627965 -0.418680473015
485414000 0.583471976233 -0.41822438732
485424500 0.584378426407 -0.418550362663
485435000 0.583611864994 -0.416010724436
485445500 0.584886180349 -0.417309416755
485456000 0.582077672146 -0.418751276731
485466500 0.585604584967 -0.418873622305
485477000 0.58726565287 -0.415487539331
485487500 0.583159069957 -0.419383501761
485498000 0.583614833481 -0.417501654293
485508500 0.582593878936 -0.417988087244
485519000 0.583819647211 -0.418257621603
485529500 0.585023320025 -0.418672105225
485540000 0.586995895263 -0.417466779305
485550500 0.583405332653 -0.41641356033
485561000 0.580876595637 -0.424308137086
485571500 0.584708517588 -0.416659484859
485582000 0.584990184162 -0.419703590786
485592500 0.580487829277 -0.418085600288
485603000 0.582885004212 -0.418543152651
485613500 0.584345537749 -0.415763885732
485624000 0.591361661694 -0.425122987005
485634500 0.582309767941 -0.415886206591
485645000 0.590026635363 -0.418571347878
485655500 0.584901938688 -0.420254522903
485666000 0.583789557349 -0.420293101768
485676500 0.577410547315 -0.41485013757
485687000 0.584842952664 -0.416881996252
485697500 0.582644690712 -0.416722428548
485708000 0.584523593058 -0.414577041909
485718500 0.579769062256 -0.414607766674
485729000 0.581546618809 -0.420182824731
485739500 0.580432234582 -0.422396342906
485750000 0.575432309698 -0.420051607758
485760500 0.583384423817 -0.417518685655
485771000 0.584922515875 -0.412913353759
485781500 0.583708105519 -0.418549760522
485792000 0.583190285746 -0.418658702612
485802500 0.58075577655 -0.41865456564
485813000 0.583196953893 -0.423339683865
485823500 0.583986397947 -0.418375632262
485834000 0.584238761889 -0.417241237565
485844500 0.581935896656 -0.418566689206
485855000 0.582257646706 -0.418359596065
485865500 0.586828479935 -0.416594836711
485876000 0.583783298673 -0.419219205605
485886500 0.579782013667 -0.418046496087
485897000 0.585593593592 -0.416291840622
485907500 0.583134125673 -0.418256154767
485918000 0.584257800342 -0.418228501334
485928500 0.583917364376 -0.41980736436
485939000 0.584333746063 -0.420389236085
485949500 0.581916493084 -0.419510443552
485960000 0.583632246409 -0.419179065628
485970500 0.583542020808 -0.418842243757
485981000 0.585605587294 -0.419532243613
485991500 0.583421122953 -0.418469945608
486002000 0.583599128088 -0.419009790108
486012500 0.584359249696 -0.421199257265
486023000 0.586241398855 -0.417253984193
486033500 0.580403276619 -0.420965551411
486044000 0.584648995653 -0.430556982789
486054500 0.591337851641 -0.419820050215
486065000 0.570678803222 -0.420127013885
486075500 0.589891978243 -0.413402140703
486086000 0.574191558553 -0.427320513139
486096500 0.58351917643 -0.424421339802
486107000 0.574577312341 -0.411553415657
486117500 0.581879447813 -0.419928241206
486128000 0.574532954882 -0.40737171877
486138500 0.572866615379 -0.416407817392
486149000 0.575374068253 -0.417247914045
486159500 0.58062745638 -0.42227008749
486170000 0.573247336691 -0.425867277386
486180500 0.579284237579 -0.419593982987
486191000 0.579224135495 -0.430619616607
486201500 0.595992309836 -0.414429404781
486212000 0.597153088862 -0.411671493981
486222500 0.578139380503 -0.408753560529
486233000 0.568879903168 -0.401283886573
486243500 0.581385868446 -0.426876448951
486254000 0.574788085046 -0.416397345109
486264500 0.579771795572 -0.419034816961
486275000 0.574000418643 -0.421100427967
486285500 0.594778292676 -0.418136334113
486296000 0.583766294685 -0.404280986192
486306500 0.620839129689 -0.425380727152
486317000 0.579834392382 -0.412713892202
486327500 0.576353507465 -0.432344636765
486338000 0.581425997879 -0.404262540587
486348500 0.583401634852 -0.417652207825
486359000 0.584066810643 -0.418625942732
486369500 0.613636277712 -0.40545181647
486380000 0.565509705525 -0.427766177755
486390500 0.587834878526 -0.39658851022
486401000 0.568175079226 -0.393795844252
486411500 0.592874457752 -0.428354463336
486422000 0.56382940652 -0.412794573478
486432500 0.604736082349 -0.421686734033
486443000 0.58337647994 -0.390039385484
486453500 0.575039265418 -0.425149523912
486464000 0.553296288732 -0.42362327239
486474500 0.591264882859 -0.43411678071
486485000 0.592985050841 -0.437069982807
486495500 0.600565410822 -0.425597350406
486506000 0.585532847207 -0.415344464973
486516500 0.575669230513 -0.416604903298
486527000 0.612249409846 -0.412765228562
486537500 0.593955923871 -0.445565734154
486548000 0.572019967118 -0.420503376352
486558500 0.577578768651 -0.405787322682
486569000 0.601164333674 -0.429258995726
486579500 0.584780298628 -0.409800105539
486590000 0.585385046412 -0.407789436833
486600500 0.568570020956 -0.422884872907
486611000 0.587364043978 -0.403986732273
486621500 0.579357947275 -0.422121522112
486632000 0.585469020509 -0.408332847513
486642500 0.588421390989 -0.430821661795
486653000 0.557541307888 -0.435929425856
486663500 0.607614149224 -0.431096143942
486674000 0.59230438457 -0.426419013945
486684500 0.579289319063 -0.418465110083
486695000 0.601158426785 -0.42393492917
486705500 0.580880401809 -0.403096028735
486716000 0.579219325142 -0.424106833756
486726500 0.577919517709 -0.419398213816
486737000 0.585151291177 -0.412010478779
486747500 0.587920389998 -0.423521072424
486758000 0.575806721806 -0.420858637323
486768500 0.583222756404 -0.419462287899
486779000 0.565325394356 -0.412847376269
486789500 0.581164779136 -0.4206527646
486800000 0.576729761565 -0.43723289003
486810500 0.581133703945 -0.430314994108
486821000 0.580054604946 -0.416449371999
486831500 0.585964528135 -0.421546597595
486842000 0.575960311168 -0.408868400314
486852500 0.575439242129 -0.428655356626
486863000 0.585208741535 -0.417653653829
486873500 0.577033364813 -0.418917496001
486884000 0.568720983977 -0.41670138171
486894500 0.582613298786 -0.426730531366
486905000 0.579286122435 -0.421983959185
486915500 0.579667162322 -0.429753686682
486926000 0.577945689456 -0.423399513698
486936500 0.579103673982 -0.420528935756
486947000 0.580248291745 -0.418099192157
486957500 0.577989521265 -0.419344351125
486968000 0.581229882993 -0.416332662785
486978500 0.579201506278 -0.420842101891
486989000 0.581577863412 -0.422990670426
486999500 0.579161021976 -0.421506516277
487010000 0.580254172482 -0.419857028066
487020500 0.579195713753 -0.420911127001
487031000 0.579424568748 -0.421890281578
487041500 0.578410498768 -0.419636471474
487052000 0.578978119568 -0.421401621703
487062500 0.57965571226 -0.420609875205
487073000 0.580414488461 -0.421679707242
487083500 0.57778941513 -0.421139438434
487094000 0.579535128765 -0.420820343875
487104500 0.580672743106 -0.414760914046
487115000 0.579294388435 -0.421014432008
487125500 0.580993401355 -0.420872703725
487136000 0.578938515613 -0.420612447263
487146500 0.578836890035 -0.419914074803
487157000 0.576985331919 -0.419113462911
487167500 0.578289233287 -0.422439643598
487178000 0.579367880762 -0.41843105754
487188500 0.581878833982 -0.42266722566
487199000 0.580521479718 -0.418366241243
487209500 0.574829343217 -0.421557012651
487220000 0.576798759522 -0.423137800001
487230500 0.58026620666 -0.422614322642
487241000 0.580815012576 -0.422210221694
487251500 0.57983206995 -0.423265954209
487262000 0.57935650832 -0.422568192771
487272500 0.579960273406 -0.421784661058
487283000 0.57522143086 -0.416268142686
487293500 0.573892111189 -0.421755905559
487304000 0.578326069686 -0.420087663021
487314500 0.578389274798 -0.421692939174
487325000 0.575799738232 -0.423112768442
487335500 0.579407895628 -0.421521349709
487346000 0.575804177688 -0.419616776267
487356500 0.57955728277 -0.423361353515
487367000 0.577669501876 -0.419843622755
487377500 0.573817753489 -0.419775247695
487388000 0.580072638001 -0.42204587468
487398500 0.57690951424 -0.421641662791
487409000 0.578330756219 -0.41458249442
487419500 0.576425015452 -0.42141398173
487430000 0.576371631104 -0.41929414242
487440500 0.580471994507 -0.417436594871
487451000 0.57709060311 -0.422816051407
487461500 0.578958753271 -0.418843477844
487472000 0.573750859785 -0.419493331237
487482500 0.57685200951 -0.424988122972
487493000 0.565097201309 -0.431219865469
487503500 0.574652048266 -0.419044960648
487514000 0.573952036106 -0.417334785677
487524500 0.575121953145 -0.417858203284
487535000 0.578198029434 -0.419164953686
487545500 0.577871587385 -0.420757943211
487556000 0.577123222712 -0.420317646587
487566500 0.578001745795 -0.419860973338
487577000 0.578462570063 -0.420303840488
487587500 0.578295820283 -0.421618118461
487598000 0.577572776391 -0.421604691194
487608500 0.576873618127 -0.421164915087
487619000 0.577835646317 -0.421113723879
487629500 0.577034263609 -0.420713508843
487640000 0.577475364344 -0.420475966569
487650500 0.57720823798 -0.420770500349
487661000 0.577358516195 -0.421025730773
487671500 0.576509549878 -0.420796850274
487682000 0.577475024509 -0.42145766072
487692500 0.577688082708 -0.421333154604
487703000 0.577483860885 -0.421384016937
487713500 0.577974182693 -0.421145922969
487724000 0.577381755668 -0.420941333166
487734500 0.57759474439 -0.421349863916
487745000 0.577687148821 -0.419865569941
487755500 0.577488671293 -0.420840886126
487766000 0.577183892566 -0.421623340241
487776500 0.577009783262 -0.42057420007
487787000 0.577351977951 -0.421424212063
487797500 0.577578619976 -0.420797252695
487808000 0.577153123653 -0.422406542273
487818500 0.577474175665 -0.42203678276
487829000 0.576412490645 -0.421873272489
487839500 0.576922435749 -0.421059142236
487850000 0.576563991255 -0.421947220406
487860500 0.576306963935 -0.421431862509
487871000 0.576562488207 -0.420666336772
487881500 0.576293055816 -0.421442613177
487892000 0.576984268417 -0.420417684803
487902500 0.576420966497 -0.420526362476
487913000 0.576421492686 -0.420578019992
487923500 0.575384414923 -0.42072265045
487934000 0.576976554312 -0.421276982112
487944500 0.576905872183 -0.421059265763
487955000 0.576604684413 -0.421068787834
487965500 0.576887026068 -0.421022646357
487976000 0.575695824296 -0.421226209953
487986500 0.575791829155 -0.420929287629
487997000 0.576507956371 -0.420772653439
488007500 0.576540073081 -0.420567514725
488018000 0.5764189928 -0.420617942761
488028500 0.576118886903 -0.420617619772
488039000 0.575877052488 -0.421583345699
488049500 0.576392912914 -0.421005429119
488060000 0.576532235727 -0.420724726616
488070500 0.576606035343 -0.421027833753
488081000 0.576234259703 -0.421474472823
488091500 0.576456201646 -0.421972858935
488102000 0.576276040583 -0.421918862579
488112500 0.576209433431 -0.42172936065
488123000 0.575946625542 -0.421417604908
488133500 0.575865017038 -0.421299994586
488144000 0.575009000778 -0.421738937235
488154500 0.575741986519 -0.421525309191
488165000 0.576285218838 -0.421363426049
488175500 0.576488156465 -0.420940371138
488186000 0.576103671815 -0.421243143362
488196500 0.576038984201 -0.421238843963
488207000 0.576352449998 -0.42114601914
488217500 0.576409991136 -0.42180006441
488228000 0.575418498892 -0.421247488164
488238500 0.575189438998 -0.422546729235
488249000 0.575488324553 -0.422314904669
488259500 0.575432201763 -0.421328102571
488270000 0.575037759955 -0.421940423381
488280500 0.574997008843 -0.421181128268
488291000 0.574660229849 -0.42160148928
488301500 0.575296720537 -0.421520452893
488312000 0.575699380897 -0.422145301126
488322500 0.576217705506 -0.421981070824
488333000 0.575713050677 -0.422166738571
488343500 0.575151270803 -0.422007631021
488354000 0.575473433099 -0.422065470553
488364500 0.575256402177 -0.421934674345
488375000 0.575171673503 -0.42202145081
488385500 0.574953933271 -0.422009241005
488396000 0.574991679752 -0.421943213278
488406500 0.574664341509 -0.421646303071
488417000 0.574453150798 -0.422174779082
488427500 0.574765087161 -0.421274229805
488438000 0.574955519464 -0.422074787544
488448500 0.574949329809 -0.421864185378
488459000 0.574565460343 -0.421402710484
488469500 0.574004394227 -0.421535283214
488480000 0.5743850969 -0.421382994765
488490500 0.574073434866 -0.422451656358
488501000 0.573758483389 -0.42181263513
488511500 0.573977483357 -0.421250791398
488522000 0.573772015292 -0.421932739886
488532500 0.574409665665 -0.42152409418
488543000 0.573781643748 -0.421877344004
488553500 0.574255052829 -0.422492829261
488564000 0.574946097027 -0.422333582969
488574500 0.573842457605 -0.422237986117
488585000 0.574349455682 -0.422364447363
488595500 0.574516801481 -0.421771546284
488606000 0.574073739055 -0.421775292392
488616500 0.574768755451 -0.421908323227
488627000 0.574413516643 -0.421927944999
488637500 0.573770269055 -0.421483967145
488648000 0.574109469154 -0.421654815716
488658500 0.57423320346 -0.421966100793
488669000 0.574471742704 -0.422350874614
488679500 0.574222899756 -0.421776942663
488690000 0.574620715002 -0.421242188834
488700500 0.573980329396 -0.421529214434
488711000 0.574080776089 -0.421453523482
488721500 0.574107586039 -0.421643837228
488732000 0.573848178521 -0.422600566267
488742500 0.574359838447 -0.422257114984
488753000 0.574022222808 -0.422041294629
488763500 0.573919468778 -0.421958769236
488774000 0.573518436101 -0.422036540719
488784500 0.57368100953 -0.42223390871
488795000 0.573618602082 -0.421833211195
488805500 0.573253765197 -0.421698915453
488816000 0.573209261142 -0.422282643861
488826500 0.573598610856 -0.421656895478
488837000 0.574152992338 -0.42137633551
488847500 0.573647215109 -0.421634535829
488858000 0.573419899892 -0.421902415849
488868500 0.573125869529 -0.422493347843
488879000 0.573066775733 -0.422364798857
488889500 0.57373689642 -0.422932618677
488900000 0.573811829703 -0.422489262083
488910500 0.573124630935 -0.422453179009
488921000 0.573246756088 -0.422092568941
488931500 0.573169300053 -0.422095199073
488942000 0.572737875518 -0.422372355578
488952500 0.57477537727 -0.420298989503
488963000 0.573111978821 -0.42216690756
488973500 0.573075462358 -0.422678361743
488984000 0.573087134499 -0.422477856069
488994500 0.573030939181 -0.422515369748
489005000 0.572906017603 -0.422421689104
489015500 0.572893596953 -0.422565505725
489026000 0.57296786706 -0.42197746609
489036500 0.572793633838 -0.421387726813
489047000 0.572872072339 -0.422386634083
489057500 0.572752753929 -0.422230352849
489068000 0.572258420907 -0.423081769392
489078500 0.573140455484 -0.422088314668
489089000 0.572837042572 -0.422401113976
489099500 0.572909429943 -0.42206850806
489110000 0.572882745206 -0.422480078717
489120500 0.572671838636 -0.422366827591
489131000 0.572316787033 -0.422534226877
489141500 0.571892213477 -0.42269002918
489152000 0.571794932896 -0.422771546156
489162500 0.572237082018 -0.422539020007
489173000 0.572272808625 -0.423046011156
489183500 0.572675358942 -0.422471375284
489194000 0.572316201696 -0.422486151571
489204500 0.572422774895 -0.422612026558
489215000 0.571965781584 -0.423093011601
489225500 0.571561928985 -0.423209178463
489236000 0.572352420292 -0.422843245043
489246500 0.572659863092 -0.422613198489
489257000 0.571779382298 -0.423018123497
489267500 0.572088491107 -0.422303148722
489278000 0.572074333431 -0.421702661863
489288500 0.571981049173 -0.4225562401
489299000 0.572775805734 -0.42225712744
489309500 0.572191639255 -0.422140238003
489320000 0.572650068001 -0.421878639734
489330500 0.572269516414 -0.421892565229
489341000 0.57267055135 -0.421671067478
489351500 0.572163231387 -0.422445277257
489362000 0.572011201214 -0.422600925349
489372500 0.5721905201 -0.420960056784
489383000 0.571189740163 -0.421864774248
489393500 0.570941550131 -0.422207938443
489404000 0.571549101527 -0.422706151086
489414500 0.571487482284 -0.421944302505
489425000 0.571599919782 -0.422074214096
489435500 0.571951242358 -0.422526273268
489446000 0.57020992565 -0.422222456151
489456500 0.572988982144 -0.421638582426
489467000 0.571781488645 -0.42316774124
489477500 0.571255532544 -0.424081956668
489488000 0.571055299608 -0.423836486797
489498500 0.572257566148 -0.42219649177
489509000 0.573222379397 -0.422333748859
489519500 0.569824738544 -0.42289325062
489530000 0.571293606645 -0.421640120424
489540500 0.571005950412 -0.424114461271
489551000 0.570047280374 -0.422858509683
489561500 0.568693520351 -0.42214036957
489572000 0.571561813463 -0.423761524718
489582500 0.57085525611 -0.420777579737
489593000 0.571979815717 -0.42170586795
489603500 0.569851398244 -0.422692464713
489614000 0.572437270449 -0.420771049214
489624500 0.573160099904 -0.422007281356
489635000 0.571641568421 -0.423881621188
489645500 0.573540456534 -0.423463935622
489656000 0.574981970186 -0.424650230015
489666500 0.569262918514 -0.424141644866
489677000 0.571699256706 -0.422732039911
489687500 0.569360376247 -0.422017896519
489698000 0.572432062497 -0.424183171641
489708500 0.572659250341 -0.423027791963
489719000 0.56976927289 -0.424667662995
489729500 0.573137529051 -0.425664595506
489740000 0.573047324381 -0.421599572564
489750500 0.570510032734 -0.42373479664
489761000 0.571951133308 -0.424611783231
489771500 0.570862792097 -0.424446211357
489782000 0.569721076099 -0.423763572392
489792500 0.568082167918 -0.421514206217
489803000 0.569463793129 -0.424178356006
489813500 0.570706559685 -0.423649313575
489824000 0.57106214157 -0.418360174054
489834500 0.571965085404 -0.419716151385
489845000 0.571061309601 -0.419950076006
489855500 0.570652627081 -0.421022116941
489866000 0.569279351285 -0.422483949894
489876500 0.57099401789 -0.423234803482
489887000 0.568315684411 -0.422385258947
489897500 0.571662629948 -0.425218896426
489908000 0.570954429744 -0.42224842314
489918500 0.571582692765 -0.422115310612
489929000 0.56941700189 -0.421667801344
489939500 0.570108284717 -0.421675146155
489950000 0.570388725321 -0.423314420069
489960500 0.571113587858 -0.423053673886
489971000 0.56984804372 -0.422063175756
489981500 0.569278851456 -0.423061258826
489992000 0.569486440632 -0.422893531528
490002500 0.568990486873 -0.423336113945
490013000 0.5701951668 -0.423163640306
490023500 0.569573639804 -0.42345140928
490034000 0.569184144723 -0.423399231088
490044500 0.568760163031 -0.42290901362
490055000 0.568673839273 -0.423023014066
490065500 0.569343437941 -0.422987203462
490076000 0.568956578584 -0.422545424477
490086500 0.569937522849 -0.423015422652
490097000 0.568338459435 -0.423075413454
490107500 0.5684649094 -0.422966938084
490118000 0.569311893797 -0.423243697064
490128500 0.569288518723 -0.422278351532
490139000 0.56914908962 -0.422145048263
490149500 0.569263609867 -0.422496394298
490160000 0.570067919741 -0.423018441099
490170500 0.569592701495 -0.422184874668
490181000 0.569367355308 -0.423234178141
490191500 0.570336539954 -0.424221269884
490202000 0.565697556969 -0.4247679933
490212500 0.568996457381 -0.423115732237
490223000 0.570004310107 -0.422994715245
490233500 0.568157853769 -0.423967129167
490244000 0.568772644401 -0.422265373575
490254500 0.565990748892 -0.423182942185
490265000 0.567629339312 -0.42633937954
490275500 0.563068273986 -0.42897881706
490286000 0.568683769388 -0.423434114743
490296500 0.569366980786 -0.424153444992
490307000 0.568987488721 -0.418999234773
490317500 0.580397184958 -0.426950494739
490328000 0.573784882701 -0.419157963196
490338500 0.57591070209 -0.428361498348
490349000 0.583951970776 -0.422310256383
490359500 0.565678791446 -0.426869428063
490370000 0.567843581199 -0.416333687674
490380500 0.57025736224 -0.42108624784
490391000 0.568712207793 -0.42029277418
490401500 0.570668558657 -0.422845197391
490412000 0.575718640299 -0.431198339857
490422500 0.558879654128 -0.428224407015
490433000 0.568209151827 -0.421515300031
490443500 0.582365589153 -0.407389044274
490454000 0.563094016315 -0.426984277294
490464500 0.563656395827 -0.425966720483
490475000 0.574085208063 -0.4294395185
490485500 0.573224527938 -0.428896747303
490496000 0.561983303919 -0.415198085734
490506500 0.571059948827 -0.404688131461
490517000 0.573154976791 -0.421553226681
490527500 0.562911172 -0.42524543098
490538000 0.56892676102 -0.409994784486
490548500 0.570551636728 -0.423671659662
490559000 0.574573994558 -0.419648350164
490569500 0.559588474451 -0.422225598159
490580000 0.571031373393 -0.436286198791
490590500 0.567127148137 -0.422753415141
490601000 0.571677617417 -0.414768562305
490611500 0.571469430896 -0.419661255597
490622000 0.571043520629 -0.429267679889
490632500 0.566582604759 -0.424405155943
490643000 0.56835012924 -0.423189364085
490653500 0.570213222135 -0.420253543936
490664000 0.568157105286 -0.423755667537
490674500 0.566855655418 -0.423129623731
490685000 0.567462563159 -0.418288839032
490695500 0.571305767781 -0.427558393478
490706000 0.566761833408 -0.422721234802
490716500 0.573734772138 -0.427365665465
490727000 0.570454237124 -0.424618549978
490737500 0.574546368175 -0.420706314374
490748000 0.571609134967 -0.422532093278
490758500 0.572699530159 -0.423076718132
490769000 0.565489875498 -0.423418535579
490779500 0.567609261235 -0.423523418865
490790000 0.564565626057 -0.422197033147
490800500 0.566009761347 -0.422835550138
490811000 0.566431629834 -0.423182740435
490821500 0.566209190511 -0.422413098849
490832000 0.565272942658 -0.424025251108
490842500 0.566469373662 -0.42370859469
490853000 0.566559755713 -0.425097447362
490863500 0.565815125529 -0.423751356988
490874000 0.565022589568 -0.424553011282
490884500 0.566010201518 -0.423383091747
490895000 0.566563675904 -0.423477485025
490905500 0.565482701018 -0.423555729196
490916000 0.567019397685 -0.423780603255
490926500 0.567029268014 -0.42381481511
490937000 0.566625576462 -0.4240107201
490947500 0.566715184402 -0.424027658638
490958000 0.567521301106 -0.422862177661
490968500 0.566226219452 -0.423273770259
490979000 0.567380943201 -0.422300943082
490989500 0.566802886156 -0.423083268808
491000000 0.567110519582 -0.423508481107
491010500 0.565865090437 -0.423901827454
491021000 0.565846728768 -0.424260451134
491031500 0.566260513226 -0.423795927015
491042000 0.565321675797 -0.423196904953
491052500 0.567419757951 -0.424031669782
491063000 0.56555127263 -0.424103603052
491073500 0.565300830388 -0.422511075119
491084000 0.564857341124 -0.424075049024
491094500 0.567097055522 -0.423872885354
491105000 0.567687703028 -0.423873023118
491115500 0.566549764466 -0.42497627527
491126000 0.565788974998 -0.425327713431
491136500 0.567671140015 -0.422309095401
491147000 0.565082416535 -0.42219310632
491157500 0.567153230542 -0.42574111369
491168000 0.562937676941 -0.425397691275
491178500 0.564247932983 -0.423916807421
491189000 0.564474985439 -0.423071201202
491199500 0.564986767613 -0.423523760678
491210000 0.564587262151 -0.424485691626
491220500 0.564271549661 -0.424195769263
491231000 0.564322210654 -0.424809973018
491241500 0.565969811651 -0.422811510288
491252000 0.566330495941 -0.423028453633
491262500 0.564964977742 -0.423990385131
491273000 0.56511370819 -0.422462928399
491283500 0.56629114479 -0.425541370854
491294000 0.565583910862 -0.424878230177
491304500 0.56495464556 -0.425282521485
491315000 0.565086001284 -0.42475304989
491325500 0.565153636827 -0.424725296448
491336000 0.564016374579 -0.424962914495
491346500 0.565272000335 -0.423221918455
491357000 0.564307666883 -0.423379124101
491367500 0.564841401664 -0.421755887575
491378000 0.56487496961 -0.423167590581
491388500 0.567020165081 -0.425555243381
491399000 0.563568439603 -0.423694476901
491409500 0.565656830152 -0.423437278817
491420000 0.564519285188 -0.425986190772
491430500 0.564206325364 -0.424690694173
491441000 0.564072685238 -0.423925037128
491451500 0.563558012716 -0.422199219929
491462000 0.565182238442 -0.424800072282
491472500 0.562885516699 -0.422684346675
491483000 0.565145273597 -0.424717368596
491493500 0.562809943278 -0.424493244412
491504000 0.563304535109 -0.423914961296
491514500 0.563928777828 -0.42391119411
491525000 0.564178632399 -0.425056165145
491535500 0.564682170726 -0.422316258738
491546000 0.564705944578 -0.424885935641
491556500 0.563100197724 -0.4238187968
491567000 0.561321113277 -0.423577169387
491577500 0.563306626021 -0.424003082293
491588000 0.562851571093 -0.42493057442
491598500 0.563095853273 -0.424901382618
491609000 0.563511435212 -0.423467451456
491619500 0.563808456699 -0.423912080244
491630000 0.563499627591 -0.423384961413
491640500 0.564032564609 -0.424102743387
491651000 0.563604296731 -0.42440616154
491661500 0.563230716127 -0.423974872011
491672000 0.56372081243 -0.424198068417
491682500 0.56297370211 -0.423698682004
491693000 0.563526489616 -0.424109063221
491703500 0.56352127165 -0.423981913687
491714000 0.563182911445 -0.425851914559
491724500 0.562968876281 -0.423873534675
491735000 0.563012673382 -0.423756919369
491745500 0.563392665461 -0.423879830119
491756000 0.562981796179 -0.423923994303
491766500 0.563011726663 -0.424321632633
491777000 0.562886907998 -0.424412730068
491787500 0.563234418167 -0.423889985816
491798000 0.563112496864 -0.423631503742
491808500 0.562570549993 -0.423959882715
491819000 0.562884676237 -0.424074653911
491829500 0.562813266128 -0.424306301889
491840000 0.562094160014 -0.424092192796
491850500 0.562549336448 -0.423967006023
491861000 0.562944865886 -0.423348973155
491871500 0.563004606513 -0.423229092782
491882000 0.562269926528 -0.423585917178
491892500 0.561989795043 -0.423767836007
491903000 0.562635204271 -0.424352422425
491913500 0.562204478131 -0.423603402493
491924000 0.561915206621 -0.424513565386
491934500 0.562497072627 -0.424531131377
491945000 0.56191984445 -0.424162359499
491955500 0.562948676851 -0.424064070582
491966000 0.563232482415 -0.423682481012
491976500 0.563129167262 -0.423236998302
491987000 0.562340414877 -0.423835071293
491997500 0.562111627075 -0.423606658397
492008000 0.562438184778 -0.424020786572
492018500 0.561746061024 -0.424169510638
492029000 0.562057631558 -0.424272615942
492039500 0.561703980895 -0.424005598932
492050000 0.561135127362 -0.424797308139
492060500 0.561094775253 -0.424775812054
492071000 0.561965774881 -0.423893921168
492081500 0.561983110782 -0.425156733325
492092000 0.561533306974 -0.424451154533
492102500 0.561363166915 -0.424951513965
492113000 0.561636040421 -0.424300568761
492123500 0.561498707915 -0.424522107133
492134000 0.561873894486 -0.42512608612
492144500 0.561643462532 -0.424508291327
492155000 0.561828490769 -0.424998159259
492165500 0.561171909273 -0.42469605051
492176000 0.561118789077 -0.425159545648
492186500 0.561034688867 -0.424709622786
492197000 0.560987938872 -0.424626040296
492207500 0.560350258315 -0.424236909812
492218000 0.560441084558 -0.424655262474
492228500 0.560062499926 -0.424093195375
492239000 0.55960948468 -0.424386695787
492249500 0.56008630299 -0.424517883606
492260000 0.560477602783 -0.424557541602
492270500 0.561035509819 -0.424688262634
492281000 0.559915960583 -0.424054338848
492291500 0.560495094385 -0.424243977695
492302000 0.56064813506 -0.424175708413
492312500 0.560286634905 -0.424466266412
492323000 0.55985317635 -0.424768533855
492333500 0.560242404198 -0.42438949254
492344000 0.560662522882 -0.424391989467
492354500 0.560737477221 -0.42488206972
492365000 0.560230746693 -0.424777788802
492375500 0.560086972746 -0.424462754394
492386000 0.560241862118 -0.424673191734
492396500 0.560687526007 -0.424032731226
492407000 0.561529955609 -0.424120022719
492417500 0.560827958072 -0.423892057335
492428000 0.560689261543 -0.424247575059
492438500 0.559333219253 -0.424869214795
492449000 0.560239605976 -0.424357711633
492459500 0.559926266404 -0.424497702013
492470000 0.559554973337 -0.423865617063
492480500 0.559865466616 -0.42479052455
492491000 0.560519739614 -0.424465776948
492501500 0.560737251695 -0.423922265029
492512000 0.559920745435 -0.424204080388
492522500 0.559081316529 -0.423114678185
492533000 0.558981898394 -0.423870895942
492543500 0.559422092542 -0.42418584646
492554000 0.560236593748 -0.424163688998
492564500 0.559458473922 -0.42437730635
492575000 0.559562662983 -0.425344347027
492585500 0.559415244108 -0.423887388705
492596000 0.560419867308 -0.424151599596
492606500 0.559486501504 -0.422857453069
492617000 0.559556146323 -0.424991621497
492627500 0.560266820164 -0.424737770382
492638000 0.559826350238 -0.424417574041
492648500 0.559624068581 -0.425418058504
492659000 0.559413075409 -0.425309672913
492669500 0.559896128391 -0.425859988867
492680000 0.558625252271 -0.425191659347
492690500 0.55806844747 -0.424349747278
492701000 0.558901874333 -0.424246165669
492711500 0.558091422205 -0.425108579815
492722000 0.558069420809 -0.424867194311
492732500 0.558918659109 -0.424030651159
492743000 0.55915250436 -0.423483645544
492753500 0.560117137757 -0.42390916916
492764000 0.559401955489 -0.424391035916
492774500 0.559878926249 -0.424573265859
492785000 0.558796959882 -0.425014576206
492795500 0.559197691974 -0.425116124972
492806000 0.558853790254 -0.424928935253
492816500 0.559171115547 -0.425079788151
492827000 0.559401430181 -0.42576696959
492837500 0.559508517287 -0.425466730852
492848000 0.558859056038 -0.424741316464
492858500 0.558729281746 -0.424494804028
492869000 0.558094668991 -0.424869201483
492879500 0.557939655235 -0.424439522672
492890000 0.55830364428 -0.424516863059
492900500 0.558803511679 -0.424315051277
492911000 0.557141428617 -0.424894233288
492921500 0.557827145318 -0.424752182683
492932000 0.558289234656 -0.424248588282
492942500 0.558372793178 -0.42392789885
492953000 0.558122567096 -0.423711089437
492963500 0.557507455866 -0.423649684931
492974000 0.558064107719 -0.425219559752
492984500 0.556977964504 -0.424958613798
492995000 0.558391726367 -0.425269307651
493005500 0.557236457162 -0.425520590581
493016000 0.5571554148 -0.425600298531
493026500 0.557400493604 -0.424848583211
493037000 0.556068869276 -0.425436946801
493047500 0.556326690671 -0.424597550566
493058000 0.556667548874 -0.424797683588
493068500 0.55777316148 -0.425769149238
493079000 0.557135905084 -0.4249270652
493089500 0.556999710852 -0.424462077496
493100000 0.556829094091 -0.424483634751
493110500 0.556305478453 -0.424832781064
493121000 0.557410477241 -0.424271149462
493131500 0.557792509648 -0.424623140973
493142000 0.556594137745 -0.425578702692
493152500 0.557622956547 -0.424544110827
493163000 0.557753207339 -0.424723737847
493173500 0.556756529582 -0.424717978636
493184000 0.556766798259 -0.424110696403
493194500 0.555950130316 -0.42454825249
493205000 0.556286986486 -0.425272661469
493215500 0.555299238528 -0.424373813536
493226000 0.556863977654 -0.424386140657
493236500 0.556059983402 -0.424610012255
493247000 0.55599370782 -0.424620813219
493257500 0.556175557404 -0.424749795676
493268000 0.555635447796 -0.424526027275
493278500 0.556232034204 -0.424556723145
493289000 0.556033737877 -0.424735400695
493299500 0.55634215306 -0.424476976244
493310000 0.55647018867 -0.424302777036
493320500 0.557102864235 -0.424936918226
493331000 0.556734711482 -0.42464867244
493341500 0.556707673622 -0.425210047421
493352000 0.557036089821 -0.424322382653
493362500 0.556673583143 -0.424976266201
493373000 0.556662229555 -0.424881329323
493383500 0.555809637629 -0.425017902815
493394000 0.556502578196 -0.424981735092
493404500 0.556133094293 -0.424682831533
493415000 0.556710079156 -0.424381713547
493425500 0.555694611251 -0.424313067628
493436000 0.555921921175 -0.425667352919
493446500 0.557011048549 -0.424295088518
493457000 0.554237720878 -0.425056034661
493467500 0.560255638284 -0.42380601219
493478000 0.557864228776 -0.42574525044
493488500 0.555377371809 -0.425064654089
493499000 0.556282497911 -0.425132223253
493509500 0.557089673142 -0.423498220672
493520000 0.556601927988 -0.423256068203
493530500 0.555033144137 -0.423961643332
493541000 0.553831262368 -0.421062902761
493551500 0.558158159639 -0.423518858368
493562000 0.554207712576 -0.425306322617
493572500 0.555576120373 -0.422647083062
493583000 0.55343398891 -0.425579513738
493593500 0.554206417913 -0.426070616323
493604000 0.555263059377 -0.425084202319
493614500 0.55701997068 -0.423922651721
493625000 0.555308386275 -0.42331318848
493635500 0.556465267441 -0.420426652845
493646000 0.55555073852 -0.424586044854
493656500 0.55473854512 -0.425193381636
493667000 0.55085078888 -0.422138630522
493677500 0.555920205618 -0.42481396383
493688000 0.555753444055 -0.423846437676
493698500 0.549450467235 -0.423220785878
493709000 0.559374354155 -0.424029910457
493719500 0.557942318413 -0.423288055589
493730000 0.552847716234 -0.426080733197
493740500 0.552932200751 -0.425639854671
493751000 0.555255982218 -0.423579935355
493761500 0.556269547152 -0.425478834495
493772000 0.553640263989 -0.426841511728
493782500 0.554278426893 -0.424262075779
493793000 0.553098227941 -0.431407702847
493803500 0.553915850773 -0.424371745986
493814000 0.553526339847 -0.424429951154
493824500 0.550196841555 -0.425412007561
493835000 0.557286813143 -0.426776166916
493845500 0.553100054065 -0.425677441619
493856000 0.557921812359 -0.423797113674
493866500 0.554104339365 -0.427398658251
493877000 0.553437565988 -0.427494951538
493887500 0.555253160509 -0.424559455092
493898000 0.554725118608 -0.425155573381
493908500 0.553997027527 -0.425145260864
493919000 0.553202722625 -0.423322294916
493929500 0.550269246185 -0.427654566505
493940000 0.553665491685 -0.424912893217
493950500 0.552321636771 -0.423620217114
493961000 0.554204235949 -0.42636904028
493971500 0.553642024808 -0.424000114732
493982000 0.553302790987 -0.423597439661
493992500 0.55473985534 -0.425891855019
494003000 0.553270971146 -0.42580445817
494013500 0.555099213774 -0.423498091526
494024000 0.554652992764 -0.423777868488
494034500 0.552480106354 -0.426552243643
494045000 0.552444881783 -0.425732823773
494055500 0.559058831484 -0.421398410616
494066000 0.55214598292 -0.426104713006
494076500 0.553090235205 -0.423567807433
494087000 0.553066397118 -0.423462381962
494097500 0.556002209658 -0.424066515493
494108000 0.555971326168 -0.428792280804
494118500 0.540945220641 -0.419240930917
494129000 0.56099307799 -0.421546647256
494139500 0.54416149132 -0.427862028688
494150000 0.562560276431 -0.430204426663
494160500 0.549633161056 -0.418050874441
494171000 0.556598246646 -0.427539778428
494181500 0.54927088168 -0.423269881172
494192000 0.561827707053 -0.416373018807
494202500 0.554384694125 -0.435295469317
494213000 0.54782497623 -0.436822222231
494223500 0.551678750108 -0.430835763415
494234000 0.543015467405 -0.409787281325
494244500 0.529039746732 -0.443443411834
494255000 0.560611624551 -0.436076561786
494265500 0.561588008501 -0.436441055738
494276000 0.542162242742 -0.414533815219
494286500 0.543813826658 -0.425720583787
494297000 0.567077957921 -0.418505687944
494307500 0.552340616017 -0.430147711791
494318000 0.553865272004 -0.415358986405
494328500 0.537166515652 -0.407685967121
494339000 0.526791130739 -0.433020930067
494349500 0.534875051065 -0.420643068774
494360000 0.576658370689 -0.417781397708
494370500 0.54914373972 -0.415957051793
494381000 0.547749154615 -0.433250393757
494391500 0.559956684693 -0.442611470515
494402000 0.496754176188 -0.436669076392
494412500 0.575542871263 -0.41368860778
494423000 0.55936003281 -0.434248908298
494433500 0.539284436689 -0.406008043907
494444000 0.565715566612 -0.449143549191
494454500 0.549275721149 -0.426612207053
494465000 0.55136982497 -0.422382942435
494475500 0.564347953363 -0.418263810662
494486000 0.546238071057 -0.426319135772
494496500 0.56116411691 -0.442332073434
494507000 0.544675376641 -0.447347036419
494517500 0.532917927726 -0.437148129698
494528000 0.549216440909 -0.428950798997
494538500 0.55851228661 -0.408324391837
494549000 0.554088137358 -0.429151790972
494559500 0.55123132669 -0.458817064127
494570000 0.5413875452 -0.41407076801
494580500 0.525726153139 -0.409011256126
494591000 0.5713371206 -0.41005288278
494601500 0.560593521206 -0.418237768895
494612000 0.551948553972 -0.431742049215
494622500 0.556583054583 -0.424178457316
494633000 0.549210140181 -0.438899792437
494643500 0.588878023771 -0.420816120577
494654000 0.563715643958 -0.424283016065
494664500 0.54123628461 -0.408761048875
494675000 0.538972826935 -0.418014151869
494685500 0.566807077566 -0.422314201425
494696000 0.551780026556 -0.442268581333
494706500 0.534847403028 -0.425987092657
494717000 0.553375966573 -0.422947182785
494727500 0.543406224595 -0.426602351473
494738000 0.553718675333 -0.417455116921
494748500 0.560886238324 -0.424078823815
494759000 0.562285991256 -0.413284566468
494769500 0.548881384983 -0.437545492659
494780000 0.537776185321 -0.424480406797
494790500 0.562845676462 -0.426678473469
494801000 0.541697383377 -0.429353416105
494811500 0.550042626963 -0.415962872397
494822000 0.549226402305 -0.423251329436
494832500 0.569570507083 -0.42183976655
494843000 0.544269114401 -0.425154776737
494853500 0.548975644621 -0.424608219181
494864000 0.550770159746 -0.423122027621
494874500 0.551652527805 -0.421608945237
494885000 0.549481043433 -0.422133270256
494895500 0.547887549568 -0.428114098077
494906000 0.546196820206 -0.425487820265
494916500 0.548977442843 -0.419250429142
494927000 0.548295881826 -0.423446671201
494937500 0.547154268354 -0.426621882896
494948000 0.547596649834 -0.42201029317
494958500 0.550971516617 -0.425177469386
494969000 0.549891733066 -0.424878913102
494979500 0.548961652533 -0.42635371176
494990000 0.548718621265 -0.427326443731
495000500 0.547456965049 -0.425000330938
495011000 0.549040063586 -0.423593729466
495021500 0.549593676067 -0.424095143031
495032000 0.548617464029 -0.422744827924
495042500 0.545958764311 -0.421661196139
495053000 0.548606821887 -0.423134756689
495063500 0.548430429641 -0.422470632851
495074000 0.54908009605 -0.4255119432
495084500 0.550654171006 -0.425109710264
495095000 0.548244511037 -0.423962354472
495105500 0.545626434862 -0.423940875138
495116000 0.549147734591 -0.424808997244
495126500 0.547897262221 -0.422232516423
495137000 0.546187285851 -0.424821737528
495147500 0.550124177458 -0.424345238794
495158000 0.548645330367 -0.426169593171
495168500 0.549617976708 -0.426462929886
495179000 0.545853086206 -0.425067319804
495189500 0.547191802281 -0.426981338425
495200000 0.550020485183 -0.428318118
495210500 0.549564878464 -0.426514531203
495221000 0.547421664362 -0.427477199549
495231500 0.545361290924 -0.424213958479
495242000 0.549035477555 -0.427187285816
495252500 0.550296710698 -0.42407601328
495263000 0.548668637514 -0.425332900852
495273500 0.545714749927 -0.423062344382
495284000 0.54782950103 -0.426380160336
495294500 0.549491025801 -0.422531239322
495305000 0.550592994679 -0.422112438122
495315500 0.550650395884 -0.420451419814
495326000 0.547224102757 -0.423659124627
495336500 0.551118426283 -0.422858698763
495347000 0.549464987181 -0.42368726978
495357500 0.547417942677 -0.423695890158
495368000 0.548502351948 -0.423039576611
495378500 0.543690730766 -0.421191720326
495389000 0.548143217082 -0.427400867642
495399500 0.547489396716 -0.422182508924
495410000 0.547243583653 -0.42480886032
495420500 0.547228604717 -0.424435433559
495431000 0.54662759673 -0.424495636745
495441500 0.545628682262 -0.424665378738
495452000 0.546549140446 -0.422877302057
495462500 0.544440681835 -0.424906365999
495473000 0.54815582334 -0.424574928028
495483500 0.546841310645 -0.423677995652
495494000 0.546239424892 -0.423060121421
495504500 0.546321920438 -0.423372415407
495515000 0.545894545168 -0.425623649614
495525500 0.547889251184 -0.424816082892
495536000 0.545274959721 -0.424768194447
495546500 0.546023250984 -0.424107834773
495557000 0.545942174232 -0.424748740808
495567500 0.546500611502 -0.424756425399
495578000 0.5467225017 -0.424418679999
495588500 0.546467668503 -0.424682957806
495599000 0.546318175879 -0.424287075331
495609500 0.546205817897 -0.423669112223
495620000 0.546316658894 -0.424599136478
495630500 0.54616090693 -0.424100990401
495641000 0.546203055028 -0.424155551492
495651500 0.546334523169 -0.423847310063
495662000 0.54592955436 -0.424413273054
495672500 0.546300629047 -0.424224352746
495683000 0.546397497118 -0.423835773022
495693500 0.546080116079 -0.424206476821
495704000 0.546054206612 -0.424399108171
495714500 0.54661041752 -0.42429428126
495725000 0.546664700485 -0.424097906088
495735500 0.546321155188 -0.423906494008
495746000 0.546778189696 -0.424232003675
495756500 0.545831223696 -0.424281651519
495767000 0.545859986641 -0.424414473789
495777500 0.545793243344 -0.423562496765
495788000 0.545781691646 -0.424258826167
495798500 0.545807979684 -0.424432911842
495809000 0.545115098896 -0.423968114959
495819500 0.545318222102 -0.424126530121
495830000 0.545903077922 -0.423546938881
495840500 0.546185249673 -0.424034713056
495851000 0.546343825497 -0.42406079642
495861500 0.546014208878 -0.424126905158
495872000 0.545388970119 -0.424296374209
495882500 0.544546114182 -0.424438374387
495893000 0.544384022971 -0.424271114145
495903500 0.544018836036 -0.424880190494
495914000 0.544283222218 -0.425189560991
495924500 0.544522983278 -0.425426754187
495935000 0.544423199342 -0.424845780299
495945500 0.545391137936 -0.425068160456
495956000 0.544907867886 -0.424095175794
495966500 0.54573510096 -0.424313826905
495977000 0.545081364348 -0.424247695515
495987500 0.545033055341 -0.423642528581
495998000 0.54562076785 -0.424265100238
496008500 0.544732196829 -0.42400418544
496019000 0.544459406166 -0.424516367519
496029500 0.543857249189 -0.424399704296
496040000 0.544038187202 -0.424581907248
496050500 0.544386320769 -0.424140252052
496061000 0.544228401644 -0.424756902431
496071500 0.544159349909 -0.424567664425
496082000 0.543369595572 -0.424372333889
496092500 0.543380195446 -0.424275687556
496103000 0.543566352345 -0.424545367125
496113500 0.54376350223 -0.423995841104
496124000 0.543299435261 -0.424234136794
496134500 0.543629955091 -0.424788103271
496145000 0.543194775873 -0.424183044099
496155500 0.543447247919 -0.424107346876
496166000 0.543830461219 -0.425052956114
496176500 0.543256416641 -0.424607262921
496187000 0.54369248228 -0.4247905197
496197500 0.543739685953 -0.424606269578
496208000 0.544408151173 -0.424368119917
496218500 0.542863334098 -0.424458277658
496229000 0.543445517961 -0.423991707311
496239500 0.543682393822 -0.424390650219
496250000 0.543466429494 -0.42417147262
496260500 0.54336352172 -0.424097653068
496271000 0.543038778023 -0.42358855747
496281500 0.543041587344 -0.424477491384
496292000 0.542597580613 -0.423887978943
496302500 0.542923774695 -0.424096812128
496313000 0.54314584385 -0.42431987474
496323500 0.543730274155 -0.424351401708
496334000 0.543025414928 -0.424486665019
496344500 0.542992857351 -0.424122138869
496355000 0.542322626588 -0.42381893713
496365500 0.542316912949 -0.423826270435
496376000 0.54215194537 -0.423649827214
496386500 0.541990603104 -0.424019733227
496397000 0.542264233065 -0.424996812865
496407500 0.54229127922 -0.425295558295
496418000 0.542703155986 -0.42463709167
496428500 0.542811461853 -0.424338816898
496439000 0.542069206457 -0.423930504842
496449500 0.5421027223 -0.423941700104
496460000 0.541855167867 -0.424221363542
496470500 0.542418389792 -0.424063186251
496481000 0.541931993649 -0.42374686267
496491500 0.542016468993 -0.423716465359
496502000 0.542602726463 -0.424298385273
496512500 0.542835242773 -0.424494119149
496523000 0.542744030085 -0.424063226692
496533500 0.54265326657 -0.424093170163
496544000 0.541894680335 -0.423910117567
496554500 0.541951002129 -0.424180995563
496565000 0.54134236249 -0.424246279265
496575500 0.540873011319 -0.424685387847
496586000 0.540831202195 -0.424453127819
496596500 0.541486847 -0.423980665105
496607000 0.541931922381 -0.423796628015
496617500 0.542159371168 -0.423644506801
496628000 0.541586476956 -0.423842318776
496638500 0.541380545971 -0.424128585166
496649000 0.542002573484 -0.424522378176
496659500 0.541538242003 -0.423292242664
496670000 0.541390066316 -0.423568728043
496680500 0.541681931836 -0.423823168778
496691000 0.541360235399 -0.424050460774
496701500 0.541401682145 -0.424121378036
496712000 0.541015418956 -0.423872941966
496722500 0.540776760431 -0.423889107176
496733000 0.540755012819 -0.423738539788
496743500 0.540290854464 -0.423798447339
496754000 0.539832644208 -0.424268440691
496764500 0.539449972358 -0.424926621331
496775000 0.538831127665 -0.425523264972
496785500 0.538810199866 -0.424914006286
496796000 0.539559713476 -0.424226683389
496806500 0.540142444082 -0.423841118314
496817000 0.54038845338 -0.423732761732
496827500 0.539999559351 -0.423918803009
496838000 0.540181877919 -0.423297816865
496848500 0.540094421152 -0.423391201431
496859000 0.540471439324 -0.423153772357
496869500 0.540224540613 -0.423400555369
496880000 0.539879273663 -0.424028632814
496890500 0.539058478376 -0.423493376111
496901000 0.539625027613 -0.424078585822
496911500 0.539655880434 -0.424381041108
496922000 0.539281246182 -0.423575265903
496932500 0.539888649073 -0.423695626161
496943000 0.540365904696 -0.424005522717
496953500 0.540090171128 -0.423378254906
496964000 0.539841271771 -0.423603652347
496974500 0.539255758269 -0.4237629198
496985000 0.538733505184 -0.423308169911
496995500 0.539291006112 -0.423750880685
497006000 0.539098644769 -0.423586261908
497016500 0.539023505997 -0.423520364732
497027000 0.539387350578 -0.423703724533
497037500 0.539497568933 -0.4239983456
497048000 0.534947598449 -0.426247919883
497058500 0.539043856754 -0.423666780378
497069000 0.538631342213 -0.423714686618
497079500 0.538243739765 -0.423375957625
497090000 0.538266256239 -0.423481784483
497100500 0.538767781465 -0.423414413227
497111000 0.538749170595 -0.423795333664
497121500 0.538675580053 -0.423453583193
497132000 0.538759229648 -0.423057363014
497142500 0.53854634156 -0.423319411667
497153000 0.538065585211 -0.423861061279
497163500 0.538498602098 -0.423154943933
497174000 0.538985559293 -0.423427116036
497184500 0.539174702502 -0.423510275084
497195000 0.538800737825 -0.423306155801
497205500 0.538319030948 -0.423513841078
497216000 0.538152690553 -0.42348080495
497226500 0.538761017167 -0.423136802755
497237000 0.539143358438 -0.421334687602
497247500 0.538141256201 -0.423502765312
497258000 0.53830773963 -0.422837732532
497268500 0.537888415509 -0.422872860854
497279000 0.538236239193 -0.423732171823
497289500 0.538285842684 -0.423177428506
497300000 0.538620649217 -0.42331880316
497310500 0.538040377075 -0.423352641584
497321000 0.538292707177 -0.423516874801
497331500 0.537799886889 -0.422824498456
497342000 0.537880763686 -0.422528637944
497352500 0.537245753953 -0.423145886685
497363000 0.53842642744 -0.423084947791
497373500 0.53808403195 -0.422823237213
497384000 0.537781212506 -0.423400589689
497394500 0.53731246742 -0.423482545785
497405000 0.537251536115 -0.423120612975
497415500 0.537612559641 -0.423234911209
497426000 0.537935493944 -0.423090952988
497436500 0.538117181511 -0.422482666745
497447000 0.537192300891 -0.423287831975
497457500 0.537166047464 -0.42296629468
497468000 0.53741045965 -0.422770050106
497478500 0.537193296599 -0.423239597986
497489000 0.537386753997 -0.42297766128
497499500 0.537753186153 -0.422909851429
497510000 0.537086888243 -0.423390219323
497520500 0.536877349156 -0.422846220566
497531000 0.537074638736 -0.422301702821
497541500 0.536667560769 -0.422572523192
497552000 0.537017041642 -0.422720522402
497562500 0.535935963979 -0.422438427233
497573000 0.536576941961 -0.423171858129
497583500 0.536392812474 -0.422842432184
497594000 0.536843153359 -0.422736576759
497604500 0.536385278929 -0.422553651762
497615000 0.536586618953 -0.42254515629
497625500 0.536211558222 -0.422361289606
497636000 0.535531571665 -0.422335307919
497646500 0.53594592967 -0.422418891076
497657000 0.535979421192 -0.423172423722
497667500 0.535970367753 -0.422850931852
497678000 0.5359143646 -0.422742123116
497688500 0.53556918465 -0.42300684945
497699000 0.535661976854 -0.423351040886
497709500 0.535333354815 -0.422533702397
497720000 0.535787082542 -0.421854685615
497730500 0.535678791531 -0.422394246537
497741000 0.535569286569 -0.422226841495
497751500 0.535202885841 -0.422416726661
497762000 0.535954502065 -0.422176225364
497772500 0.534795724727 -0.421289128197
497783000 0.53569617067 -0.421757852591
497793500 0.535672955584 -0.422669697748
497804000 0.536243770268 -0.422465208032
497814500 0.534971336644 -0.423093980261
497825000 0.535245229926 -0.422817019991
497835500 0.535288474866 -0.422691320118
497846000 0.535280216707 -0.423154103942
497856500 0.534529156712 -0.422868893947
497867000 0.53460522127 -0.422648617613
497877500 0.534296464116 -0.422584738104
497888000 0.535017367169 -0.42237262138
497898500 0.535579557905 -0.421965750879
497909000 0.534981653255 -0.4225213716
497919500 0.535234969269 -0.422349319154
497930000 0.53416086199 -0.422186846076
497940500 0.534007187018 -0.422141430688
497951000 0.533209168223 -0.42215372494
497961500 0.534256540425 -0.42169827486
497972000 0.534163088643 -0.422878308148
497982500 0.533968732355 -0.422831038956
497993000 0.533633762768 -0.422671814696
498003500 0.534919743262 -0.421879189274
498014000 0.535087699542 -0.421993135841
498024500 0.533659255646 -0.422147083019
498035000 0.534775107876 -0.421384544304
498045500 0.53365700946 -0.422564026678
498056000 0.534186032786 -0.422566517912
498066500 0.533756663541 -0.422066180666
498077000 0.534064936764 -0.422847373391
498087500 0.533276776214 -0.421192612869
498098000 0.533838511373 -0.42194499074
498108500 0.53423417371 -0.421402641289
498119000 0.533577322467 -0.421955883967
498129500 0.53325071349 -0.422207217621
498140000 0.533601426605 -0.422672946711
498150500 0.533770349314 -0.422475547887
498161000 0.533945224814 -0.422469863873
498171500 0.53404490485 -0.422067563063
498182000 0.532048873923 -0.422357273259
498192500 0.532541639033 -0.421541809792
498203000 0.532245051479 -0.422060073034
498213500 0.533260156204 -0.421884664645
498224000 0.533518387776 -0.42160641345
498234500 0.533499933504 -0.422226060998
498245000 0.534087389259 -0.422561391832
498255500 0.532780807135 -0.422270473087
498266000 0.532281769143 -0.420919930249
498276500 0.532849072596 -0.420301433134
498287000 0.53496670308 -0.419104816806
498297500 0.535370172255 -0.416168860695
498308000 0.534426685295 -0.419762381826
498318500 0.528785095536 -0.421868040608
498329000 0.530351111147 -0.427898296442
498339500 0.528865203255 -0.425744265519
498350000 0.531733042776 -0.422893805409
498360500 0.532010725934 -0.421760729383
498371000 0.531616994827 -0.420520142836
498381500 0.532576018511 -0.421065393329
498392000 0.532671316528 -0.421703790037
498402500 0.532040160442 -0.422490784193
498413000 0.532566300204 -0.421253560463
498423500 0.532775219738 -0.421488006451
498434000 0.531219588821 -0.421416234839
498444500 0.531140423719 -0.418497612434
498455000 0.530062373838 -0.422845594189
498465500 0.53452693052 -0.423165557974
498476000 0.531283107306 -0.421826740469
498486500 0.5323565645 -0.420804394923
498497000 0.533424617539 -0.424799623638
498507500 0.532450095332 -0.425001704481
498518000 0.529913988684 -0.422989271465
498528500 0.533068551081 -0.419871119021
498539000 0.530960006662 -0.42033651752
498549500 0.530230977846 -0.423544648377
498560000 0.533395979337 -0.421782505366
498570500 0.531539733984 -0.419886909234
498581000 0.534589215802 -0.420641577468
498591500 0.526949476475 -0.418087626665
498602000 0.531042307609 -0.42161031998
498612500 0.529776726765 -0.4193396291
498623000 0.531716923709 -0.418662035819
498633500 0.528938829665 -0.418219692015
498644000 0.534279127092 -0.421773922299
498654500 0.529545467069 -0.420173202326
498665000 0.529895086221 -0.420432304151
498675500 0.531516292684 -0.420833452033
498686000 0.530698533421 -0.414023221676
498696500 0.533229637816 -0.422832007936
498707000 0.529340509888 -0.415845486316
498717500 0.53257599817 -0.424818935658
498728000 0.53259378599 -0.422176455567
498738500 0.527996156419 -0.421722169488
498749000 0.52551683786 -0.417079090325
498759500 0.530051302508 -0.426206918342
498770000 0.528952106889 -0.418360050268
498780500 0.526964320446 -0.413485222444
498791000 0.526234841874 -0.416040982636
498801500 0.531569880931 -0.417642550034
498812000 0.530186108572 -0.418664990775
498822500 0.530112481418 -0.421239263413
498833000 0.532721929199 -0.417991412751
498843500 0.528187331337 -0.421037038
498854000 0.528519547491 -0.418880031995
498864500 0.529080207517 -0.420331531728
498875000 0.532301836152 -0.419977618413
498885500 0.527258805828 -0.420393445921
498896000 0.530386787932 -0.422229566908
498906500 0.52879160513 -0.41860051624
498917000 0.529712206452 -0.421400365795
498927500 0.531194243975 -0.420710849677
498938000 0.529041841149 -0.420108326553
498948500 0.530258838058 -0.421169061263
498959000 0.531792368759 -0.420033140298
498969500 0.529415248982 -0.419925104536
498980000 0.530002951273 -0.42187529719
498990500 0.528768044411 -0.41943718119
499001000 0.529087663054 -0.421253756073
499011500 0.528718663004 -0.419647241514
499022000 0.529438503005 -0.420666520321
499032500 0.530541234831 -0.421180817707
499043000 0.528365180941 -0.42080988254
499053500 0.529648512253 -0.421273666989
499064000 0.529765814519 -0.420554842309
499074500 0.527450467761 -0.419873622307
499085000 0.526791382151 -0.422803906098
499095500 0.526151422317 -0.418950940656
499106000 0.528557164039 -0.419579184464
499116500 0.522221706419 -0.417114650388
499127000 0.530311712546 -0.420680074182
499137500 0.527751191859 -0.420489044079
499148000 0.537478562862 -0.416993063611
499158500 0.523317602077 -0.425136962282
499169000 0.529500604861 -0.420336807434
499179500 0.534439590068 -0.417700680621
499190000 0.52976675725 -0.40354136617
499200500 0.545058192129 -0.434946123851
499211000 0.523174291473 -0.417004582417
499221500 0.52256538409 -0.412980595111
499232000 0.52662891979 -0.417951655499
499242500 0.532107767809 -0.418569439701
499253000 0.513419005953 -0.411906214076
499263500 0.527815957544 -0.42197830186
499274000 0.541496573499 -0.422685385721
499284500 0.526468647686 -0.423629718733
499295000 0.526188832072 -0.421932885566
499305500 0.513836760943 -0.400510737611
499316000 0.521882060393 -0.422923421211
499326500 0.506942636336 -0.408594287172
499337000 0.525822579061 -0.41809727084
499347500 0.527662745157 -0.42474716531
499358000 0.526563006155 -0.438950901969
499368500 0.521840320027 -0.420863357475
499379000 0.531808279026 -0.40435916637
499389500 0.517825257372 -0.420179401699
499400000 0.508669069074 -0.44689077808
499410500 0.537436145161 -0.42027729859
499421000 0.51989122252 -0.41020952973
499431500 0.528993779778 -0.441586734209
499442000 0.530077272928 -0.409175414479
499452500 0.53003435368 -0.424441355534
499463000 0.49252287043 -0.381843923185
499473500 0.533673891458 -0.438191146717
499484000 0.520022476868 -0.402150378785
499494500 0.525752103113 -0.406506471663
499505000 0.547020204347 -0.426082869212
499515500 0.518753185329 -0.432326321629
499526000 0.516336064556 -0.437384625411
499536500 0.52234091511 -0.406598580663
499547000 0.55805967679 -0.423933314926
499557500 0.513895028234 -0.408727149142
499568000 0.494198860263 -0.442540805449
499578500 0.533197617675 -0.423266548226
499589000 0.504885085671 -0.400425683466
499599500 0.523385253948 -0.41868747333
499610000 0.532583436527 -0.411711269473
499620500 0.523971260514 -0.418987045102
499631000 0.535140029841 -0.432296937457
499641500 0.536646632405 -0.417536848538
499652000 0.529150945345 -0.438506752462
499662500 0.527457939285 -0.421938225986
499673000 0.520482991676 -0.424321914817
499683500 0.524163535515 -0.41986341287
499694000 0.51681756122 -0.422400896716
499704500 0.525399466304 -0.416617468429
499715000 0.526079741699 -0.429380223535
499725500 0.527018267631 -0.42050011898
499736000 0.53162575044 -0.41087364226
499746500 0.531721395417 -0.416163038683
499757000 0.527002803464 -0.417370595329
499767500 0.519363332374 -0.41562115069
499778000 0.523524766691 -0.419586523572
499788500 0.519324394777 -0.419391601113
499799000 0.529887713104 -0.407504507407
499809500 0.528286725633 -0.417139480985
499820000 0.523705252463 -0.417992113425
499830500 0.527640401328 -0.415952918692
499841000 0.532978390293 -0.420649456034
499851500 0.528201749278 -0.416641016704
499862000 0.52467179398 -0.41825393745
499872500 0.521990111771 -0.416716692314
499883000 0.524660605677 -0.41903656549
499893500 0.523858447246 -0.415114938252
499904000 0.524870910546 -0.417286240011
499914500 0.526190682023 -0.418946283086
499925000 0.52478400606 -0.417528878629
499935500 0.523774528023 -0.416676793645
499946000 0.523853207286 -0.418672530286
499956500 0.526050130308 -0.418410879303
499967000 0.524703334436 -0.417360030987
499977500 0.524246280388 -0.417401111667
499988000 0.524636380967 -0.417238252696
499998500 0.525246866849 -0.418366504469
500009000 0.524617731253 -0.417267839281
500019500 0.524727239018 -0.417031412786
500030000 0.524085510985 -0.41747722771
500040500 0.523615282771 -0.417054965685
500051000 0.523124062752 -0.416980782581
500061500 0.524067199142 -0.417547933913
500072000 0.524051304494 -0.416642704404
500082500 0.525323582663 -0.417257041961
500093000 0.522980059003 -0.415767444207
500103500 0.526100291127 -0.417286429966
500114000 0.521625773467 -0.418062510507
500124500 0.523590323288 -0.41765338247
500135000 0.523128732639 -0.415960220088
500145500 0.523394123048 -0.417792743877
500156000 0.524539516844 -0.418783783687
500166500 0.524115617623 -0.416405270641
500177000 0.522791168814 -0.416549054884
500187500 0.525944587898 -0.418439240189
500198000 0.523461810237 -0.420070364109
500208500 0.522464731806 -0.416838052697
500219000 0.524757765017 -0.415792405484
500229500 0.523172100008 -0.415692482659
500240000 0.522624708586 -0.418294139643
500250500 0.522332560326 -0.415270839376
500261000 0.522024323775 -0.416193544968
500271500 0.52085429032 -0.419271005269
500282000 0.517855142753 -0.414196427011
500292500 0.525799258345 -0.41724233574
500303000 0.522836206995 -0.41926842736
500313500 0.523468564768 -0.415278757023
500324000 0.519199205783 -0.414608098258
500334500 0.521732627793 -0.416199417811
500345000 0.522457214719 -0.417451874807
500355500 0.524503600475 -0.417436244944
500366000 0.524099770574 -0.417397770924
500376500 0.522335910789 -0.417743477837
500387000 0.520134557704 -0.416695879814
500397500 0.523157555937 -0.415645016263
500408000 0.523337503093 -0.415802780287
500418500 0.521433622158 -0.416039612821
500429000 0.522439983149 -0.415026141864
500439500 0.521591078035 -0.416755645828
500450000 0.523607610621 -0.416506402745
500460500 0.52098167224 -0.414146550116
500471000 0.522543908167 -0.416961375391
500481500 0.522073910525 -0.415878730204
500492000 0.522732577017 -0.414635594508
500502500 0.52315762101 -0.414158718261
500513000 0.522327684194 -0.41624619134
500523500 0.520628596946 -0.416294001405
500534000 0.521471388791 -0.418091207246
500544500 0.522836352518 -0.41632603866
500555000 0.522643341135 -0.415835583385
500565500 0.522571661824 -0.416820520262
500576000 0.521948944598 -0.416581228752
500586500 0.521661833967 -0.415662555883
500597000 0.521504500827 -0.415924096431
500607500 0.52130332081 -0.415066822929
500618000 0.521513353968 -0.415565226046
500628500 0.521508850526 -0.414955406682
500639000 0.521565486476 -0.416063203659
500649500 0.521320701631 -0.41545451303
500660000 0.521959506142 -0.415346244828
500670500 0.521187401455 -0.414714514103
500681000 0.521855492083 -0.415535842479
500691500 0.520955185858 -0.414731681815
500702000 0.520845438929 -0.415975164507
500712500 0.521203638323 -0.416163943352
500723000 0.520418724909 -0.416040849571
500733500 0.520717384985 -0.414833220691
500744000 0.520438087942 -0.415608813483
500754500 0.520653075759 -0.415756570712
500765000 0.521343644009 -0.414885269547
500775500 0.521535187184 -0.415304658378
500786000 0.520605281029 -0.415200170369
500796500 0.520080409554 -0.415647923414
500807000 0.521284982347 -0.41498292546
500817500 0.52154916351 -0.415258392558
500828000 0.520701969068 -0.415465816461
500838500 0.520926667266 -0.414565372658
500849000 0.521092404458 -0.414535989768
500859500 0.5200595872 -0.414555883006
500870000 0.520405327548 -0.414723431513
500880500 0.520169668249 -0.415505509767
500891000 0.519783466596 -0.415276962742
500901500 0.520192256343 -0.41517761465
500912000 0.520194617123 -0.414355478882
500922500 0.520041681686 -0.41479253775
500933000 0.520216916805 -0.414831092335
500943500 0.52035472757 -0.41537702339
500954000 0.52013715828 -0.415412820497
500964500 0.520072891082 -0.415134689622
500975000 0.520688236302 -0.415181931407
500985500 0.519503475309 -0.414560926623
500996000 0.519230686371 -0.414980179432
501006500 0.519326547468 -0.414144635274
501017000 0.51936807831 -0.413725757557
501027500 0.518768551936 -0.413561959499
501038000 0.518792763259 -0.413901021293
501048500 0.520080752015 -0.414247357379
501059000 0.519561729124 -0.413812183288
501069500 0.519407621811 -0.414374906704
501080000 0.51958189467 -0.414963342435
501090500 0.518954913843 -0.414800482313
501101000 0.519380557112 -0.414890205949
501111500 0.51990419774 -0.414289727407
501122000 0.519832812212 -0.414141438639
501132500 0.519729488105 -0.413666398707
501143000 0.518443765704 -0.413695469233
501153500 0.519099776087 -0.414623926186
501164000 0.519218455179 -0.413206060781
501174500 0.518722371136 -0.413453733257
501185000 0.518916823318 -0.413672978712
501195500 0.518688757746 -0.413298017743
501206000 0.518773316679 -0.41346693135
501216500 0.519674475035 -0.413313741149
501227000 0.520048335903 -0.413893497742
501237500 0.519320395661 -0.413459849297
501248000 0.518961533184 -0.413628741917
501258500 0.51893716079 -0.413341695932
501269000 0.518263637278 -0.41385751783
501279500 0.518083503512 -0.413607340666
501290000 0.518748299325 -0.413093699974
501300500 0.518873458173 -0.413573940196
501311000 0.518262400413 -0.413650635186
501321500 0.518604354866 -0.414019179979
501332000 0.518473570447 -0.41350096706
501342500 0.51864298796 -0.41312565059
501353000 0.518261664387 -0.413330096535
501363500 0.517815419367 -0.412861017329
501374000 0.517254349429 -0.412904361829
501384500 0.517865325565 -0.413446361204
501395000 0.516875750921 -0.413051167154
501405500 0.518217767881 -0.41298771261
501416000 0.518427465381 -0.414071787532
501426500 0.517925992344 -0.413128882907
501437000 0.51780121161 -0.413464058847
501447500 0.517946825178 -0.413341785018
501458000 0.517493077709 -0.413836038432
501468500 0.517734067699 -0.413600512743
501479000 0.51802252522 -0.413232084025
501489500 0.518138567479 -0.412732283483
501500000 0.518303879971 -0.412346969991
501510500 0.518115584952 -0.412750888905
501521000 0.51720812798 -0.412443344319
501531500 0.51775852543 -0.412930798279
501542000 0.517533600709 -0.412965675888
501552500 0.517915457569 -0.412480622911
501563000 0.51693372139 -0.412493284541
501573500 0.517178251106 -0.412558657965
501584000 0.517111830824 -0.412487529431
501594500 0.517360316512 -0.412644658471
501605000 0.517042698655 -0.412192618317
501615500 0.51719797128 -0.412690006427
501626000 0.51725461625 -0.413149355363
501636500 0.517200636866 -0.412630428335
501647000 0.517050661958 -0.412505220003
501657500 0.516659789454 -0.411986620047
501668000 0.516376494926 -0.412132540352
501678500 0.516191851989 -0.413562121387
501689000 0.516026282971 -0.414193380337
501699500 0.516578372977 -0.414479208254
501710000 0.517502423335 -0.412899447913
501720500 0.516911575418 -0.412032287728
501731000 0.516911739006 -0.411514490409
501741500 0.516676866146 -0.411628777159
501752000 0.51628788998 -0.411667976406
501762500 0.516086013436 -0.412177049241
501773000 0.516043821934 -0.411622006396
501783500 0.516214728691 -0.411486767177
501794000 0.516371398456 -0.411887005191
501804500 0.516317030047 -0.41165900861
501815000 0.5170815955 -0.411627789593
501825500 0.516509969483 -0.41194449489
501836000 0.516530154005 -0.411436499271
501846500 0.515872212027 -0.411386586598
501857000 0.515804305957 -0.411792627247
501867500 0.514918803337 -0.411235207249
501878000 0.516485296395 -0.411480589525
501888500 0.516890416586 -0.411763382206
501899000 0.516738215623 -0.412086717884
501909500 0.516733665962 -0.411187279132
501920000 0.51593839036 -0.411335861244
501930500 0.516296774581 -0.411069656446
501941000 0.515853880121 -0.411105125114
501951500 0.515762062587 -0.411380693272
501962000 0.515818399543 -0.411220214991
501972500 0.516268618066 -0.410784215297
501983000 0.515785573327 -0.410487325656
501993500 0.516227590304 -0.410979996348
502004000 0.515564415406 -0.411290268465
502014500 0.515702943907 -0.411367869533
502025000 0.515478887832 -0.411048743661
502035500 0.51622146566 -0.410987305406
502046000 0.515208721239 -0.41089031249
502056500 0.515544541723 -0.410823981942
502067000 0.515447162633 -0.410788585089
502077500 0.515337835437 -0.410507996703
502088000 0.514980624201 -0.410445667571
502098500 0.515482671251 -0.410048174761
502109000 0.514800737527 -0.410338625335
502119500 0.514585010237 -0.410742739371
502130000 0.514077847551 -0.410937110197
502140500 0.514405189754 -0.409577816197
502151000 0.514652308185 -0.410101724296
502161500 0.514845164124 -0.409801321679
502172000 0.515259631883 -0.41017345517
502182500 0.515501691011 -0.409404406734
502193000 0.515069981374 -0.410475474254
502203500 0.51450941996 -0.410370841743
502214000 0.51470663235 -0.409918537761
502224500 0.514539337391 -0.4106059824
502235000 0.514936268021 -0.410464862536
502245500 0.514335020332 -0.410741816426
502256000 0.514415153541 -0.410071193669
502266500 0.513553097153 -0.409634183853
502277000 0.514192116665 -0.410062817231
502287500 0.513855851429 -0.410577193155
502298000 0.514418584551 -0.410461962842
502308500 0.513964209098 -0.409892539134
502319000 0.514388282813 -0.41014724692
502329500 0.514501076606 -0.41037909803
502340000 0.514722678938 -0.409858258256
502350500 0.514416903849 -0.41120244072
502361000 0.514932506418 -0.41095000085
502371500 0.51457620206 -0.410121122261
502382000 0.514476180506 -0.409840686802
502392500 0.514006078415 -0.409674661064
502403000 0.514331120458 -0.409999279615
502413500 0.514577707561 -0.410437202527
502424000 0.513723804621 -0.409334604456
502434500 0.513966323025 -0.40966473657
502445000 0.513984287929 -0.409329527591
502455500 0.513574441892 -0.409734325136
502466000 0.513080252621 -0.409729738302
502476500 0.513021461156 -0.410350318555
502487000 0.513752702182 -0.409576654193
502497500 0.513698482785 -0.409631180876
502508000 0.512985233258 -0.409481823086
502518500 0.513416720442 -0.409290848886
502529000 0.51240561977 -0.408880352869
502539500 0.513272817925 -0.408651342663
502550000 0.513577877594 -0.409216973631
502560500 0.512985166692 -0.409188600625
502571000 0.513516990828 -0.408949904403
502581500 0.514195270087 -0.408364797158
502592000 0.512807543444 -0.409329732077
502602500 0.513453926886 -0.408075800447
502613000 0.513235548122 -0.408493371378
502623500 0.51244386528 -0.408318695667
502634000 0.512940506513 -0.408823558965
502644500 0.513023867529 -0.408677330578
502655000 0.512107699025 -0.407967876244
502665500 0.512998765005 -0.408460731535
502676000 0.51284304374 -0.409169036151
502686500 0.512575047618 -0.408811564501
502697000 0.512411239482 -0.409059253428
502707500 0.512876364405 -0.409335517108
502718000 0.512530936419 -0.408933401689
502728500 0.512684237635 -0.408720888178
502739000 0.512400849311 -0.407996528314
502749500 0.51270482645 -0.408522269755
502760000 0.512367394473 -0.40846686262
502770500 0.512081438022 -0.40839021397
502781000 0.51291921807 -0.408613615296
502791500 0.511925954482 -0.408446545249
502802000 0.512201605626 -0.408439564627
502812500 0.512163214869 -0.408754989243
502823000 0.512346990456 -0.408285670701
502833500 0.512851131607 -0.408298512076
502844000 0.512524804549 -0.408505628121
502854500 0.512229119377 -0.407969094118
502865000 0.51280205086 -0.408386796386
502875500 0.511641740624 -0.407978557736
502886000 0.511912734586 -0.408207427547
502896500 0.512272364929 -0.408025461654
502907000 0.511919090295 -0.407920406196
502917500 0.512251839109 -0.408445162487
502928000 0.51158602442 -0.407805887602
502938500 0.511687811549 -0.407377357808
502949000 0.512538807351 -0.408508440204
502959500 0.51144792409 -0.408296229387
502970000 0.512152229669 -0.407497801188
502980500 0.512125349422 -0.407902752185
502991000 0.512231824112 -0.408457180101
503001500 0.511081529254 -0.408376351524
503012000 0.511579719237 -0.407732175282
503022500 0.51156039593 -0.40809511274
503033000 0.511334927511 -0.407683959274
503043500 0.510910662621 -0.408070771635
503054000 0.511331573709 -0.40830159697
503064500 0.511752635262 -0.407718874735
503075000 0.51142490134 -0.407808461538
503085500 0.512021131322 -0.407863411738
503096000 0.510280504841 -0.407474442314
503106500 0.511957221451 -0.408068174515
503117000 0.511554908711 -0.40697835683
503127500 0.511575726046 -0.404966867588
503138000 0.510876982867 -0.406772456695
503148500 0.512570630721 -0.410651251727
503159000 0.512011452382 -0.406942293129
503169500 0.51154600471 -0.408061534136
503180000 0.509600313618 -0.407182992811
503190500 0.511759598499 -0.40983531122
503201000 0.511291158533 -0.407326029039
503211500 0.509526058719 -0.408756876165
503222000 0.512118853557 -0.406757046179
503232500 0.510201373302 -0.407002150081
503243000 0.508382448847 -0.405665782583
503253500 0.511859949864 -0.406444639215
503264000 0.50801997882 -0.409024700997
503274500 0.516184981498 -0.402621369935
503285000 0.513974688082 -0.405712950419
503295500 0.509907043015 -0.40637314873
503306000 0.5106261731 -0.407432989339
503316500 0.507654869799 -0.403639954001
503327000 0.503226172471 -0.402952712011
503337500 0.507989644863 -0.407273980712
503348000 0.510594775629 -0.406425542117
503358500 0.510566880313 -0.407492858149
503369000 0.50894717598 -0.405881127653
503379500 0.51361665943 -0.407220534535
503390000 0.508013986301 -0.400993067055
503400500 0.512921213854 -0.407415551912
503411000 0.507854604582 -0.404538995733
503421500 0.51314451085 -0.410500150606
503432000 0.507916272296 -0.405158727309
503442500 0.511850274651 -0.401475226802
503453000 0.510385521321 -0.407760535626
503463500 0.508602863643 -0.408853201542
503474000 0.509902365074 -0.406110554674
503484500 0.509218255941 -0.408254502824
503495000 0.503936365471 -0.398191899718
503505500 0.505811185695 -0.40579744709
503516000 0.503777120166 -0.40063002657
503526500 0.506964313519 -0.411105645821
503537000 0.512086406706 -0.406116263807
503547500 0.501649994266 -0.405475503998
503558000 0.512674504852 -0.410383075774
503568500 0.507674564663 -0.402461471429
503579000 0.506504176365 -0.407123620733
503589500 0.504537780245 -0.411541230157
503600000 0.510637071442 -0.402069897348
503610500 0.506671156705 -0.406009965167
503621000 0.505341565207 -0.413561492355
503631500 0.507173186215 -0.403234103229
503642000 0.510417560223 -0.407349176255
503652500 0.508232103956 -0.402687235876
503663000 0.51401780114 -0.409591471612
503673500 0.514345996052 -0.398298870364
503684000 0.517354089339 -0.402222075414
503694500 0.510184720419 -0.404177916294
503705000 0.510127610671 -0.405703317227
503715500 0.509450957372 -0.403282417969
503726000 0.513686978617 -0.400693696815
503736500 0.517240967622 -0.402798418152
503747000 0.510347629788 -0.404977103795
503757500 0.508906483774 -0.402317822344
503768000 0.508688128124 -0.405383127839
503778500 0.508510956091 -0.398154924283
503789000 0.505488600587 -0.402976850867
503799500 0.50649310994 -0.405736955289
503810000 0.509486382081 -0.407392301528
503820500 0.508505812768 -0.405422123123
503831000 0.507648807741 -0.405235336057
503841500 0.507865849341 -0.402791228735
503852000 0.50769733038 -0.404655378748
503862500 0.508150514941 -0.403718388172
503873000 0.506800548307 -0.403655718545
503883500 0.508456472834 -0.404633478147
503894000 0.509287400395 -0.405287862167
503904500 0.508105757082 -0.405236588226
503915000 0.508482973579 -0.404978482651
503925500 0.50812014708 -0.404515978338
503936000 0.508219296335 -0.404601185267
503946500 0.507728879724 -0.404299991781
503957000 0.507909601719 -0.405259718522
503967500 0.506437657498 -0.403383747674
503978000 0.507498645213 -0.403875761783
503988500 0.508046276865 -0.403992126732
503999000 0.508197010683 -0.404633354898
504009500 0.507574468856 -0.403764387887
504020000 0.507855167131 -0.404690456562
504030500 0.507779789782 -0.403791018823
504041000 0.506930330202 -0.403699590359
504051500 0.507650457844 -0.403584649603
504062000 0.507287112893 -0.404498932879
504072500 0.507072667523 -0.404378303873
504083000 0.507346139031 -0.404480632849
504093500 0.507171223134 -0.403975457666
504104000 0.506791906322 -0.404312460753
504114500 0.506564951978 -0.403511184217
504125000 0.507100058915 -0.404081548655
504135500 0.506809414472 -0.403787821887
504146000 0.507140642692 -0.403424497388
504156500 0.507266403967 -0.404161390483
504167000 0.507205252124 -0.403007990607
504177500 0.507104210268 -0.403599337288
504188000 0.506668859512 -0.403949448847
504198500 0.506869048136 -0.404818580834
504209000 0.507024820712 -0.403282183441
504219500 0.506885191975 -0.403428089279
504230000 0.507366072862 -0.402812771224
504240500 0.506759896273 -0.40311842466
504251000 0.506749314453 -0.402516194518
504261500 0.506525410828 -0.402625880599
504272000 0.506695480095 -0.403106593932
504282500 0.506266460363 -0.403237110641
504293000 0.506619320071 -0.402308336307
504303500 0.506049078014 -0.403158302544
504314000 0.505434862663 -0.402489668448
504324500 0.505486117979 -0.403235597261
504335000 0.505928895062 -0.402538625514
504345500 0.505785123847 -0.402777381519
504356000 0.505450426052 -0.40174665631
504366500 0.506620338741 -0.402524457134
504377000 0.507074474835 -0.402417553698
504387500 0.506216672034 -0.402610950038
504398000 0.505204760164 -0.403036192058
504408500 0.506797666782 -0.403099292622
504419000 0.506584780483 -0.403174415824
504429500 0.50609542902 -0.402657759955
504440000 0.506736699406 -0.402111630936
504450500 0.506511555839 -0.401886347151
504461000 0.506986441966 -0.403034916385
504471500 0.506924731297 -0.402325354983
504482000 0.505547387785 -0.401872223677
504492500 0.505709785084 -0.401131164985
504503000 0.504612448654 -0.400932368676
504513500 0.503836324431 -0.401721882375
504524000 0.503701532749 -0.401903843664
504534500 0.505518589511 -0.401438270994
504545000 0.506448759254 -0.401760376837
504555500 0.505983591903 -0.402330216109
504566000 0.505705433379 -0.4021800359
504576500 0.505691901325 -0.402495472451
504587000 0.505858735052 -0.402437973875
504597500 0.505600416816 -0.40196467942
504608000 0.505532059277 -0.401494879457
504618500 0.50617924951 -0.401632165656
504629000 0.505991411061 -0.401485727808
504639500 0.506242293944 -0.402387418477
504650000 0.505271735211 -0.402195946295
504660500 0.505308109172 -0.401948755026
504671000 0.50538144114 -0.400992033958
504681500 0.50613771565 -0.400731812946
504692000 0.505805164635 -0.400254179675
504702500 0.504984665868 -0.400324529146
504713000 0.505269726804 -0.400524384994
504723500 0.504746226122 -0.401071131069
504734000 0.504520214678 -0.400812031903
504744500 0.504980682148 -0.400797261166
504755000 0.505099154162 -0.401100944724
504765500 0.50478693523 -0.40112696712
504776000 0.504492429048 -0.401440949138
504786500 0.504669612859 -0.401557188544
504797000 0.504256061288 -0.400628613395
504807500 0.504712152959 -0.400874353783
504818000 0.504397735133 -0.401248265672
504828500 0.505493767143 -0.40070086667
504839000 0.504160207599 -0.400403083987
504849500 0.50380410675 -0.40035312879
504860000 0.502982965238 -0.401039335527
504870500 0.504444287642 -0.400478321764
504881000 0.504334429667 -0.400913645585
504891500 0.504114211797 -0.400585448329
504902000 0.504159691186 -0.400665820668
504912500 0.504407517576 -0.400441698289
504923000 0.505581094853 -0.400129486963
504933500 0.50430672707 -0.400455950657
504944000 0.504471692047 -0.400797885302
504954500 0.503928213859 -0.400555781501
504965000 0.503969718049 -0.401071364624
504975500 0.503326091712 -0.400248730209
504986000 0.503601305993 -0.400608393282
504996500 0.50317931567 -0.400746809829
505007000 0.503790672967 -0.400210657938
505017500 0.503133981273 -0.399369317393
505028000 0.503622963157 -0.399881940254
505038500 0.503388964889 -0.399914871132
505049000 0.504593954321 -0.399743954436
505059500 0.504352460675 -0.398491219073
505070000 0.504307653777 -0.399376116295
505080500 0.504123239274 -0.399237516189
505091000 0.504078614764 -0.3988691489
505101500 0.503790793439 -0.399294889117
505112000 0.503188490331 -0.399102814839
505122500 0.503178333926 -0.399742087177
505133000 0.503182142128 -0.399785493112
505143500 0.502641940569 -0.399893106402
505154000 0.502729067805 -0.399720375455
505164500 0.5033569832 -0.398696469178
505175000 0.503185094862 -0.399483436767
505185500 0.50324712423 -0.399228315243
505196000 0.50376354239 -0.39916422412
505206500 0.50346140323 -0.39901397068
505217000 0.503089289652 -0.399486327638
505227500 0.502782524797 -0.39924724127
505238000 0.503213814281 -0.398546446947
505248500 0.503023950906 -0.398825844099
505259000 0.502494133227 -0.399437585421
505269500 0.502734894177 -0.398899477321
505280000 0.502796112278 -0.398397715486
505290500 0.502400808829 -0.398529324665
505301000 0.502528153586 -0.398248895799
505311500 0.502149034916 -0.398700107473
505322000 0.502368921699 -0.398765798603
505332500 0.50295490339 -0.398236865109
505343000 0.503139172902 -0.397979454434
505353500 0.503245142441 -0.398454051677
505364000 0.502554195001 -0.398385923736
505374500 0.502490310271 -0.398202414615
505385000 0.503062839709 -0.399012276567
505395500 0.502279755092 -0.398607016433
505406000 0.502468234326 -0.398473548969
505416500 0.503155900329 -0.398550188699
505427000 0.502030599971 -0.398406017075
505437500 0.502608315609 -0.398477956536
505448000 0.5027377008 -0.398598013017
505458500 0.503173873919 -0.398152038281
505469000 0.502408662057 -0.39835128576
505479500 0.501919411301 -0.397429880378
505490000 0.50150287185 -0.397412382866
505500500 0.501910591089 -0.396942536525
505511000 0.501943589062 -0.397719987785
505521500 0.501247533119 -0.397310343643
505532000 0.499897993669 -0.397616504385
505542500 0.49975384538 -0.396818619172
505553000 0.500466906766 -0.396864099314
505563500 0.50044604636 -0.397358846162
505574000 0.500505820563 -0.396882699012
505584500 0.50036734589 -0.397173345256
505595000 0.500759706631 -0.397760405414
505605500 0.500399363813 -0.397761798329
505616000 0.500897973004 -0.397773325823
505626500 0.500730100226 -0.397178103559
505637000 0.501448619784 -0.397011086095
505647500 0.500506196538 -0.397348584658
505658000 0.500959006553 -0.397500730708
505668500 0.500663029502 -0.39773996167
505679000 0.501189529742 -0.39667176448
505689500 0.501043163925 -0.397621651219
505700000 0.500671490038 -0.396838178748
505710500 0.502744702558 -0.394275518823
505721000 0.502135930338 -0.3940043081
505731500 0.502495451892 -0.394042518019
505742000 0.502626365972 -0.394244820254
505752500 0.503023654778 -0.394149601744
505763000 0.50218147269 -0.393914688801
505773500 0.501872013473 -0.393552160661
505784000 0.50212068019 -0.393650249647
505794500 0.501952512377 -0.394038646953
505805000 0.502440397058 -0.393780042109
505815500 0.502251987629 -0.393542331047
505826000 0.501785909964 -0.393695745527
505836500 0.502238287677 -0.393239415971
505847000 0.502093033948 -0.393844710252
505857500 0.503123623043 -0.39325344563
505868000 0.502178428628 -0.393544631039
505878500 0.502680082334 -0.392910386094
505889000 0.50216555275 -0.392646221331
505899500 0.502639881753 -0.393609937602
505910000 0.502790689487 -0.393920324296
505920500 0.502245318316 -0.393633685973
505931000 0.502380996834 -0.392487257653
505941500 0.50202666055 -0.392256826312
505952000 0.502012068584 -0.392503881022
505962500 0.502781755305 -0.392633873275
505973000 0.502403750093 -0.390295951673
505983500 0.502318649476 -0.392390734418
505994000 0.501530967207 -0.393209670576
506004500 0.501869535402 -0.392644857625
506015000 0.502263863712 -0.392759390656
506025500 0.503749255106 -0.392053482838
506036000 0.499711788632 -0.393606392315
506046500 0.502261022716 -0.392565023269
506057000 0.502911292553 -0.393200059421
506067500 0.500609525748 -0.392198739181
506078000 0.502687092924 -0.390716877019
506088500 0.500810390186 -0.391133322882
506099000 0.502581361483 -0.391817468938
506109500 0.500788098627 -0.392893403221
506120000 0.501822599676 -0.392427170858
506130500 0.5003419348 -0.390699436737
506141000 0.502229775455 -0.392030159083
506151500 0.50185715537 -0.392586119223
506162000 0.502094695009 -0.392565287321
506172500 0.500883168609 -0.392655808376
506183000 0.502031225628 -0.39129246118
506193500 0.501908784316 -0.391677847093
506204000 0.502132338912 -0.390623361063
506214500 0.501733746336 -0.391270493778
506225000 0.503263875637 -0.392185622674
506235500 0.50140457068 -0.391497704719
506246000 0.502130379115 -0.39200798077
506256500 0.501745280068 -0.391923635261
506267000 0.5018067831 -0.392547124807
506277500 0.501559442655 -0.391393204707
506288000 0.500554474488 -0.391556027229
506298500 0.500146863997 -0.391932902007
506309000 0.500417259382 -0.392400604474
506319500 0.50037173895 -0.39214558189
506330000 0.500656862841 -0.392273027364
506340500 0.501356036225 -0.392258609362
506351000 0.50136275784 -0.391493067116
506361500 0.501485916323 -0.392094852514
506372000 0.50135582966 -0.392364680915
506382500 0.501430053748 -0.391962773971
506393000 0.501186501352 -0.392445816477
506403500 0.500076509261 -0.391583838936
506414000 0.500748808173 -0.3912504235
506424500 0.500276306566 -0.391429579095
506435000 0.500110953949 -0.390642942262
506445500 0.498046516211 -0.390939224429
506456000 0.501126177945 -0.390827373283
506466500 0.501207152113 -0.390671443313
506477000 0.501011211237 -0.391537871702
506487500 0.500492935542 -0.391251147464
506498000 0.500026375711 -0.390771734949
506508500 0.50001580621 -0.39146270235
506519000 0.500222340604 -0.390910836015
506529500 0.500424794677 -0.391265113638
506540000 0.502638096949 -0.390478413893
506550500 0.500106689716 -0.391457346238
506561000 0.501510192542 -0.391254380037
506571500 0.499945441939 -0.39029630571
506582000 0.500603271818 -0.391371291079
506592500 0.499419381904 -0.391652803334
506603000 0.499192357273 -0.390513462662
506613500 0.500023856584 -0.394266965676
506624000 0.499848919426 -0.392053441409
506634500 0.500019695536 -0.391050970288
506645000 0.49970291199 -0.39034012338
506655500 0.5003507106 -0.392818887882
506666000 0.498963629507 -0.39031042724
506676500 0.501760236929 -0.390535857232
506687000 0.50194447506 -0.39073611659
506697500 0.500980597351 -0.390823774742
506708000 0.499135821012 -0.391531150236
506718500 0.499976661481 -0.391599543201
506729000 0.501571064951 -0.389463214106
506739500 0.500095511181 -0.391939801712
506750000 0.499952235375 -0.38957552567
506760500 0.496563477218 -0.393848575346
506771000 0.495878256031 -0.391548312945
506781500 0.495373510802 -0.392628203039
506792000 0.493976040035 -0.393171209703
506802500 0.494827236571 -0.39571665932
506813000 0.494381519401 -0.39435187461
506823500 0.496895145331 -0.394535825344
506834000 0.493911116056 -0.391600506595
506844500 0.495901319447 -0.394522050861
506855000 0.495913986766 -0.393957460797
506865500 0.494763927971 -0.394225013467
506876000 0.492951381644 -0.395651460959
506886500 0.495085671784 -0.394156232058
506897000 0.494237373418 -0.393115958469
506907500 0.49527407216 -0.39307708847
506918000 0.493700108516 -0.393856691889
506928500 0.494996584157 -0.393914896076
506939000 0.494609237572 -0.393417195371
506949500 0.493997425238 -0.393902032297
506960000 0.495136049178 -0.394991724464
506970500 0.493731204911 -0.39610743717
506981000 0.496274304867 -0.395109665367
506991500 0.494019969579 -0.396314322597
507002000 0.496253890051 -0.394277519654
507012500 0.493751264871 -0.392719353426
507023000 0.49167524903 -0.392163841659
507033500 0.49468729098 -0.391050113152
507044000 0.492418846386 -0.392978810678
507054500 0.492100047471 -0.395995523142
507065000 0.497002434581 -0.392996694798
507075500 0.492223595863 -0.396904532632
507086000 0.496632543243 -0.393884743642
507096500 0.492246440792 -0.395326954036
507107000 0.490955000966 -0.394225535935
507117500 0.495663718629 -0.394011175627
507128000 0.496693899229 -0.3875921814
507138500 0.491237510975 -0.391712488834
507149000 0.493459022345 -0.397276363129
507159500 0.490379268704 -0.387222548841
507170000 0.494238544368 -0.392518439841
507180500 0.489369051463 -0.389973022783
507191000 0.491649192588 -0.393617926201
507201500 0.491210128595 -0.394077333906
507212000 0.489684496005 -0.394405519559
507222500 0.493035797109 -0.388814734569
507233000 0.507617792586 -0.399944494279
507243500 0.494698606212 -0.396543504894
507254000 0.487781120527 -0.391879990583
507264500 0.494273110484 -0.396782648535
507275000 0.500182263219 -0.388294536053
507285500 0.488851316158 -0.39142422572
507296000 0.490728394289 -0.384515522223
507306500 0.490090142235 -0.388895691703
507317000 0.49020157782 -0.3909290264
507327500 0.489087839985 -0.390906888848
507338000 0.498696209302 -0.38775622215
507348500 0.487573926166 -0.3974723418
507359000 0.49211979114 -0.39853944043
507369500 0.480124134943 -0.390072833595
507380000 0.49390414652 -0.391952695774
507390500 0.496937458322 -0.384460464802
507401000 0.492780763273 -0.401327992196
507411500 0.486674209607 -0.391619310454
507422000 0.482952109247 -0.389051456959
507432500 0.496765735433 -0.391576618053
507443000 0.488277489665 -0.389510233327
507453500 0.483290862872 -0.387781581603
507464000 0.494971784667 -0.390033464672
507474500 0.49071730451 -0.396261447122
507485000 0.500639611799 -0.389030358174
507495500 0.49559008255 -0.394632564049
507506000 0.490740625827 -0.390735065097
507516500 0.484737510277 -0.384117361761
507527000 0.489072826438 -0.389313813775
507537500 0.500741063088 -0.392375772571
507548000 0.493065839326 -0.393431438616
507558500 0.487956567087 -0.380981561531
507569000 0.486479127679 -0.383882893594
507579500 0.494323939498 -0.39623238114
507590000 0.484059934714 -0.393695822306
507600500 0.478482372866 -0.382193152475
507611000 0.493527919086 -0.390076369229
507621500 0.494274819609 -0.388599962151
507632000 0.49103819727 -0.387901179045
507642500 0.494784963429 -0.392607063609
507653000 0.491693484015 -0.390416251453
507663500 0.484104964334 -0.395711792816
507674000 0.493269941311 -0.38621715286
507684500 0.487140588183 -0.394766742485
507695000 0.488665900646 -0.384031840852
507705500 0.492414058581 -0.390917792398
507716000 0.486738285124 -0.393334597863
507726500 0.489077243906 -0.387764690902
507737000 0.486649249908 -0.393267303621
507747500 0.488743776716 -0.393370315183
507758000 0.487611832501 -0.391528042352
507768500 0.484187508924 -0.375361237299
507779000 0.490541408365 -0.394065151241
507789500 0.48677443334 -0.382514129493
507800000 0.486344430509 -0.381752163264
507810500 0.487898402251 -0.384749839245
507821000 0.490907363487 -0.385387316183
507831500 0.484171590833 -0.38223027115
507842000 0.485995723614 -0.382267763556
507852500 0.486674666404 -0.38233007046
507863000 0.484703167304 -0.380775000919
507873500 0.484758828869 -0.388324016497
507884000 0.484582151167 -0.378973187365
507894500 0.486358231084 -0.382560124275
507905000 0.485926900054 -0.38132540845
507915500 0.485342133196 -0.379170363082
507926000 0.484584804346 -0.379117276708
507936500 0.486422016987 -0.382506522736
507947000 0.485886378369 -0.381172581699
507957500 0.486910595432 -0.381668809384
507968000 0.484730935391 -0.379371539215
507978500 0.486370539726 -0.380824032475
507989000 0.486034009115 -0.381663440528
507999500 0.486463238021 -0.381254956913
508010000 0.486741982264 -0.380792943224
508020500 0.485928399926 -0.380824874283
508031000 0.484964964704 -0.380721690209
508041500 0.486048006604 -0.379753589096
508052000 0.486392077552 -0.380046995767
508062500 0.486780915673 -0.381024933303
508073000 0.485792342947 -0.380402393139
508083500 0.486247299449 -0.380166116956
508094000 0.485851846543 -0.379419324353
508104500 0.487412544161 -0.380549634347
508115000 0.485324149033 -0.380994845603
508125500 0.486401530284 -0.379483021287
508136000 0.485214221032 -0.38068514858
508146500 0.485450789526 -0.379383002012
508157000 0.485259572774 -0.379324875966
508167500 0.485300313134 -0.379764415037
508178000 0.485336737056 -0.378727667883
508188500 0.486313638586 -0.37920491032
508199000 0.484596369672 -0.38052050144
508209500 0.486069535913 -0.380030980316
508220000 0.485802398546 -0.38094625014
508230500 0.487305295991 -0.377988065919
508241000 0.487446884329 -0.378136149677
508251500 0.485086549207 -0.378960492537
508262000 0.486361447699 -0.378941844664
508272500 0.486229868251 -0.377837484757
508283000 0.48581409515 -0.379107691334
508293500 0.484498202835 -0.378760247158
508304000 0.485499652413 -0.377513770645
508314500 0.486996805871 -0.380979454028
508325000 0.485350858378 -0.378257466903
508335500 0.48514633446 -0.379806304448
508346000 0.486463729946 -0.379042483331
508356500 0.486218512124 -0.37867940815
508367000 0.487196104514 -0.379464728484
508377500 0.485534476293 -0.378751228506
508388000 0.486370191776 -0.377419157809
508398500 0.485131297106 -0.377431243188
508409000 0.486375441261 -0.377178150327
508419500 0.486137436844 -0.377236621746
508430000 0.48473245549 -0.376892818302
508440500 0.486462812285 -0.377211707651
508451000 0.486232660811 -0.376884275045
508461500 0.486153581089 -0.377912287452
508472000 0.485345760496 -0.377417932773
508482500 0.486395083756 -0.37749659484
508493000 0.485470736747 -0.376419950985
508503500 0.485220127159 -0.377109602926
508514000 0.485378247466 -0.376807392014
508524500 0.485384684842 -0.377738018168
508535000 0.484866805106 -0.376396078594
508545500 0.485997080186 -0.376719727074
508556000 0.485356505168 -0.376964894641
508566500 0.485467996703 -0.376158865733
508577000 0.485817529986 -0.376760638463
508587500 0.485823086641 -0.376720226971
508598000 0.486253204278 -0.376137509832
508608500 0.485770257991 -0.375834172433
508619000 0.486050716059 -0.37581210864
508629500 0.485862306006 -0.374948064001
508640000 0.48547966471 -0.37561280858
508650500 0.485192827021 -0.375188078641
508661000 0.485945146038 -0.3750726335
508671500 0.485766717924 -0.375092781508
508682000 0.485430593181 -0.37546899646
508692500 0.485585396618 -0.374277627331
508703000 0.485720952251 -0.37460895526
508713500 0.485640281006 -0.374923797981
508724000 0.485701654254 -0.374667858053
508734500 0.486025078327 -0.374479747422
508745000 0.485933045496 -0.374242162013
508755500 0.485968115402 -0.374076047453
508766000 0.485857189556 -0.373960372874
508776500 0.486017420027 -0.373513086756
508787000 0.485948565419 -0.373236345956
508797500 0.486026962915 -0.373256720516
508808000 0.485787211355 -0.373595084836
508818500 0.485345781364 -0.373700432167
508829000 0.485723054643 -0.372500067633
508839500 0.485645887226 -0.372809068338
508850000 0.485295282471 -0.371704161278
508860500 0.48828450295 -0.375090857108
508871000 0.488310064563 -0.375732606736
508881500 0.488276576299 -0.37656782305
508892000 0.488349534737 -0.376437119583
508902500 0.487678001188 -0.376225573844
508913000 0.487630717776 -0.376247701896
508923500 0.487351735123 -0.37665800035
508934000 0.487567388413 -0.376004876721
508944500 0.487397457814 -0.37594431457
508955000 0.487828032956 -0.376549851948
508965500 0.487477382679 -0.376617456995
508976000 0.487556184344 -0.376112774252
508986500 0.486873158705 -0.375396686471
508997000 0.487444673473 -0.375742635457
509007500 0.487470432811 -0.375847753851
509018000 0.487833171709 -0.376044323996
509028500 0.487723216006 -0.375952150973
509039000 0.487386240619 -0.376162465937
509049500 0.487182485377 -0.37607153115
509060000 0.486861345289 -0.376219241338
509070500 0.487530529862 -0.375718062843
509081000 0.487124580617 -0.376006801795
509091500 0.487582858794 -0.376433713673
509102000 0.487198643764 -0.376460250248
509112500 0.487615647597 -0.376838459954
509123000 0.487185716772 -0.376983963544
509133500 0.487204872186 -0.376081575199
509144000 0.484521978353 -0.378232522908
509154500 0.48539329436 -0.377370416193
509165000 0.481478958475 -0.376351598431
509175500 0.485151576135 -0.377726575419
509186000 0.485802639323 -0.377335347469
509196500 0.486597761263 -0.377223673812
509207000 0.486869544644 -0.377564377129
509217500 0.487133352292 -0.377338083732
509228000 0.486329957311 -0.37738315556
509238500 0.486420422655 -0.377028794577
509249000 0.486833813783 -0.376977165852
509259500 0.485953673432 -0.377063490975
509270000 0.486676643717 -0.377707297852
509280500 0.485511319411 -0.377829842718
509291000 0.485954754177 -0.377503078716
509301500 0.485469471597 -0.377999773963
509312000 0.485141537832 -0.377632122474
509322500 0.485881697771 -0.377010576929
509333000 0.485890616712 -0.376889091206
509343500 0.485927344257 -0.376835581976
509354000 0.484959375667 -0.376974309529
509364500 0.48486945742 -0.376704710712
509375000 0.484520598261 -0.376668149375
509385500 0.485188656757 -0.376126015928
509396000 0.484566605749 -0.376379134042
509406500 0.484467173849 -0.377119363846
509417000 0.484262261612 -0.376954537772
509427500 0.48450407535 -0.376632249942
509438000 0.484192401188 -0.376646009074
509448500 0.483960654302 -0.376588246986
509459000 0.484318504202 -0.376672413268
509469500 0.483572506824 -0.37569469
509480000 0.483874745876 -0.375985683271
509490500 0.484022095379 -0.375663383287
509501000 0.483771519962 -0.375563669404
509511500 0.483970002478 -0.375439992871
509522000 0.483302834714 -0.375438373496
509532500 0.482913858771 -0.375328859533
509543000 0.483170268183 -0.375213364196
509553500 0.483194678085 -0.37423070099
509564000 0.482500061425 -0.374738548435
509574500 0.482743704502 -0.375108759353
509585000 0.482859872794 -0.373802481587
509595500 0.483142142105 -0.373708956269
509606000 0.482808115584 -0.373620627244
509616500 0.482632074974 -0.373441293242
509627000 0.482832151116 -0.374295487712
509637500 0.482718327954 -0.373617023485
509648000 0.48307025081 -0.373382121898
509658500 0.482595138963 -0.37386901752
509669000 0.482375817778 -0.373452351266
509679500 0.482313697195 -0.373252633212
509690000 0.482525472759 -0.372844900482
509700500 0.482341537985 -0.372469476361
509711000 0.482443025422 -0.372907079039
509721500 0.482095745233 -0.372121299276
509732000 0.482307501854 -0.371852014179
509742500 0.481432729597 -0.371201387344
509753000 0.481913259961 -0.370876528281
509763500 0.482158606491 -0.370467646434
509774000 0.482218670084 -0.371197252216
509784500 0.482413127931 -0.370890896329
509795000 0.482186631174 -0.370394738642
509805500 0.482246064457 -0.370830882067
509816000 0.482368205277 -0.369957391327
509826500 0.482765128602 -0.369649416248
509837000 0.482523960943 -0.369965188417
509847500 0.483416521313 -0.370508834394
509858000 0.483213080972 -0.369961987081
509868500 0.483197085953 -0.369319307569
509879000 0.482904029827 -0.369594519236
509889500 0.483161300123 -0.368810868697
509900000 0.48284714893 -0.36834913039
509910500 0.487265103576 -0.364803983108
509921000 0.487079989219 -0.363854240861
509931500 0.487612705299 -0.364306895749
509942000 0.487420072374 -0.363724960514
509952500 0.487606534628 -0.364000799921
509963000 0.487224180704 -0.364012711454
509973500 0.486700204691 -0.364124970986
509984000 0.487110628474 -0.364259368426
509994500 0.486384368463 -0.363823047794
510005000 0.487364305032 -0.364384785529
510015500 0.487626593744 -0.363553644199
510026000 0.487178298262 -0.363235330068
510036500 0.487726460912 -0.363490079407
510047000 0.487483930318 -0.362881090421
510057500 0.488682059082 -0.363526852551
510068000 0.488139296789 -0.363284699369
510078500 0.488217074068 -0.362760191571
510089000 0.487840186322 -0.362361086899
510099500 0.488139163525 -0.362798694602
510110000 0.487237789907 -0.36290357543
510120500 0.487642213333 -0.362974188038
510131000 0.487872556065 -0.36269863863
510141500 0.487728535313 -0.362354258119
510152000 0.487985154849 -0.36370850346
510162500 0.487788261345 -0.362809778869
510173000 0.488845045471 -0.362585168153
510183500 0.488093291109 -0.362783097704
510194000 0.48855042625 -0.362649778282
510204500 0.488080628963 -0.362620061405
510215000 0.488327154007 -0.363013491965
510225500 0.487945403296 -0.362505219707
510236000 0.488500095669 -0.363199014805
510246500 0.488206613041 -0.362525463668
510257000 0.489020841506 -0.362958799807
510267500 0.489257263517 -0.362931679596
510278000 0.488838066805 -0.363539199435
510288500 0.489105639816 -0.362969495463
510299000 0.488666688716 -0.363162683819
510309500 0.489443761981 -0.361588407967
510320000 0.488995142665 -0.362726272446
510330500 0.489224892078 -0.362240770099
510341000 0.488863457722 -0.362645239016
510351500 0.488896150755 -0.362658346771
510362000 0.488808456355 -0.362655506382
510372500 0.489432101159 -0.362574746591
510383000 0.488848068961 -0.363157966668
510393500 0.489650588024 -0.362765098873
510404000 0.48877243952 -0.362961950417
510414500 0.489417133852 -0.364036161757
510425000 0.488781374476 -0.363141092803
510435500 0.488504054269 -0.362868272907
510446000 0.489295311157 -0.363006641588
510456500 0.487986820814 -0.362743170765
510467000 0.489025330799 -0.362862693754
510477500 0.489907687425 -0.363142980772
510488000 0.490079132533 -0.363277604157
510498500 0.489005240522 -0.363330216318
510509000 0.488945455767 -0.362498087861
510519500 0.489158830284 -0.363314142429
510530000 0.488194545807 -0.363033915258
510540500 0.48903910331 -0.363912629603
510551000 0.488186807018 -0.363458960541
510561500 0.488712008839 -0.36412346386
510572000 0.48901659152 -0.363802013863
510582500 0.488627015268 -0.363896365619
510593000 0.488249144858 -0.363931185766
510603500 0.488602463015 -0.36475715225
510614000 0.48844964105 -0.363790569004
510624500 0.488573152988 -0.364074575766
510635000 0.488182859396 -0.364125761231
510645500 0.487982435308 -0.364423852509
510656000 0.488221259818 -0.364326638011
510666500 0.4878836349 -0.363782203067
510677000 0.48772432201 -0.363648391545
510687500 0.487945327637 -0.363582496652
510698000 0.488234066554 -0.363732099745
510708500 0.488098242568 -0.363508861497
510719000 0.487580354423 -0.364181536314
510729500 0.487377788169 -0.363757394172
510740000 0.487732882978 -0.363688508247
510750500 0.487895792356 -0.363713236843
510761000 0.487947544333 -0.364302693757
510771500 0.486814367287 -0.363683094492
510782000 0.487254736194 -0.363598849142
510792500 0.486639892638 -0.363776965021
510803000 0.486640244709 -0.362677522219
510813500 0.487063854299 -0.362677280077
510824000 0.487282899516 -0.363068720835
510834500 0.487545209927 -0.363482671254
510845000 0.486554482193 -0.363299281684
510855500 0.485899181558 -0.362888012477
510866000 0.485916631522 -0.362772460833
510876500 0.486209853975 -0.362897687042
510887000 0.485637245001 -0.362853483044
510897500 0.485883289189 -0.362182107605
510908000 0.486525373519 -0.362194970346
510918500 0.485812921981 -0.362177506302
510929000 0.485900780519 -0.361913732944
510939500 0.485659431491 -0.361759143876
510950000 0.486183267179 -0.361803358356
510960500 0.48872151519 -0.363596359493
510971000 0.488055177002 -0.363162745814
510981500 0.487699221033 -0.363768101271
510992000 0.4877797757 -0.363473122384
511002500 0.487492401697 -0.363424151696
511013000 0.487822058213 -0.36302379559
511023500 0.488341118574 -0.36310679386
511034000 0.487892025067 -0.363041217424
511044500 0.488179185157 -0.363204056347
511055000 0.48791433009 -0.362997483868
511065500 0.488016346682 -0.362926031748
511076000 0.48801007501 -0.362366737412
511086500 0.48790029525 -0.362597879433
511097000 0.486948521045 -0.36279209506
511107500 0.48788789246 -0.363078424345
511118000 0.487314591137 -0.362514720272
511128500 0.48771231928 -0.362788629973
511139000 0.487472164116 -0.362526484881
511149500 0.487210858441 -0.362617393496
511160000 0.48724047144 -0.362651358004
511170500 0.487335134441 -0.362969583246
511181000 0.487360132466 -0.362795627475
511191500 0.486613192355 -0.362913735342
511202000 0.48543985648 -0.3633341881
511212500 0.48507840548 -0.362789411815
511223000 0.486081179088 -0.362532872974
511233500 0.486861121937 -0.361959114716
511244000 0.487744990694 -0.361546270653
511254500 0.487511030808 -0.361910643404
511265000 0.487093005423 -0.361445822691
511275500 0.487193463356 -0.361463521008
511286000 0.486764100255 -0.36160831308
511296500 0.48655833693 -0.3616883504
511307000 0.486897601327 -0.360895884633
511317500 0.487065564338 -0.360690584267
511328000 0.487582479176 -0.360780492888
511338500 0.487053015309 -0.360607973397
511349000 0.48728084303 -0.360786394675
511359500 0.487133079072 -0.36085990771
511370000 0.486719009615 -0.360738758839
511380500 0.486285770934 -0.360948199812
511391000 0.486878297366 -0.36090548758
511401500 0.486644725618 -0.360426122069
511412000 0.48715656791 -0.360168334101
511422500 0.487156386841 -0.360174276689
511433000 0.487717724877 -0.360474900656
511443500 0.486774085386 -0.360864520092
511454000 0.486094119149 -0.362550697403
511464500 0.488337059085 -0.362428329428
511475000 0.487795918171 -0.359197753815
511485500 0.485952858895 -0.358640733698
511496000 0.485620441903 -0.361228556473
511506500 0.486571254973 -0.357695135525
511517000 0.487575814988 -0.357057259902
511527500 0.484732308419 -0.359815257316
511538000 0.488979979617 -0.358175910311
511548500 0.487919075753 -0.359087059101
511559000 0.486218926655 -0.360538111277
511569500 0.485561938079 -0.358446347813
511580000 0.486215186773 -0.361116165675
511590500 0.486904052601 -0.361325326013
511601000 0.488998158676 -0.359090996402
511611500 0.488133788163 -0.362433349468
511622000 0.481323502242 -0.35682753595
511632500 0.485653593989 -0.358214436757
511643000 0.487600133692 -0.354465472026
511653500 0.488617314104 -0.358553613575
511664000 0.484443741994 -0.358910812278
511674500 0.486987499778 -0.356269347712
511685000 0.490070767727 -0.352763685897
511695500 0.485198037656 -0.3552081565
511706000 0.48761098054 -0.357503945628
511716500 0.483333239036 -0.360567380361
511727000 0.484819311114 -0.356784074676
511737500 0.485690945736 -0.358301205515
511748000 0.485556233378 -0.357579683457
511758500 0.487296522651 -0.357700857545
511769000 0.487632144229 -0.355381686333
511779500 0.487910007933 -0.355983545513
511790000 0.48591888612 -0.356625224267
511800500 0.488188272726 -0.35574592538
511811000 0.485197464422 -0.358173190497
511821500 0.484505472937 -0.354212798734
511832000 0.486201010854 -0.35582187631
511842500 0.488216421371 -0.35789954744
511853000 0.485509035573 -0.357590362627
511863500 0.486042913714 -0.354218086026
511874000 0.487511973754 -0.353297237791
511884500 0.486684468559 -0.354523654099
511895000 0.485168445875 -0.354067151384
511905500 0.485732799361 -0.355395528741
511916000 0.484791650469 -0.355365030681
511926500 0.487135641525 -0.356347742172
511937000 0.486328307234 -0.352397424065
511947500 0.484879384629 -0.355060260156
511958000 0.487214577126 -0.355907164902
511968500 0.485911254608 -0.357331068159
511979000 0.486075677138 -0.354112109217
511989500 0.486137914149 -0.355810657346
512000000 0.486449541755 -0.356440177022
