! Calibrated averaged scanner-service zoom
# Hz S RI R 50
118000000 0.210374767269 -0.604675395983
118009500 0.209908345542 -0.60504649159
118019000 0.210270689431 -0.603483999377
118028500 0.209547001059 -0.603885453828
118038000 0.209384945355 -0.604172129329
118047500 0.209724814608 -0.604623498314
118057000 0.209163772501 -0.604404855188
118066500 0.209668304426 -0.603002465036
118076000 0.208317858276 -0.60347225885
118085500 0.208498762647 -0.603795832697
118095000 0.208955333703 -0.604108988613
118104500 0.208718048258 -0.603728906847
118114000 0.209081244805 -0.602851609926
118123500 0.207706145748 -0.603140725571
118133000 0.207867904198 -0.603509040876
118142500 0.207766051518 -0.603808166566
118152000 0.208363559846 -0.602665474419
118161500 0.208185878828 -0.602636497633
118171000 0.206979498317 -0.602821491879
118180500 0.207480572405 -0.602873166572
118190000 0.207007127716 -0.603299635932
118199500 0.207723614745 -0.601660974287
118209000 0.20693514658 -0.602205909172
118218500 0.20652619108 -0.602468875498
118228000 0.206802524527 -0.602981610312
118237500 0.206282399671 -0.60275200876
118247000 0.207205836304 -0.601350569633
118256500 0.205766279356 -0.601898317798
118266000 0.205798973937 -0.60219441399
118275500 0.20627662348 -0.602484366305
118285000 0.206017150421 -0.602096356517
118294500 0.206674260521 -0.601164602655
118304000 0.205050642142 -0.601481924264
118313500 0.205078941472 -0.601840266235
118323000 0.205011094164 -0.60222333647
118332500 0.205654519058 -0.601250955482
118342000 0.205741986579 -0.601039826634
118351500 0.20426980318 -0.601263217639
118361000 0.204674297209 -0.601421009534
118370500 0.204248138656 -0.601842983453
118380000 0.205232064173 -0.600328959015
118389500 0.204469543091 -0.600732429126
118399000 0.203782169256 -0.600973753092
118408500 0.204033168095 -0.601520623337
118418000 0.203511940995 -0.601301495588
118427500 0.204736216011 -0.599930576171
118437000 0.203158050812 -0.600479860319
118446500 0.202981312431 -0.600719016368
118456000 0.203503738096 -0.601057773653
118465500 0.203121554636 -0.600823074646
118475000 0.204166031005 -0.599744493627
118484500 0.202296335447 -0.60011173208
118494000 0.202227321436 -0.60051678373
118503500 0.202238286581 -0.60082555793
118513000 0.202997965767 -0.600062519024
118522500 0.203329643266 -0.599809810137
118532000 0.201532339588 -0.599963532808
118541500 0.201874345572 -0.600082090354
118551000 0.201546184522 -0.600512145686
118560500 0.20275383734 -0.599129891106
118570000 0.202108260917 -0.599516140121
118579500 0.201086074849 -0.599641052611
118589000 0.201215028968 -0.600190520066
118598500 0.20070334194 -0.599978747183
118608000 0.20230046545 -0.598688971089
118617500 0.200570074545 -0.599228072687
118627000 0.200201733427 -0.599451079127
118636500 0.200745876933 -0.599827309803
118646000 0.200379553114 -0.599616880813
118655500 0.201720746029 -0.598713529414
118665000 0.19969376653 -0.598958920055
118674500 0.199518193685 -0.599312972597
118684000 0.199538696148 -0.599657543701
118693500 0.200275144934 -0.599018313054
118703000 0.20093852509 -0.598718486691
118712500 0.198833461486 -0.598733170283
118722000 0.199080382697 -0.598884315722
118731500 0.198818814542 -0.599352995866
118741000 0.199959153581 -0.598347819429
118750500 0.199609250058 -0.598555178846
118760000 0.198303618163 -0.598574701934
118769500 0.198449594682 -0.599110147814
118779000 0.197993883834 -0.598914294099
118788500 0.199812621107 -0.59788365205
118798000 0.19807585325 -0.598346459011
118807500 0.19751042122 -0.598424817834
118817000 0.198063238055 -0.598829480854
118826500 0.197545649391 -0.598621335593
118836000 0.199285886822 -0.597869301943
118845500 0.197031142129 -0.598039023711
118855000 0.19680164768 -0.598325748739
118864500 0.196786881025 -0.598782162946
118874000 0.197366089989 -0.598232125902
118883500 0.198560970363 -0.59795776708
118893000 0.196166427027 -0.597918278318
118902500 0.196235341561 -0.59800485353
118912000 0.196089091634 -0.598462397055
118921500 0.197326209262 -0.597587059782
118931000 0.197191281392 -0.597850303927
118940500 0.195525174788 -0.597683283864
118950000 0.19559282051 -0.59816203876
118959500 0.195957691212 -0.597820663871
118969000 0.19551085705 -0.59768233207
118978500 0.195655651884 -0.597959305448
118988000 0.195072639888 -0.597679889568
118997500 0.196021581865 -0.59757558551
119007000 0.194720969951 -0.59763361364
119016500 0.195044424436 -0.597410927362
119026000 0.194787853652 -0.597751306354
119035500 0.194558609166 -0.597430805889
119045000 0.195332868653 -0.597439935182
119054500 0.193809161877 -0.59738724194
119064000 0.19448418195 -0.597390856629
119073500 0.193544152203 -0.597559171875
119083000 0.194118527733 -0.597348244956
119092500 0.194059848868 -0.597519145585
119102000 0.193084282852 -0.597257263566
119111500 0.193927550319 -0.597381829299
119121000 0.192864950125 -0.597391135372
119130500 0.193723019973 -0.597196802215
119140000 0.193241318951 -0.597340542905
119149500 0.192600320387 -0.597117293936
119159000 0.192890634289 -0.597451845051
119168500 0.192129490691 -0.597185231671
119178000 0.193278240524 -0.59721696759
119187500 0.191981774086 -0.597148261159
119197000 0.192220348242 -0.596942419821
119206500 0.191955166518 -0.597317897165
119216000 0.191752313622 -0.596990322948
119225500 0.192589187362 -0.597126728485
119235000 0.19096277373 -0.596934527953
119244500 0.191644750178 -0.596960558267
119254000 0.190690662195 -0.597073128175
119263500 0.191258870959 -0.596882943641
119273000 0.19124246869 -0.597189717434
119282500 0.190091225901 -0.596798597472
119292000 0.190960427708 -0.597008334354
119301500 0.189878475788 -0.596989071716
119311000 0.190716056415 -0.597001461917
119320500 0.190439068277 -0.597111697126
119330000 0.189636216145 -0.596798313481
119339500 0.190058916041 -0.597204540694
119349000 0.189233813019 -0.59683650357
119358500 0.190247502104 -0.597033252448
119368000 0.189092905094 -0.59690436468
119377500 0.189178183505 -0.596724816863
119387000 0.189060851992 -0.597110814386
119396500 0.188659276615 -0.596769047713
119406000 0.189677165756 -0.597030699034
119415500 0.188033888268 -0.596747327522
119425000 0.188649744004 -0.596834407646
119434500 0.187807762512 -0.596943857322
119444000 0.188273526988 -0.596810475829
119453500 0.188430101488 -0.597190818741
119463000 0.187126262387 -0.596675445746
119472500 0.188006070486 -0.596970459969
119482000 0.186940490043 -0.59682507703
119491500 0.187591274212 -0.596877665365
119501000 0.187509520704 -0.597100429196
119510500 0.18645977205 -0.596618600047
119520000 0.186946853887 -0.597099029241
119529500 0.186094883959 -0.596668960716
119539000 0.187250293487 -0.597046333444
119548500 0.186141188069 -0.596903107547
119558000 0.18604505682 -0.596632203236
119567500 0.186011107324 -0.597095172145
119577000 0.185536348527 -0.596733964755
119586500 0.186554878976 -0.597190472599
119596000 0.184866639095 -0.596735060012
119605500 0.185396651198 -0.596874329795
119615000 0.184671716924 -0.597027402759
119624500 0.184986616196 -0.596848678825
119634000 0.185201487569 -0.597315046608
119643500 0.183899069978 -0.596654622719
119653000 0.184763293989 -0.597139105285
119662500 0.183688069786 -0.59697413086
119672000 0.184375307564 -0.597084066031
119681500 0.184297522892 -0.597362947506
119691000 0.183287618867 -0.596766659375
119700500 0.183772042436 -0.597362135448
119710000 0.182894143554 -0.596857434512
119719500 0.183943589619 -0.59740083781
119729000 0.182894309572 -0.597206236431
119738500 0.18271198765 -0.596869466356
119748000 0.182819062145 -0.597429142756
119757500 0.182199582415 -0.596999205712
119767000 0.183135318419 -0.597607218765
119776500 0.181720694446 -0.597049191421
119786000 0.182009144778 -0.597153389583
119795500 0.181445435135 -0.597345517215
119805000 0.181592684157 -0.597184443355
119814500 0.181973312357 -0.597689448252
119824000 0.180571260999 -0.596896121364
119833500 0.181335436074 -0.597397208876
119843000 0.180248234922 -0.597124103919
119852500 0.18090720327 -0.597334577533
119862000 0.180793763768 -0.597764887273
119871500 0.17968852816 -0.597012717847
119881000 0.180126453423 -0.597725993912
119890500 0.179269671862 -0.597225402646
119900000 0.18022450262 -0.597847114724
119909500 0.178871746182 -0.597252884774
119919000 0.180149414961 -0.598102112259
119928500 0.179405739566 -0.597644511617
119938000 0.178840186465 -0.597599793047
119947500 0.17806968215 -0.597497631202
119957000 0.17815287391 -0.597478872711
119966500 0.17935701119 -0.598444345967
119976000 0.17827721284 -0.597626399274
119985500 0.177530287383 -0.597387574141
119995000 0.177137357114 -0.597669765885
120004500 0.177712375141 -0.597927598068
120014000 0.178006054882 -0.598579434798
120023500 0.177254126845 -0.597927833825
120033000 0.176134363329 -0.597495229115
120042500 0.175979415345 -0.59767585804
120052000 0.176910433215 -0.598423891085
120061500 0.176738883652 -0.598571897181
120071000 0.176149113951 -0.598237017048
120080500 0.175378405273 -0.597781300705
120090000 0.175082073011 -0.597837215141
120099500 0.176287923676 -0.598845815249
120109000 0.175556311914 -0.598429511576
120118500 0.175023441929 -0.598386896096
120128000 0.174167104312 -0.598064370866
120137500 0.174214519912 -0.598114418388
120147000 0.175270956472 -0.599350558333
120156500 0.17427164824 -0.598460521518
120166000 0.173635162083 -0.598148881356
120175500 0.173195206716 -0.598366832114
120185000 0.173532929683 -0.598610245907
120194500 0.173983939303 -0.599467955114
120204000 0.173283019854 -0.598651048249
120213500 0.172252030459 -0.598176238549
120223000 0.172004243869 -0.598323629162
120232500 0.172796044322 -0.599082402466
120242000 0.17267784372 -0.599410204855
120251500 0.172016161542 -0.598907892869
120261000 0.171237652488 -0.598357402701
120270500 0.170954188777 -0.598468554908
120280000 0.171968632837 -0.599618748568
120289500 0.171289575486 -0.599234793898
120299000 0.170782886682 -0.599142087537
120308500 0.169932571212 -0.598711069606
120318000 0.169918424497 -0.598743515257
120327500 0.17094331222 -0.600172876644
120337000 0.170088475298 -0.599275960719
120346500 0.169456850105 -0.598907928773
120356000 0.168997402641 -0.599013565934
120365500 0.169320379901 -0.599253030618
120375000 0.169690110859 -0.600389041574
120384500 0.168968115234 -0.599340534898
120394000 0.168001630779 -0.59879471283
120403500 0.167673535755 -0.599050406078
120413000 0.168264571353 -0.599767726846
120422500 0.168223365788 -0.6002699444
120432000 0.167571161481 -0.599607508276
120441500 0.16683883867 -0.598972097764
120451000 0.166508263739 -0.599175009962
120460500 0.167380546622 -0.600410873518
120470000 0.166820131346 -0.600086827152
120479500 0.166283659453 -0.599921487393
120489000 0.165442322384 -0.599401879994
120498500 0.165459644767 -0.599469702856
120508000 0.166221624683 -0.600950413567
120517500 0.16553766012 -0.60012610592
120527000 0.164943152664 -0.59974311346
120536500 0.16442765964 -0.59972753055
120546000 0.164605383072 -0.59994583368
120555500 0.164896074321 -0.601313173622
120565000 0.16422716963 -0.600138944851
120574500 0.163430032166 -0.599614133506
120584000 0.163099205199 -0.599802574218
120593500 0.163480041552 -0.600559955862
120603000 0.163461653112 -0.601250329032
120612500 0.162734774759 -0.600473376759
120622000 0.162118411414 -0.599725205533
120631500 0.161807528484 -0.600020790754
120641000 0.162559882872 -0.601289468575
120650500 0.162017351953 -0.601094183916
120660000 0.16154173995 -0.600731440548
120669500 0.1606819273 -0.600126230623
120679000 0.160571417782 -0.600231573197
120688500 0.16127813373 -0.601835721783
120698000 0.160603330842 -0.601012995189
120707500 0.1599637854 -0.600593001331
120717000 0.159461196442 -0.600493677198
120726500 0.159580467191 -0.600701023877
120736000 0.159781207823 -0.602271038218
120745500 0.159208974632 -0.600992797023
120755000 0.158420573272 -0.60051542145
120764500 0.158029397078 -0.600644677614
120774000 0.158368943114 -0.601387130507
120783500 0.158290413158 -0.602263113073
120793000 0.157642427815 -0.601339753645
120802500 0.157058669059 -0.600483637403
120812000 0.156746133776 -0.600756991041
120821500 0.157230726159 -0.60206367026
120831000 0.156764392314 -0.602066761213
120840500 0.156240731507 -0.601520887866
120850000 0.155523851666 -0.600856251497
120859500 0.155648235861 -0.601306316158
120869000 0.155176028298 -0.600846974612
120878500 0.155056830126 -0.601372746896
120888000 0.155232039225 -0.602340847224
120897500 0.155098462791 -0.602806850676
120907000 0.154118237959 -0.601042896508
120916500 0.153665717724 -0.600967275474
120926000 0.153684913643 -0.601727346175
120935500 0.153945247521 -0.602986823157
120945000 0.153362089971 -0.602637454017
120954500 0.152543666034 -0.600878751206
120964000 0.152325382778 -0.601372062726
120973500 0.152382602045 -0.602246935428
120983000 0.152453518637 -0.603183096104
120992500 0.151817174488 -0.60241501413
121002000 0.151097215748 -0.601233870094
121011500 0.150762203714 -0.601719253058
121021000 0.151004095567 -0.602633109498
121030500 0.150916730944 -0.603335951406
121040000 0.150091929132 -0.602164149558
121049500 0.149584777964 -0.601549910617
121059000 0.149449343047 -0.602126976212
121068500 0.149467951353 -0.603079680321
121078000 0.149262298727 -0.603639803569
121087500 0.148486641592 -0.60183389394
121097000 0.148038122549 -0.601617100319
121106500 0.147910687006 -0.602367043935
121116000 0.14805001558 -0.603711046009
121125500 0.147523546118 -0.603489080333
121135000 0.146889952798 -0.601603903289
121144500 0.146610379737 -0.602054812821
121154000 0.146513419083 -0.602963488004
121163500 0.146425974911 -0.603972099054
121173000 0.145869046251 -0.603289223613
121182500 0.145238499157 -0.60194939097
121192000 0.144818493279 -0.602388065305
121201500 0.144876462575 -0.603377595859
121211000 0.144758041864 -0.604147798193
121220500 0.14409434333 -0.603024476125
121230000 0.143613519276 -0.602327050744
121239500 0.143340396835 -0.602848570413
121249000 0.14332688249 -0.603843377376
121258500 0.14308837844 -0.604378104302
121268000 0.142441264287 -0.602768032999
121277500 0.141968322432 -0.602380734822
121287000 0.141817628064 -0.603080379976
121296500 0.141755474536 -0.604352523531
121306000 0.141296267671 -0.604269600267
121315500 0.140887584181 -0.602240108233
121325000 0.140517998024 -0.602590866542
121334500 0.140298292672 -0.60348244778
121344000 0.140128961775 -0.604512138283
121353500 0.139615469343 -0.603870323872
121363000 0.139160601676 -0.602272998226
121372500 0.138661827365 -0.602726734583
121382000 0.138645441531 -0.603726387736
121391500 0.138398095441 -0.604531577605
121401000 0.137837530895 -0.603456495529
121410500 0.13740767592 -0.602519865096
121420000 0.137058979849 -0.603053514569
121429500 0.13686252667 -0.60404214194
121439000 0.136541333339 -0.604615463863
121448500 0.136086841725 -0.6031155676
121458000 0.135613017312 -0.602645602955
121467500 0.135251648655 -0.60331797694
121477000 0.13507726382 -0.60466742822
121486500 0.134617705041 -0.604770152232
121496000 0.134404429982 -0.602727823876
121505500 0.134013884795 -0.603076244114
121515000 0.133645446886 -0.603925595963
121524500 0.133317394583 -0.60505182358
121534000 0.132863506343 -0.604508217834
121543500 0.132583051168 -0.602820264747
121553000 0.132048093491 -0.603208736785
121562500 0.131796568231 -0.604237836527
121572000 0.131540169687 -0.605062832068
121581500 0.131058660938 -0.60400519578
121591000 0.130807311705 -0.602986687837
121600500 0.130408235134 -0.603472382152
121610000 0.130066053242 -0.60444139478
121619500 0.129693585661 -0.60489436392
121629000 0.129399293483 -0.603498189722
121638500 0.128995453781 -0.602904801258
121648000 0.128542266165 -0.603528491128
121657500 0.128185508429 -0.60478174574
121667000 0.127681102769 -0.604952136676
121676500 0.127652313633 -0.60290557988
121686000 0.127197735017 -0.603032763684
121695500 0.126681596503 -0.603874679053
121705000 0.126222205748 -0.605020269024
121714500 0.125856380556 -0.604510366697
121724000 0.125757117319 -0.602721746997
121733500 0.125188112605 -0.603075491377
121743000 0.124773974045 -0.604042911391
121752500 0.124364515639 -0.604960118991
121762000 0.123952216884 -0.604049549547
121771500 0.123825623427 -0.602895194635
121781000 0.123321711305 -0.603399323096
121790500 0.122920000226 -0.604377607995
121800000 0.122455757966 -0.604884458434
121809500 0.122237335 -0.604410944531
121819000 0.121500558033 -0.604754875269
121828500 0.121374288168 -0.603712787365
121838000 0.121179749504 -0.603232873133
121847500 0.120684664806 -0.603111260246
121857000 0.120103667915 -0.604837314663
121866500 0.119860051147 -0.603826814801
121876000 0.119647826198 -0.603577312448
121885500 0.119003536961 -0.60308046708
121895000 0.118883139815 -0.60312361407
121904500 0.117868874786 -0.604943686254
121914000 0.118116757281 -0.603221557119
121923500 0.117634481128 -0.603493836281
121933000 0.11698772194 -0.603145930879
121942500 0.117194769221 -0.603308651625
121952000 0.115649080428 -0.604888200916
121961500 0.116167000463 -0.603332613332
121971000 0.115636890812 -0.603083526978
121980500 0.115232152798 -0.602902179845
121990000 0.11492058242 -0.603890763608
121999500 0.113952010295 -0.604487507852
122009000 0.114068206672 -0.60323651508
122018500 0.113923890507 -0.602819423142
122028000 0.113348280038 -0.602650303563
122037500 0.112684631409 -0.604184978912
122047000 0.112393353416 -0.603478116548
122056500 0.112284093848 -0.602959747986
122066000 0.11172390965 -0.602482572266
122075500 0.111517542682 -0.602509588263
122085000 0.110399650185 -0.604207548391
122094500 0.110794609913 -0.602641015471
122104000 0.110257848842 -0.602842867883
122113500 0.109667027247 -0.602487526208
122123000 0.109816460779 -0.60257009549
122132500 0.108150071383 -0.604002253335
122142000 0.108845688624 -0.602536462123
122151500 0.108279850265 -0.602346862765
122161000 0.107872987244 -0.60211292513
122170500 0.107512483896 -0.602870111573
122180000 0.106290416552 -0.603627502119
122189500 0.106599156421 -0.602274408862
122199000 0.106542321139 -0.601920642163
122208500 0.105949034871 -0.601786374906
122218000 0.105276925731 -0.603130172243
122227500 0.104777647664 -0.602687914238
122237000 0.104855271077 -0.602072462275
122246500 0.10443352003 -0.601505158081
122256000 0.104162405356 -0.601495202074
122265500 0.102841522245 -0.603085525782
122275000 0.103370897513 -0.601667735632
122284500 0.102801413512 -0.601709652731
122294000 0.102216152425 -0.601381022546
122303500 0.102362970259 -0.601424624386
122313000 0.100602093661 -0.60272859171
122322500 0.101343862077 -0.601406758614
122332000 0.100799144326 -0.601212082328
122341500 0.100389085442 -0.600920952018
122351000 0.10012384656 -0.601495032828
122360500 0.0986834054702 -0.602463753788
122370000 0.0992386666283 -0.601076817346
122379500 0.0991672092957 -0.60075441874
122389000 0.0985195727319 -0.60053192519
122398500 0.0978376956632 -0.601763198913
122408000 0.0971201883064 -0.601453660509
122417500 0.0973766126743 -0.600751017851
122427000 0.0969995764532 -0.600159961271
122436500 0.096681657523 -0.600227811867
122446000 0.0952444224836 -0.601664410778
122455500 0.095790461331 -0.600518739685
122465000 0.0953301031365 -0.600383110014
122474500 0.0948552251343 -0.600051724383
122484000 0.0949222404722 -0.600085339192
122493500 0.0930839807343 -0.60122319807
122503000 0.0939432426573 -0.600035758763
122512500 0.0934020040595 -0.599857688859
122522000 0.0930003265676 -0.59955502714
122531500 0.0927873456147 -0.599982783448
122541000 0.0910569795544 -0.600878000852
122550500 0.0918205408055 -0.599599738983
122560000 0.0917976713448 -0.599343232997
122569500 0.0911013195018 -0.599079695371
122579000 0.0904506848584 -0.600086162813
122588500 0.0895079222502 -0.599978264698
122598000 0.0899571527522 -0.599198886303
122607500 0.0896531168714 -0.598666324271
122617000 0.0892292000998 -0.598689496826
122626500 0.087844347342 -0.599891602669
122636000 0.0881742884103 -0.599034737583
122645500 0.0879262628711 -0.598714298632
122655000 0.0874859140541 -0.598390299716
122664500 0.0874853271898 -0.598420467514
122674000 0.0856430643112 -0.599386379505
122683500 0.0865895917861 -0.598328255398
122693000 0.0861011678661 -0.598187289953
122702500 0.0855838594167 -0.597858486067
122712000 0.0854567429275 -0.598209631995
122721500 0.0835902667284 -0.599032580871
122731000 0.0843759734156 -0.597858465767
122740500 0.084394787104 -0.597655506553
122750000 0.0836957617419 -0.597357026165
122759500 0.0833346031915 -0.597644616243
122769000 0.0826800491047 -0.597596379175
122778500 0.0824029762575 -0.597659402031
122788000 0.0815356114076 -0.597814712673
122797500 0.0821294827923 -0.596862874633
122807000 0.0810934130191 -0.597304890616
122816500 0.080905942302 -0.596985540804
122826000 0.0804260061546 -0.597257182593
122835500 0.0794905237791 -0.597096057499
122845000 0.0802699333588 -0.596458067984
122854500 0.078913368312 -0.596707680063
122864000 0.0790119105671 -0.596432485949
122873500 0.0782439748844 -0.596989390266
122883000 0.0777365753238 -0.596454754633
122892500 0.078294846936 -0.596086656807
122902000 0.0769262935984 -0.596290072546
122911500 0.0770943315401 -0.596144420473
122921000 0.0760994377939 -0.596369865754
122930500 0.0762722755945 -0.595762783782
122940000 0.0761159536264 -0.59570241461
122949500 0.0752127698365 -0.595642729747
122959000 0.0750222173741 -0.595692588951
122968500 0.0741613301214 -0.595840540537
122978000 0.0747298716972 -0.594934272862
122987500 0.0738640590161 -0.595299592286
122997000 0.0735197905245 -0.595097594414
123006500 0.0731564562526 -0.595249941312
123016000 0.072227311439 -0.595074678836
123025500 0.0730005152126 -0.59451894663
123035000 0.0717395417241 -0.594663018074
123044500 0.0717327137636 -0.594468513843
123054000 0.0709946410014 -0.594869129437
123063500 0.070388346842 -0.594400891625
123073000 0.0710561061859 -0.594072791383
123082500 0.0697025117863 -0.594172918121
123092000 0.0698547220052 -0.594090138567
123101500 0.0688344730042 -0.594192762865
123111000 0.0690065171926 -0.593684615199
123120500 0.0689934463992 -0.593583394929
123130000 0.067956373068 -0.593497204244
123139500 0.0678492885383 -0.593476206339
123149000 0.0669248170965 -0.593627532497
123158500 0.0674600710346 -0.592810859166
123168000 0.0666589204322 -0.593025383442
123177500 0.0661547742791 -0.592899323876
123187000 0.0659266403958 -0.59307575809
123196500 0.0650281023827 -0.592897143415
123206000 0.0656805262977 -0.592429863105
123215500 0.0645091558652 -0.592488287075
123225000 0.0644417445503 -0.592301467507
123234500 0.0637772797239 -0.592637184299
123244000 0.0631025735202 -0.59226022142
123253500 0.0639083583691 -0.592001117288
123263000 0.062549503669 -0.592038980307
123272500 0.0626009809559 -0.591900853995
123282000 0.0616877070838 -0.592013410907
123291500 0.0616137716424 -0.591541392162
123301000 0.0618263814017 -0.591484054815
123310500 0.0606615247014 -0.591332997392
123320000 0.0605388224878 -0.591276041412
123329500 0.0597052815069 -0.591456178185
123339000 0.0601668779157 -0.5907828752
123348500 0.0595412122674 -0.590946093623
123358000 0.0588885310722 -0.590765808884
123367500 0.0587470631687 -0.590890117054
123377000 0.0578763701473 -0.590649799644
123386500 0.0584675371779 -0.590308192088
123396000 0.0574349452743 -0.590295518677
123405500 0.0572264600752 -0.590134865817
123415000 0.0566351029763 -0.59043133006
123424500 0.0558284899369 -0.590006523369
123434000 0.0566710679531 -0.589846567125
123443500 0.05541029538 -0.589776981568
123453000 0.0553344612163 -0.58977445919
123462500 0.0545621681997 -0.589813447181
123472000 0.0543690429777 -0.589398932817
123481500 0.0547364541493 -0.589408150631
123491000 0.0534893797451 -0.589157051608
123500500 0.0534099418088 -0.589106737318
123510000 0.0525667745864 -0.589208853155
123519500 0.0528994125843 -0.588616022018
123529000 0.0524840984457 -0.588809244905
123538500 0.0516658757123 -0.588576619589
123548000 0.0515910406097 -0.588710352719
123557500 0.0506702436666 -0.588430305521
123567000 0.0512028386514 -0.588150722202
123576500 0.0503206548248 -0.588156076262
123586000 0.0500047815279 -0.587965373872
123595500 0.0495461850653 -0.588251310177
123605000 0.0486573090462 -0.587802997419
123614500 0.0494482605692 -0.587722203918
123624000 0.0483136783938 -0.587598712945
123633500 0.0481007990086 -0.587576956344
123643000 0.0474770269562 -0.587667232455
123652500 0.0471067873999 -0.587214608507
123662000 0.0475612775402 -0.587260432776
123671500 0.0463334967648 -0.586998463185
123681000 0.0462301053745 -0.586942508365
123690500 0.0454478151594 -0.587029562912
123700000 0.0456402094127 -0.586477303371
123709500 0.0448482553332 -0.586589500065
123719000 0.0451664763984 -0.586196156739
123728500 0.0448338325111 -0.586300182436
123738000 0.0432868949408 -0.58623092144
123747500 0.0431000317048 -0.586314485132
123757000 0.0430661522537 -0.585905825258
123766500 0.0431916604944 -0.585600500956
123776000 0.0425996753715 -0.585983372624
123785500 0.04129691329 -0.585814172923
123795000 0.0410672756549 -0.585804313338
123804500 0.041266305609 -0.585270435601
123814000 0.0414327264253 -0.585192483969
123823500 0.0404384512292 -0.585353582437
123833000 0.0393708701605 -0.585312423731
123842500 0.0390947581074 -0.585124057482
123852000 0.039627845629 -0.584698613565
123861500 0.0395585605256 -0.58469536682
123871000 0.0381424884016 -0.584702394772
123880500 0.0376004521052 -0.58471228983
123890000 0.0375024530559 -0.584450112685
123899500 0.0378725201153 -0.584059852488
123909000 0.0375030543755 -0.58411352794
123918500 0.0360158415941 -0.584007023271
123928000 0.0357991516232 -0.58406872963
123937500 0.0357263982931 -0.583741431449
123947000 0.0358263551588 -0.583409620183
123956500 0.0353336940469 -0.583797916853
123966000 0.0339834782866 -0.583517611509
123975500 0.0336610862736 -0.583499910614
123985000 0.0339048965521 -0.583022544048
123994500 0.034016440608 -0.582989547112
124004000 0.0330625622012 -0.583153837435
124013500 0.0319671093594 -0.583045211774
124023000 0.0317029559806 -0.582858934065
124032500 0.0321895851469 -0.582511816814
124042000 0.0320901695814 -0.582493248862
124051500 0.0307309618657 -0.582530361569
124061000 0.0301039160238 -0.582473615942
124070500 0.0299534232401 -0.582300194482
124080000 0.0302641481845 -0.58190899295
124089500 0.0299660586006 -0.582001254562
124099000 0.0284061150208 -0.581787332042
124108500 0.0281870870894 -0.58188158114
124118000 0.0281143960458 -0.581601403152
124127500 0.0282241330341 -0.581236699448
124137000 0.0276729869617 -0.581605844043
124146500 0.0263876869302 -0.58122920098
124156000 0.0261181864209 -0.58125956354
124165500 0.0262690538701 -0.580844517813
124175000 0.0263033970998 -0.580798385083
124184500 0.0255029364032 -0.580935950388
124194000 0.0243265790908 -0.58078521934
124203500 0.023967931605 -0.580560713229
124213000 0.0244430059057 -0.580324851105
124222500 0.0243795350235 -0.580283986644
124232000 0.0230777447888 -0.580308847232
124241500 0.022369640696 -0.580217617049
124251000 0.0221801294599 -0.579994578617
124260500 0.0225070895455 -0.579657825276
124270000 0.022258121879 -0.579778947215
124279500 0.0207809022933 -0.579485144463
124289000 0.0204401907716 -0.579545776375
124298500 0.0203781173174 -0.579320604857
124308000 0.0204788993365 -0.578979491348
124317500 0.0199330279212 -0.579325391875
124327000 0.0186002332907 -0.578883929867
124336500 0.0183181508713 -0.57889045836
124346000 0.0183559535377 -0.578544812332
124355500 0.0183672129598 -0.578510697075
124365000 0.0175668768924 -0.578727344055
124374500 0.0164169497986 -0.578475518525
124384000 0.0161028282757 -0.578353290664
124393500 0.016446847438 -0.578091825515
124403000 0.016367178989 -0.578046889639
124412500 0.0151233135611 -0.578054233238
124422000 0.0143348139732 -0.577904209139
124431500 0.0141235552739 -0.577712853343
124441000 0.0144581576692 -0.577382764033
124450500 0.0142037355427 -0.577555269927
124460000 0.0128028096028 -0.577209219372
124469500 0.0122872975814 -0.577176597684
124479000 0.0122158903157 -0.577029021546
124488500 0.0124004150579 -0.576694930593
124498000 0.011823876343 -0.576993526418
124507500 0.0105282417784 -0.576454253267
124517000 0.010231829892 -0.576513790524
124526500 0.0103275397971 -0.576250033096
124536000 0.0102198681448 -0.576130166232
124545500 0.00948317195194 -0.576278301468
124555000 0.00831918235115 -0.575920045832
124564500 0.00797685252134 -0.575832590013
124574000 0.00824315197803 -0.575607911993
124583500 0.00815030220181 -0.575565027334
124593000 0.00696140620121 -0.575564347552
124602500 0.00611540519356 -0.575410980988
124612000 0.00584203989852 -0.575219192676
124621500 0.00623166596787 -0.574941787954
124631000 0.00595768240389 -0.575159799317
124640500 0.00453480672705 -0.574788423247
124650000 0.00399052233777 -0.57473069849
124659500 0.0031516953995 -0.574491935139
124669000 0.00337870312046 -0.574525257074
124678500 0.00324880053688 -0.574478439683
124688000 0.00266781748882 -0.574103078061
124697500 0.0015618644652 -0.57418595957
124707000 0.00114677822383 -0.573721856239
124716500 0.0012825314456 -0.573755035227
124726000 0.0010511318928 -0.573582019341
124735500 0.000410243678983 -0.573475699636
124745000 -0.000885476957182 -0.573337123881
124754500 -0.000935010455535 -0.572969255243
124764000 -0.000888738998213 -0.573171991365
124773500 -0.00126863174471 -0.572612067418
124783000 -0.00186903014305 -0.572862668202
124792500 -0.00321166074229 -0.572430338271
124802000 -0.00289250945649 -0.572296580293
124811500 -0.00307466991772 -0.572568782944
124821000 -0.00361040874886 -0.571880585141
124830500 -0.00439535047874 -0.572336077473
124840000 -0.00533097669768 -0.571671217708
124849500 -0.00514886777662 -0.571625739577
124859000 -0.00528822568488 -0.571718444843
124868500 -0.00591135102053 -0.57128990375
124878000 -0.00695416620838 -0.571394984402
124887500 -0.00745013472943 -0.570860441493
124897000 -0.0073684460927 -0.57091139187
124906500 -0.0076040078957 -0.570860622229
124916000 -0.00822638202851 -0.570610600077
124925500 -0.00954980608098 -0.570493789484
124935000 -0.00962677592821 -0.57004894411
124944500 -0.00963957453547 -0.570257376322
124954000 -0.00999336330337 -0.569716885021
124963500 -0.0106201859983 -0.569895504328
124973000 -0.0119932254498 -0.569484837944
124982500 -0.0117525258579 -0.569311556285
124992000 -0.0118929238924 -0.569612832089
125001500 -0.0124245187235 -0.568893874081
125011000 -0.0131929480166 -0.56925121839
125020500 -0.0141882069282 -0.568560054496
125030000 -0.0139339636363 -0.568555923301
125039500 -0.0141243549592 -0.568758319952
125049000 -0.0147593488189 -0.568184694241
125058500 -0.015764090186 -0.568308344275
125068000 -0.0163187947726 -0.567749294035
125077500 -0.0162158774418 -0.567793925046
125087000 -0.0164909422736 -0.567780510845
125096500 -0.017077193484 -0.567414397993
125106000 -0.0184519730955 -0.567321735288
125115500 -0.0185098011259 -0.566883393268
125125000 -0.0185667435982 -0.567102540489
125134500 -0.0188683647568 -0.566585283533
125144000 -0.0195723012821 -0.566692612348
125153500 -0.0209544193848 -0.566170413118
125163000 -0.0207927981138 -0.566019391313
125172500 -0.020923521995 -0.566329425009
125182000 -0.0213866012524 -0.565565718245
125191500 -0.0222255367049 -0.5658558998
125201000 -0.0232428451135 -0.565121264232
125210500 -0.0229846483829 -0.565207614291
125220000 -0.0232734538771 -0.565400190431
125229500 -0.0238325945143 -0.564677899088
125239000 -0.0248115961106 -0.564804235981
125248500 -0.0254603036101 -0.564262342405
125258000 -0.025354187138 -0.564279992636
125267500 -0.0256448164372 -0.564351701588
125277000 -0.0262073128882 -0.563861397543
125286500 -0.0275209531987 -0.563770302452
125296000 -0.0276731911056 -0.563296985323
125305500 -0.0277488495609 -0.563492564382
125315000 -0.0279720257687 -0.563120882309
125324500 -0.0287432170054 -0.563071172497
125334000 -0.0300961575723 -0.562530017202
125343500 -0.0299463326463 -0.562372126275
125353000 -0.030137052418 -0.562651836077
125362500 -0.0305234599619 -0.561870934351
125372000 -0.0313254316636 -0.562132339386
125381500 -0.032454748687 -0.561361292554
125391000 -0.0322485562273 -0.561378315092
125400500 -0.0325231926967 -0.561633652077
125410000 -0.0330472008786 -0.560867501344
125419500 -0.0340432750158 -0.561024428566
125429000 -0.0347792589796 -0.560351170296
125438500 -0.034608479404 -0.56034242638
125448000 -0.0349680482234 -0.560480671757
125457500 -0.0355083648341 -0.559916598229
125467000 -0.0368813234346 -0.559697272119
125476500 -0.0370053038123 -0.559235180113
125486000 -0.0370986637107 -0.559467234066
125495500 -0.0373499551454 -0.559170310115
125505000 -0.0381167096906 -0.559036844359
125514500 -0.0394688360596 -0.558440410856
125524000 -0.0393935727398 -0.558321026587
125533500 -0.0395745888161 -0.558581626413
125543000 -0.0399089230923 -0.557862270581
125552500 -0.0407234030598 -0.558027050269
125562000 -0.0418631737159 -0.557178050904
125571500 -0.041664643896 -0.557172539087
125581000 -0.0419842001508 -0.557544424078
125590500 -0.0424388184425 -0.55668897477
125600000 -0.0434319083129 -0.556745271561
125609500 -0.0438344495572 -0.556129783317
125619000 -0.0443993046249 -0.556078245052
125628500 -0.0441918639302 -0.555522162003
125638000 -0.044838319458 -0.55606513203
125647500 -0.0459709852661 -0.554902374513
125657000 -0.0463642589666 -0.554775307024
125666500 -0.0467467368662 -0.554859209409
125676000 -0.0466056218519 -0.554521767364
125685500 -0.0475994773812 -0.554679244669
125695000 -0.0484617334607 -0.553673696928
125704500 -0.048969190516 -0.553666657742
125714000 -0.0489913318765 -0.55367535204
125723500 -0.0491510709168 -0.553590738796
125733000 -0.0503245779453 -0.553087792213
125742500 -0.050874840432 -0.552543870217
125752000 -0.0514836126565 -0.55250004206
125761500 -0.051293924202 -0.552233178875
125771000 -0.0516198858594 -0.552540599015
125780500 -0.0528858474481 -0.551465889211
125790000 -0.0532683550301 -0.551412401159
125799500 -0.0538576389374 -0.551312855363
125809000 -0.0536140745431 -0.550783614728
125818500 -0.0542492167656 -0.551330441398
125828000 -0.0553943870239 -0.55003153535
125837500 -0.0558562257672 -0.549907269455
125847000 -0.0562765368288 -0.549957129459
125856500 -0.0561011288206 -0.549628246742
125866000 -0.0571073771763 -0.549874641744
125875500 -0.057898615059 -0.548656305351
125885000 -0.0583944263031 -0.548659760843
125894500 -0.0585213622448 -0.548662102786
125904000 -0.0586128968575 -0.548547544653
125913500 -0.0597743196779 -0.54814544289
125923000 -0.0603364808015 -0.547442060164
125932500 -0.0609088979363 -0.547405586764
125942000 -0.0608281088963 -0.547180834637
125951500 -0.061155376323 -0.547411779154
125961000 -0.0622826595579 -0.546285927061
125970500 -0.0627682531295 -0.54611183294
125980000 -0.0633403454526 -0.546016771477
125989500 -0.0630990871417 -0.545602905245
125999000 -0.0637766937772 -0.546070935211
126008500 -0.0648732237746 -0.544726488715
126018000 -0.065288624514 -0.544609153201
126027500 -0.0658397515792 -0.544643446851
126037000 -0.0656420076052 -0.544272691804
126046500 -0.0666236729394 -0.544519313174
126056000 -0.067351893528 -0.54322221187
126065500 -0.0678268808707 -0.543229681525
126075000 -0.0680795861464 -0.543333822582
126084500 -0.0681507155689 -0.543094587192
126094000 -0.0692129604482 -0.542752614472
126103500 -0.0698206348712 -0.541866632618
126113000 -0.070361836865 -0.541794658254
126122500 -0.0703628974609 -0.541693506861
126132000 -0.0706552022211 -0.541811811653
126141500 -0.0717196692398 -0.540758501564
126151000 -0.072215635226 -0.540464106117
126160500 -0.0727985687746 -0.54044503658
126170000 -0.0725637605049 -0.540026966873
126179500 -0.0732236057766 -0.540499267157
126189000 -0.0742269528561 -0.539103430237
126198500 -0.0746134230946 -0.538922132396
126208000 -0.0752247178876 -0.538945139914
126217500 -0.0750339745861 -0.538442589473
126227000 -0.0760033040493 -0.538798929686
126236500 -0.076674975232 -0.537367615565
126246000 -0.0771766111191 -0.537340458546
126255500 -0.0775103363174 -0.53747250375
126265000 -0.077573652645 -0.537279080273
126274500 -0.0786320165201 -0.536959150193
126284000 -0.0791591475777 -0.535925303961
126293500 -0.0796749897898 -0.535870560757
126303000 -0.0797808353324 -0.535887063039
126312500 -0.0800896916967 -0.535873410429
126322000 -0.0810409542743 -0.534810470593
126331500 -0.0815343958726 -0.534387177898
126341000 -0.082168236171 -0.534354520157
126350500 -0.0819837490273 -0.533996808643
126360000 -0.0826304842816 -0.534363200189
126369500 -0.0835243784683 -0.532981111357
126379000 -0.0839511007521 -0.532785126289
126388500 -0.0846471602409 -0.532826055975
126398000 -0.0843915854865 -0.532347142892
126407500 -0.0853186980108 -0.532667739066
126417000 -0.0858923552758 -0.531236579203
126426500 -0.0863993830084 -0.531080693869
126436000 -0.0868778144373 -0.531198422672
126445500 -0.0868456806755 -0.530944528813
126455000 -0.0879348328338 -0.530747469633
126464500 -0.0884541266092 -0.529616174801
126474000 -0.0889863225634 -0.529459415703
126483500 -0.0891459229973 -0.529532054448
126493000 -0.0894157806719 -0.529519942352
126502500 -0.0902850809598 -0.528544474942
126512000 -0.0907473283352 -0.527969412112
126521500 -0.0913390636965 -0.527973137177
126531000 -0.0912251090673 -0.527681508215
126540500 -0.0919180544712 -0.527943484463
126550000 -0.0927198316975 -0.526564806949
126559500 -0.0932482902419 -0.526280980451
126569000 -0.0936924367388 -0.525975919553
126578500 -0.0941270345869 -0.526127305037
126588000 -0.0941322032704 -0.525822276186
126597500 -0.0950759962262 -0.525593063682
126607000 -0.09570963023 -0.524416006874
126616500 -0.096026728032 -0.524213396572
126626000 -0.0964034733607 -0.524415198505
126635500 -0.0966509926265 -0.524115682479
126645000 -0.0975114262504 -0.523558808933
126654500 -0.098093105418 -0.522641648585
126664000 -0.0985301713623 -0.522579145072
126673500 -0.0988051714724 -0.522686916994
126683000 -0.0991260169198 -0.522541971424
126692500 -0.0999738857862 -0.521598780941
126702000 -0.100394875089 -0.520973917496
126711500 -0.10098647278 -0.520914536184
126721000 -0.101105672691 -0.520811822058
126730500 -0.101684995438 -0.520730595933
126740000 -0.102251515974 -0.519479511901
126749500 -0.102729049404 -0.519133454418
126759000 -0.103209983839 -0.519233243699
126768500 -0.103266110193 -0.518994775525
126778000 -0.104149549938 -0.518720325761
126787500 -0.10464436097 -0.517518614835
126797000 -0.104954515999 -0.517278389158
126806500 -0.105452499888 -0.517491271823
126816000 -0.105690795764 -0.5171476621
126825500 -0.106484146108 -0.51666555605
126835000 -0.106989795019 -0.515711278063
126844500 -0.107452299597 -0.51556358933
126854000 -0.107782552404 -0.515643196026
126863500 -0.108156303769 -0.515449013935
126873000 -0.108932088532 -0.514602831187
126882500 -0.109393064939 -0.51390346745
126892000 -0.109949426643 -0.513833784414
126901500 -0.110180086924 -0.513716414645
126911000 -0.110789014381 -0.513700893626
126920500 -0.111237005488 -0.512425555095
126930000 -0.111595333843 -0.511981962223
126939500 -0.112149068087 -0.512097851863
126949000 -0.112232221723 -0.511886663941
126958500 -0.113074183759 -0.511560322818
126968000 -0.11349255097 -0.510341300025
126977500 -0.113789837403 -0.510111067754
126987000 -0.114360524102 -0.51025348738
126996500 -0.114601838826 -0.509838242323
127006000 -0.115332721057 -0.509365584961
127015500 -0.1158154331 -0.508370957341
127025000 -0.116279241757 -0.508167907089
127034500 -0.116672400403 -0.508285799944
127044000 -0.116963812216 -0.508074375649
127053500 -0.117750280951 -0.507262713639
127063000 -0.11812318997 -0.506508175015
127072500 -0.118714928196 -0.506382682422
127082000 -0.118993514819 -0.506267106559
127091500 -0.119580393141 -0.506201046421
127101000 -0.119927472392 -0.505005335045
127110500 -0.120385538669 -0.504567839525
127120000 -0.120962917695 -0.504608386788
127129500 -0.121095863719 -0.504365022958
127139000 -0.121895549468 -0.504025053722
127148500 -0.122259478205 -0.502756957962
127158000 -0.12257145811 -0.502458775579
127167500 -0.123244180753 -0.502549143231
127177000 -0.123415806809 -0.502145014049
127186500 -0.124222691735 -0.501746855034
127196000 -0.124593464098 -0.500713479078
127205500 -0.124991932268 -0.500497996214
127215000 -0.125528087594 -0.500617529552
127224500 -0.125799337734 -0.500311105403
127234000 -0.126597660687 -0.499554481898
127243500 -0.126939905864 -0.498751915871
127253000 -0.127510636154 -0.498651343558
127262500 -0.127829483652 -0.498525815046
127272000 -0.128363106903 -0.498316436204
127281500 -0.128736924778 -0.497219944406
127291000 -0.129137295653 -0.496721155515
127300500 -0.129834827778 -0.496735974029
127310000 -0.129924699599 -0.496514399286
127319500 -0.130677985925 -0.496163013199
127329000 -0.130966324437 -0.495012504772
127338500 -0.131245348459 -0.494702389984
127348000 -0.131918830723 -0.494736205956
127357500 -0.132004327048 -0.494333923358
127367000 -0.132805517816 -0.493935759761
127376500 -0.133094106668 -0.492890774966
127386000 -0.133479949614 -0.49262655736
127395500 -0.134031574401 -0.492756508451
127405000 -0.134296637339 -0.492397598438
127414500 -0.135093308244 -0.491683893395
127424000 -0.135412900843 -0.490886087017
127433500 -0.135872945847 -0.490706368099
127443000 -0.136233539176 -0.490561054403
127452500 -0.136721987605 -0.490361315806
127462000 -0.137051965824 -0.489392606127
127471500 -0.137347808997 -0.488776529094
127481000 -0.137985362596 -0.488769609654
127490500 -0.138186267167 -0.488555048495
127500000 -0.138906773313 -0.488183686637
127509500 -0.13906747146 -0.487854231955
127519000 -0.139720736366 -0.486998324856
127528500 -0.139657141947 -0.486339889722
127538000 -0.140642959458 -0.486151465563
127547500 -0.140361959308 -0.485832785654
127557000 -0.141526576931 -0.485886080969
127566500 -0.141677283034 -0.484533190293
127576000 -0.141812992098 -0.484284188816
127585500 -0.142857642212 -0.484094803416
127595000 -0.142309236273 -0.483513011116
127604500 -0.143825190052 -0.483685012172
127614000 -0.143572708128 -0.482454351647
127623500 -0.144070238538 -0.482132083566
127633000 -0.145171759695 -0.482037209817
127642500 -0.144700573803 -0.481613645523
127652000 -0.146211267169 -0.481330156173
127661500 -0.14596115988 -0.480277040823
127671000 -0.146652039528 -0.480015141396
127680500 -0.147264324876 -0.479734196948
127690000 -0.147406232673 -0.479571601137
127699500 -0.148208131388 -0.478829028056
127709000 -0.148015054731 -0.478163650312
127718500 -0.148955942315 -0.477949810049
127728000 -0.148849902677 -0.477690324046
127737500 -0.14990686237 -0.477625138328
127747000 -0.150072701229 -0.476294878429
127756500 -0.150152097589 -0.476012749188
127766000 -0.151307666396 -0.475697688938
127775500 -0.150759679607 -0.475198185953
127785000 -0.152272193932 -0.475244811822
127794500 -0.152028108909 -0.474069195214
127804000 -0.152528751559 -0.473731996186
127813500 -0.153693924731 -0.473606176951
127823000 -0.153105304546 -0.473204846072
127832500 -0.154659013757 -0.472928931022
127842000 -0.154403629262 -0.471834842985
127851500 -0.154938219175 -0.471589873548
127861000 -0.155664006403 -0.471380339948
127870500 -0.155572437108 -0.47120760398
127880000 -0.156557147154 -0.470441647981
127889500 -0.156312180143 -0.46975225419
127899000 -0.15727458833 -0.469389519548
127908500 -0.157350095261 -0.469252120789
127918000 -0.158222159658 -0.469116292763
127927500 -0.15841834984 -0.467850342245
127937000 -0.158304214377 -0.467710973146
127946500 -0.159511809128 -0.467389545814
127956000 -0.158885342353 -0.466946908519
127965500 -0.160375824527 -0.466890305878
127975000 -0.160074544158 -0.465742594342
127984500 -0.160459916463 -0.465400188603
127994000 -0.161691703449 -0.465099006324
128003500 -0.160997843751 -0.464764686904
128013000 -0.162599502583 -0.464462542802
128022500 -0.162385683513 -0.4632584771
128032000 -0.16285761867 -0.462980154702
128041500 -0.163767540052 -0.462767991977
128051000 -0.163536987556 -0.4624763326
128060500 -0.164676197995 -0.461812568781
128070000 -0.164282762767 -0.461106169258
128079500 -0.165101028536 -0.460688513463
128089000 -0.165354962723 -0.460544030405
128098500 -0.166084865463 -0.460388134556
128108000 -0.166272600614 -0.459260549578
128117500 -0.166189219793 -0.458996348694
128127000 -0.167274104703 -0.458629997989
128136500 -0.166885434111 -0.458261932523
128146000 -0.168328824775 -0.458052573854
128155500 -0.167969356897 -0.45695813679
128165000 -0.168323086641 -0.45659733715
128174500 -0.169626668545 -0.456274842561
128184000 -0.168792978658 -0.456058304735
128193500 -0.170472557922 -0.455695498603
128203000 -0.170181300434 -0.454537860148
128212500 -0.170651117717 -0.454270201973
128222000 -0.1717677611 -0.453976046328
128231500 -0.171378923389 -0.453723469415
128241000 -0.172618801667 -0.453043328717
128250500 -0.172187821187 -0.45232856605
128260000 -0.172902517249 -0.452005046158
128269500 -0.173434340382 -0.451777959367
128279000 -0.174005014008 -0.451572004381
128288500 -0.174305119425 -0.450423920915
128298000 -0.174222464393 -0.450127197779
128307500 -0.175273019179 -0.44969393467
128317000 -0.175018636302 -0.44939883775
128326500 -0.176283739449 -0.449188711199
128336000 -0.175934939319 -0.448103176991
128345500 -0.176256014141 -0.447754867521
128355000 -0.177485552086 -0.447322994353
128364500 -0.176719385225 -0.447263171744
128374000 -0.17841376574 -0.446856882839
128383500 -0.178103989238 -0.445625486048
128393000 -0.178482828017 -0.445420585991
128402500 -0.179732680619 -0.4449879801
128412000 -0.179238146823 -0.444790718626
128421500 -0.180637652856 -0.444101366935
128431000 -0.180047288632 -0.443421461322
128440500 -0.180691544643 -0.443127393122
128450000 -0.181345283166 -0.442855116057
128459500 -0.182222580857 -0.443009010126
128469000 -0.182320528524 -0.442418169996
128478500 -0.182730895344 -0.441989461343
128488000 -0.183235579446 -0.441097718805
128497500 -0.182976712888 -0.44070351824
128507000 -0.18395190958 -0.440393973279
128516500 -0.184222162926 -0.440046945031
128526000 -0.184779958025 -0.439240671876
128535500 -0.185032771254 -0.43842601706
128545000 -0.185357824333 -0.438271744119
128554500 -0.185843171559 -0.437734524966
128564000 -0.18616883038 -0.437407846332
128573500 -0.186688988754 -0.436679194284
128583000 -0.186685437961 -0.436059795505
128592500 -0.187662219907 -0.435698864353
128602000 -0.187788859805 -0.435139206301
128611500 -0.188128502848 -0.434764604244
128621000 -0.188715778473 -0.433919363133
128630500 -0.188493717274 -0.433616184381
128640000 -0.189629787218 -0.433210923097
128649500 -0.189737073056 -0.432566339783
128659000 -0.190231517685 -0.432121495506
128668500 -0.190672176193 -0.431246638302
128678000 -0.190418308028 -0.431033288259
128687500 -0.191556640953 -0.430739489307
128697000 -0.191814813823 -0.430332485826
128706500 -0.19230770839 -0.429574780736
128716000 -0.192490697345 -0.428707277816
128725500 -0.192739196721 -0.428559364064
128735000 -0.19334731576 -0.42800320338
128744500 -0.193639399996 -0.427735343294
128754000 -0.194141969007 -0.427071824503
128763500 -0.194190360026 -0.426421322148
128773000 -0.195101188919 -0.425975460579
128782500 -0.195284142252 -0.425475555091
128792000 -0.195661322914 -0.425149572516
128801500 -0.19624498684 -0.424233724279
128811000 -0.19607531054 -0.423866558856
128820500 -0.197168558811 -0.423482534485
128830000 -0.197301173 -0.422850609285
128839500 -0.197730859269 -0.422395381468
128849000 -0.198207301525 -0.421486467761
128858500 -0.197909353396 -0.421325200042
128868000 -0.199091755737 -0.420940510763
128877500 -0.199353079798 -0.420501667689
128887000 -0.199759221631 -0.419852118492
128896500 -0.200025092932 -0.418992309003
128906000 -0.200176773904 -0.418822980357
128915500 -0.20091822049 -0.418270372776
128925000 -0.201277439638 -0.41800720315
128934500 -0.201731648122 -0.417273590648
128944000 -0.201800248344 -0.416595562718
128953500 -0.202560777393 -0.416175773879
128963000 -0.2028343184 -0.415632643931
128972500 -0.203180212063 -0.415351371916
128982000 -0.20373364609 -0.414370892065
128991500 -0.203655128237 -0.413963773435
129001000 -0.204818679339 -0.413552732007
129010500 -0.204862645831 -0.412898889772
129020000 -0.205327111176 -0.412499161795
129029500 -0.205730078841 -0.411586034726
129039000 -0.205493645567 -0.411472731279
129048500 -0.206724080945 -0.410895940901
129058000 -0.206964685311 -0.410468344786
129067500 -0.207353238192 -0.409816296522
129077000 -0.207510746763 -0.408814763217
129086500 -0.207627909584 -0.408700449345
129096000 -0.208424465544 -0.408112431792
129105500 -0.208749284514 -0.407804046957
129115000 -0.209137960559 -0.407100874731
129124500 -0.209146078859 -0.406368633415
129134000 -0.209793446288 -0.406058427637
129143500 -0.21008044287 -0.405521691844
129153000 -0.210537014986 -0.405142352081
129162500 -0.210962277267 -0.404103370514
129172000 -0.210933902017 -0.403765982644
129181500 -0.212093613113 -0.403220922733
129191000 -0.212126896953 -0.402577581079
129200500 -0.212579234462 -0.402152685826
129210000 -0.212963593117 -0.401262959731
129219500 -0.212745658782 -0.401161658856
129229000 -0.213981542022 -0.400558556251
129238500 -0.214181525238 -0.4000847633
129248000 -0.214586404424 -0.399493294923
129257500 -0.214723808194 -0.398548406165
129267000 -0.214832132941 -0.39845795833
129276500 -0.215719685452 -0.397799999934
129286000 -0.216192383898 -0.397429030738
129295500 -0.216627521337 -0.396864440544
129305000 -0.216749664494 -0.39612359217
129314500 -0.217369436211 -0.395808473261
129324000 -0.217924600304 -0.395186802608
129333500 -0.218410505967 -0.394891648383
129343000 -0.218838489798 -0.393885198973
129352500 -0.218867430743 -0.393517242368
129362000 -0.220041671296 -0.392959416362
129371500 -0.220058266309 -0.39242354385
129381000 -0.22049919747 -0.391963837712
129390500 -0.220807538708 -0.391101894202
129400000 -0.220699566598 -0.391013239601
129409500 -0.221152445176 -0.389707344914
129419000 -0.222032471385 -0.389582108942
129428500 -0.222942732633 -0.389110858069
129438000 -0.222930189373 -0.388131745747
129447500 -0.222312568261 -0.387640563765
129457000 -0.222942305603 -0.386990147676
129466500 -0.224113435691 -0.386962090483
129476000 -0.225020389548 -0.386181626509
129485500 -0.224144285823 -0.385433779816
129495000 -0.224182264619 -0.384724934918
129504500 -0.224709129443 -0.384400946423
129514000 -0.225871797811 -0.384268681703
129523500 -0.226583505011 -0.383246934945
129533000 -0.225729102654 -0.382884598097
129542500 -0.226075965594 -0.381783708937
129552000 -0.226590192662 -0.381563039151
129561500 -0.227709698644 -0.381368828656
129571000 -0.228347439065 -0.380291744104
129580500 -0.227417509502 -0.379677225254
129590000 -0.227940803667 -0.378831269088
129599500 -0.228820376845 -0.378671780121
129609000 -0.229758664025 -0.378098725045
129618500 -0.229790188763 -0.377085558829
129628000 -0.229017828479 -0.376793041676
129637500 -0.229576242649 -0.376169235733
129647000 -0.230867550545 -0.375894029217
129656500 -0.231784427349 -0.375019144304
129666000 -0.230999288294 -0.37439305065
129675500 -0.230818273936 -0.373794910068
129685000 -0.231427614416 -0.373379004763
129694500 -0.232685363354 -0.373043342326
129704000 -0.233431569324 -0.372017770087
129713500 -0.232547148296 -0.371757082612
129723000 -0.232756419594 -0.370754851571
129732500 -0.233367427533 -0.370536471242
129742000 -0.234532342993 -0.370182234273
129751500 -0.235158690391 -0.369006122317
129761000 -0.234066351803 -0.36852084029
129770500 -0.234530122038 -0.367820408108
129780000 -0.235436568852 -0.367451039699
129789500 -0.236451534767 -0.366719407505
129799000 -0.236507757628 -0.36571361555
129808500 -0.235738877619 -0.365645299834
129818000 -0.236281702008 -0.36486804844
129827500 -0.23751485069 -0.364524898327
129837000 -0.238423300141 -0.363568379665
129846500 -0.237721177003 -0.363047082446
129856000 -0.237445115291 -0.36253034424
129865500 -0.237990008662 -0.362055107038
129875000 -0.239381073966 -0.361603478426
129884500 -0.240097549853 -0.360491134339
129894000 -0.239152778918 -0.360386552784
129903500 -0.239224753052 -0.359596015335
129913000 -0.239868399543 -0.359278020031
129922500 -0.241126105119 -0.358680882708
129932000 -0.241700145907 -0.357486205814
129941500 -0.240584345744 -0.357252629347
129951000 -0.241036490248 -0.356442881059
129960500 -0.24187859322 -0.356117669114
129970000 -0.242853342579 -0.355187492218
129979500 -0.242991898981 -0.354127311854
129989000 -0.241891554897 -0.354217371715
129998500 -0.242311873006 -0.353802987937
130008000 -0.245294890113 -0.35475913431
130017500 -0.245391575589 -0.352802484861
130027000 -0.24444981744 -0.352696042246
130036500 -0.245078103009 -0.352256459265
130046000 -0.246700291234 -0.351712201009
130055500 -0.24715035981 -0.350504174268
130065000 -0.246048544141 -0.350336790859
130074500 -0.246456469032 -0.349739030277
130084000 -0.24790890082 -0.349035210423
130093500 -0.248461445777 -0.347890313629
130103000 -0.24750319525 -0.348023381358
130112500 -0.247820641627 -0.347178818421
130122000 -0.248988364805 -0.346511936813
130131500 -0.249946538606 -0.345254970263
130141000 -0.248797085593 -0.345409492911
130150500 -0.249170988905 -0.344664846773
130160000 -0.250092478292 -0.344215633713
130169500 -0.251083277978 -0.342815398423
130179000 -0.25030186277 -0.342926693315
130188500 -0.250249096048 -0.342219837665
130198000 -0.251122233687 -0.341903097222
130207500 -0.252273929729 -0.340544326136
130217000 -0.251902270102 -0.339747560873
130226500 -0.25144358781 -0.339798421321
130236000 -0.252244211339 -0.339310323098
130245500 -0.253316019638 -0.338152274977
130255000 -0.2534943508 -0.336858357589
130264500 -0.252693222074 -0.337191259069
130274000 -0.253188819195 -0.336588451136
130283500 -0.254636415841 -0.335640129697
130293000 -0.25498921151 -0.334323797536
130302500 -0.253993701262 -0.3344379314
130312000 -0.254349540492 -0.33394118183
130321500 -0.255703543505 -0.332856903426
130331000 -0.256172369543 -0.331588677141
130340500 -0.255389379444 -0.332114231774
130350000 -0.255634053106 -0.331303694671
130359500 -0.255978850072 -0.330751947846
130369000 -0.25675733672 -0.329631420327
130378500 -0.257333774626 -0.32902835104
130388000 -0.257280535865 -0.328192247732
130397500 -0.257146395884 -0.328061689451
130407000 -0.257415028225 -0.32736407212
130416500 -0.25834660891 -0.326153973078
130426000 -0.258551034568 -0.325208006386
130435500 -0.2583137336 -0.325421411415
130445000 -0.258839394399 -0.324589570979
130454500 -0.25957309433 -0.323425456291
130464000 -0.26010922814 -0.322381353941
130473500 -0.259244474925 -0.322882996075
130483000 -0.259759046113 -0.322122166229
130492500 -0.260658051141 -0.320930466882
130502000 -0.261160682786 -0.319766640543
130511500 -0.260496057426 -0.320158384357
130521000 -0.260849843201 -0.319428062593
130530500 -0.261824324656 -0.318254186904
130540000 -0.262115714931 -0.317161552086
130549500 -0.261654819764 -0.317291214924
130559000 -0.261932130856 -0.316755985855
130568500 -0.262899001918 -0.315456774034
130578000 -0.263335511234 -0.314709739077
130587500 -0.262928396678 -0.314162500859
130597000 -0.263220342356 -0.314126980273
130606500 -0.263889965443 -0.312750064762
130616000 -0.264426985835 -0.312031565458
130625500 -0.264381619387 -0.311295044735
130635000 -0.264318628813 -0.311289335581
130644500 -0.264837855616 -0.310288282272
130654000 -0.265379977503 -0.309296856769
130663500 -0.265540144512 -0.308349226295
130673000 -0.265428921738 -0.308670789064
130682500 -0.265794070485 -0.307951729978
130692000 -0.266428269313 -0.306523537888
130701500 -0.266718142912 -0.305319490411
130711000 -0.266289874625 -0.30597160756
130720500 -0.266691592987 -0.305207703885
130730000 -0.267504763344 -0.303897252493
130739500 -0.267837143053 -0.302606061108
130749000 -0.267412651873 -0.303223972257
130758500 -0.267721706494 -0.302458600144
130768000 -0.268517618871 -0.301122611077
130777500 -0.268825478882 -0.300049727274
130787000 -0.268504591625 -0.300412325954
130796500 -0.26885102422 -0.299868568194
130806000 -0.269612667302 -0.298348737471
130815500 -0.269961614712 -0.297441690534
130825000 -0.269543363674 -0.297113499546
130834500 -0.269969205313 -0.297099316459
130844000 -0.270620482854 -0.29575093618
130853500 -0.270902742711 -0.294950902955
130863000 -0.270922389233 -0.294247366535
130872500 -0.270995579512 -0.294324590378
130882000 -0.271432649961 -0.293281865349
130891500 -0.271831918974 -0.292148465809
130901000 -0.271902347152 -0.291186568001
130910500 -0.272002996748 -0.291567876066
130920000 -0.272362713619 -0.290760875139
130929500 -0.272686759743 -0.289225801872
130939000 -0.272958874933 -0.288164763341
130948500 -0.272711503154 -0.288823338216
130958000 -0.273122227562 -0.288052522231
130967500 -0.273802965369 -0.286619674849
130977000 -0.273945386544 -0.284979545757
130986500 -0.273938064134 -0.285984721592
130996000 -0.274229187321 -0.285291107618
131005500 -0.274911907931 -0.283819723762
131015000 -0.275075330059 -0.282804046976
131024500 -0.27484476561 -0.283107434163
131034000 -0.275151466551 -0.282476591581
131043500 -0.275939878505 -0.281050118975
131053000 -0.276138654819 -0.280209976857
131062500 -0.275844594757 -0.279830784008
131072000 -0.27601717003 -0.28019028901
131081500 -0.276790022026 -0.278379130664
131091000 -0.276995089041 -0.277497453339
131100500 -0.276970518491 -0.276813606284
131110000 -0.277279654302 -0.276898726396
131119500 -0.277665418767 -0.275812894496
131129000 -0.277948178022 -0.274669037676
131138500 -0.27801175865 -0.273725788134
131148000 -0.278343407281 -0.274062661447
131157500 -0.27874241005 -0.273242995334
131167000 -0.278916989306 -0.271737519036
131176500 -0.279020139156 -0.270666803096
131186000 -0.279021529639 -0.271324935958
131195500 -0.279369763099 -0.27051794367
131205000 -0.279961592732 -0.26912822781
131214500 -0.2800057457 -0.267823502151
131224000 -0.280151466076 -0.26857760361
131233500 -0.280403603248 -0.267875915668
131243000 -0.280868521708 -0.266163875935
131252500 -0.280850143277 -0.265097515573
131262000 -0.280843163585 -0.265429777313
131271500 -0.281197997789 -0.264847356974
131281000 -0.281816078009 -0.263385184287
131290500 -0.281935794448 -0.262523504386
131300000 -0.281674251194 -0.262191186862
131309500 -0.282385726762 -0.261215264451
131319000 -0.282365151073 -0.260961344807
131328500 -0.283241570872 -0.26048064415
131338000 -0.283599032969 -0.259167012671
131347500 -0.283144395462 -0.258094143593
131357000 -0.283175916727 -0.257829385287
131366500 -0.283786045707 -0.257753423906
131376000 -0.284150247967 -0.256651799787
131385500 -0.284111919983 -0.254893715796
131395000 -0.28413610193 -0.254917338511
131404500 -0.284651879595 -0.25514533021
131414000 -0.285131279841 -0.254142314685
131423500 -0.285136952723 -0.251858408513
131433000 -0.285089326584 -0.252008226247
131442500 -0.285212798881 -0.252124265328
131452000 -0.285853663157 -0.251021761996
131461500 -0.285991336647 -0.248735216901
131471000 -0.286043618334 -0.249038985727
131480500 -0.285953730186 -0.249078126549
131490000 -0.286722265044 -0.247982109472
131499500 -0.286894547173 -0.24580013442
131509000 -0.286570358033 -0.245985424014
131518500 -0.286787552643 -0.245894197522
131528000 -0.287655281018 -0.245012748208
131537500 -0.287738621681 -0.243225791389
131547000 -0.28767324521 -0.243036911102
131556500 -0.287571563534 -0.242841477266
131566000 -0.288388115852 -0.242238574068
131575500 -0.288625487516 -0.240884926256
131585000 -0.288131130077 -0.239862892539
131594500 -0.288214486747 -0.2396853527
131604000 -0.289030103711 -0.23957418165
131613500 -0.289313775991 -0.238335023905
131623000 -0.28901973547 -0.236694725949
131632500 -0.289109236449 -0.236676411276
131642000 -0.28950881259 -0.236694943912
131651500 -0.290071932479 -0.235644466056
131661000 -0.289696082739 -0.233367690142
131670500 -0.289762330466 -0.233591913078
131680000 -0.290094528903 -0.233775283679
131689500 -0.290574814111 -0.2325719753
131699000 -0.290677645526 -0.230321184091
131708500 -0.290807784642 -0.230683702258
131718000 -0.290903789264 -0.230689304913
131727500 -0.291474887667 -0.229511395365
131737000 -0.291438240332 -0.227314517023
131746500 -0.291288007096 -0.227547123272
131756000 -0.29144606576 -0.227491156776
131765500 -0.292351098875 -0.226513354154
131775000 -0.292136488628 -0.224705160015
131784500 -0.292110835038 -0.224445940397
131794000 -0.291980653643 -0.224210140635
131803500 -0.292817539261 -0.223576935099
131813000 -0.293000577414 -0.222177907739
131822500 -0.292443377877 -0.221305324953
131832000 -0.292662890097 -0.221092370713
131841500 -0.293498127077 -0.220714373733
131851000 -0.293508636219 -0.219573206703
131860500 -0.293183583449 -0.217908999195
131870000 -0.29338657911 -0.217953415078
131879500 -0.293851454519 -0.217944902758
131889000 -0.29439375278 -0.21685038221
131898500 -0.293785068406 -0.214657818966
131908000 -0.293951565456 -0.214836783965
131917500 -0.294513968413 -0.214960272358
131927000 -0.294797484941 -0.213759020952
131936500 -0.294578390224 -0.211522892174
131946000 -0.294904406289 -0.211785795511
131955500 -0.295077878146 -0.211913175658
131965000 -0.295499806286 -0.210575467536
131974500 -0.295288117252 -0.208460096906
131984000 -0.295218353859 -0.208739768976
131993500 -0.295490644989 -0.208759964437
132003000 -0.296296240226 -0.2075946843
132012500 -0.295970189758 -0.205852768192
132022000 -0.296008810172 -0.205572528788
132031500 -0.296084541659 -0.205461319379
132041000 -0.296851828674 -0.204572217364
132050500 -0.296780095067 -0.203164113563
132060000 -0.296168859445 -0.20237222789
132069500 -0.296436906111 -0.202144825089
132079000 -0.297318395132 -0.201683918678
132088500 -0.297233286807 -0.200613508294
132098000 -0.296787451767 -0.198929213876
132107500 -0.296923624634 -0.198899026586
132117000 -0.297499885102 -0.198946892663
132126500 -0.297958817949 -0.197741966491
132136000 -0.297201524774 -0.195558415143
132145500 -0.297470619541 -0.195844086984
132155000 -0.297600413335 -0.195958571304
132164500 -0.298185531634 -0.194688824881
132174000 -0.297858426948 -0.192506753951
132183500 -0.298217232643 -0.192642700957
132193000 -0.29854047946 -0.1929082573
132202500 -0.298954809775 -0.191457050238
132212000 -0.298466260824 -0.189181256744
132221500 -0.298541703187 -0.189576120217
132231000 -0.298908614522 -0.189547568519
132240500 -0.299563180022 -0.188274675707
132250000 -0.299022237635 -0.18657150666
132259500 -0.299523469978 -0.18682169314
132269000 -0.299408128848 -0.185704490811
132278500 -0.298925421448 -0.184369815376
132288000 -0.300085488046 -0.184777622636
132297500 -0.299831132853 -0.18412866354
132307000 -0.299795972866 -0.182364043952
132316500 -0.299306199983 -0.181037551926
132326000 -0.300108008211 -0.18177743867
132335500 -0.300404399396 -0.18102149793
132345000 -0.300167578831 -0.179099039649
132354500 -0.299599465808 -0.177980751563
132364000 -0.300872079601 -0.178466351061
132373500 -0.300529614226 -0.177732831275
132383000 -0.30085796151 -0.17577886604
132392500 -0.300354299134 -0.174856949496
132402000 -0.300150299337 -0.175493567506
132411500 -0.299029852329 -0.175066197019
132421000 -0.29796647442 -0.173610361862
132430500 -0.297334171644 -0.173251127288
132440000 -0.298891415539 -0.17247491974
132449500 -0.300788010553 -0.171642141186
132459000 -0.301601395932 -0.170041803795
132468500 -0.301516582887 -0.169320057672
132478000 -0.300902975559 -0.16843127969
132487500 -0.301810848146 -0.168335549079
132497000 -0.301861875074 -0.167306370874
132506500 -0.301577099694 -0.166305664253
132516000 -0.301162288901 -0.165106507315
132525500 -0.302252048231 -0.165254799631
132535000 -0.302140480465 -0.164648503393
132544500 -0.301908441708 -0.162908820332
132554000 -0.301326785649 -0.161336951968
132563500 -0.302424475512 -0.162206732655
132573000 -0.302681417497 -0.161482114357
132582500 -0.302197537707 -0.159623802021
132592000 -0.301580662934 -0.158482237178
132601500 -0.302947572818 -0.159167763111
132611000 -0.302691072599 -0.158341540782
132620500 -0.302740227284 -0.156366003531
132630000 -0.302105924743 -0.155431572403
132639500 -0.302725021108 -0.155918831317
132649000 -0.302902634485 -0.155079618582
132658500 -0.302996422259 -0.153189253609
132668000 -0.302472032579 -0.152790801324
132677500 -0.302735667255 -0.152349324615
132687000 -0.303283210562 -0.15188902849
132696500 -0.303389609568 -0.150263440202
132706000 -0.303054593899 -0.14975035535
132715500 -0.302466265879 -0.148917806912
132725000 -0.30380358397 -0.1486729429
132734500 -0.303476492724 -0.147812551114
132744000 -0.303153890335 -0.146786309408
132753500 -0.302574378048 -0.145529806488
132763000 -0.303934330389 -0.145613368683
132772500 -0.303864190002 -0.145029660638
132782000 -0.30341704803 -0.143301456932
132791500 -0.302734853847 -0.142175272156
132801000 -0.304066318052 -0.142782900464
132810500 -0.304101940229 -0.142030331141
132820000 -0.303632337636 -0.140174356727
132829500 -0.302959640114 -0.139121117165
132839000 -0.304376766609 -0.139498954665
132848500 -0.304079970926 -0.138805963513
132858000 -0.30400894613 -0.136765985708
132867500 -0.303232895665 -0.135882822577
132877000 -0.30390881549 -0.136423400235
132886500 -0.304198937497 -0.135444599553
132896000 -0.304076064039 -0.133594956678
132905500 -0.303647600997 -0.133246456578
132915000 -0.304046534453 -0.132640252402
132924500 -0.30446999264 -0.132188029029
132934000 -0.304292754682 -0.130760046789
132943500 -0.304049986865 -0.129918320331
132953000 -0.303454104821 -0.129269633695
132962500 -0.304628924975 -0.129020387794
132972000 -0.304542797975 -0.128117979656
132981500 -0.304174785755 -0.126984195936
132991000 -0.303482778005 -0.125848868197
133000500 -0.305000028528 -0.125739752939
133010000 -0.30499550707 -0.125219258224
133019500 -0.30427285807 -0.123477067116
133029000 -0.303456695488 -0.122466800239
133038500 -0.305044316133 -0.12284712157
133048000 -0.304925531837 -0.122182450023
133057500 -0.304320981778 -0.120340924018
133067000 -0.303472878266 -0.119329196681
133076500 -0.305158873852 -0.119547622388
133086000 -0.304814157656 -0.1189040534
133095500 -0.304602941101 -0.116795965616
133105000 -0.3037552554 -0.116046066746
133114500 -0.304723707336 -0.116293010728
133124000 -0.304896686581 -0.115414925486
133133500 -0.304692667143 -0.113529014229
133143000 -0.304093643254 -0.113241017188
133152500 -0.304493306565 -0.112670841847
133162000 -0.304755149649 -0.112293411007
133171500 -0.304763460486 -0.110688971961
133181000 -0.304364482022 -0.109935770666
133190500 -0.303845681936 -0.109342506768
133200000 -0.305107459422 -0.108812807428
133209500 -0.30431167625 -0.107856670179
133219000 -0.305223880853 -0.107855704031
133228500 -0.305027129117 -0.106445038133
133238000 -0.303507397136 -0.104508810401
133247500 -0.304232445717 -0.104432140191
133257000 -0.305171118663 -0.104406247924
133266500 -0.305187845812 -0.102994494833
133276000 -0.3036272502 -0.101444106831
133285500 -0.304007045924 -0.101066181503
133295000 -0.30481480856 -0.101186816597
133304500 -0.305147263656 -0.0997450498485
133314000 -0.303805876648 -0.0982945054603
133323500 -0.30363068469 -0.0978234172769
133333000 -0.304367280485 -0.097704399855
133342500 -0.305002128739 -0.0966589195651
133352000 -0.304019080878 -0.0953001679653
133361500 -0.303232757838 -0.0945947931593
133371000 -0.304003928171 -0.0944515890166
133380500 -0.304895442549 -0.0937209864813
133390000 -0.304137300386 -0.0925505830167
133399500 -0.302943650997 -0.0913942618658
133409000 -0.303667274421 -0.0911010238182
133418500 -0.304672169837 -0.090759224797
133428000 -0.304308692081 -0.0893715000966
133437500 -0.302525874107 -0.0879807000637
133447000 -0.303404606168 -0.0876552430441
133456500 -0.304503342222 -0.0875901142441
133466000 -0.304161858076 -0.0861818997156
133475500 -0.302341217665 -0.084693605152
133485000 -0.303104362071 -0.0843898845661
133494500 -0.30421271353 -0.0841607123998
133504000 -0.304180612945 -0.0827395714532
133513500 -0.302269895773 -0.0813708721203
133523000 -0.302552797594 -0.0810408822752
133532500 -0.303594508478 -0.0810715630044
133542000 -0.303813133399 -0.0796428520512
133551500 -0.30235315493 -0.078319227321
133561000 -0.302193686289 -0.0778549579445
133570500 -0.302967394129 -0.0776082138238
133580000 -0.303581980291 -0.0763905349781
133589500 -0.302494141709 -0.0752449417326
133599000 -0.301794249772 -0.0744820547971
133608500 -0.302487460509 -0.0743644600662
133618000 -0.303361220565 -0.0735011086875
133627500 -0.302515385696 -0.0724231588432
133637000 -0.301059094051 -0.0714473620073
133646500 -0.301878339799 -0.0710167792381
133656000 -0.302981389025 -0.0706265073462
133665500 -0.302479689318 -0.0693451092831
133675000 -0.3005825983 -0.0682188314346
133684500 -0.301450871794 -0.0677238229795
133694000 -0.302797775064 -0.0673944190061
133703500 -0.302311879447 -0.0661759218698
133713000 -0.300276139838 -0.0650175275392
133722500 -0.301066753037 -0.0644099028278
133732000 -0.302246079786 -0.0640794508745
133741500 -0.30216751783 -0.0626414534746
133751000 -0.300325196072 -0.0613756572069
133760500 -0.30041757273 -0.0611181456448
133770000 -0.301499948156 -0.0609796191272
133779500 -0.301614734015 -0.0594615991991
133789000 -0.300109072149 -0.0583311807068
133798500 -0.299780193639 -0.0579061096787
133808000 -0.300710573705 -0.0575347147182
133817500 -0.301396074571 -0.0563244360784
133827000 -0.300128655662 -0.0553134621001
133836500 -0.299191385867 -0.0547549626889
133846000 -0.300136464876 -0.0543255084175
133855500 -0.301070755874 -0.0533713378485
133865000 -0.30005529088 -0.0523015810991
133874500 -0.298532679784 -0.0516023211024
133884000 -0.299363579852 -0.0510669251443
133893500 -0.300668127045 -0.0503443348024
133903000 -0.299910604882 -0.0492449107845
133912500 -0.297931253313 -0.0483216848781
133922000 -0.29878972203 -0.0477424349203
133931500 -0.300186946852 -0.0472106443512
133941000 -0.299666291439 -0.0459969218643
133950500 -0.297446685831 -0.0450614335282
133960000 -0.298172133204 -0.0443899830081
133969500 -0.299433667569 -0.0439539278214
133979000 -0.299307594903 -0.042358510504
133988500 -0.297007866947 -0.0417770153179
133998000 -0.297363820478 -0.041179097508
134007500 -0.298584871425 -0.0408001195476
134017000 -0.298710844453 -0.0391578715846
134026500 -0.296956989008 -0.0383860356977
134036000 -0.296655820986 -0.037992336527
134045500 -0.297620726167 -0.0374995138926
134055000 -0.298129720138 -0.0360840659335
134064500 -0.296742028728 -0.0353328312534
134074000 -0.295742440754 -0.0349078562321
134083500 -0.296673400886 -0.0344470926981
134093000 -0.297664279214 -0.0332113016174
134102500 -0.29661003033 -0.0323801061746
134112000 -0.294970707428 -0.0318735462791
134121500 -0.295824284279 -0.0312130695938
134131000 -0.297108023291 -0.0301566541769
134140500 -0.296271281048 -0.0292434864327
134150000 -0.294217033009 -0.0286041886097
134159500 -0.295750467271 -0.0276580029963
134169000 -0.294230126902 -0.0266187678947
134178500 -0.295261063636 -0.0263527526596
134188000 -0.295303608637 -0.0254572445439
134197500 -0.295193630765 -0.0242717393119
134207000 -0.293719190498 -0.0238154432886
134216500 -0.294425545633 -0.0231617765297
134226000 -0.29437556042 -0.0223211242924
134235500 -0.294710579005 -0.0210029231451
134245000 -0.293506464246 -0.0204757990672
134254500 -0.293538245276 -0.0197564417722
134264000 -0.293226499612 -0.0192564033096
134273500 -0.294057744457 -0.0177066491317
134283000 -0.29272904115 -0.0175048982696
134292500 -0.292623396614 -0.0165346927132
134302000 -0.292633070587 -0.0160317528628
134311500 -0.293343527558 -0.0145085588778
134321000 -0.291849841318 -0.0151706270295
134330500 -0.291440543481 -0.0132139882657
134340000 -0.291907929554 -0.0130235362657
134349500 -0.292600946027 -0.0115776330939
134359000 -0.291660869276 -0.0113964201427
134368500 -0.290603019246 -0.0103501740452
134378000 -0.291170289596 -0.00990694438215
134387500 -0.291350553224 -0.00867311833895
134397000 -0.291148082732 -0.00795472905676
134406500 -0.289544522487 -0.00730738280907
134416000 -0.290577343419 -0.00677927951473
134425500 -0.290474759536 -0.00585884778843
134435000 -0.29036353229 -0.00477351522542
134444500 -0.289061823813 -0.00443371128506
134454000 -0.289600179665 -0.00372812103525
134463500 -0.289505564478 -0.00286231419555
134473000 -0.289620591147 -0.00142448290143
134482500 -0.288282048454 -0.00130032160835
134492000 -0.288484408166 -0.000413049968046
134501500 -0.288476516579 0.000158091809551
134511000 -0.288919956426 0.00176995578914
134520500 -0.287666884375 0.00171038164892
134530000 -0.287501340148 0.00271534800466
134539500 -0.287479290394 0.00322987719907
134549000 -0.288051601691 0.00491975720545
134558500 -0.286919087621 0.00476430033507
134568000 -0.286182254764 0.00603816036453
134577500 -0.286626632144 0.0062557271101
134587000 -0.287137905489 0.00794161840188
134596500 -0.286328318207 0.00796409174852
134606000 -0.285327457771 0.00903660373529
134615500 -0.285825612486 0.00932798686663
134625000 -0.285950695114 0.0106336438298
134634500 -0.28556903864 0.0111702524628
134644000 -0.283946268973 0.0117401530729
134653500 -0.284978535365 0.0124454676802
134663000 -0.284897558384 0.0135236818711
134672500 -0.284736940347 0.0145681390894
134682000 -0.283334354509 0.0146984278327
134691500 -0.283889875585 0.0154190950428
134701000 -0.283745053786 0.016304969165
134710500 -0.28373069922 0.0177620745309
134720000 -0.282553749345 0.0177174935953
134729500 -0.282631022682 0.0185078170895
134739000 -0.282566941082 0.0191731840588
134748500 -0.282847417204 0.0209019005447
134758000 -0.28166133013 0.020673265857
134767500 -0.281214974659 0.0213293558033
134777000 -0.281383918709 0.0221535706992
134786500 -0.281757131084 0.0240857302907
134796000 -0.280816949235 0.0237065950245
134805500 -0.279966465043 0.0247884695714
134815000 -0.28045182275 0.0251595021434
134824500 -0.280698514247 0.0268029871943
134834000 -0.27996697477 0.0268617184714
134843500 -0.278726593229 0.0275633671935
134853000 -0.279452494791 0.0281722424221
134862500 -0.279947259563 0.0305951827934
134872000 -0.278974256886 0.030085431658
134881500 -0.277510131528 0.0304023968583
134891000 -0.278474578978 0.0311450381778
134900500 -0.278263223606 0.0320928082375
134910000 -0.277936869109 0.0330981733795
134919500 -0.276701578661 0.0330717432152
134929000 -0.277256705238 0.0339402775022
134938500 -0.277125553921 0.0348863762058
134948000 -0.276959039311 0.0362502608673
134957500 -0.275811730662 0.0360653456197
134967000 -0.275904187557 0.0369338992518
134976500 -0.275777941194 0.0376874608251
134986000 -0.275979239254 0.0393625583173
134995500 -0.274858967468 0.0389804369947
135005000 -0.274516001839 0.0399475117802
135014500 -0.274609521951 0.0405386298158
135024000 -0.274700541925 0.0424009905206
135033500 -0.273910446744 0.0418504046625
135043000 -0.27307928627 0.0429847300541
135052500 -0.273462402935 0.0433922196005
135062000 -0.273505190737 0.0449956373092
135071500 -0.272881519612 0.0449700642404
135081000 -0.271700778386 0.0455152844578
135090500 -0.272319620204 0.0462431306485
135100000 -0.272130046898 0.0475173788313
135109500 -0.27132121531 0.0478192978639
135119000 -0.271869691507 0.0488706464832
135128500 -0.271569530572 0.0503206097717
135138000 -0.270172597641 0.0501175134404
135147500 -0.27017243408 0.0504561235578
135157000 -0.270320813953 0.0515766266994
135166500 -0.270462587077 0.0532136013299
135176000 -0.269411365008 0.0528177929392
135185500 -0.268756148672 0.053273093554
135195000 -0.268962107237 0.0541603494035
135204500 -0.269299149789 0.0560940944157
135214000 -0.268343457755 0.0557719098472
135223500 -0.267503133884 0.055971501346
135233000 -0.267861974438 0.0568737046763
135242500 -0.268094595551 0.0587410228282
135252000 -0.267417598353 0.0588005733782
135261500 -0.26599383638 0.0589422111129
135271000 -0.266181774844 0.0596091665115
135280500 -0.26691714372 0.061329867099
135290000 -0.26598999529 0.0619974814626
135299500 -0.26452895917 0.0615930406884
135309000 -0.265129618865 0.0622742188829
135318500 -0.265386428945 0.063806278245
135328000 -0.264856060471 0.0646687714352
135337500 -0.263462263386 0.0643959199937
135347000 -0.263623806884 0.0649765323037
135356500 -0.264104815247 0.0661920152556
135366000 -0.26364206183 0.0676106991979
135375500 -0.262409398359 0.0671040695856
135385000 -0.262453128313 0.0674849802413
135394500 -0.262531608346 0.0687375961402
135404000 -0.262657531821 0.0702108518305
135413500 -0.261543257534 0.0698290553053
135423000 -0.260938524552 0.0702585915102
135432500 -0.261080600852 0.071280705104
135442000 -0.260965089246 0.0728929428965
135451500 -0.260336623569 0.0727970856058
135461000 -0.259493927782 0.0728187499637
135470500 -0.259658584376 0.0737840846397
135480000 -0.259760057033 0.0757493136164
135489500 -0.259145555767 0.0757089755386
135499000 -0.257855546385 0.0755358874692
135508500 -0.258166648738 0.0764458685915
135518000 -0.258539044069 0.0781954541084
135527500 -0.257744166709 0.0788475471778
135537000 -0.25640811536 0.0781742957358
135546500 -0.2570852565 0.0791208701979
135556000 -0.257048346457 0.0808042345119
135565500 -0.256536271743 0.0815572958316
135575000 -0.255298193036 0.0810095535118
135584500 -0.255427592674 0.0814951657035
135594000 -0.255793468488 0.0827895109815
135603500 -0.255190091006 0.0840037004077
135613000 -0.254042380112 0.0835305360762
135622500 -0.254235746816 0.0840085087849
135632000 -0.254126931972 0.0853034212786
135641500 -0.25384196544 0.0868733295763
135651000 -0.253184908285 0.0862902210026
135660500 -0.25257214896 0.0864752959044
135670000 -0.25266187716 0.0875231929192
135679500 -0.252506151567 0.0893589563216
135689000 -0.251520721464 0.0888681961016
135698500 -0.251133668313 0.0889236133779
135708000 -0.251228465775 0.0899683306364
135717500 -0.251107922303 0.0918239721467
135727000 -0.25067386529 0.0918269825782
135736500 -0.249504733946 0.09159528326
135746000 -0.249745570617 0.092422304356
135755500 -0.249862417174 0.0943027898108
135765000 -0.249117508152 0.0947650139907
135774500 -0.247988177538 0.0941402547944
135784000 -0.24851205518 0.0949097052567
135793500 -0.248332796532 0.0965496168429
135803000 -0.247726655491 0.0972851810162
135812500 -0.246627089608 0.096650576469
135822000 -0.24675874205 0.0971739554692
135831500 -0.247005192111 0.0986392171133
135841000 -0.246386031058 0.0999502448285
135850500 -0.245513629497 0.0991940571629
135860000 -0.245651730991 0.0995589130472
135869500 -0.245424187656 0.100898337195
135879000 -0.244766336611 0.102496295961
135888500 -0.244514097041 0.101731893428
135898000 -0.244020084956 0.101991218753
135907500 -0.244009511639 0.103102006701
135917000 -0.243677133054 0.104877455188
135926500 -0.2432535295 0.104466802913
135936000 -0.242650851928 0.104357229587
135945500 -0.242591028009 0.105446293835
135955000 -0.242357727958 0.107288391324
135964500 -0.241958490734 0.10728796448
135974000 -0.240994737316 0.106784459689
135983500 -0.24108788166 0.10767408217
135993000 -0.241036628678 0.10950863583
136002500 -0.240289640892 0.109903392047
136012000 -0.239392252813 0.109119936481
136021500 -0.239861315683 0.110091389639
136031000 -0.239541118241 0.111555516695
136040500 -0.238902829605 0.112276245498
136050000 -0.238079527603 0.111637057669
136059500 -0.237973892463 0.112086691917
136069000 -0.238001675039 0.11241469958
136078500 -0.23815605017 0.114646088054
136088000 -0.237108460901 0.11584764744
136097500 -0.236537655718 0.115028025213
136107000 -0.236403193677 0.114401181147
136116500 -0.236659725982 0.116716433372
136126000 -0.235847362667 0.118252386945
136135500 -0.235221019053 0.117680738395
136145000 -0.235113922391 0.116815562891
136154500 -0.235029413532 0.118778322801
136164000 -0.23458349019 0.120400172797
136173500 -0.233789379166 0.120204888826
136183000 -0.233342163799 0.118991963894
136192500 -0.233469597311 0.120868741651
136202000 -0.233291168284 0.122541637516
136211500 -0.232435639047 0.122816624601
136221000 -0.232221658812 0.12138928179
136230500 -0.232110572201 0.122905357073
136240000 -0.231989475298 0.124852343249
136249500 -0.231014978465 0.125476068387
136259000 -0.23065188771 0.124033584569
136268500 -0.230730129592 0.124829711679
136278000 -0.230672745814 0.127135812379
136287500 -0.229418736807 0.127868847209
136297000 -0.228914518875 0.126077489324
136306500 -0.229078678041 0.126859265427
136316000 -0.22897536412 0.129036654361
136325500 -0.227952535538 0.130125473311
136335000 -0.227650983718 0.129406923949
136344500 -0.227711158916 0.128944576045
136354000 -0.2276256222 0.131173540415
136363500 -0.226706360449 0.132416746582
136373000 -0.226319575628 0.131880351546
136382500 -0.226309768093 0.131192804008
136392000 -0.226104652654 0.133101284155
136401500 -0.225599284745 0.134672501783
136411000 -0.225016505026 0.1345560297
136420500 -0.224890763235 0.133361754676
136430000 -0.224786711643 0.135225631827
136439500 -0.224381603059 0.137017965636
136449000 -0.22362784616 0.1370362668
136458500 -0.223534144408 0.135770190714
136468000 -0.223209926533 0.137279693019
136477500 -0.222787408769 0.139307386141
136487000 -0.223192007145 0.140832244682
136496500 -0.221682517081 0.138325709759
136506000 -0.214332170922 0.146892502868
136515500 -0.221536669537 0.141280910782
136525000 -0.2203851178 0.141922035799
136534500 -0.220322765947 0.140791198657
136544000 -0.220306971034 0.141151875323
136553500 -0.219952859155 0.143331399474
136563000 -0.21888877838 0.144210578936
136572500 -0.218710869012 0.143492281957
136582000 -0.218916431424 0.143062347165
136591500 -0.218659201455 0.145289217406
136601000 -0.217623575636 0.146362038466
136610500 -0.217300729568 0.145808496601
136620000 -0.217437443488 0.145258917088
136629500 -0.216991709124 0.147053768863
136639000 -0.216304840049 0.148485582234
136648500 -0.215752214026 0.148410134609
136658000 -0.215776208226 0.147333248758
136667500 -0.215556282688 0.149115352873
136677000 -0.214875532591 0.150776553091
136686500 -0.21427156676 0.150837553089
136696000 -0.214303832353 0.149635666909
136705500 -0.21398931856 0.151125869065
136715000 -0.213466610828 0.152850012399
136724500 -0.212588911501 0.153119313353
136734000 -0.21269827058 0.151983087513
136743500 -0.21255204929 0.152891025679
136753000 -0.212049881628 0.154827759966
136762500 -0.21101445343 0.155344966397
136772000 -0.211052071116 0.154379978469
136781500 -0.211063452762 0.154834048915
136791000 -0.210461430693 0.156673043048
136800500 -0.209461463921 0.157518492824
136810000 -0.209301272033 0.15693648839
136819500 -0.209580557487 0.156807320801
136829000 -0.209034397735 0.158871693744
136838500 -0.208052720015 0.159659710957
136848000 -0.207731223008 0.159373695273
136857500 -0.207955555947 0.158819830216
136867000 -0.207414137752 0.160637536381
136876500 -0.206611114872 0.161782035205
136886000 -0.206171761056 0.161617231866
136895500 -0.206355464497 0.160835815412
136905000 -0.20590053272 0.162566123502
136914500 -0.205007602479 0.164010282445
136924000 -0.204576232622 0.163953175949
136933500 -0.204769831326 0.163011144734
136943000 -0.204336053708 0.16429064301
136952500 -0.203222872689 0.16517125684
136962000 -0.202940261321 0.166145473484
136971500 -0.203094750816 0.16526319276
136981000 -0.202946946507 0.166256408868
136990500 -0.202238123347 0.16810225832
137000000 -0.20134126253 0.168446873116
