! Calibrated averaged scanner-service zoom
# Hz S RI R 50
470000000 0.583066022755 -0.249536161233
470010500 0.58349170789 -0.249655304927
470021000 0.582847893141 -0.249802217327
470031500 0.582914988983 -0.249777233528
470042000 0.582830857641 -0.249697773509
470052500 0.583094140659 -0.248898107044
470063000 0.582794563204 -0.249749765299
470073500 0.582835618576 -0.249971433741
470084000 0.583402437069 -0.249612775346
470094500 0.583051957298 -0.249854548124
470105000 0.582634065769 -0.249569463427
470115500 0.582078515009 -0.248780991684
470126000 0.582232749077 -0.248963195736
470136500 0.582288114359 -0.250497068246
470147000 0.582344488969 -0.249079168267
470157500 0.582658276926 -0.249063523508
470168000 0.583178500341 -0.248669408994
470178500 0.583027723624 -0.250205007146
470189000 0.582852398386 -0.248993427668
470199500 0.583099570683 -0.24928443807
470210000 0.581236803232 -0.250596216866
470220500 0.58456947916 -0.252439037485
470231000 0.581208358458 -0.251520115465
470241500 0.582500733789 -0.249957177959
470252000 0.583839776911 -0.249033275252
470262500 0.582997612329 -0.250013703562
470273000 0.583325264587 -0.251140780867
470283500 0.584858889469 -0.248592893943
470294000 0.581034144674 -0.248890459661
470304500 0.582229936237 -0.247727290198
470315000 0.585682506215 -0.251121649552
470325500 0.583243339138 -0.24473701509
470336000 0.581419520993 -0.250079751026
470346500 0.58407659903 -0.249643804425
470357000 0.579176738739 -0.250192003671
470367500 0.582200052088 -0.249841196562
470378000 0.582566836824 -0.248066250693
470388500 0.581597238876 -0.250433236723
470399000 0.582439212998 -0.249786556982
470409500 0.581019924004 -0.249221772628
470420000 0.583897485067 -0.2493904075
470430500 0.582107742197 -0.250287513377
470441000 0.579048331662 -0.249956250874
470451500 0.583172927413 -0.248712429146
470462000 0.579738681107 -0.247326580719
470472500 0.581216078947 -0.249916237698
470483000 0.582985609132 -0.249778679439
470493500 0.580045617096 -0.247925662436
470504000 0.580182018709 -0.247489976219
470514500 0.579161890088 -0.250541900329
470525000 0.582143081581 -0.250911753178
470535500 0.582666730913 -0.248681510339
470546000 0.579104450336 -0.24980572769
470556500 0.582123555019 -0.250630828211
470567000 0.582133482426 -0.249461273615
470577500 0.580130954636 -0.249651494815
470588000 0.580415662713 -0.25097026912
470598500 0.583195737124 -0.248386608005
470609000 0.581659450882 -0.249469874526
470619500 0.581827533282 -0.252171421401
470630000 0.580878662149 -0.248108197882
470640500 0.580444924456 -0.247967771499
470651000 0.580794184091 -0.247855773289
470661500 0.579520934191 -0.245903505605
470672000 0.583123268441 -0.248911952319
470682500 0.579336648353 -0.248802490002
470693000 0.581519734492 -0.24907346488
470703500 0.581257902986 -0.247019706139
470714000 0.581218366005 -0.247383518196
470724500 0.582025059651 -0.249786329179
470735000 0.581509398155 -0.24893077099
470745500 0.58061720294 -0.247577971099
470756000 0.58224966868 -0.249001152999
470766500 0.581289512579 -0.24775760283
470777000 0.579983609968 -0.248006189912
470787500 0.580716886265 -0.250485249628
470798000 0.581802336891 -0.249047054012
470808500 0.581799803555 -0.248645185937
470819000 0.581565201633 -0.248337147989
470829500 0.581454304466 -0.247804952819
470840000 0.581094889556 -0.246837025895
470850500 0.581054643087 -0.248674281244
470861000 0.581847781754 -0.247866483651
470871500 0.580562440687 -0.248122308076
470882000 0.581617080725 -0.248291160908
470892500 0.581822443114 -0.247592647914
470903000 0.580881149516 -0.248020406958
470913500 0.581577150863 -0.24837424166
470924000 0.581982256684 -0.2487367555
470934500 0.582077966902 -0.247982174833
470945000 0.582339440525 -0.247609364326
470955500 0.58112006743 -0.247443307496
470966000 0.581783645377 -0.24754599632
470976500 0.581335766712 -0.248054913025
470987000 0.580790033669 -0.247714772049
470997500 0.581267311927 -0.247360311417
471008000 0.581582222829 -0.248100709254
471018500 0.581328822916 -0.24821095834
471029000 0.580776346849 -0.248021487771
471039500 0.580943997999 -0.247634469196
471050000 0.580855046454 -0.247710129393
471060500 0.581101412806 -0.247800731835
471071000 0.580985804626 -0.247772045962
471081500 0.580620293786 -0.247972936128
471092000 0.580757586609 -0.248882949527
471102500 0.581237783107 -0.247600421543
471113000 0.581079796836 -0.24874488438
471123500 0.582316847466 -0.248527149127
471134000 0.581992256633 -0.247594481996
471144500 0.581279649971 -0.248442421497
471155000 0.580700275376 -0.248941638778
471165500 0.581209475203 -0.248610404642
471176000 0.580674381253 -0.249073153591
471186500 0.580514161582 -0.247657041384
471197000 0.580773516058 -0.248152179228
471207500 0.581158062786 -0.248903487198
471218000 0.580882150144 -0.248904160092
471228500 0.580796303934 -0.248012165257
471239000 0.574712235271 -0.24338414727
471249500 0.581308323498 -0.247280238008
471260000 0.58075661018 -0.247128795684
471270500 0.581526453074 -0.247369636983
471281000 0.580848382625 -0.247457384931
471291500 0.580533016065 -0.248226723311
471302000 0.580246120484 -0.247715547107
471312500 0.580244745628 -0.247659467507
471323000 0.579705789353 -0.247962443131
471333500 0.580325841833 -0.247927985649
471344000 0.580670511531 -0.247937685269
471354500 0.580663802793 -0.247310479327
471365000 0.581314707521 -0.247700103192
471375500 0.580213620736 -0.247236148681
471386000 0.580810520879 -0.245785012944
471396500 0.580346103032 -0.247180319896
471407000 0.580766812156 -0.247656970907
471417500 0.579432775962 -0.247352814249
471428000 0.579726119858 -0.247859105486
471438500 0.579578596498 -0.247732948836
471449000 0.578706257207 -0.248046344805
471459500 0.579753357936 -0.247936466955
471470000 0.580064749099 -0.248422496014
471480500 0.579931132997 -0.247643681571
471491000 0.580261095818 -0.247321512101
471501500 0.580396729159 -0.247683169601
471512000 0.579816491182 -0.246907145226
471522500 0.579717097124 -0.247158505271
471533000 0.580121179812 -0.247633250149
471543500 0.579740193288 -0.24754742857
471554000 0.580231349141 -0.247483288503
471564500 0.579675061412 -0.247448315565
471575000 0.579536615344 -0.248183587468
471585500 0.57947318632 -0.247912317273
471596000 0.579912658024 -0.247895288923
471606500 0.579642849451 -0.247477535177
471617000 0.581521906263 -0.246956734285
471627500 0.580466563893 -0.246795939399
471638000 0.580095693272 -0.246680708358
471648500 0.580111032093 -0.246660247494
471659000 0.580132612471 -0.246940546635
471669500 0.579946072498 -0.246534681214
471680000 0.579802312898 -0.246906293734
471690500 0.579905355728 -0.247444583629
471701000 0.57974720627 -0.24768868783
471711500 0.580064465583 -0.246566266398
471722000 0.58045008266 -0.247109566455
471732500 0.580064631926 -0.246759425603
471743000 0.580129797338 -0.246729377008
471753500 0.579941253319 -0.245900330485
471764000 0.579863764414 -0.246084519091
471774500 0.580463221252 -0.246727901691
471785000 0.580198271471 -0.246777607345
471795500 0.579926033651 -0.24681575714
471806000 0.579738512386 -0.24677442912
471816500 0.579517128855 -0.246748612004
471827000 0.579384665223 -0.246987229204
471837500 0.579633681162 -0.246753200069
471848000 0.579508234515 -0.246286988252
471858500 0.579982828608 -0.246507748694
471869000 0.579710384156 -0.246965509959
471879500 0.579168566573 -0.24631937607
471890000 0.57949369197 -0.247090723197
471900500 0.579640102611 -0.246631839357
471911000 0.579639486915 -0.247183135119
471921500 0.580280113356 -0.247115456382
471932000 0.580943235444 -0.247382336916
471942500 0.579805471813 -0.246913300717
471953000 0.580097172053 -0.247551530529
471963500 0.578887771147 -0.247312242346
471974000 0.579072901813 -0.246792189856
471984500 0.578815396485 -0.247496015523
471995000 0.578729450885 -0.24665358804
472005500 0.579003340024 -0.246221977404
472016000 0.579257481297 -0.246481565035
472026500 0.579381991042 -0.246343169787
472037000 0.579224420894 -0.246817065889
472047500 0.578700296753 -0.247065231516
472058000 0.579742440352 -0.246749151907
472068500 0.579579986051 -0.246957548061
472079000 0.579120095627 -0.246878985249
472089500 0.581377768163 -0.246206792643
472100000 0.579314948642 -0.246958059868
472110500 0.579590395148 -0.246405482377
472121000 0.579461600892 -0.246868710933
472131500 0.579250359535 -0.24640738045
472142000 0.578988885487 -0.245767752186
472152500 0.578725916524 -0.246043986897
472163000 0.578403064114 -0.244869445184
472173500 0.578668668477 -0.246017826036
472184000 0.57871428296 -0.246287569137
472194500 0.577868919447 -0.246565090255
472205000 0.578891901368 -0.246164647469
472215500 0.578241779254 -0.246269387802
472226000 0.578341480144 -0.246108500679
472236500 0.578440793279 -0.245515912996
472247000 0.579040403476 -0.245582419301
472257500 0.578554996067 -0.245130283645
472268000 0.578925745423 -0.245746439319
472278500 0.578690800949 -0.245679236193
472289000 0.578939408636 -0.245811374749
472299500 0.578835913725 -0.245673635954
472310000 0.579684309149 -0.245379888912
472320500 0.57933323691 -0.245340929489
472331000 0.579037794402 -0.245499870238
472341500 0.578267779673 -0.246019584525
472352000 0.578745172421 -0.245804062677
472362500 0.578827437463 -0.245562361888
472373000 0.578602022134 -0.245805213325
472383500 0.578075288268 -0.246217162427
472394000 0.578505562051 -0.246405935606
472404500 0.577814956106 -0.245774617847
472415000 0.578598105271 -0.246104487461
472425500 0.5788342618 -0.245476634769
472436000 0.578629134155 -0.245689715313
472446500 0.578913068022 -0.245459398914
472457000 0.578711261047 -0.245253777985
472467500 0.578540075476 -0.246177037336
472478000 0.578070604458 -0.24583880286
472488500 0.57883213858 -0.245252246376
472499000 0.579700509214 -0.245350213056
472509500 0.579298233613 -0.246622589269
472520000 0.579233486716 -0.246465022806
472530500 0.578378566981 -0.245700514332
472541000 0.578055665089 -0.245101438036
472551500 0.578430084292 -0.244638068216
472562000 0.578579857176 -0.24447240483
472572500 0.578604170702 -0.245114968122
472583000 0.5787133277 -0.244260204946
472593500 0.579413712328 -0.245917428187
472604000 0.578139345381 -0.24481224917
472614500 0.578189810791 -0.244632747597
472625000 0.5790277984 -0.24544980162
472635500 0.578431397127 -0.245901232238
472646000 0.578340380787 -0.245490766578
472656500 0.578515357494 -0.24488034067
472667000 0.579420096759 -0.245417227204
472677500 0.578973018918 -0.245980619649
472688000 0.578330290798 -0.245983203179
472698500 0.578663388966 -0.245339754425
472709000 0.577948967587 -0.245610682306
472719500 0.578286316353 -0.246091593509
472730000 0.578539300091 -0.245742137358
472740500 0.578607203022 -0.24596269766
472751000 0.578787056664 -0.245522050899
472761500 0.578140390027 -0.245620559954
472772000 0.578472105148 -0.24525304219
472782500 0.577703708039 -0.245327664185
472793000 0.577521335158 -0.245760652745
472803500 0.578095825932 -0.245239666409
472814000 0.578291885823 -0.245277704385
472824500 0.57841961701 -0.245301377875
472835000 0.578358339342 -0.245208824957
472845500 0.577864806488 -0.245147820435
472856000 0.57786564267 -0.245145865698
472866500 0.57832200415 -0.245116668727
472877000 0.578508657517 -0.245328745303
472887500 0.5786609379 -0.245231861172
472898000 0.57791868591 -0.244824946617
472908500 0.578118847906 -0.244962332345
472919000 0.578016519907 -0.245210597082
472929500 0.578076775797 -0.245120445621
472940000 0.578210439672 -0.245553781526
472950500 0.577887226484 -0.245288356239
472961000 0.577841097533 -0.245403198395
472971500 0.577688666858 -0.244802225596
472982000 0.577818683748 -0.245014224569
472992500 0.577337206989 -0.245454419756
473003000 0.577852910317 -0.245337247571
473013500 0.577452156043 -0.245085225916
473024000 0.577352078378 -0.243895651708
473034500 0.578122622892 -0.245160655726
473045000 0.578504572205 -0.244392132468
473055500 0.577911514543 -0.244528300833
473066000 0.578202150665 -0.244177150481
473076500 0.57865593495 -0.245158304392
473087000 0.577293288751 -0.244677893801
473097500 0.577677321973 -0.244470853706
473108000 0.577301694122 -0.244456121265
473118500 0.57770618726 -0.244769762518
473129000 0.577697455242 -0.24456940576
473139500 0.577271859004 -0.245014397136
473150000 0.577726600394 -0.245055286146
473160500 0.576708074742 -0.244665782151
473171000 0.576768876627 -0.244544318422
473181500 0.577419730687 -0.244490434494
473192000 0.577135305289 -0.244827497247
473202500 0.577537408844 -0.244747718312
473213000 0.577145712809 -0.24461651415
473223500 0.577303907522 -0.244659939891
473234000 0.577026067662 -0.244935819919
473244500 0.5774634786 -0.244297759775
473255000 0.577527690575 -0.244187308235
473265500 0.577270512954 -0.243919499817
473276000 0.577566307971 -0.243674888506
473286500 0.577256334065 -0.244113812863
473297000 0.577693569393 -0.244005996809
473307500 0.577356680781 -0.244396029938
473318000 0.577806139698 -0.244783243747
473328500 0.577366691116 -0.244357445451
473339000 0.577681764515 -0.244407288147
473349500 0.576979216797 -0.243602284108
473360000 0.577034896774 -0.243731121795
473370500 0.577305559285 -0.24304928841
473381000 0.576987077531 -0.243833171434
473391500 0.577332257004 -0.244428898309
473402000 0.57719316632 -0.245321770026
473412500 0.57752332771 -0.24402129941
473423000 0.577824958221 -0.243955030748
473433500 0.578396757203 -0.244150506214
473444000 0.579030272177 -0.24392837996
473454500 0.578158819388 -0.244163123302
473465000 0.577932268817 -0.242622304901
473475500 0.577688565451 -0.243943670777
473486000 0.577317621602 -0.243596743247
473496500 0.577530216011 -0.24398251428
473507000 0.577835189182 -0.244184522741
473517500 0.577988651289 -0.244036809987
473528000 0.577556943469 -0.245261173042
473538500 0.57664816006 -0.244133067557
473549000 0.577240353603 -0.244308483258
473559500 0.576581324063 -0.244357368828
473570000 0.577454767689 -0.244922928812
473580500 0.577749412448 -0.245076674594
473591000 0.577294475582 -0.243791309778
473601500 0.577616426378 -0.243109710382
473612000 0.577224092327 -0.243537043573
473622500 0.577565528099 -0.244756098277
473633000 0.577553536373 -0.244330075195
473643500 0.576560545182 -0.244440768903
473654000 0.577055605828 -0.244476255273
473664500 0.576849713455 -0.243802934355
473675000 0.577130843762 -0.244365809288
473685500 0.577222568763 -0.244076970154
473696000 0.576722907076 -0.243290773512
473706500 0.576972853938 -0.244126245243
473717000 0.577315170338 -0.244394030618
473727500 0.576705101978 -0.243996855751
473738000 0.577442873973 -0.243678394246
473748500 0.576873384576 -0.244008677026
473759000 0.577557884633 -0.243572970162
473769500 0.57721287368 -0.244022186482
473780000 0.577255077203 -0.244065189621
473790500 0.57673299499 -0.243670256418
473801000 0.577498849436 -0.243823016354
473811500 0.577466240711 -0.24344837604
473822000 0.576268149143 -0.243142600789
473832500 0.576920459669 -0.243710520878
473843000 0.576691286703 -0.244398435106
473853500 0.576206708527 -0.243265106641
473864000 0.576728457766 -0.243506103436
473874500 0.576149915171 -0.243338292345
473885000 0.577259050053 -0.243367618891
473895500 0.576391586776 -0.243245135915
473906000 0.576956981668 -0.24376888878
473916500 0.577450731752 -0.244383664805
473927000 0.577721048591 -0.24415719609
473937500 0.578115321076 -0.244045828832
473948000 0.578344578146 -0.243274920984
473958500 0.577904069746 -0.243236891055
473969000 0.577310289888 -0.243476099414
473979500 0.576616070686 -0.244009705419
473990000 0.576654609678 -0.243420092588
474000500 0.576827563149 -0.243238815678
474011000 0.576957663053 -0.243495842437
474021500 0.576757971991 -0.243072443058
474032000 0.576630124874 -0.243903317585
474042500 0.576572282627 -0.244033975984
474053000 0.57683987534 -0.243014645934
474063500 0.576088755347 -0.24342864175
474074000 0.576861723451 -0.243544882772
474084500 0.577155685454 -0.243447579324
474095000 0.576903754914 -0.243290044227
474105500 0.577380258495 -0.243737753295
474116000 0.577240626343 -0.242320001176
474126500 0.578171586824 -0.243205106474
474137000 0.577442184716 -0.243010109446
474147500 0.576429705969 -0.242790030369
474158000 0.577172682446 -0.242961419763
474168500 0.577868032203 -0.243068858258
474179000 0.577113429361 -0.243447309405
474189500 0.577655991993 -0.243838514104
474200000 0.57668511425 -0.24325045199
474210500 0.57775401484 -0.243767990709
474221000 0.576599486272 -0.242719999308
474231500 0.576529144023 -0.243487774675
474242000 0.576134069031 -0.243261850233
474252500 0.575419399367 -0.243052040287
474263000 0.578102053683 -0.243533928072
474273500 0.576389864019 -0.243602976255
474284000 0.577169452223 -0.242832012318
474294500 0.576564551732 -0.24303768021
474305000 0.57729628554 -0.243127473834
474315500 0.575081774443 -0.241193958841
474326000 0.575858750717 -0.243493173085
474336500 0.576416609268 -0.244702593377
474347000 0.57778158405 -0.245060513719
474357500 0.576040966675 -0.244922587032
474368000 0.575061635996 -0.241686856207
474378500 0.578016379192 -0.241610798702
474389000 0.581024473542 -0.245056985913
474399500 0.578660339326 -0.242934183331
474410000 0.575923634669 -0.244786497113
474420500 0.575486234683 -0.24326927391
474431000 0.577932903094 -0.244937177182
474441500 0.576373885944 -0.241982634471
474452000 0.574480818642 -0.243722106355
474462500 0.577468914866 -0.243637053763
474473000 0.576556240241 -0.243208230291
474483500 0.577281351959 -0.243095897852
474494000 0.580396485139 -0.250158201649
474504500 0.57735029562 -0.241341830637
474515000 0.571867872422 -0.242016923631
474525500 0.579592717734 -0.245048510337
474536000 0.574927548498 -0.240273180432
474546500 0.573249716316 -0.244299808997
474557000 0.578603349202 -0.240129400618
474567500 0.57611950568 -0.24280805001
474578000 0.576658515725 -0.242183549057
474588500 0.576805907671 -0.243016587689
474599000 0.575850593145 -0.243447298927
474609500 0.577638949756 -0.242692805988
474620000 0.577472084481 -0.242737219456
474630500 0.576412113131 -0.242522115255
474641000 0.576722096368 -0.243147378911
474651500 0.576852180306 -0.24218490519
474662000 0.576704900879 -0.242883033567
474672500 0.576797399511 -0.24223974406
474683000 0.576422038889 -0.242300169209
474693500 0.576629679098 -0.243318779088
474704000 0.576938572046 -0.242860909656
474714500 0.576101284728 -0.242979556484
474725000 0.576256015061 -0.242965107302
474735500 0.576480338746 -0.242664369791
474746000 0.576654056711 -0.243056597318
474756500 0.577098341438 -0.242075558751
474767000 0.576860894446 -0.242223361361
474777500 0.576099612611 -0.242817259059
474788000 0.575793643842 -0.242148575131
474798500 0.576108602426 -0.242926753113
474809000 0.576413291721 -0.242780325236
474819500 0.576432250608 -0.242772978857
474830000 0.575660721779 -0.242925871192
474840500 0.576127543545 -0.243042274511
474851000 0.576593749576 -0.243259606258
474861500 0.576097135265 -0.243343687873
474872000 0.575700543777 -0.243056372312
474882500 0.576125924889 -0.243440659299
474893000 0.578120780696 -0.242962786114
474903500 0.576135895763 -0.242695011695
474914000 0.576203070685 -0.242585917785
474924500 0.576173280254 -0.242849352286
474935000 0.576348917674 -0.242602745823
474945500 0.576046711252 -0.242595011347
474956000 0.576160804627 -0.242513473648
474966500 0.575481803738 -0.242783311879
474977000 0.576042767545 -0.242319752128
474987500 0.576174214649 -0.242597562579
474998000 0.575965035105 -0.242440314299
475008500 0.576644000059 -0.242626443913
475019000 0.575987811128 -0.241846260878
475029500 0.576626166162 -0.24226922012
475040000 0.576154996324 -0.241535132889
475050500 0.576479033835 -0.242668622069
475061000 0.57668644314 -0.24194719375
475071500 0.576432786719 -0.241953378791
475082000 0.576475863644 -0.242138306715
475092500 0.575162534095 -0.242568296527
475103000 0.575788703213 -0.242108398187
475113500 0.5762114561 -0.241773906333
475124000 0.575393395153 -0.242751340709
475134500 0.575712747293 -0.242450888659
475145000 0.575819850013 -0.242380036805
475155500 0.575854265136 -0.242357081962
475166000 0.575398390748 -0.242238812948
475176500 0.575362748378 -0.242370896037
475187000 0.575879904992 -0.242711410072
475197500 0.575868776299 -0.242003181675
475208000 0.575730541073 -0.242126353979
475218500 0.574935821025 -0.241478920148
475229000 0.575465462689 -0.242058366065
475239500 0.575604995252 -0.241983553769
475250000 0.574982777155 -0.241656395221
475260500 0.575961666442 -0.242062853554
475271000 0.576121241833 -0.242057535851
475281500 0.575277060049 -0.241851514956
475292000 0.575271282622 -0.241561912278
475302500 0.575029621028 -0.242054085046
475313000 0.575329801001 -0.240839156157
475323500 0.57510862607 -0.242010746606
475334000 0.57619177122 -0.241676946612
475344500 0.575549661242 -0.242245887374
475355000 0.575961885211 -0.241748542896
475365500 0.576153472686 -0.242479947153
475376000 0.575834037473 -0.242659867481
475386500 0.576143267064 -0.241967379126
475397000 0.575988621954 -0.241744620206
475407500 0.575560434829 -0.241729970946
475418000 0.575511713485 -0.242447221927
475428500 0.575646653941 -0.242364954679
475439000 0.575959998447 -0.241467025498
475449500 0.575641252283 -0.241771996409
475460000 0.57626449836 -0.241624460539
475470500 0.575775090912 -0.242378173129
475481000 0.576718444084 -0.241826448701
475491500 0.575686403778 -0.242245754931
475502000 0.576345778962 -0.241969670397
475512500 0.575817076014 -0.241950351011
475523000 0.57530971354 -0.241578690389
475533500 0.575480720193 -0.242946412263
475544000 0.575779035572 -0.242689900531
475554500 0.575455113043 -0.241981413299
475565000 0.575807373985 -0.242663985458
475575500 0.575643568548 -0.241856011535
475586000 0.575182734216 -0.241764995772
475596500 0.576049194411 -0.242189422529
475607000 0.575725179192 -0.241715350185
475617500 0.575538670563 -0.242059117644
475628000 0.575716939743 -0.24270734794
475638500 0.575151754876 -0.242016653761
475649000 0.575416814784 -0.242389351549
475659500 0.576179469541 -0.241612563351
475670000 0.575338117319 -0.241788792266
475680500 0.575841036767 -0.242019786666
475691000 0.575599632355 -0.242064198887
475701500 0.575609211913 -0.242192782163
475712000 0.57591800943 -0.242070371345
475722500 0.574958714291 -0.241728973846
475733000 0.575293379343 -0.241912539587
475743500 0.574954911887 -0.241654962979
475754000 0.575079265717 -0.242385914621
475764500 0.575308216856 -0.241029278312
475775000 0.575319408788 -0.241743206822
475785500 0.575054208522 -0.241081940908
475796000 0.575616706015 -0.241463756179
475806500 0.574876244812 -0.241867254618
475817000 0.575468755079 -0.241811506173
475827500 0.575425793812 -0.241840672978
475838000 0.575518226398 -0.242054645775
475848500 0.575252228112 -0.242019004439
475859000 0.575244160725 -0.242186699752
475869500 0.57553602833 -0.24172483436
475880000 0.5759143265 -0.241367799415
475890500 0.575596074229 -0.241726833372
475901000 0.575511181185 -0.242479218885
475911500 0.575231599598 -0.241453988132
475922000 0.575391459841 -0.241622019587
475932500 0.575540152733 -0.242007381468
475943000 0.575250750489 -0.241728152978
475953500 0.5748539134 -0.242035794539
475964000 0.574927554092 -0.24210211498
475974500 0.575103837716 -0.24189985095
475985000 0.574929784934 -0.242353051963
475995500 0.574790821117 -0.24195251602
476006000 0.575050110225 -0.241528195971
476016500 0.575440689937 -0.241230892512
476027000 0.575300911778 -0.241555828579
476037500 0.575382119121 -0.241625471189
476048000 0.575511169731 -0.241628039964
476058500 0.575729056101 -0.241049488117
476069000 0.575432056146 -0.241750944755
476079500 0.57492146188 -0.241640441381
476090000 0.575180644589 -0.241476763407
476100500 0.575023807986 -0.240757338881
476111000 0.574418670217 -0.24163335964
476121500 0.575395568025 -0.239983808135
476132000 0.575228630441 -0.24149084033
476142500 0.576338420156 -0.24071547556
476153000 0.575192906554 -0.241121570476
476163500 0.575476583549 -0.240928221215
476174000 0.576116869612 -0.241125802439
476184500 0.575366757561 -0.240983609826
476195000 0.575285141746 -0.241668632871
476205500 0.575972606977 -0.241394144197
476216000 0.575621240747 -0.241271575023
476226500 0.575970681795 -0.241911865201
476237000 0.576231439293 -0.241058148491
476247500 0.575453201772 -0.241599379412
476258000 0.575238835094 -0.241742290505
476268500 0.575044756541 -0.241290815404
476279000 0.574830420413 -0.240205846654
476289500 0.575761127533 -0.24211846542
476300000 0.575424878248 -0.242165974077
476310500 0.574699759904 -0.24156616824
476321000 0.575495940045 -0.241823999585
476331500 0.574641129509 -0.241129084689
476342000 0.57462453517 -0.241578764932
476352500 0.57503951481 -0.241866072171
476363000 0.574826604631 -0.241051309855
476373500 0.574939614493 -0.241366166428
476384000 0.574418007056 -0.241884773329
476394500 0.574398920907 -0.241974851078
476405000 0.574985576415 -0.241533398533
476415500 0.575206879445 -0.241106346294
476426000 0.575494507504 -0.241591631377
476436500 0.575357797097 -0.240926904208
476447000 0.575955578742 -0.241573456783
476457500 0.575083007704 -0.240855966199
476468000 0.575192026695 -0.241820556431
476478500 0.574837963218 -0.241234619096
476489000 0.575006648841 -0.241754337222
476499500 0.574974255032 -0.240840341118
476510000 0.574808924299 -0.240865299843
476520500 0.574882825138 -0.241083236539
476531000 0.574280075543 -0.241124483095
476541500 0.574613366138 -0.240423189545
476552000 0.574248159868 -0.241652712512
476562500 0.574827289814 -0.240977719245
476573000 0.574644393996 -0.240804779254
476583500 0.574544394944 -0.240989030461
476594000 0.574392212403 -0.240697713112
476604500 0.574620444554 -0.241631432685
476615000 0.575206207792 -0.240915909238
476625500 0.573163398027 -0.240296848772
476636000 0.56168698596 -0.250144640549
476646500 0.566003093156 -0.242361744821
476657000 0.56734800589 -0.242863042234
476667500 0.569235310684 -0.242624298732
476678000 0.575725001076 -0.241651907569
476688500 0.57622456051 -0.241077717078
476699000 0.575351677507 -0.240526429083
476709500 0.575358802522 -0.241106692324
476720000 0.575707348723 -0.241433038882
476730500 0.575133365603 -0.240371410868
476741000 0.574812050508 -0.241187106125
476751500 0.574818134047 -0.2416954999
476762000 0.574426874048 -0.241220444362
476772500 0.574970924861 -0.241563811763
476783000 0.57423869591 -0.242560682509
476793500 0.575066185279 -0.241865351077
476804000 0.575192427011 -0.241781193485
476814500 0.574472393339 -0.240947538075
476825000 0.574536646847 -0.241069011379
476835500 0.57512581856 -0.240885382645
476846000 0.574722943376 -0.24054477763
476856500 0.575145522513 -0.241122998755
476867000 0.575061415006 -0.241863886281
476877500 0.574328888964 -0.241076417174
476888000 0.575769793264 -0.240953390158
476898500 0.575620192033 -0.240760109714
476909000 0.574202922471 -0.240980061988
476919500 0.574195326768 -0.240598667068
476930000 0.574433845488 -0.241007756947
476940500 0.575148129844 -0.24128243005
476951000 0.575259155554 -0.241461838201
476961500 0.57465118341 -0.241612079298
476972000 0.575286527886 -0.241684295591
476982500 0.575392273892 -0.241077997266
476993000 0.57532084529 -0.241215003498
477003500 0.57479449097 -0.241798954339
477014000 0.574467614181 -0.240874273728
477024500 0.574436681897 -0.241024119331
477035000 0.574768272174 -0.241522858239
477045500 0.574434532088 -0.241075065097
477056000 0.574586292928 -0.241655725026
477066500 0.574441631058 -0.240670662561
477077000 0.574716344214 -0.240480432205
477087500 0.57470954897 -0.240716069906
477098000 0.574694722088 -0.241389009471
477108500 0.575061743024 -0.241608091306
477119000 0.575059812771 -0.241509715128
477129500 0.574648454858 -0.241292967455
477140000 0.575442194355 -0.241236477374
477150500 0.574499217167 -0.241261250712
477161000 0.574801035407 -0.240848065285
477171500 0.57374039575 -0.240876246826
477182000 0.574562062602 -0.242085620322
477192500 0.574572681498 -0.242170419122
477203000 0.574466015884 -0.242187458125
477213500 0.574253449012 -0.241126757827
477224000 0.574125068735 -0.241543433524
477234500 0.573937507545 -0.241040006597
477245000 0.574869307628 -0.241221737699
477255500 0.574629013177 -0.24158666724
477266000 0.574984170703 -0.241226652631
477276500 0.574296867614 -0.241311129787
477287000 0.574705600327 -0.24018735969
477297500 0.573888676618 -0.240837483379
477308000 0.573988378062 -0.241388009025
477318500 0.57514503079 -0.241355732301
477329000 0.574628050143 -0.241391433298
477339500 0.573768931645 -0.241284508172
477350000 0.573970055227 -0.241682713129
477360500 0.574896626524 -0.240352720882
477371000 0.575047336034 -0.240643436913
477381500 0.575517375055 -0.240571678368
477392000 0.575561200106 -0.241101729916
477402500 0.576273460258 -0.241180102101
477413000 0.574072849959 -0.241060403898
477423500 0.57425216721 -0.240565065135
477434000 0.574589188621 -0.240668703373
477444500 0.573806701906 -0.241626828407
477455000 0.575592234026 -0.24000272226
477465500 0.573643512379 -0.240036546984
477476000 0.575309831012 -0.240629742235
477486500 0.573861204419 -0.242532359535
477497000 0.573148598373 -0.239818348693
477507500 0.573180788131 -0.240364778262
477518000 0.573601874667 -0.241371084419
477528500 0.575446303238 -0.240498834945
477539000 0.574983906315 -0.240018036712
477549500 0.573565177537 -0.241380541669
477560000 0.574686954992 -0.238733925666
477570500 0.575770351801 -0.240072466191
477581000 0.573951652751 -0.241147195216
477591500 0.574124292225 -0.24100144554
477602000 0.575360283403 -0.24119809423
477612500 0.576035130139 -0.242060926569
477623000 0.57300530246 -0.24001364543
477633500 0.577159327765 -0.241424765749
477644000 0.573877622573 -0.241789933889
477654500 0.574274779403 -0.240667623016
477665000 0.573715602845 -0.238943530502
477675500 0.572823156649 -0.240579428848
477686000 0.572067673997 -0.240239098424
477696500 0.574099953877 -0.242515422882
477707000 0.575066306456 -0.240593977601
477717500 0.574621336356 -0.240915024048
477728000 0.57121582638 -0.240405452872
477738500 0.574405153957 -0.243372727479
477749000 0.576089582913 -0.238960531105
477759500 0.574108612357 -0.239023750313
477770000 0.572661370076 -0.240634193602
477780500 0.573556208805 -0.24056226475
477791000 0.574188106078 -0.240956632092
477801500 0.576080623866 -0.241073548173
477812000 0.573934620729 -0.241652818407
477822500 0.573679095472 -0.241630673126
477833000 0.573501485017 -0.242284878491
477843500 0.573682508097 -0.241122664867
477854000 0.572507380166 -0.240570305778
477864500 0.573504217933 -0.241237609396
477875000 0.573369038778 -0.241457585263
477885500 0.574195903784 -0.240946882348
477896000 0.573042966881 -0.241602887641
477906500 0.574273251728 -0.240596582369
477917000 0.57364568971 -0.240155285176
477927500 0.572624881993 -0.240426374507
477938000 0.572852831751 -0.240909971316
477948500 0.573230678103 -0.238963333877
477959000 0.573508650268 -0.240915767022
477969500 0.574258088128 -0.242623458409
477980000 0.573961020902 -0.241296295831
477990500 0.57404340413 -0.242252801916
478001000 0.57301974771 -0.241050138755
478011500 0.574614500091 -0.238445097446
478022000 0.570727750859 -0.243919119567
478032500 0.572660253724 -0.240872405027
478043000 0.572353052993 -0.239118232718
478053500 0.572212582449 -0.245560781965
478064000 0.575906753969 -0.242175475247
478074500 0.574129262566 -0.240150608452
478085000 0.573137282221 -0.241961395469
478095500 0.575144798946 -0.240093947717
478106000 0.571715848658 -0.242364071062
478116500 0.568981535492 -0.239024707877
478127000 0.574555154738 -0.247325945144
478137500 0.581117891536 -0.240354918503
478148000 0.571682658069 -0.239028888334
478158500 0.566188145592 -0.239878424483
478169000 0.574226198859 -0.240683936749
478179500 0.571175000903 -0.241485333224
478190000 0.571544964413 -0.227448014234
478200500 0.56727605008 -0.253561011383
478211000 0.5751844697 -0.245301500664
478221500 0.569160232996 -0.242478369874
478232000 0.567332417585 -0.240936820065
478242500 0.578709123902 -0.242136593562
478253000 0.578180921399 -0.24251423421
478263500 0.556155236005 -0.255339404963
478274000 0.563348419076 -0.234789632391
478284500 0.572707461178 -0.249366019831
478295000 0.573657883287 -0.242679892593
478305500 0.578756857847 -0.246280395738
478316000 0.572049083292 -0.239831449526
478326500 0.570802979862 -0.241007371384
478337000 0.574738973191 -0.236379964951
478347500 0.576862828153 -0.246541924509
478358000 0.577034086431 -0.236110170653
478368500 0.584915256588 -0.237975894416
478379000 0.580017622708 -0.248980211552
478389500 0.572305952622 -0.245556093593
478400000 0.564211994716 -0.236470841461
478410500 0.571487769464 -0.256736023662
478421000 0.588558165732 -0.24537244275
478431500 0.576663712915 -0.226620108891
478442000 0.563457475181 -0.226371546419
478452500 0.548904179818 -0.253507029639
478463000 0.579790900871 -0.251780872373
478473500 0.566499359194 -0.251875288907
478484000 0.574206442332 -0.235880978701
478494500 0.5626908752 -0.247889380203
478505000 0.579760711101 -0.258435166793
478515500 0.583777681565 -0.225998974672
478526000 0.570088433029 -0.236111551841
478536500 0.573498746865 -0.253574645747
478547000 0.574071959342 -0.233778495956
478557500 0.56763664338 -0.241278724728
478568000 0.583375935529 -0.243211067136
478578500 0.571801109417 -0.24792323928
478589000 0.576706499792 -0.241058483646
478599500 0.57608073104 -0.238709445016
478610000 0.565034980521 -0.248854273483
478620500 0.570743082009 -0.235518799287
478631000 0.577696415692 -0.24301432776
478641500 0.573989530561 -0.242973641989
478652000 0.574220723035 -0.242759942585
478662500 0.57140953984 -0.233620122543
478673000 0.574395408544 -0.251711242283
478683500 0.574960444749 -0.244109157961
478694000 0.569196122295 -0.237934142729
478704500 0.564135788368 -0.241043099677
478715000 0.567789639713 -0.239075378369
478725500 0.567954301907 -0.238833067951
478736000 0.57364421491 -0.243474342321
478746500 0.575000838647 -0.238865463237
478757000 0.576435560885 -0.248195651363
478767500 0.569556379943 -0.237122662084
478778000 0.579882127509 -0.247387057836
478788500 0.570363640426 -0.239640060137
478799000 0.57169950706 -0.244640698032
478809500 0.56943739857 -0.239892236957
478820000 0.574154688655 -0.234347807214
478830500 0.572595845026 -0.235899230623
478841000 0.573449607632 -0.24076295844
478851500 0.571051153679 -0.241063504022
478862000 0.571448615324 -0.245310430047
478872500 0.579098974889 -0.24013221273
478883000 0.570125284067 -0.243966277584
478893500 0.570349246342 -0.240895809006
478904000 0.572654541645 -0.240788565777
478914500 0.570671914611 -0.243830098192
478925000 0.572737011024 -0.240952275212
478935500 0.571587464327 -0.240672154805
478946000 0.573346452708 -0.241277663663
478956500 0.573050614797 -0.24033736095
478967000 0.573115219481 -0.241366540805
478977500 0.576009042679 -0.24043393671
478988000 0.573555739451 -0.241223809198
478998500 0.571541048504 -0.240849207517
479009000 0.572169498965 -0.241712255038
479019500 0.574736166995 -0.240878208662
479030000 0.573327181244 -0.239550668396
479040500 0.572600678327 -0.240909784513
479051000 0.573676031772 -0.240471714183
479061500 0.572197160372 -0.238707534338
479072000 0.573653165747 -0.239372728153
479082500 0.572695560374 -0.240631938484
479093000 0.573163225373 -0.2427980989
479103500 0.572396611557 -0.243468292137
479114000 0.573875507612 -0.241941980468
479124500 0.573220162952 -0.242222604733
479135000 0.573077850873 -0.240835493488
479145500 0.574338677597 -0.241917573993
479156000 0.573957566089 -0.241588314887
479166500 0.572407765476 -0.241746993294
479177000 0.572881077535 -0.242479602627
479187500 0.572671308778 -0.239710021363
479198000 0.573032237257 -0.241335958684
479208500 0.573661839331 -0.242055289545
479219000 0.573541829187 -0.240886919146
479229500 0.572757172351 -0.242007847653
479240000 0.572503725029 -0.241507323319
479250500 0.573118605026 -0.241239341834
479261000 0.574052651471 -0.242027706195
479271500 0.574009680273 -0.241001128118
479282000 0.5725476991 -0.24141398789
479292500 0.573359497002 -0.241297679551
479303000 0.573853837407 -0.241126717129
479313500 0.573263238701 -0.24116498615
479324000 0.573071072803 -0.24283720487
479334500 0.572612095926 -0.240667280119
479345000 0.57213094344 -0.240281357255
479355500 0.572334481683 -0.241518820499
479366000 0.571919804398 -0.240396222266
479376500 0.571595891526 -0.240628307986
479387000 0.573031565603 -0.241473609136
479397500 0.572319096915 -0.24281458341
479408000 0.57262133536 -0.240617615155
479418500 0.572305021871 -0.240145829138
479429000 0.572595146745 -0.240644034811
479439500 0.572061807107 -0.240079388124
479450000 0.573383955298 -0.241043113693
479460500 0.572999795027 -0.24125566743
479471000 0.572461102195 -0.241153270587
479481500 0.57244912712 -0.241468873383
479492000 0.573118298585 -0.240166657465
479502500 0.572950449259 -0.241114486221
479513000 0.573164276053 -0.240699331862
479523500 0.572626908152 -0.239532183047
479534000 0.572281459516 -0.240862758171
479544500 0.57234156465 -0.241474423859
479555000 0.572003442046 -0.241297587425
479565500 0.572318999898 -0.240591517301
479576000 0.571732806151 -0.240916787958
479586500 0.572897406587 -0.241534968904
479597000 0.571751089453 -0.240724867323
479607500 0.572124591345 -0.241459326279
479618000 0.572062656787 -0.24093349682
479628500 0.572168056823 -0.241183785597
479639000 0.572169831416 -0.241049387004
479649500 0.572111310218 -0.240768266081
479660000 0.572493075871 -0.241588469157
479670500 0.572000046127 -0.240984406293
479681000 0.571753078598 -0.241369752987
479691500 0.571951361925 -0.240933946501
479702000 0.571614019933 -0.241892468422
479712500 0.57201101984 -0.24127360457
479723000 0.571931757125 -0.241864912438
479733500 0.572485395531 -0.241549664142
479744000 0.572258642731 -0.240884131923
479754500 0.572743482158 -0.240813475442
479765000 0.572560845132 -0.241321045714
479775500 0.573104016762 -0.241071050591
479786000 0.571750810881 -0.240785636794
479796500 0.572493215769 -0.241918753902
479807000 0.572592332721 -0.24127344304
479817500 0.572410226039 -0.241347888799
479828000 0.572511319003 -0.241448782652
479838500 0.572734154163 -0.242661384235
479849000 0.572903628129 -0.242273791198
479859500 0.572639215771 -0.241825716555
479870000 0.572288868643 -0.24114030732
479880500 0.572463803621 -0.241294840605
479891000 0.571600889419 -0.241614499434
479901500 0.572197537741 -0.240693830655
479912000 0.571651108981 -0.241787645687
479922500 0.572178826407 -0.242044251027
479933000 0.572967210754 -0.241056624901
479943500 0.573039172926 -0.240672469801
479954000 0.574111827096 -0.240434949755
479964500 0.573158249565 -0.2408527962
479975000 0.571943005098 -0.241215761138
479985500 0.571272185555 -0.24185642025
479996000 0.571293536889 -0.240824486418
480006500 0.571706251005 -0.240518974003
480017000 0.571595390071 -0.242079130809
480027500 0.572363722749 -0.241365798214
480038000 0.571275922069 -0.240592950671
480048500 0.57205952382 -0.241551639864
480059000 0.571415194609 -0.241601551523
480069500 0.5709606099 -0.241265643152
480080000 0.572924178421 -0.240200709595
480090500 0.57278740368 -0.241066711778
480101000 0.571972702902 -0.241545163203
480111500 0.572477154154 -0.241653873654
480122000 0.572787933983 -0.241949122505
480132500 0.57336290459 -0.241730284825
480143000 0.572165414231 -0.24210167817
480153500 0.572890684056 -0.241207584175
480164000 0.572960480319 -0.241664987031
480174500 0.572709696469 -0.241751265493
480185000 0.571514367196 -0.242103707052
480195500 0.571966916791 -0.240745446141
480206000 0.571596976763 -0.241287500928
480216500 0.571285422645 -0.242161623473
480227000 0.572355000675 -0.241669668084
480237500 0.571107362238 -0.242307552889
480248000 0.571535828319 -0.241810733091
480258500 0.571154398351 -0.241816194867
480269000 0.568606236897 -0.245235290285
480279500 0.57182361469 -0.241819686421
480290000 0.571370835711 -0.24159766804
480300500 0.571561363583 -0.241356852877
480311000 0.571978208793 -0.241033839379
480321500 0.571534951761 -0.241480565917
480332000 0.570868273648 -0.241983892645
480342500 0.571428418261 -0.241196268268
480353000 0.570928350774 -0.241583170699
480363500 0.571140844071 -0.24121682313
480374000 0.571280827139 -0.240608403655
480384500 0.571265340656 -0.240949986097
480395000 0.571475126129 -0.241450331638
480405500 0.571436279358 -0.240961841857
480416000 0.571357788141 -0.241483244727
480426500 0.57154750966 -0.241890628805
480437000 0.571908776691 -0.242441459641
480447500 0.571432260775 -0.242521068486
480458000 0.570855458403 -0.241796968415
480468500 0.572449096139 -0.240403928488
480479000 0.571461638942 -0.241123072831
480489500 0.571915342876 -0.240079582511
480500000 0.572270036202 -0.241343271823
480510500 0.570942802779 -0.241611583266
480521000 0.571023600563 -0.241599861292
480531500 0.571369258655 -0.240782536962
480542000 0.571399122099 -0.240652753429
480552500 0.571405836631 -0.241602887854
480563000 0.571534024157 -0.240427699354
480573500 0.571832951926 -0.241039060939
480584000 0.570931077687 -0.241182179406
480594500 0.571780546972 -0.239685559566
480605000 0.570290406443 -0.241977886349
480615500 0.570677520266 -0.241081084782
480626000 0.570005715174 -0.241688140573
480636500 0.57091627121 -0.240680617287
480647000 0.571060474753 -0.241930056143
480657500 0.571273186973 -0.241302396372
480668000 0.571590470957 -0.240969735535
480678500 0.571137855035 -0.241874886459
480689000 0.570336047762 -0.241822684634
480699500 0.571726163167 -0.24180926827
480710000 0.571541082563 -0.242173293529
480720500 0.570675505941 -0.241845214174
480731000 0.570918744073 -0.241304088503
480741500 0.571125689625 -0.241980324502
480752000 0.571002615423 -0.241158024729
480762500 0.570678674786 -0.241707887019
480773000 0.571126754926 -0.241377009068
480783500 0.571585683806 -0.241401454809
480794000 0.570735886854 -0.241512534513
480804500 0.570906520337 -0.241145070765
480815000 0.570673928445 -0.24130922718
480825500 0.570710487151 -0.24152573908
480836000 0.570754629351 -0.241286647058
480846500 0.570758582864 -0.241339181777
480857000 0.571077490967 -0.24136772269
480867500 0.570814722564 -0.241666683013
480878000 0.56986045077 -0.242136675192
480888500 0.570532947067 -0.241443263801
480899000 0.570560252634 -0.241472623434
480909500 0.571012349241 -0.241154918128
480920000 0.570577903434 -0.241696861861
480930500 0.570654632165 -0.241990674619
480941000 0.570855812293 -0.242029457739
480951500 0.569659210715 -0.240431262575
480962000 0.570140843849 -0.24081774775
480972500 0.569434941896 -0.240476023113
480983000 0.569668518914 -0.241306933386
480993500 0.569330133885 -0.241048448247
481004000 0.568621234919 -0.240445090649
481014500 0.570216006083 -0.242344453307
481025000 0.570105618109 -0.242573456988
481035500 0.569995471363 -0.24157181935
481046000 0.569403244318 -0.241338947533
481056500 0.570826375552 -0.241056886239
481067000 0.570100385117 -0.242177028736
481077500 0.570022543059 -0.242356260705
481088000 0.570658229951 -0.241602618679
481098500 0.571336290684 -0.241758966581
481109000 0.569674699555 -0.240058874388
481119500 0.570860061679 -0.241686792143
481130000 0.570121296104 -0.241288362163
481140500 0.570424564741 -0.241743618656
481151000 0.570190423391 -0.241105613935
481161500 0.569345203481 -0.241028880908
481172000 0.570225470399 -0.240906987582
481182500 0.570803326003 -0.241457871457
481193000 0.57005539197 -0.240749883115
481203500 0.570322245957 -0.240587872973
481214000 0.569775385636 -0.242373807031
481224500 0.570388462758 -0.242004251378
481235000 0.568998585773 -0.242464288274
481245500 0.569417537165 -0.242875233941
481256000 0.568700066758 -0.242625475438
481266500 0.570114365171 -0.241839792361
481277000 0.570149849641 -0.241309798948
481287500 0.570658783689 -0.241483965131
481298000 0.57000439606 -0.241295487512
481308500 0.56954662261 -0.242359337334
481319000 0.570222596973 -0.241882750147
481329500 0.569738895839 -0.241443292077
481340000 0.569666463471 -0.241687761165
481350500 0.56991295867 -0.241282983891
481361000 0.568497631708 -0.242185758465
481371500 0.569700578397 -0.24220691549
481382000 0.570422920703 -0.241321943907
481392500 0.570102497802 -0.241458385304
481403000 0.570475496346 -0.241430881149
481413500 0.570255001262 -0.241884200747
481424000 0.570703518272 -0.241978775322
481434500 0.569895274942 -0.241803620217
481445000 0.569524093476 -0.241708052143
481455500 0.570488571858 -0.241752941647
481466000 0.570485802867 -0.24242794161
481476500 0.570458303685 -0.242059873903
481487000 0.570054019494 -0.241338020758
481497500 0.569272766127 -0.241116083007
481508000 0.569453909023 -0.242357594527
481518500 0.569961855757 -0.242454291161
481529000 0.570948857564 -0.241128921283
481539500 0.570355413432 -0.241477819249
481550000 0.57053035777 -0.24114307043
481560500 0.571302813781 -0.242877322262
481571000 0.569238592855 -0.242160109765
481581500 0.571295299847 -0.242107230745
481592000 0.569454851703 -0.24296725059
481602500 0.570579925516 -0.241441223385
481613000 0.569689008255 -0.241845629597
481623500 0.571264213655 -0.240320739558
481634000 0.569565488888 -0.240718971587
481644500 0.569474391557 -0.242406572252
481655000 0.570088100586 -0.240793728906
481665500 0.569165358097 -0.240245359694
481676000 0.569441563568 -0.242563630203
481686500 0.567691837516 -0.2429495159
481697000 0.567329640446 -0.242095335683
481707500 0.568667705194 -0.244157994499
481718000 0.568700775871 -0.243279394985
481728500 0.570040324701 -0.243093010168
481739000 0.570936452672 -0.243224837609
481749500 0.569041926927 -0.241164551677
481760000 0.569831106704 -0.241324860411
481770500 0.568979209662 -0.244004204823
481781000 0.570511777171 -0.240211258917
481791500 0.570396743117 -0.240554163039
481802000 0.570906903633 -0.240012995805
481812500 0.569972016742 -0.241186689898
481823000 0.569208551734 -0.241801444234
481833500 0.569834658772 -0.241222965093
481844000 0.568226946001 -0.242142125752
481854500 0.569959883725 -0.242661879829
481865000 0.568991737294 -0.241932435343
481875500 0.570998089078 -0.242798179313
481886000 0.568083023473 -0.242445109678
481896500 0.570854125106 -0.24253005728
481907000 0.56920255176 -0.242876823936
481917500 0.568969592553 -0.242121289406
481928000 0.569476877917 -0.24202835611
481938500 0.569782306111 -0.241172862542
481949000 0.569321059327 -0.24461084862
481959500 0.570379605205 -0.24431754471
481970000 0.567992606779 -0.244864663486
481980500 0.569866678024 -0.244087348647
481991000 0.569103154027 -0.242241267158
482001500 0.569005772529 -0.242110680594
482012000 0.568566250659 -0.242525809808
482022500 0.569897324508 -0.242527262376
482033000 0.567782247704 -0.241852123648
482043500 0.568640025761 -0.242447731075
482054000 0.568424006743 -0.243959368024
482064500 0.56751286183 -0.241264907417
482075000 0.566362835215 -0.240179344528
482085500 0.568654955032 -0.244337894585
482096000 0.5693262592 -0.240991741844
482106500 0.569408398826 -0.242447079675
482117000 0.571736236997 -0.241039790478
482127500 0.568195032033 -0.24353540605
482138000 0.571369347245 -0.240630333139
482148500 0.571583761179 -0.237996400902
482159000 0.578348906321 -0.240265673763
482169500 0.567403575462 -0.241131159647
482180000 0.571608102171 -0.243668643468
482190500 0.569982548616 -0.246386644273
482201000 0.567949700149 -0.239617070692
482211500 0.56956259948 -0.24448437229
482222000 0.574333268937 -0.24596162699
482232500 0.571225134561 -0.239021882149
482243000 0.568935883657 -0.24929326162
482253500 0.573242277114 -0.234741632719
482264000 0.562060665285 -0.241548576694
482274500 0.579630518281 -0.247987593112
482285000 0.572342248313 -0.237779445826
482295500 0.566095452834 -0.237217833724
482306000 0.57118446321 -0.24356944676
482316500 0.57152217002 -0.249369595459
482327000 0.566853877368 -0.248727557628
482337500 0.561510113838 -0.249870028249
482348000 0.569562951358 -0.248236599136
482358500 0.566162672982 -0.248783332892
482369000 0.567078301675 -0.241643161196
482379500 0.555088318188 -0.265680697865
482390000 0.566805819238 -0.237608817389
482400500 0.562197188413 -0.238912639827
482411000 0.559997466183 -0.231454251869
482421500 0.565167444107 -0.23662685678
482432000 0.566335025607 -0.238244170013
482442500 0.559823555856 -0.208278022163
482453000 0.574387203149 -0.239142283817
482463500 0.569187816975 -0.252602632263
482474000 0.557947456416 -0.242548434549
482484500 0.588391420989 -0.254348759109
482495000 0.579179218635 -0.234816202209
482505500 0.575772597257 -0.232877586997
482516000 0.586886280965 -0.241437114034
482526500 0.585034066779 -0.225918441848
482537000 0.567470587338 -0.231271749802
482547500 0.578576499998 -0.240099303743
482558000 0.572904636952 -0.24162426802
482568500 0.563798910013 -0.228815400657
482579000 0.570626015488 -0.249136276791
482589500 0.574603736228 -0.236265674399
482600000 0.56506482806 -0.23781123788
482610500 0.557822970518 -0.231170398841
482621000 0.566699591132 -0.24717032469
482631500 0.568122376524 -0.23748940256
482642000 0.568614028737 -0.249438142041
482652500 0.580741385159 -0.268190320001
482663000 0.564840553458 -0.238125122698
482673500 0.566699624374 -0.239256424914
482684000 0.563937351701 -0.244113403926
482694500 0.56066071252 -0.245903701034
482705000 0.562152571168 -0.23451175948
482715500 0.562030844921 -0.233042944282
482726000 0.558264761929 -0.229487517146
482736500 0.571591795417 -0.243425177878
482747000 0.57255301815 -0.248764433245
482757500 0.565169930142 -0.249801964126
482768000 0.570305324488 -0.248840704551
482778500 0.572653470301 -0.250467316945
482789000 0.565214439549 -0.245658188347
482799500 0.580041286841 -0.253723107198
482810000 0.572531130045 -0.242202415236
482820500 0.56700861402 -0.243698649289
482831000 0.569807764615 -0.2338486925
482841500 0.575936065662 -0.230336161526
482852000 0.56023807609 -0.247443795698
482862500 0.567811057177 -0.243110882196
482873000 0.567419931303 -0.243320303847
482883500 0.563130616097 -0.251073352859
482894000 0.572439263519 -0.242074504447
482904500 0.569002467733 -0.243540632926
482915000 0.568023438719 -0.241051256099
482925500 0.568490450588 -0.241799246187
482936000 0.56693724146 -0.241560427988
482946500 0.571452210294 -0.240470229736
482957000 0.568754547303 -0.2425120028
482967500 0.567736945561 -0.242160682413
482978000 0.566024150875 -0.241699027537
482988500 0.567288698029 -0.241813836993
482999000 0.566603328492 -0.242529098109
483009500 0.568868382533 -0.242286964282
483020000 0.568583011794 -0.24316426104
483030500 0.570316792791 -0.242568813346
483041000 0.566989894518 -0.240735570931
483051500 0.565289598664 -0.242188922585
483062000 0.56912015569 -0.243025517136
483072500 0.56810970316 -0.242401795067
483083000 0.566090635938 -0.242383488864
483093500 0.566879289504 -0.24079027608
483104000 0.567555498097 -0.241892278533
483114500 0.566491746608 -0.243428794783
483125000 0.565940517526 -0.240537437294
483135500 0.567382046302 -0.242090526139
483146000 0.567273514003 -0.245563823657
483156500 0.565683290315 -0.23942611758
483167000 0.571286181363 -0.243118920374
483177500 0.565194270206 -0.24300938664
483188000 0.567796383355 -0.241689203734
483198500 0.569243742706 -0.241640828903
483209000 0.568759521135 -0.240928003869
483219500 0.570711831124 -0.242431296627
483230000 0.565899510378 -0.242057831676
483240500 0.568993861366 -0.243313669828
483251000 0.567881031699 -0.245298837593
483261500 0.566845704844 -0.243584557517
483272000 0.570676917955 -0.244481121807
483282500 0.569525161975 -0.245540206989
483293000 0.569849766954 -0.243294210968
483303500 0.567805842851 -0.242287864705
483314000 0.567816381298 -0.240518106715
483324500 0.567962284252 -0.243080339226
483335000 0.564633481562 -0.23952595681
483345500 0.564073695555 -0.240082811405
483356000 0.563635208049 -0.242852643279
483366500 0.564014713021 -0.240544111105
483377000 0.564097594087 -0.24231510604
483387500 0.567596314724 -0.242609009254
483398000 0.565598213101 -0.242408745671
483408500 0.566236493213 -0.244922560545
483419000 0.56802412867 -0.243103980572
483429500 0.566696186578 -0.242584775169
483440000 0.563271270508 -0.241642134934
483450500 0.568490639245 -0.242406497145
483461000 0.568017095587 -0.242402103531
483471500 0.568124549964 -0.240961904608
483482000 0.566070231252 -0.24301490768
483492500 0.567272382182 -0.241895592846
483503000 0.568582289956 -0.244031792193
483513500 0.566385771539 -0.238276325701
483524000 0.56658816721 -0.243172792647
483534500 0.567748270219 -0.24390883413
483545000 0.56656934298 -0.242678422662
483555500 0.567296761374 -0.24324281484
483566000 0.566460655312 -0.242451986339
483576500 0.566666005965 -0.243138042509
483587000 0.566263211995 -0.242304952091
483597500 0.56651492242 -0.242591914664
483608000 0.566190320521 -0.242665201015
483618500 0.566409987431 -0.242895158713
483629000 0.566621745062 -0.24309716668
483639500 0.566971896369 -0.243160969351
483650000 0.567601783659 -0.243215533568
483660500 0.566610215668 -0.243073752325
483671000 0.567558340923 -0.242336438056
483681500 0.56722937087 -0.242774337327
483692000 0.566572191654 -0.242669154324
483702500 0.567169358091 -0.242304581038
483713000 0.566930114241 -0.242527369911
483723500 0.56656460289 -0.243458716123
483734000 0.566432439223 -0.2428081372
483744500 0.56587566867 -0.242264459701
483755000 0.566069251723 -0.243209744164
483765500 0.565981077296 -0.243018031305
483776000 0.565914897878 -0.242492100804
483786500 0.566022205344 -0.243024291253
483797000 0.565586038246 -0.242876456376
483807500 0.566470682192 -0.24313748061
483818000 0.566297454208 -0.242811640997
483828500 0.56631160517 -0.243176872446
483839000 0.565887730559 -0.243194202971
483849500 0.566848443609 -0.242191220008
483860000 0.56659862173 -0.242531828431
483870500 0.567083201664 -0.242425357938
483881000 0.566223760096 -0.243051749921
483891500 0.565246921923 -0.242699845323
483902000 0.565755288085 -0.242786682395
483912500 0.566196770129 -0.242955394307
483923000 0.566420419224 -0.243040264065
483933500 0.56552245215 -0.242568618602
483944000 0.565569322203 -0.242694652559
483954500 0.56570592516 -0.243157154396
483965000 0.566231910487 -0.243188155209
483975500 0.565567159256 -0.243242483998
483986000 0.565482202495 -0.243999054235
483996500 0.565978985037 -0.243031878815
484007000 0.565842857897 -0.243077631267
484017500 0.564577194719 -0.242115197145
484028000 0.565910083222 -0.242900455725
484038500 0.565413671686 -0.242390924419
484049000 0.56579065396 -0.242607386705
484059500 0.564945573601 -0.242732271589
484070000 0.564924918346 -0.24293908496
484080500 0.565453033918 -0.24285523898
484091000 0.565666390701 -0.24294090273
484101500 0.565658788276 -0.24263366498
484112000 0.565583091802 -0.242366478484
484122500 0.565394810706 -0.242223833863
484133000 0.56510728023 -0.24256057161
484143500 0.565297098084 -0.242529392889
484154000 0.565800410386 -0.242531543108
484164500 0.565347920824 -0.242275123555
484175000 0.565390810856 -0.243101633895
484185500 0.565122728239 -0.243598372196
484196000 0.565467892059 -0.242490407677
484206500 0.565407734896 -0.242764609615
484217000 0.565645367747 -0.242220800556
484227500 0.565440446914 -0.243018426965
484238000 0.565206980869 -0.242472244726
484248500 0.566227522815 -0.242407344383
484259000 0.56540558495 -0.242218611516
484269500 0.565504341298 -0.242279114034
484280000 0.564704479362 -0.242315356843
484290500 0.5654926373 -0.242817733406
484301000 0.565014305716 -0.242391804799
484311500 0.565588366797 -0.242801757045
484322000 0.56535643774 -0.2433773453
484332500 0.565619882521 -0.243154786721
484343000 0.564941638988 -0.243567551967
484353500 0.565091045918 -0.2425009833
484364000 0.56627885306 -0.242869297638
484374500 0.565712732008 -0.243267059409
484385000 0.565287015543 -0.24324804359
484395500 0.565000499183 -0.242928703929
484406000 0.565074997494 -0.243185738128
484416500 0.565337972509 -0.24311310152
484427000 0.564639169304 -0.242647600875
484437500 0.565029226936 -0.242841910352
484448000 0.564302910299 -0.242957022037
484458500 0.564501615456 -0.242971154993
484469000 0.564506484942 -0.243199475215
484479500 0.564512147976 -0.242580002118
484490000 0.564735414662 -0.242608886293
484500500 0.565329400731 -0.242802095562
484511000 0.564844090624 -0.242410900156
484521500 0.564466728805 -0.242535965052
484532000 0.564705020343 -0.242930259686
484542500 0.565058687938 -0.243392004011
484553000 0.565202473745 -0.243566501101
484563500 0.564419267012 -0.243370505396
484574000 0.564170574506 -0.243437676877
484584500 0.563657931795 -0.242918863489
484595000 0.563864992021 -0.243216527696
484605500 0.563746724982 -0.24378013475
484616000 0.564364913428 -0.243122828866
484626500 0.564417113369 -0.243289110186
484637000 0.564731636564 -0.243477429077
484647500 0.564665215556 -0.243312770627
484658000 0.564534577488 -0.242870001676
484668500 0.564748832195 -0.242094026864
484679000 0.564754289499 -0.243218978088
484689500 0.564636924938 -0.243185528558
484700000 0.565393231884 -0.243449934556
484710500 0.564683761607 -0.243328280703
484721000 0.564899723091 -0.243186058581
484731500 0.564316150459 -0.24294248661
484742000 0.564476464802 -0.243044935779
484752500 0.563668866145 -0.243080898371
484763000 0.564197695745 -0.24337647
484773500 0.564015641781 -0.243173164644
484784000 0.56387671168 -0.243398957142
484794500 0.563961121806 -0.242996363248
484805000 0.564644268221 -0.24294698713
484815500 0.564401031763 -0.243266696217
484826000 0.564227277028 -0.243088391598
484836500 0.564809381649 -0.242571675433
484847000 0.563937822897 -0.243392436296
484857500 0.563253675889 -0.243296960511
484868000 0.56340031519 -0.242697891083
484878500 0.563252774643 -0.242907654449
484889000 0.563408461858 -0.243529558397
484899500 0.563793239348 -0.243315938808
484910000 0.563413412245 -0.243663701064
484920500 0.563629705256 -0.242941794363
484931000 0.563750823429 -0.24290409055
484941500 0.563459172715 -0.242735994836
484952000 0.563625178454 -0.242866835911
484962500 0.563473648836 -0.243051660309
484973000 0.563118434046 -0.242289264921
484983500 0.563899455896 -0.242113098944
484994000 0.563277421788 -0.241934956011
485004500 0.563483156403 -0.242782493636
485015000 0.563508442441 -0.24344087249
485025500 0.56344011361 -0.242902587947
485036000 0.563270920061 -0.24311819718
485046500 0.563341428069 -0.242969042286
485057000 0.563719239011 -0.243547317743
485067500 0.563428316162 -0.24322574467
485078000 0.563305707686 -0.243171496383
485088500 0.563307027228 -0.24368570008
485099000 0.562404326948 -0.243357654643
485109500 0.562328176826 -0.243849782689
485120000 0.563266190112 -0.243463992203
485130500 0.563183902179 -0.243776735785
485141000 0.563098423462 -0.243377595634
485151500 0.563205642364 -0.243436628472
485162000 0.562813749082 -0.24322969064
485172500 0.562986772737 -0.242777434743
485183000 0.562649427688 -0.242881320985
485193500 0.563074718971 -0.242665288548
485204000 0.562966982359 -0.242986811986
485214500 0.56279741655 -0.242642482252
485225000 0.562897355936 -0.242832306822
485235500 0.562635538363 -0.243612292591
485246000 0.562607071582 -0.2438045059
485256500 0.562506615598 -0.243838050003
485267000 0.562609595613 -0.243753045549
485277500 0.562850329671 -0.243819928504
485288000 0.563205509273 -0.244240956392
485298500 0.563484865039 -0.244220553534
485309000 0.563547155577 -0.243814016319
485319500 0.562983746222 -0.243723383235
485330000 0.562636893786 -0.244318447101
485340500 0.562779975444 -0.243794186087
485351000 0.562513772776 -0.244029532777
485361500 0.562073649611 -0.243376644618
485372000 0.562225986023 -0.243573337222
485382500 0.562117364836 -0.243608406611
485393000 0.562637518086 -0.243757773751
485403500 0.562179553074 -0.243209397921
485414000 0.562245383508 -0.243394625836
485424500 0.56251379694 -0.243016880034
485435000 0.562528428768 -0.242925695452
485445500 0.56151589303 -0.24485863743
485456000 0.561603919686 -0.246283671637
485466500 0.564533826953 -0.244417559452
485477000 0.561650649284 -0.243240345224
485487500 0.560706364819 -0.244387822786
485498000 0.558610633962 -0.24257982111
485508500 0.565884684645 -0.241836173737
485519000 0.56192425692 -0.247375049681
485529500 0.561402623111 -0.243686474359
485540000 0.563490761256 -0.243834391132
485550500 0.561120527392 -0.242935080155
485561000 0.562212735252 -0.245643973781
485571500 0.559346815871 -0.24096866942
485582000 0.562676658205 -0.245030010413
485592500 0.565578907872 -0.243328161809
485603000 0.559509379572 -0.250952785397
485613500 0.564114856566 -0.2431029377
485624000 0.558612729506 -0.247404681957
485634500 0.563038961855 -0.243650432526
485645000 0.568188642231 -0.241204395464
485655500 0.566815622279 -0.243140288511
485666000 0.561014528915 -0.245578621245
485676500 0.560319921839 -0.243513801235
485687000 0.557704196041 -0.246876431863
485697500 0.563482702261 -0.246817611351
485708000 0.560840524446 -0.246577815863
485718500 0.558473670352 -0.248630207331
485729000 0.560549541533 -0.24363562731
485739500 0.559861918239 -0.243156845515
485750000 0.564290241257 -0.241536128705
485760500 0.561839957193 -0.23853042761
485771000 0.554827614004 -0.243638890474
485781500 0.566829161255 -0.244836017849
485792000 0.55796736506 -0.243066007889
485802500 0.559931417029 -0.243544619074
485813000 0.561646663953 -0.246337073823
485823500 0.557269784017 -0.245165039219
485834000 0.560952566759 -0.247108731054
485844500 0.563961868996 -0.247614598421
485855000 0.560797910544 -0.242058062031
485865500 0.561830729809 -0.24330303294
485876000 0.55728327334 -0.243628826732
485886500 0.56313185164 -0.242105976791
485897000 0.559081833838 -0.242179164388
485907500 0.561594087452 -0.242224141821
485918000 0.561599179974 -0.243575177265
485928500 0.561138024 -0.242859819559
485939000 0.564167623046 -0.243448298289
485949500 0.560716251105 -0.243500657047
485960000 0.561713209838 -0.244414171894
485970500 0.562097540819 -0.244841642849
485981000 0.561470018226 -0.24346287826
485991500 0.561633681342 -0.244248551625
486002000 0.561290621648 -0.243778109149
486012500 0.561440785964 -0.244067985811
486023000 0.561472116381 -0.243763543931
486033500 0.560936822784 -0.244258940565
486044000 0.560063220157 -0.244670561485
486054500 0.561592055522 -0.24432512527
486065000 0.561452573674 -0.244185934219
486075500 0.561099115998 -0.243993825235
486086000 0.562058725045 -0.244584405426
486096500 0.560019944575 -0.249403802756
486107000 0.556953455475 -0.247200807846
486117500 0.559066471888 -0.239774380839
486128000 0.563462222665 -0.249546826817
486138500 0.558481099828 -0.239069917734
486149000 0.553523749573 -0.211926821054
486159500 0.560576156123 -0.24868063404
486170000 0.565142672941 -0.23940279254
486180500 0.556943276698 -0.240631536432
486191000 0.55108992265 -0.241333881316
486201500 0.568541152953 -0.24409046935
486212000 0.578832894755 -0.225744135198
486222500 0.551826091354 -0.230698509546
486233000 0.555504986792 -0.222483010511
486243500 0.571233870234 -0.241502074307
486254000 0.552543890767 -0.244624717324
486264500 0.55659790714 -0.246118866974
486275000 0.529740339213 -0.249617495963
486285500 0.565323459734 -0.251782728714
486296000 0.545721801488 -0.236146215618
486306500 0.572489246458 -0.225990488228
486317000 0.574326201541 -0.253829473538
486327500 0.578676852457 -0.239955556587
486338000 0.545992715868 -0.256207542802
486348500 0.55580981476 -0.248311783536
486359000 0.55143567103 -0.225900659315
486369500 0.572659506391 -0.232640141737
486380000 0.561840122229 -0.242671430672
486390500 0.556833297415 -0.270016893252
486401000 0.5460116314 -0.249129850014
486411500 0.580490575982 -0.261902278835
486422000 0.572704215408 -0.271915163002
486432500 0.574633217851 -0.22764060356
486443000 0.555654820502 -0.25855363836
486453500 0.558636390793 -0.24236635651
486464000 0.558232127761 -0.246075602658
486474500 0.540417982488 -0.246461879176
486485000 0.571226031452 -0.241148068087
486495500 0.557907035347 -0.252959008518
486506000 0.57915093642 -0.235039003585
486516500 0.572765724644 -0.222530993669
486527000 0.562794732533 -0.277910523174
486537500 0.6058274992 -0.189370204941
486548000 0.598161562519 -0.27877606545
486558500 0.526324413645 -0.266316513826
486569000 0.568466709215 -0.244527740096
486579500 0.549170972667 -0.21223832335
486590000 0.565458026437 -0.241142006096
486600500 0.562387931506 -0.254807077477
486611000 0.56223336004 -0.244739292169
486621500 0.563453821962 -0.227105258681
486632000 0.568480096313 -0.248275311269
486642500 0.555027197008 -0.237310289924
486653000 0.56051886087 -0.24994557274
486663500 0.557149265598 -0.244278641154
486674000 0.553706967787 -0.230789955601
486684500 0.533100493558 -0.240963467823
486695000 0.559683222079 -0.240184053432
486705500 0.556842229966 -0.243692977489
486716000 0.562118425522 -0.245104404983
486726500 0.55253529615 -0.24539225573
486737000 0.557160164446 -0.240723016128
486747500 0.549239613221 -0.242976980423
486758000 0.567040778682 -0.246048690051
486768500 0.555268223474 -0.247081704723
486779000 0.55800981095 -0.243959657893
486789500 0.556954689017 -0.242460229009
486800000 0.566606791633 -0.253108071468
486810500 0.558718813897 -0.243849499232
486821000 0.564279722399 -0.256634972175
486831500 0.555402291859 -0.240048838729
486842000 0.559808256714 -0.243435250429
486852500 0.558263466609 -0.244029824826
486863000 0.561991424551 -0.270203313127
486873500 0.558008493774 -0.244078675832
486884000 0.564546569607 -0.238691586864
486894500 0.558379410267 -0.243894465881
486905000 0.559460386721 -0.244392231385
486915500 0.558040394062 -0.243825715717
486926000 0.559407807661 -0.245489426594
486936500 0.557595731611 -0.244391448811
486947000 0.55817057736 -0.244156139048
486957500 0.55847168108 -0.244438048818
486968000 0.558366929558 -0.243321515998
486978500 0.557335112649 -0.244036770744
486989000 0.557835178891 -0.243679906172
486999500 0.558219109051 -0.243099478432
487010000 0.557762761003 -0.244068088673
487020500 0.557079896335 -0.244559771252
487031000 0.557482326714 -0.24361301892
487041500 0.557719860257 -0.243207329473
487052000 0.556921385294 -0.24415017941
487062500 0.557502594919 -0.244870254064
487073000 0.557610372049 -0.242260470394
487083500 0.559445613574 -0.244755045086
487094000 0.558422979698 -0.244240518381
487104500 0.558427247731 -0.242439761313
487115000 0.555140158316 -0.243481567326
487125500 0.557562654023 -0.243401861899
487136000 0.55885550757 -0.24638797933
487146500 0.55648188659 -0.245712976855
487157000 0.560978219543 -0.241065005184
487167500 0.55396165885 -0.244683031367
487178000 0.555780195377 -0.245809843173
487188500 0.556114995719 -0.245119461743
487199000 0.558973761157 -0.242778802924
487209500 0.558116365522 -0.24152579137
487220000 0.556478794274 -0.242492194848
487230500 0.555461505154 -0.242928922344
487241000 0.556430950516 -0.244930118591
487251500 0.553683183744 -0.244466386533
487262000 0.557022545788 -0.245491319372
487272500 0.557802385135 -0.244211074825
487283000 0.556592530703 -0.242563969084
487293500 0.55812453554 -0.243158422695
487304000 0.555235998002 -0.244722580747
487314500 0.556850065929 -0.243279426073
487325000 0.557658404222 -0.243309542585
487335500 0.555332397889 -0.24226020987
487346000 0.557408541388 -0.243529640555
487356500 0.55363457385 -0.240796763303
487367000 0.556261842243 -0.243045362212
487377500 0.557382752049 -0.241518698558
487388000 0.554141787569 -0.24387365494
487398500 0.557636954722 -0.24029778312
487409000 0.56088067442 -0.244211592659
487419500 0.556457673328 -0.244880704271
487430000 0.558130317251 -0.243339199538
487440500 0.556010955802 -0.244975962008
487451000 0.55447566277 -0.240936411452
487461500 0.556868641144 -0.244601661592
487472000 0.554015652975 -0.24326215067
487482500 0.550754255482 -0.247436546834
487493000 0.533727635816 -0.27031178232
487503500 0.554075761571 -0.245540975229
487514000 0.552081921667 -0.240623585497
487524500 0.553829160534 -0.243105172273
487535000 0.553370099987 -0.244047681579
487545500 0.555026905325 -0.244274208445
487556000 0.555210111262 -0.242660317902
487566500 0.556282570213 -0.243188649715
487577000 0.555594033272 -0.243257165176
487587500 0.556206163412 -0.242475133729
487598000 0.555582101367 -0.24393566116
487608500 0.556078981389 -0.243183852091
487619000 0.556141742807 -0.243186619648
487629500 0.555424787023 -0.24315540731
487640000 0.55479878925 -0.243176660293
487650500 0.555463139389 -0.243186609905
487661000 0.555201888233 -0.243035902368
487671500 0.555592018118 -0.243705449756
487682000 0.555532669023 -0.243041582276
487692500 0.555362874217 -0.243451620023
487703000 0.555365072546 -0.243403141296
487713500 0.555339372237 -0.242964932531
487724000 0.555904036598 -0.243515867155
487734500 0.554625855879 -0.243285527148
487745000 0.555174353791 -0.243054675077
487755500 0.555408229976 -0.243320776358
487766000 0.555700144749 -0.243252258073
487776500 0.555576904505 -0.243721548468
487787000 0.555329924406 -0.243685448839
487797500 0.555129091615 -0.243594091727
487808000 0.555336066184 -0.24315549256
487818500 0.55480456159 -0.24344355464
487829000 0.55485662772 -0.243462597311
487839500 0.554623164682 -0.243204028523
487850000 0.554694213539 -0.243844327494
487860500 0.554024729503 -0.243784365173
487871000 0.554527236659 -0.243436054548
487881500 0.554848486643 -0.242870744755
487892000 0.554882580933 -0.242712462559
487902500 0.555036875559 -0.242505064271
487913000 0.554321751125 -0.242597939969
487923500 0.554735601511 -0.242752466401
487934000 0.554984609663 -0.242886922179
487944500 0.55479591011 -0.243562836913
487955000 0.554890637485 -0.243411127755
487965500 0.554552253791 -0.242807573529
487976000 0.55379463177 -0.242703566204
487986500 0.553960434526 -0.243114387989
487997000 0.554544428184 -0.241971733735
488007500 0.55435282122 -0.242355494379
488018000 0.553972560723 -0.242571559921
488028500 0.553706820168 -0.243365004136
488039000 0.553689892945 -0.24289240418
488049500 0.554083919523 -0.243214448735
488060000 0.554681049443 -0.242703351391
488070500 0.55416616567 -0.242962823709
488081000 0.554364083 -0.24275823288
488091500 0.554081477725 -0.243632127451
488102000 0.554043134156 -0.243174068333
488112500 0.554096619092 -0.243251014605
488123000 0.554300130509 -0.242758809371
488133500 0.554102998062 -0.243695854528
488144000 0.553669704453 -0.242620226136
488154500 0.553518830941 -0.243325294275
488165000 0.554027953631 -0.242711617141
488175500 0.553534296618 -0.242674968087
488186000 0.553696307109 -0.24222777128
488196500 0.553469828104 -0.24262146488
488207000 0.553344246538 -0.242746427165
488217500 0.553405727276 -0.242830789567
488228000 0.553844916156 -0.243452815223
488238500 0.553469704399 -0.243360365102
488249000 0.55365014662 -0.243271362006
488259500 0.553614575463 -0.242886207466
488270000 0.553478436899 -0.242879521938
488280500 0.553067932586 -0.243062298965
488291000 0.552582680738 -0.242392315183
488301500 0.553251423355 -0.242717478058
488312000 0.553342769919 -0.243411439337
488322500 0.553660610791 -0.243446146731
488333000 0.55312227538 -0.24306714402
488343500 0.552792128661 -0.243431130114
488354000 0.553049439958 -0.242784432523
488364500 0.553406183282 -0.242520958763
488375000 0.553134668617 -0.242765559597
488385500 0.552985568068 -0.243082730405
488396000 0.552470454326 -0.242889238625
488406500 0.552273057354 -0.242261768202
488417000 0.552304340908 -0.242717716376
488427500 0.551883257439 -0.242737762867
488438000 0.552508663274 -0.242629045093
488448500 0.552463441933 -0.242615913999
488459000 0.552586853021 -0.242480300456
488469500 0.552251797693 -0.242984683802
488480000 0.551760873362 -0.242730672157
488490500 0.551705210512 -0.242605279126
488501000 0.551868494959 -0.242843289962
488511500 0.551683122753 -0.242980189205
488522000 0.551738671999 -0.242345516328
488532500 0.552146944328 -0.242526577705
488543000 0.551949931741 -0.242214371988
488553500 0.552077454222 -0.243175950163
488564000 0.55227547492 -0.242957776295
488574500 0.552108182144 -0.242535655482
488585000 0.552011063958 -0.242638482749
488595500 0.55235055078 -0.243059512515
488606000 0.552204054375 -0.242660293188
488616500 0.552081620565 -0.243092987246
488627000 0.551844541378 -0.242406188117
488637500 0.551708423619 -0.242333446666
488648000 0.552184868521 -0.242234356403
488658500 0.551695209038 -0.242798453766
488669000 0.552259862339 -0.24262575896
488679500 0.55195040889 -0.242514589908
488690000 0.551358638307 -0.241804981475
488700500 0.551223285951 -0.242081801307
488711000 0.551661991555 -0.242584375675
488721500 0.551509033 -0.242231491588
488732000 0.551105812311 -0.242329638085
488742500 0.551370178782 -0.242500235123
488753000 0.551184235403 -0.242077610965
488763500 0.550900619044 -0.242256084969
488774000 0.551379675775 -0.242470017403
488784500 0.550902127943 -0.242134525875
488795000 0.551261522305 -0.242220825624
488805500 0.551165602588 -0.242403215016
488816000 0.550581817566 -0.242266208447
488826500 0.550940688426 -0.24206797552
488837000 0.551011010611 -0.2418817337
488847500 0.551137081677 -0.242081322978
488858000 0.550973891617 -0.242020960448
488868500 0.550581874874 -0.242544780806
488879000 0.550619379416 -0.242242199945
488889500 0.551221888079 -0.241931489155
488900000 0.551471967218 -0.242321533641
488910500 0.550906033169 -0.241950260657
488921000 0.550689998028 -0.241792864894
488931500 0.550565752242 -0.24183620259
488942000 0.550522015708 -0.241749943024
488952500 0.547948215803 -0.241184008227
488963000 0.550947882787 -0.241789798298
488973500 0.550646542436 -0.241976569805
488984000 0.550303026581 -0.242054922475
488994500 0.550569359103 -0.241890540953
489005000 0.55042185516 -0.241636475839
489015500 0.550693572444 -0.241653689438
489026000 0.550460337661 -0.241245467375
489036500 0.550121955203 -0.241600372561
489047000 0.550264565513 -0.241623144066
489057500 0.550156274629 -0.241919432932
489068000 0.549597486051 -0.241885814962
489078500 0.550600545754 -0.241889253407
489089000 0.550453121045 -0.241171300356
489099500 0.550145503045 -0.241517494855
489110000 0.549891007614 -0.241400346782
489120500 0.55012460012 -0.241874832244
489131000 0.549661027283 -0.241989832951
489141500 0.550010154935 -0.241823735399
489152000 0.549533432752 -0.241645838737
489162500 0.549496875332 -0.241535577577
489173000 0.549631678258 -0.241475179934
489183500 0.550007493187 -0.241362815468
489194000 0.549738829154 -0.241591095178
489204500 0.549609127693 -0.241921628896
489215000 0.549819115836 -0.241834653822
489225500 0.5494294046 -0.241810205361
489236000 0.549171084953 -0.241890363662
489246500 0.549539925578 -0.241378913832
489257000 0.549332944154 -0.241418501434
489267500 0.550099084491 -0.24077057073
489278000 0.549601475671 -0.241439583503
489288500 0.549797430049 -0.240600601935
489299000 0.549490959607 -0.240638225321
489309500 0.549847886936 -0.240232787322
489320000 0.549383562665 -0.240449009771
489330500 0.549991911882 -0.239916227397
489341000 0.549563726725 -0.240740461265
489351500 0.548844135587 -0.240798086557
489362000 0.548831557603 -0.240934209833
489372500 0.547711674607 -0.242568899795
489383000 0.548454884915 -0.240795443972
489393500 0.548638875487 -0.240861482102
489404000 0.548980579145 -0.240590812207
489414500 0.548284427282 -0.241180456456
489425000 0.548722561096 -0.240842045256
489435500 0.548334953982 -0.240300151859
489446000 0.548525585171 -0.241871407568
489456500 0.549144948743 -0.240697515011
489467000 0.549624085132 -0.240829134714
489477500 0.54823993498 -0.240110445585
489488000 0.548684474854 -0.240568477296
489498500 0.548799941114 -0.240818314544
489509000 0.548746987728 -0.240084837558
489519500 0.548970732307 -0.240080772855
489530000 0.549567711113 -0.240936219751
489540500 0.547812294402 -0.241488471248
489551000 0.548144226886 -0.241050018842
489561500 0.546034976557 -0.237844411544
489572000 0.547215329427 -0.239891727525
489582500 0.54669320604 -0.238433480264
489593000 0.548105173618 -0.239201164131
489603500 0.547823482682 -0.24127746522
489614000 0.550368033449 -0.24117005842
489624500 0.549210871233 -0.240361822068
489635000 0.549563216649 -0.24096506048
489645500 0.547077556321 -0.242667547428
489656000 0.541080626348 -0.240127950336
489666500 0.547615301862 -0.242256991704
489677000 0.549100050212 -0.241332664244
489687500 0.547724050257 -0.240959268265
489698000 0.547163166474 -0.242370639855
489708500 0.550095320269 -0.24027042282
489719000 0.548966458562 -0.241055067163
489729500 0.548791351278 -0.237955599613
489740000 0.548142772501 -0.23821673811
489750500 0.548017487472 -0.239603493521
489761000 0.549680806853 -0.242059897581
489771500 0.549084560634 -0.240645292982
489782000 0.547188164076 -0.24197527005
489792500 0.547508606779 -0.240161142304
489803000 0.549806584055 -0.242392317328
489813500 0.545767693616 -0.240260283903
489824000 0.546982805554 -0.237660284735
489834500 0.549888078365 -0.239709524194
489845000 0.546522588184 -0.240083478922
489855500 0.545991922413 -0.239543838519
489866000 0.547134915568 -0.242382264299
489876500 0.547250712477 -0.238928941433
489887000 0.547869983434 -0.239977010491
489897500 0.544340102629 -0.240410047955
489908000 0.546086114705 -0.239558130408
489918500 0.546539309858 -0.24073432927
489929000 0.545123798289 -0.239936616722
489939500 0.546238353643 -0.239771629011
489950000 0.547319421566 -0.241353464931
489960500 0.548645745547 -0.240118577131
489971000 0.547165173188 -0.239494023815
489981500 0.547532693198 -0.239543465297
489992000 0.547164239694 -0.240306730456
490002500 0.546649768692 -0.239959813732
490013000 0.547191935321 -0.23947685778
490023500 0.546408827661 -0.24003077794
490034000 0.546527754026 -0.239125138019
490044500 0.546563016779 -0.239099668096
490055000 0.546135263483 -0.23940008253
490065500 0.546295100157 -0.238830875619
490076000 0.546429103345 -0.238772409018
490086500 0.546565195157 -0.238937473554
490097000 0.546009229033 -0.239651505508
490107500 0.545414278244 -0.238442495317
490118000 0.546693900645 -0.239757115453
490128500 0.544674540868 -0.238615827036
490139000 0.548010836476 -0.239106704505
490149500 0.546682549275 -0.23842114936
490160000 0.548022349455 -0.237860681713
490170500 0.547192914816 -0.240480468445
490181000 0.546665440549 -0.240616665331
490191500 0.546375026247 -0.237955329711
490202000 0.545946316514 -0.237654758425
490212500 0.546006149039 -0.23721484907
490223000 0.546737300334 -0.238711893631
490233500 0.548435867865 -0.238754182162
490244000 0.551417828906 -0.239459526534
490254500 0.548068364382 -0.240681560476
490265000 0.544708044122 -0.236734667365
490275500 0.544559109836 -0.237075558988
490286000 0.547989068342 -0.233502952405
490296500 0.546458406726 -0.235135163205
490307000 0.546357097469 -0.24082171802
490317500 0.547610599389 -0.238223937546
490328000 0.545304710967 -0.249695193933
490338500 0.542871560367 -0.233165119863
490349000 0.546243773517 -0.239912226255
490359500 0.540957152881 -0.238664188656
490370000 0.538952494309 -0.227298941529
490380500 0.549039951265 -0.241388153233
490391000 0.537435674362 -0.247284492629
490401500 0.543189569318 -0.239196296259
490412000 0.533687897296 -0.242073620614
490422500 0.532928113525 -0.25455571249
490433000 0.547444534721 -0.242278842125
490443500 0.546738136381 -0.242811736734
490454000 0.544220470275 -0.242803567363
490464500 0.552123068035 -0.237831239312
490475000 0.5486388928 -0.243351917575
490485500 0.553964638357 -0.219910588474
490496000 0.547478996113 -0.239602587669
490506500 0.547488708034 -0.241939048489
490517000 0.548144328051 -0.22942313493
490527500 0.540877860227 -0.242307132737
490538000 0.54296952458 -0.234423395568
490548500 0.565213135494 -0.239448444159
490559000 0.553486435666 -0.236313394801
490569500 0.538131464648 -0.232273473
490580000 0.539453339133 -0.235668727326
490590500 0.550460414405 -0.246204308171
490601000 0.554479230436 -0.241009218196
490611500 0.536974633229 -0.243319394739
490622000 0.547926223389 -0.24309359052
490632500 0.548164119349 -0.240148422655
490643000 0.546490875295 -0.233328954516
490653500 0.544350304708 -0.23800647705
490664000 0.538990012778 -0.23458544369
490674500 0.547452283329 -0.238619774436
490685000 0.543984118843 -0.234661341306
490695500 0.547149866858 -0.237335624854
490706000 0.543017179853 -0.2408644114
490716500 0.543815451754 -0.241668501552
490727000 0.543924585725 -0.236671506279
490737500 0.552939945908 -0.237851234667
490748000 0.548047546101 -0.237513102933
490758500 0.546367967293 -0.236481581888
490769000 0.544012155862 -0.237100358265
490779500 0.544435783893 -0.237794937181
490790000 0.544048044274 -0.23684470162
490800500 0.544135690616 -0.235492012006
490811000 0.543545083462 -0.236545894275
490821500 0.544404767738 -0.237052180837
490832000 0.544344502288 -0.237702174962
490842500 0.544850172377 -0.237026756335
490853000 0.544112008968 -0.237363977426
490863500 0.545352692743 -0.236858301465
490874000 0.543450437193 -0.236986813176
490884500 0.544582147504 -0.2369680989
490895000 0.544398613386 -0.237134640841
490905500 0.54460111152 -0.236392029148
490916000 0.544453298538 -0.2366749907
490926500 0.54396542862 -0.237394406978
490937000 0.544945313988 -0.236150792287
490947500 0.544446600121 -0.236489553789
490958000 0.544224264319 -0.236271334169
490968500 0.543786241095 -0.235914846208
490979000 0.544280112004 -0.235678025744
490989500 0.544221235745 -0.235838521928
491000000 0.54414685294 -0.235850292096
491010500 0.544110628958 -0.236496685707
491021000 0.544308671675 -0.235668031457
491031500 0.543973195906 -0.236120684407
491042000 0.543482243122 -0.236993590391
491052500 0.542926970496 -0.235004035432
491063000 0.542816194191 -0.234648725935
491073500 0.543684125577 -0.236902259653
491084000 0.544500546546 -0.236486199904
491094500 0.542860657749 -0.235690237853
491105000 0.545041189259 -0.23663627417
491115500 0.544712198173 -0.236312653687
491126000 0.545563658773 -0.236943112812
491136500 0.543099334673 -0.236237389175
491147000 0.543697077615 -0.23645272759
491157500 0.545873426499 -0.236430685231
491168000 0.541792748295 -0.23573731288
491178500 0.54422142099 -0.236452079609
491189000 0.541549007116 -0.236592759941
491199500 0.543286799834 -0.234211241598
491210000 0.542216659677 -0.234319820764
491220500 0.54189303788 -0.236699751079
491231000 0.542806537903 -0.236377759174
491241500 0.542430300254 -0.234838306184
491252000 0.542840139143 -0.235179878378
491262500 0.543217646976 -0.236539868574
491273000 0.542573871103 -0.235264849737
491283500 0.543456135822 -0.23545988213
491294000 0.54492875543 -0.236385911171
491304500 0.54391633151 -0.234778359108
491315000 0.541754381835 -0.235245828036
491325500 0.544128301164 -0.2350768833
491336000 0.544257490162 -0.234936155162
491346500 0.543447866022 -0.234392065982
491357000 0.542100920326 -0.234234793745
491367500 0.543490688488 -0.235365309435
491378000 0.542249037841 -0.235497733679
491388500 0.542207850197 -0.235120167416
491399000 0.544591493012 -0.233709349248
491409500 0.542277920218 -0.235751247481
491420000 0.542955332493 -0.236711347536
491430500 0.543020431755 -0.235832734833
491441000 0.543213906808 -0.233283360391
491451500 0.544212728462 -0.235147310112
491462000 0.542734094179 -0.234700193417
491472500 0.541822374203 -0.234531897126
491483000 0.542182544754 -0.235418881116
491493500 0.542200505026 -0.236639105466
491504000 0.542911277856 -0.234281898781
491514500 0.543479091026 -0.235659297083
491525000 0.54180038937 -0.233715731584
491535500 0.543086489184 -0.236240899037
491546000 0.542435023114 -0.234274388875
491556500 0.542590410711 -0.234442027154
491567000 0.54039253882 -0.233968571345
491577500 0.542099569692 -0.235044026863
491588000 0.542040452034 -0.234059354872
491598500 0.541915856141 -0.234251761675
491609000 0.542304844286 -0.234255098999
491619500 0.542433146744 -0.234035042163
491630000 0.542471136889 -0.233422448818
491640500 0.542069261688 -0.233861835191
491651000 0.541963095294 -0.233875210982
491661500 0.542330258513 -0.233746660425
491672000 0.541953886269 -0.233817848261
491682500 0.542315025803 -0.233495524189
491693000 0.542174464966 -0.233574992187
491703500 0.542605923714 -0.234151944463
491714000 0.543495599722 -0.233289914717
491724500 0.5420964414 -0.233893848676
491735000 0.542342515407 -0.233438061148
491745500 0.540296972818 -0.232440985904
491756000 0.541774539264 -0.232887064421
491766500 0.541899075497 -0.233615510901
491777000 0.541790193197 -0.233989045521
491787500 0.541858483001 -0.233595673204
491798000 0.541433362292 -0.233329358375
491808500 0.541712363267 -0.232685714451
491819000 0.541808277127 -0.233345990495
491829500 0.542068951737 -0.233174155142
491840000 0.541652375188 -0.233452404875
491850500 0.54159346246 -0.232875344854
491861000 0.541257592234 -0.232513424234
491871500 0.541871691164 -0.232783902727
491882000 0.541487173893 -0.232796426519
491892500 0.541178090009 -0.233093427905
491903000 0.541380961171 -0.232877491531
491913500 0.541873220598 -0.233365147078
491924000 0.541583674473 -0.232996480887
491934500 0.541855201815 -0.233161468897
491945000 0.541987970995 -0.233249400177
491955500 0.541711250774 -0.233074657062
491966000 0.542499763196 -0.232588579627
491976500 0.541980533667 -0.233187026651
491987000 0.54186127315 -0.232800541985
491997500 0.541942680124 -0.232824932924
492008000 0.541817385409 -0.232584261625
492018500 0.541024026574 -0.233608336508
492029000 0.541135018462 -0.232976962625
492039500 0.540966427813 -0.232582844104
492050000 0.541035961873 -0.233027800257
492060500 0.541451575915 -0.233069372959
492071000 0.541044278559 -0.232949861719
492081500 0.541255434982 -0.232897312581
492092000 0.541088675634 -0.233127882725
492102500 0.541274165009 -0.232787610447
492113000 0.541175996474 -0.232469495541
492123500 0.541305225376 -0.232334854331
492134000 0.543079770982 -0.232086521047
492144500 0.541222300578 -0.232431467732
492155000 0.541693405058 -0.232200330368
492165500 0.541205603392 -0.232610401811
492176000 0.540535419928 -0.232512963051
492186500 0.540750838465 -0.232275433513
492197000 0.540878570437 -0.23230302406
492207500 0.540644522653 -0.232432681385
492218000 0.539951141755 -0.232424421826
492228500 0.540131837138 -0.231726438062
492239000 0.540177450053 -0.232183414996
492249500 0.540107519782 -0.232275854542
492260000 0.539973303117 -0.232139517011
492270500 0.539823116582 -0.2319086818
492281000 0.54034159884 -0.231953240363
492291500 0.540291984071 -0.231681944226
492302000 0.540038349989 -0.23225601439
492312500 0.54041512726 -0.231640897279
492323000 0.540849754621 -0.231736272152
492333500 0.540508787828 -0.231862726459
492344000 0.540369204265 -0.231619590203
492354500 0.540630641384 -0.231513869776
492365000 0.540441707228 -0.23134672766
492375500 0.540814547761 -0.232106404097
492386000 0.540819438048 -0.231806029699
492396500 0.540494117831 -0.231025354791
492407000 0.54099785115 -0.230740859449
492417500 0.54102927009 -0.231084458509
492428000 0.540437313202 -0.231522844758
492438500 0.540070994527 -0.231399148759
492449000 0.540381319584 -0.23121654301
492459500 0.540256211884 -0.23126382341
492470000 0.540210060894 -0.230949019768
492480500 0.540634468609 -0.23174371177
492491000 0.540480022978 -0.23113117134
492501500 0.540320807512 -0.23109715849
492512000 0.54015155581 -0.230836880431
492522500 0.539717916821 -0.230639457079
492533000 0.540217930518 -0.230654034544
492543500 0.540809202235 -0.230808427598
492554000 0.540046426606 -0.230554840255
492564500 0.53996335657 -0.230968268359
492575000 0.539787719239 -0.230564388372
492585500 0.540514543167 -0.23107526367
492596000 0.540970784181 -0.230539613062
492606500 0.539895794383 -0.228795778408
492617000 0.541457770097 -0.230495507348
492627500 0.541033889679 -0.230541742072
492638000 0.540432185069 -0.230823972313
492648500 0.540075511961 -0.230707879099
492659000 0.540637865725 -0.231048822439
492669500 0.540254758967 -0.231015756158
492680000 0.540211019384 -0.230519198974
492690500 0.539513265853 -0.23049258896
492701000 0.539226148965 -0.230342625103
492711500 0.539821134678 -0.230500024912
492722000 0.539388358177 -0.230356047987
492732500 0.539544401283 -0.229533451665
492743000 0.540358404927 -0.229743511623
492753500 0.540758155195 -0.229254695854
492764000 0.540868487156 -0.229732619662
492774500 0.54037021219 -0.229991564898
492785000 0.540263249774 -0.230110497937
492795500 0.540523591056 -0.230175313533
492806000 0.539363185386 -0.230265818349
492816500 0.540722097765 -0.23002267679
492827000 0.540310563976 -0.23041841808
492837500 0.54035916576 -0.229865132285
492848000 0.540252754796 -0.229750288547
492858500 0.539889772954 -0.229388330083
492869000 0.539498659478 -0.229736477048
492879500 0.538985726085 -0.229429598953
492890000 0.539760542458 -0.229727716621
492900500 0.539402633319 -0.229860052474
492911000 0.538806095986 -0.230283465879
492921500 0.540139298499 -0.230393681832
492932000 0.540059926947 -0.229834641573
492942500 0.539995674393 -0.22882793347
492953000 0.539977425053 -0.22917784078
492963500 0.539274906753 -0.229368332512
492974000 0.539487097689 -0.229214758684
492984500 0.539196046223 -0.229227197011
492995000 0.539164101594 -0.229454167245
493005500 0.53918213702 -0.23007609236
493016000 0.54025630003 -0.230139961833
493026500 0.539676851325 -0.229880726321
493037000 0.538536313466 -0.229853604043
493047500 0.538910745792 -0.229769672936
493058000 0.538975147962 -0.229482697345
493068500 0.539583418484 -0.230401741849
493079000 0.539294887512 -0.229398734261
493089500 0.539397617826 -0.22968021335
493100000 0.538643769719 -0.229498268965
493110500 0.539716431702 -0.229434722344
493121000 0.539384872891 -0.229254853171
493131500 0.539690542457 -0.228725038191
493142000 0.539239473901 -0.228681736828
493152500 0.539699236218 -0.229087787788
493163000 0.539566304234 -0.228685453873
493173500 0.539585676591 -0.228277072549
493184000 0.539394885818 -0.227994577482
493194500 0.53937995757 -0.228610217337
493205000 0.538722662518 -0.228658454202
493215500 0.538612445997 -0.229384863671
493226000 0.538020930269 -0.228088521405
493236500 0.538252528292 -0.22855135178
493247000 0.538456344017 -0.228420139914
493257500 0.539084058044 -0.228242067545
493268000 0.539211496096 -0.228519886578
493278500 0.539225415368 -0.228509861642
493289000 0.538679825364 -0.22829081645
493299500 0.539170966513 -0.227836624508
493310000 0.539398788069 -0.228216146078
493320500 0.539638217406 -0.227882103898
493331000 0.539831190137 -0.22835343483
493341500 0.539765528774 -0.227994545651
493352000 0.539651698076 -0.227646042983
493362500 0.539307455477 -0.228297371419
493373000 0.539472720829 -0.228327903439
493383500 0.539001466871 -0.228352831844
493394000 0.539216596311 -0.227902161396
493404500 0.538771004595 -0.227649608434
493415000 0.539446612804 -0.227971425197
493425500 0.539304314005 -0.226980696938
493436000 0.540099492865 -0.226123555844
493446500 0.538445297751 -0.226676905121
493457000 0.540068059126 -0.227907319564
493467500 0.540221235368 -0.227267609644
493478000 0.540222605983 -0.22637290872
493488500 0.539087059301 -0.228318366416
493499000 0.538263155405 -0.226086343432
493509500 0.540810891789 -0.228057539412
493520000 0.539558627491 -0.228997963285
493530500 0.539648605109 -0.227309014663
493541000 0.538675914273 -0.229050132885
493551500 0.537575385344 -0.226642543039
493562000 0.53852272042 -0.22844550124
493572500 0.538685445432 -0.225599082887
493583000 0.537718075859 -0.226377653772
493593500 0.53802570764 -0.228769272351
493604000 0.540205928866 -0.22727104915
493614500 0.538973655712 -0.225490131344
493625000 0.540427581288 -0.223711526031
493635500 0.541475034857 -0.227218264594
493646000 0.535716285024 -0.228858321551
493656500 0.541266188694 -0.22661421126
493667000 0.538488935752 -0.226109393331
493677500 0.536034100771 -0.224976947853
493688000 0.537338041985 -0.227023952379
493698500 0.54012286822 -0.226180564788
493709000 0.537294831644 -0.227561075053
493719500 0.539913615734 -0.226733139717
493730000 0.536445829869 -0.224789227002
493740500 0.53852035855 -0.226542418586
493751000 0.53710780746 -0.227103602781
493761500 0.539295972775 -0.225539570705
493772000 0.541124746133 -0.226393969273
493782500 0.538395237608 -0.23095472113
493793000 0.538045577865 -0.226960306118
493803500 0.538119340473 -0.224285403225
493814000 0.53925489996 -0.225795452361
493824500 0.538164178133 -0.227000390898
493835000 0.537683814634 -0.225376693798
493845500 0.537094660064 -0.227559813613
493856000 0.538046743525 -0.224758533154
493866500 0.536972798709 -0.22504198885
493877000 0.537207623957 -0.224775402151
493887500 0.53856654347 -0.226011513912
493898000 0.538881267705 -0.224170110569
493908500 0.538663478981 -0.223573262358
493919000 0.539444105439 -0.22536143347
493929500 0.538503002845 -0.226085728123
493940000 0.537724005759 -0.225527381526
493950500 0.538638729306 -0.226008828699
493961000 0.539089571628 -0.223673662541
493971500 0.538485321671 -0.22480277641
493982000 0.53964243233 -0.224258293819
493992500 0.540006364338 -0.225431916386
494003000 0.539875074991 -0.22465194302
494013500 0.539572551473 -0.224944485925
494024000 0.539445749791 -0.227754897193
494034500 0.535590204709 -0.222970245292
494045000 0.538497254501 -0.227612244796
494055500 0.539487683448 -0.223923745052
494066000 0.539739999416 -0.223462949253
494076500 0.537917296622 -0.224242989985
494087000 0.536780659714 -0.222750833606
494097500 0.540654812683 -0.223654318631
494108000 0.54327988532 -0.221049891656
494118500 0.538876120842 -0.221726225568
494129000 0.527407039516 -0.22189770805
494139500 0.537898854847 -0.224834682843
494150000 0.539180701063 -0.225700546037
494160500 0.537222911747 -0.223784810096
494171000 0.54107080023 -0.218421681652
494181500 0.534530990931 -0.218214189806
494192000 0.539637107778 -0.226993155478
494202500 0.538329260981 -0.233581041314
494213000 0.546097866152 -0.235290289104
494223500 0.539111167923 -0.230917480912
494234000 0.531434381817 -0.235051761633
494244500 0.531431645707 -0.228810671806
494255000 0.542116747831 -0.222285570012
494265500 0.52681141549 -0.220605025939
494276000 0.525514294633 -0.210612901506
494286500 0.536317641727 -0.219594752682
494297000 0.520983148608 -0.228893308035
494307500 0.546330964346 -0.22397411848
494318000 0.532510454929 -0.227838691952
494328500 0.534724520803 -0.227547507854
494339000 0.522907177755 -0.235341281538
494349500 0.550540089933 -0.235232087817
494360000 0.542449762075 -0.233213028318
494370500 0.538470450985 -0.218835660405
494381000 0.541998609844 -0.236064011289
494391500 0.538981081112 -0.227041332995
494402000 0.53530964509 -0.226589468287
494412500 0.543227705622 -0.232944054431
494423000 0.556728411785 -0.252005935576
494433500 0.497779757125 -0.20297181161
494444000 0.537299764955 -0.251041533738
494454500 0.516343648867 -0.221967501471
494465000 0.545407377981 -0.229601738947
494475500 0.55511325232 -0.223378840107
494486000 0.531960260696 -0.217885295469
494496500 0.543621322474 -0.23620086197
494507000 0.537974166292 -0.226263633469
494517500 0.555258797394 -0.233635001619
494528000 0.530257445132 -0.223411664991
494538500 0.547790337291 -0.224376807274
494549000 0.521807577991 -0.23934993507
494559500 0.53804084436 -0.227230334501
494570000 0.543927597695 -0.217998069111
494580500 0.528379701442 -0.227134273668
494591000 0.52635517942 -0.222404531709
494601500 0.539902704508 -0.225041230351
494612000 0.542720623287 -0.233567030165
494622500 0.532447701813 -0.224496266198
494633000 0.533032395818 -0.205840142081
494643500 0.541270696896 -0.228022147263
494654000 0.550995387342 -0.208803270772
494664500 0.536611655668 -0.219239329703
494675000 0.541464116545 -0.218448432744
494685500 0.531616006559 -0.233090107304
494696000 0.540187994611 -0.220172185259
494706500 0.533931651414 -0.222462351439
494717000 0.546113624218 -0.221201100902
494727500 0.543118360071 -0.22530711189
494738000 0.536610197842 -0.222374608469
494748500 0.546299037772 -0.227058934355
494759000 0.539806067853 -0.218524406881
494769500 0.53419972144 -0.224179451629
494780000 0.547352837479 -0.219014848674
494790500 0.541933654695 -0.220815598337
494801000 0.533619140871 -0.217956463759
494811500 0.538118080788 -0.220800933915
494822000 0.536915597899 -0.223782597011
494832500 0.539440332514 -0.213564623226
494843000 0.534679354679 -0.217985625193
494853500 0.533564500282 -0.219188263673
494864000 0.536916982399 -0.215416550967
494874500 0.531689880662 -0.222429141934
494885000 0.538909638376 -0.220739258931
494895500 0.537534950321 -0.222545940093
494906000 0.536343541835 -0.221329103904
494916500 0.538130167169 -0.221166549959
494927000 0.538257150385 -0.220549459441
494937500 0.535750545225 -0.220067070613
494948000 0.539790988091 -0.221555261269
494958500 0.536654484531 -0.219298073465
494969000 0.538216657345 -0.22123512842
494979500 0.537056067718 -0.221273913555
494990000 0.537800563571 -0.222223692767
495000500 0.538122654803 -0.221585633636
495011000 0.537769028363 -0.22156539736
495021500 0.536372730673 -0.219944181361
495032000 0.536653223524 -0.220218966888
495042500 0.538346483812 -0.219822555185
495053000 0.538478665437 -0.22179558976
495063500 0.538303843051 -0.220792886769
495074000 0.538514797819 -0.221706477594
495084500 0.538809199741 -0.219742892987
495095000 0.538168090073 -0.219316612842
495105500 0.536465042601 -0.219621424748
495116000 0.536752647773 -0.221986297666
495126500 0.536744351841 -0.220642074635
495137000 0.539680155209 -0.221817964759
495147500 0.53921084874 -0.221972293594
495158000 0.536586035807 -0.219710157369
495168500 0.540816201397 -0.222038077375
495179000 0.539229677882 -0.221765537962
495189500 0.539262644792 -0.220968136678
495200000 0.535941441174 -0.221685385805
495210500 0.537251242065 -0.222103982603
495221000 0.537906911489 -0.220998931056
495231500 0.537886993634 -0.220051528013
495242000 0.536415171356 -0.218918861413
495252500 0.537539540366 -0.220568903939
495263000 0.537090855788 -0.22168672975
495273500 0.538795282782 -0.221667654458
495284000 0.539945627967 -0.222440715273
495294500 0.534511065093 -0.221690868071
495305000 0.536763986866 -0.220693460547
495315500 0.536269439092 -0.220198609184
495326000 0.538600849003 -0.220045256317
495336500 0.53506702267 -0.22065194569
495347000 0.539845552993 -0.220685560121
495357500 0.537091161592 -0.218249887876
495368000 0.537531842127 -0.221218132116
495378500 0.538576642848 -0.219772217747
495389000 0.534800098519 -0.217768280426
495399500 0.540188744415 -0.219608796859
495410000 0.541146867878 -0.220823660735
495420500 0.538185765157 -0.21971547405
495431000 0.537555875496 -0.218486297799
495441500 0.536452282862 -0.220131393583
495452000 0.536999462942 -0.22039070452
495462500 0.538218551152 -0.218935921572
495473000 0.538014444488 -0.218277759615
495483500 0.537121894323 -0.218565787054
495494000 0.537037807937 -0.219834638179
495504500 0.537168590413 -0.220034601759
495515000 0.537767380804 -0.220199266831
495525500 0.538071637359 -0.21924877742
495536000 0.537596493137 -0.219133717309
495546500 0.537351828814 -0.219477614599
495557000 0.537308148169 -0.219004058406
495567500 0.537423389197 -0.218942819045
495578000 0.537587593884 -0.218820496271
495588500 0.537862234962 -0.218854892205
495599000 0.537485225652 -0.218519472136
495609500 0.53754857559 -0.218652988664
495620000 0.537827211725 -0.219035636892
495630500 0.538451035006 -0.21902773909
495641000 0.53774100476 -0.218545163911
495651500 0.537428207573 -0.218666375238
495662000 0.537912570674 -0.218235110998
495672500 0.538018031534 -0.218628380818
495683000 0.538000181764 -0.218520984995
495693500 0.538125726116 -0.218464864976
495704000 0.538102299567 -0.218605759081
495714500 0.538015078373 -0.218587877612
495725000 0.538418674891 -0.218061717627
495735500 0.538130474235 -0.217767054783
495746000 0.537928995566 -0.21781101362
495756500 0.53780555848 -0.217990592053
495767000 0.537813787901 -0.217847495553
495777500 0.537763568492 -0.218037109645
495788000 0.537629171293 -0.217940628724
495798500 0.538192932496 -0.217981392614
495809000 0.538518659019 -0.217862687972
495819500 0.537584963326 -0.217890959113
495830000 0.537870953305 -0.217428975312
495840500 0.538351742645 -0.217574885627
495851000 0.538715575982 -0.217728398896
495861500 0.538362434586 -0.218143023774
495872000 0.538121015176 -0.217940484167
495882500 0.537043071399 -0.217871427287
495893000 0.53713681586 -0.217986776729
495903500 0.537432904775 -0.218715563485
495914000 0.537796685802 -0.218011337542
495924500 0.537327440404 -0.218032000607
495935000 0.537783581622 -0.218156678935
495945500 0.538109066619 -0.217920405081
495956000 0.537984576241 -0.217527063429
495966500 0.538002682297 -0.217524767683
495977000 0.538546375536 -0.217648732141
495987500 0.538616985762 -0.217279047759
495998000 0.537674735419 -0.217164953864
496008500 0.538039596906 -0.217172922566
496019000 0.537938654717 -0.217236028542
496029500 0.537824042106 -0.21743943995
496040000 0.538357896803 -0.217417516631
496050500 0.537984131731 -0.217454489651
496061000 0.538485212134 -0.217518934437
496071500 0.538032688627 -0.217494137652
496082000 0.537678175731 -0.217035232689
496092500 0.537340558289 -0.217171313022
496103000 0.537538255275 -0.217054183646
496113500 0.537991987819 -0.217552388839
496124000 0.53749400744 -0.217001977634
496134500 0.537789104667 -0.217122469625
496145000 0.537564333475 -0.21696478462
496155500 0.537813151971 -0.217362160568
496166000 0.538566694397 -0.217436173079
496176500 0.537999574946 -0.216822640617
496187000 0.538318967333 -0.217033597304
496197500 0.538187108913 -0.217073805233
496208000 0.540762450705 -0.217712989136
496218500 0.538245143836 -0.216451068627
496229000 0.538079603273 -0.216485055379
496239500 0.538558025999 -0.216469814417
496250000 0.538454310586 -0.216856385747
496260500 0.538614159584 -0.216547800059
496271000 0.537520238596 -0.215951406142
496281500 0.537512019079 -0.216784444706
496292000 0.53830260845 -0.216671936897
496302500 0.538110273796 -0.216053870851
496313000 0.538308908234 -0.216059665414
496323500 0.538176128579 -0.215200621605
496334000 0.538381311895 -0.216366880948
496344500 0.537874251317 -0.21587831609
496355000 0.537795430224 -0.215962533301
496365500 0.53746772863 -0.216252739115
496376000 0.537675042427 -0.215943008754
496386500 0.53777136116 -0.216406203053
496397000 0.538422558526 -0.216977752156
496407500 0.537973514532 -0.216684713152
496418000 0.53866917161 -0.216363720372
496428500 0.538082187758 -0.215932268006
496439000 0.538460583208 -0.215576126128
496449500 0.537898504886 -0.215858608358
496460000 0.537925501607 -0.215982332056
496470500 0.537833934775 -0.215598988656
496481000 0.538125804552 -0.215282209472
496491500 0.538675817729 -0.215269068932
496502000 0.53824312323 -0.215320621164
496512500 0.539180613916 -0.215495205212
496523000 0.538709828704 -0.21515428873
496533500 0.538782628938 -0.215710684707
496544000 0.538808153352 -0.215106997775
496554500 0.53837203923 -0.215634808297
496565000 0.53816135376 -0.215678558194
496575500 0.537843251082 -0.215721446598
496586000 0.53786095048 -0.215698434093
496596500 0.538574631183 -0.215136000164
496607000 0.538810221787 -0.214717878494
496617500 0.539226256855 -0.214137462869
496628000 0.538355134975 -0.214802952396
496638500 0.538375387358 -0.215164377191
496649000 0.538322213121 -0.214616650039
496659500 0.538219883991 -0.214378021783
496670000 0.537933890787 -0.215181658618
496680500 0.538455390668 -0.214970765944
496691000 0.539061162518 -0.215063448998
496701500 0.53890100269 -0.215239349904
496712000 0.538192711214 -0.215038609474
496722500 0.53903421965 -0.214950908626
496733000 0.538186590336 -0.21486889269
496743500 0.538298069448 -0.214599989792
496754000 0.537869422025 -0.215243316421
496764500 0.537569371568 -0.215661613451
496775000 0.537347271795 -0.21588717019
496785500 0.537645029108 -0.21581053326
496796000 0.538104133686 -0.215274702985
496806500 0.538030145915 -0.214382776746
496817000 0.538256769498 -0.214713775204
496827500 0.538297951774 -0.214596697116
496838000 0.538455070841 -0.214503650883
496848500 0.538306444995 -0.214255922181
496859000 0.53851759191 -0.214407577154
496869500 0.538157581481 -0.213964234029
496880000 0.538349692446 -0.214404233127
496890500 0.537802113039 -0.214346605517
496901000 0.538317502845 -0.214603618555
496911500 0.538377673819 -0.21445941702
496922000 0.53838197106 -0.21422249625
496932500 0.538713622142 -0.214146723991
496943000 0.538336423115 -0.214085187899
496953500 0.538808011344 -0.214018313223
496964000 0.538407511765 -0.213744349489
496974500 0.538402867844 -0.214090623293
496985000 0.538408180262 -0.213963579521
496995500 0.538239439546 -0.214040052245
497006000 0.538507495411 -0.213803745051
497016500 0.538834314021 -0.213737680419
497027000 0.538188217498 -0.214167606349
497037500 0.538820912901 -0.214327204555
497048000 0.539416499229 -0.215386442295
497058500 0.538478729606 -0.21400276937
497069000 0.538182047707 -0.213448554764
497079500 0.538119675564 -0.213704791338
497090000 0.538555281077 -0.213323054117
497100500 0.538356701586 -0.213799872849
497111000 0.538373242766 -0.213518508775
497121500 0.538745344536 -0.214065684363
497132000 0.538363477413 -0.213778312736
497142500 0.538716781928 -0.213466063925
497153000 0.538698803826 -0.213388079413
497163500 0.538674727688 -0.213381944382
497174000 0.538795945893 -0.213080086429
497184500 0.538883603233 -0.213365682513
497195000 0.538504589583 -0.213319581984
497205500 0.53890979162 -0.212571435509
497216000 0.53885208982 -0.213036772978
497226500 0.538664914022 -0.212830494876
497237000 0.537766265817 -0.218096275346
497247500 0.5386090173 -0.212629976292
497258000 0.538733889953 -0.212887158144
497268500 0.5389399751 -0.212632343602
497279000 0.539242637628 -0.212720181656
497289500 0.538862962335 -0.213161536762
497300000 0.538963032051 -0.213152320091
497310500 0.53872222496 -0.212910233009
497321000 0.538541282733 -0.212912189013
497331500 0.537965504034 -0.212604052685
497342000 0.538886484118 -0.212867631382
497352500 0.538486960885 -0.212779797729
497363000 0.53880917516 -0.212212092732
497373500 0.538883745118 -0.21255056207
497384000 0.539093384887 -0.212711015593
497394500 0.538623292566 -0.212205896241
497405000 0.538635097512 -0.212232671462
497415500 0.538945259527 -0.211749545509
497426000 0.538921878992 -0.212521218058
497436500 0.539538304552 -0.212299113575
497447000 0.538654544149 -0.21221311496
497457500 0.538747063364 -0.211748332807
497468000 0.538740165656 -0.212179787061
497478500 0.539275807602 -0.212088485289
497489000 0.53912820148 -0.212323134586
497499500 0.538828270019 -0.211930684339
497510000 0.538764058056 -0.21183109954
497520500 0.538792000483 -0.212539328131
497531000 0.539040751487 -0.212088845422
497541500 0.538505816943 -0.212143879865
497552000 0.539340777514 -0.212273657228
497562500 0.53862478256 -0.212226295704
497573000 0.538956256291 -0.211560389625
497583500 0.538602915374 -0.211940900179
497594000 0.539189073913 -0.211370065919
497604500 0.539067978566 -0.211772022588
497615000 0.53907992151 -0.211052186334
497625500 0.538794696565 -0.211209868484
497636000 0.538873411249 -0.210945552059
497646500 0.539081798362 -0.211957310152
497657000 0.538984869729 -0.211366053009
497667500 0.53892257295 -0.211382513102
497678000 0.539415502588 -0.211960179762
497688500 0.538809858316 -0.211703555709
497699000 0.539124682446 -0.211894448062
497709500 0.539221369663 -0.210721441343
497720000 0.538869836186 -0.210408296606
497730500 0.538512826354 -0.21127026076
497741000 0.539258476119 -0.211679619463
497751500 0.538512023006 -0.211264864398
497762000 0.538808394402 -0.211035645921
497772500 0.539209126087 -0.211057206546
497783000 0.539287501227 -0.210753088693
497793500 0.538759181553 -0.210743867854
497804000 0.539206134934 -0.21125837216
497814500 0.539127032993 -0.211125991321
497825000 0.539747894933 -0.211404868246
497835500 0.539832177737 -0.211155563335
497846000 0.538839929181 -0.211191474478
497856500 0.538982339982 -0.211322184346
497867000 0.539351761056 -0.21085714546
497877500 0.539241921363 -0.210888108018
497888000 0.539129834743 -0.210522712176
497898500 0.539353006797 -0.21031576749
497909000 0.539110966962 -0.210895850556
497919500 0.539779007846 -0.210557872674
497930000 0.5390942688 -0.210248391305
497940500 0.538968952667 -0.210063048694
497951000 0.53899655585 -0.210330869355
497961500 0.538820283493 -0.210680410266
497972000 0.538962086506 -0.21085203498
497982500 0.538953833877 -0.210850396791
497993000 0.53915004542 -0.210475067676
498003500 0.539648503416 -0.210372366745
498014000 0.539531122112 -0.209844612418
498024500 0.539493291947 -0.210525692347
498035000 0.539576831371 -0.210804306935
498045500 0.539238536489 -0.210764174448
498056000 0.539686799961 -0.210690293259
498066500 0.539039181338 -0.209901425933
498077000 0.539080927132 -0.209824564964
498087500 0.539494508022 -0.210007001953
498098000 0.539439000281 -0.209988154734
498108500 0.539177775929 -0.209942695281
498119000 0.539435246471 -0.209966699692
498129500 0.539994384658 -0.21047292361
498140000 0.539935503228 -0.210241353381
498150500 0.539859966499 -0.210278357846
498161000 0.540125695906 -0.209661934817
498171500 0.53977011446 -0.210377267336
498182000 0.539683857543 -0.210212938237
498192500 0.53893884702 -0.210355569405
498203000 0.539196007955 -0.210217099973
498213500 0.539938666945 -0.210441019856
498224000 0.539786825491 -0.210081652013
498234500 0.540328867772 -0.209645191261
498245000 0.540120993602 -0.209077764168
498255500 0.539642221134 -0.209671762901
498266000 0.539793569972 -0.209719184409
498276500 0.540169062496 -0.208977998271
498287000 0.540241652309 -0.206782255033
498297500 0.538730611699 -0.206396137238
498308000 0.541556616386 -0.208462455398
498318500 0.530533717513 -0.209249940316
498329000 0.539610088901 -0.218327157834
498339500 0.536895325149 -0.207804061674
498350000 0.537729073883 -0.209713576564
498360500 0.540037487555 -0.209791985508
498371000 0.539688666791 -0.210450269711
498381500 0.540603320759 -0.209777444638
498392000 0.540496955673 -0.209279191222
498402500 0.540051519012 -0.209540948308
498413000 0.539623616262 -0.20921666138
498423500 0.540325225935 -0.209930393479
498434000 0.540727902378 -0.209258006825
498444500 0.538599721155 -0.207797564583
498455000 0.542261379498 -0.208631667106
498465500 0.538474709962 -0.210395609785
498476000 0.539444885206 -0.208360000789
498486500 0.537621336315 -0.209182121742
498497000 0.539200915626 -0.209145959479
498507500 0.538549275291 -0.208672306753
498518000 0.539290327968 -0.209052099942
498528500 0.538105416623 -0.209881084535
498539000 0.540970216112 -0.20818460406
498549500 0.538204425715 -0.209900773895
498560000 0.540557615425 -0.210834147536
498570500 0.540898783481 -0.209335228879
498581000 0.540122393756 -0.211872215361
498591500 0.54058695889 -0.210676047795
498602000 0.540495175604 -0.210406253236
498612500 0.541185401719 -0.20601315977
498623000 0.538450700516 -0.210084376011
498633500 0.541380698057 -0.208193636897
498644000 0.53795217755 -0.207301192771
498654500 0.540924849007 -0.211299449512
498665000 0.540175708669 -0.209055332345
498675500 0.5371179552 -0.208815454029
498686000 0.539139391019 -0.209228802003
498696500 0.542577178875 -0.209433380923
498707000 0.538983541848 -0.208776290049
498717500 0.539564549988 -0.208054579831
498728000 0.541620774644 -0.207294956865
498738500 0.539231426304 -0.206918738792
498749000 0.541872765633 -0.210250004449
498759500 0.541335309243 -0.207849588066
498770000 0.541548326621 -0.208215983264
498780500 0.539405184745 -0.210744066624
498791000 0.538644491215 -0.209479043633
498801500 0.538281814521 -0.209247957354
498812000 0.541479694779 -0.208374667769
498822500 0.538153945383 -0.207049719422
498833000 0.540748273937 -0.209737353717
498843500 0.541017672535 -0.209046748568
498854000 0.540013913439 -0.209144153017
498864500 0.540921602895 -0.207807758535
498875000 0.538549578244 -0.207909384614
498885500 0.538457677973 -0.208073609985
498896000 0.538559704188 -0.208010992576
498906500 0.541775675538 -0.208013382874
498917000 0.540655567892 -0.208137120839
498927500 0.539562097598 -0.208541926863
498938000 0.540458628353 -0.208564274899
498948500 0.540646810564 -0.207992039018
498959000 0.54041222212 -0.207140872438
498969500 0.540289867745 -0.208657342364
498980000 0.54126458052 -0.208065775192
498990500 0.54134026436 -0.208238198096
499001000 0.540742825093 -0.208347236506
499011500 0.540394200807 -0.20834948648
499022000 0.54088684495 -0.20874912537
499032500 0.541187993741 -0.20855683134
499043000 0.540835409617 -0.208286695484
499053500 0.540376121243 -0.20812663742
499064000 0.540550849557 -0.208409297349
499074500 0.541694435525 -0.207353703657
499085000 0.540486370765 -0.207518510787
499095500 0.539847207852 -0.205682309402
499106000 0.540667039636 -0.206658275538
499116500 0.540634902619 -0.206672845798
499127000 0.541982456652 -0.207001546131
499137500 0.541388115952 -0.208331362882
499148000 0.539933755984 -0.207828674602
499158500 0.541315611462 -0.207942814147
499169000 0.539603638049 -0.206730939809
499179500 0.540843393915 -0.207422761984
499190000 0.541555430071 -0.206845093198
499200500 0.540822981473 -0.207983877567
499211000 0.538626144662 -0.209572384466
499221500 0.539866884314 -0.207797737134
499232000 0.540619501726 -0.207533982048
499242500 0.541885780844 -0.206986907799
499253000 0.53968387249 -0.206506932483
499263500 0.543932933079 -0.208559906595
499274000 0.543859985321 -0.214539896171
499284500 0.533227378542 -0.207626848758
499295000 0.542457051266 -0.206904748035
499305500 0.540193741579 -0.207343291061
499316000 0.54134026052 -0.202423926383
499326500 0.547793780218 -0.208370371382
499337000 0.54612744267 -0.204290570469
499347500 0.537707484394 -0.213343424977
499358000 0.539912959141 -0.212544851007
499368500 0.537446893787 -0.206668143488
499379000 0.542425618162 -0.207539603951
499389500 0.543656408828 -0.202819712567
499400000 0.547395693875 -0.202534322189
499410500 0.53706877828 -0.202660641955
499421000 0.553454639059 -0.23111962137
499431500 0.52776209374 -0.206393484234
499442000 0.548869479504 -0.218467961318
499452500 0.548307562203 -0.200220702611
499463000 0.545619807595 -0.213455133934
499473500 0.533691812374 -0.207053363932
499484000 0.546557560834 -0.21520789994
499494500 0.536685059281 -0.210695919839
499505000 0.526902055184 -0.216965729371
499515500 0.54018798831 -0.203333177458
499526000 0.535707482951 -0.197332015404
499536500 0.540587069281 -0.215466955801
499547000 0.546869175538 -0.214700158752
499557500 0.553140321112 -0.211980703944
499568000 0.549263512842 -0.209803786965
499578500 0.541508087823 -0.209133007637
499589000 0.544754678548 -0.20179031486
499599500 0.541477563415 -0.208007409622
499610000 0.540701526642 -0.204868614598
499620500 0.541926452373 -0.206819826014
499631000 0.538270464361 -0.207623031291
499641500 0.538593831764 -0.204667598563
499652000 0.548335535922 -0.202296794133
499662500 0.543692138804 -0.214476565777
499673000 0.542947535075 -0.201075937016
499683500 0.532224278273 -0.211072617338
499694000 0.541389367158 -0.205815849219
499704500 0.540862795784 -0.207323468507
499715000 0.540947197356 -0.206640977994
499725500 0.541382693444 -0.20815170761
499736000 0.542330917017 -0.206552303124
499746500 0.540348672539 -0.207040788134
499757000 0.545376321275 -0.205235650196
499767500 0.542283210828 -0.2059672394
499778000 0.541613798272 -0.206092306716
499788500 0.541420564939 -0.205547256968
499799000 0.541518381732 -0.207359959139
499809500 0.540918884133 -0.205764946282
499820000 0.541361142362 -0.20554168332
499830500 0.541511428765 -0.205560482073
499841000 0.541178061756 -0.206135355298
499851500 0.542354884023 -0.205706554619
499862000 0.541712056805 -0.205220189478
499872500 0.542361198118 -0.20545181178
499883000 0.541053089186 -0.206270248361
499893500 0.541394384749 -0.206055719585
499904000 0.541426171032 -0.206892789263
499914500 0.541746221156 -0.205532573859
499925000 0.5419618107 -0.205583097243
499935500 0.54180684923 -0.205776093718
499946000 0.541833786329 -0.205437120924
499956500 0.542011863913 -0.205657548219
499967000 0.542198450575 -0.206455154801
499977500 0.541990046706 -0.205230422447
499988000 0.541757076212 -0.204785886492
499998500 0.54179720514 -0.205216918301
500009000 0.541593455597 -0.205132044665
500019500 0.542478975917 -0.205055749967
500030000 0.542100238724 -0.205635066641
500040500 0.54157883751 -0.205225442724
500051000 0.542020040216 -0.205595671968
500061500 0.541980656191 -0.205618637328
500072000 0.540896976478 -0.205162449047
500082500 0.541665089019 -0.205421310031
500093000 0.541915426857 -0.204656865096
500103500 0.541363999449 -0.205747510204
500114000 0.541837431342 -0.204412292237
500124500 0.541580525536 -0.20525512593
500135000 0.541661935454 -0.205605455896
500145500 0.541411182546 -0.205703572498
500156000 0.541668960992 -0.206590397557
500166500 0.542299402077 -0.205001902283
500177000 0.541928916572 -0.205343702063
500187500 0.542057448971 -0.205354172207
500198000 0.541117693924 -0.205405501935
500208500 0.541708252498 -0.205679834596
500219000 0.542240475702 -0.205532603365
500229500 0.542590096588 -0.204735434028
500240000 0.542038501992 -0.205214974338
500250500 0.541993618762 -0.20577944961
500261000 0.544099481142 -0.206174249511
500271500 0.542384284639 -0.205420803046
500282000 0.541756793378 -0.204756605834
500292500 0.543362011273 -0.204591697645
500303000 0.542249614185 -0.204259182853
500313500 0.542550205549 -0.206074558381
500324000 0.541322220224 -0.203792127125
500334500 0.540307587331 -0.202520827495
500345000 0.542052087126 -0.203815675053
500355500 0.541679456912 -0.204922509276
500366000 0.543311319854 -0.204119174871
500376500 0.543526845443 -0.203818165825
500387000 0.543786550064 -0.204230072023
500397500 0.542897463855 -0.20469757775
500408000 0.542640248553 -0.203971366372
500418500 0.542177193418 -0.202999906253
500429000 0.54347835591 -0.204275026553
500439500 0.542015423472 -0.204791646199
500450000 0.542484201568 -0.204068757446
500460500 0.541995862241 -0.203863673438
500471000 0.542221122412 -0.203893199516
500481500 0.542147911959 -0.203444488037
500492000 0.542377150348 -0.204585796377
500502500 0.542029179812 -0.204366557965
500513000 0.543240709213 -0.203569692465
500523500 0.542259859315 -0.205294251496
500534000 0.54242338976 -0.204912071138
500544500 0.542652765225 -0.204353030224
500555000 0.542306087403 -0.204942732294
500565500 0.542483796514 -0.204191131393
500576000 0.542640003121 -0.20496767008
500586500 0.54248744322 -0.204368783443
500597000 0.542421827091 -0.20424046293
500607500 0.542490367351 -0.203811975962
500618000 0.542281395166 -0.204165526241
500628500 0.542065616957 -0.204319579947
500639000 0.542681343939 -0.203976487061
500649500 0.54282985123 -0.20423425561
500660000 0.543168687056 -0.203400594079
500670500 0.542693163982 -0.203943430253
500681000 0.542426364346 -0.203489488648
500691500 0.542050903164 -0.204317786751
500702000 0.54256842166 -0.203551537173
500712500 0.542475512787 -0.204647766631
500723000 0.542927054969 -0.204352200991
500733500 0.542381941485 -0.204787997587
500744000 0.542105757356 -0.204286782477
500754500 0.542728053527 -0.204013186922
500765000 0.542745082552 -0.203842468459
500775500 0.542763555256 -0.203721244714
500786000 0.542793145557 -0.203198080744
500796500 0.54275614996 -0.203761263713
500807000 0.542911963881 -0.203231319818
500817500 0.542452114919 -0.203587710482
500828000 0.543320602421 -0.203196663906
500838500 0.542716213884 -0.203799772294
500849000 0.542998280416 -0.203230841737
500859500 0.543059870008 -0.203203895619
500870000 0.542567545442 -0.203633953944
500880500 0.542308967566 -0.203809466027
500891000 0.542772199279 -0.203724498855
500901500 0.542579891177 -0.203518577788
500912000 0.542757457152 -0.2030936274
500922500 0.54274878865 -0.202953299899
500933000 0.543200737244 -0.203232963505
500943500 0.543010485753 -0.203786017611
500954000 0.542834457707 -0.202973844603
500964500 0.542991652677 -0.202927785959
500975000 0.543021127877 -0.202754888612
500985500 0.542810584693 -0.203201063263
500996000 0.542904183717 -0.202789442272
501006500 0.542178793336 -0.202326965013
501017000 0.542233821463 -0.202689486303
501027500 0.54270789352 -0.203207927888
501038000 0.542139263423 -0.202592232953
501048500 0.542432580268 -0.202417370107
501059000 0.543039259462 -0.202784663198
501069500 0.542981549197 -0.203694237017
501080000 0.543013532193 -0.203303559457
501090500 0.543015957422 -0.203485600807
501101000 0.54285586721 -0.203323242907
501111500 0.543232066186 -0.203541954694
501122000 0.543337748139 -0.203119613731
501132500 0.542987057605 -0.202868587516
501143000 0.543013898846 -0.202670222458
501153500 0.542790728264 -0.20281451359
501164000 0.542911629406 -0.202747305049
501174500 0.542571464961 -0.202922146474
501185000 0.542791738136 -0.20227954505
501195500 0.542933950837 -0.202674966083
501206000 0.542926925466 -0.202504678695
501216500 0.543779553571 -0.203256915954
501227000 0.543505447314 -0.202456367784
501237500 0.543172637311 -0.202704627236
501248000 0.542800853464 -0.202477302431
501258500 0.54282344389 -0.202845206704
501269000 0.542616767893 -0.202766680818
501279500 0.543261746853 -0.202179163548
501290000 0.54273306449 -0.202278901056
501300500 0.542945777558 -0.202692800328
501311000 0.542851524183 -0.202236982431
501321500 0.543033414967 -0.202818307918
501332000 0.543286523967 -0.202625023074
501342500 0.542659358224 -0.20239495257
501353000 0.542857534171 -0.202033532069
501363500 0.542878635208 -0.202527657942
501374000 0.542573610623 -0.202283341627
501384500 0.54272152584 -0.201849176502
501395000 0.543478544292 -0.201254133872
501405500 0.543136099071 -0.202296274498
501416000 0.543659577009 -0.204258970165
501426500 0.543809806145 -0.201947060924
501437000 0.543866058837 -0.202513677871
501447500 0.543413972375 -0.202360055628
501458000 0.542493531809 -0.20319556662
501468500 0.543102444088 -0.203274098977
501479000 0.543287923499 -0.202176031985
501489500 0.543934164733 -0.201045871051
501500000 0.543457698903 -0.201592565965
501510500 0.542887362971 -0.201039418182
501521000 0.542944142017 -0.200512901556
501531500 0.542974130802 -0.201175790924
501542000 0.543502645359 -0.200794231011
501552500 0.543384157434 -0.20178098573
501563000 0.543496043384 -0.20154137495
501573500 0.543253878693 -0.201529454956
501584000 0.543077207344 -0.200686069965
501594500 0.54365530109 -0.200885697268
501605000 0.543925712584 -0.200738518325
501615500 0.543645179989 -0.20069858703
501626000 0.543649086973 -0.200952292962
501636500 0.543592400139 -0.201460364229
501647000 0.543672957774 -0.201293720671
501657500 0.543410432919 -0.200934022542
501668000 0.543341710331 -0.200965460603
501678500 0.543343010314 -0.202331779643
501689000 0.543742499566 -0.203153793449
501699500 0.54369791497 -0.202393554307
501710000 0.544292115842 -0.201076521461
501720500 0.544197075695 -0.200172277941
501731000 0.544259547724 -0.200703843985
501741500 0.543651719273 -0.200616488724
501752000 0.543690814133 -0.200673048616
501762500 0.544039731287 -0.20089294938
501773000 0.544005332888 -0.200937314688
501783500 0.543618130244 -0.200440761918
501794000 0.544116574434 -0.200079647271
501804500 0.543773784992 -0.199661034046
501815000 0.543775696464 -0.199736423335
501825500 0.544062214789 -0.200335224474
501836000 0.543970935992 -0.200428956949
501846500 0.54442935907 -0.200031846835
501857000 0.54333346683 -0.199978117596
501867500 0.543229151738 -0.200902720854
501878000 0.543769897776 -0.200656080534
501888500 0.544840252344 -0.200116992868
501899000 0.544485819762 -0.200459841596
501909500 0.544106901059 -0.200562207136
501920000 0.544183788386 -0.200135992518
501930500 0.543777728128 -0.199973803124
501941000 0.544181555169 -0.200407432592
501951500 0.54361654283 -0.200255398526
501962000 0.544308377548 -0.200202032221
501972500 0.544274350165 -0.199863559886
501983000 0.544307579819 -0.199552602169
501993500 0.544124598321 -0.199882497143
502004000 0.544313859056 -0.199765756809
502014500 0.544529202632 -0.199522538423
502025000 0.544235775631 -0.199492869462
502035500 0.543979005926 -0.199254871827
502046000 0.544064064693 -0.199832326886
502056500 0.544457667845 -0.199850153982
502067000 0.544224313685 -0.199767353108
502077500 0.544297753255 -0.199501096689
502088000 0.543878141802 -0.19946199487
502098500 0.544193992974 -0.199345795311
502109000 0.544132188323 -0.199031472656
502119500 0.543973324448 -0.199739678494
502130000 0.544216501729 -0.200092373995
502140500 0.544030333561 -0.200019342878
502151000 0.543692901935 -0.199342409767
502161500 0.544117469557 -0.199276282728
502172000 0.54462031627 -0.199236805506
502182500 0.544831917452 -0.199291481453
502193000 0.545038047981 -0.198622640727
502203500 0.544572225675 -0.199391096601
502214000 0.544603530431 -0.199660382708
502224500 0.544576485963 -0.199437265079
502235000 0.544572632755 -0.199293148404
502245500 0.545075085634 -0.199121211687
502256000 0.544265506317 -0.199334374048
502266500 0.543957488688 -0.199710783739
502277000 0.544863000142 -0.199623370954
502287500 0.544690902981 -0.199102425874
502298000 0.545411865027 -0.199442426714
502308500 0.545299459267 -0.199179927609
502319000 0.544920546667 -0.198953904032
502329500 0.545081696463 -0.198614933973
502340000 0.545191400303 -0.199056080157
502350500 0.545961737224 -0.199912649702
502361000 0.545337741447 -0.199353430129
502371500 0.545333782897 -0.199162316422
502382000 0.545302223568 -0.199024032912
502392500 0.545157987591 -0.198831712056
502403000 0.545340100298 -0.199257743522
502413500 0.545630753466 -0.198897163393
502424000 0.54468019897 -0.198854542779
502434500 0.544782358566 -0.198567007128
502445000 0.544932886043 -0.198657535748
502455500 0.545231549713 -0.198768462098
502466000 0.544700900763 -0.199035063168
502476500 0.544537720487 -0.199297233277
502487000 0.544980996132 -0.19933702997
502497500 0.545089444177 -0.198433611956
502508000 0.544788983699 -0.198673152373
502518500 0.544541078506 -0.198876778557
502529000 0.544877529499 -0.198770664971
502539500 0.545216298546 -0.198330956177
502550000 0.545486418093 -0.198458597346
502560500 0.545318347087 -0.197866725894
502571000 0.544979764442 -0.19742937034
502581500 0.545431193605 -0.1974301442
502592000 0.545176367284 -0.197169960155
502602500 0.545619400839 -0.197792286329
502613000 0.545075804927 -0.197491649462
502623500 0.545221243123 -0.197765062075
502634000 0.544777475253 -0.197577880341
502644500 0.544607229009 -0.197663584627
502655000 0.545398129618 -0.198732558902
502665500 0.544728257666 -0.197624386439
502676000 0.545305495035 -0.197367777227
502686500 0.54552019776 -0.197626025285
502697000 0.545195649808 -0.197758565094
502707500 0.545120062183 -0.197368296109
502718000 0.545143115114 -0.197640067343
502728500 0.545645326922 -0.197707293547
502739000 0.544612658549 -0.196868027897
502749500 0.545275175027 -0.197527109704
502760000 0.545380298844 -0.197674019558
502770500 0.545611616437 -0.197374733848
502781000 0.545605699511 -0.197097878066
502791500 0.546023775338 -0.197353419824
502802000 0.545588430071 -0.197427700524
502812500 0.545372903441 -0.197449118759
502823000 0.545623657195 -0.197205282161
502833500 0.54544441548 -0.197375352265
502844000 0.545922547866 -0.19744096219
502854500 0.54574458779 -0.196899767963
502865000 0.545842581668 -0.19695812793
502875500 0.546011052714 -0.197396060343
502886000 0.546349128712 -0.1972493808
502896500 0.545706461766 -0.196734385495
502907000 0.546019897796 -0.196775466134
502917500 0.546450378164 -0.196409034481
502928000 0.545240393477 -0.196891347825
502938500 0.545318288024 -0.196872060904
502949000 0.545666249297 -0.196757374548
502959500 0.545580835405 -0.19706681649
502970000 0.545471109589 -0.196759061579
502980500 0.546194022966 -0.196962063576
502991000 0.545709779886 -0.196765734849
503001500 0.545779492885 -0.196784493673
503012000 0.545782802281 -0.197308461226
503022500 0.545378205601 -0.197155894022
503033000 0.546390956292 -0.196904456545
503043500 0.546291460989 -0.196955964927
503054000 0.545781483768 -0.196737206123
503064500 0.546746837737 -0.197731539404
503075000 0.545932136873 -0.197589650917
503085500 0.546328790477 -0.196290429924
503096000 0.546594570196 -0.198214860619
503106500 0.546313869576 -0.196223172682
503117000 0.546759851128 -0.196319820179
503127500 0.546400630153 -0.195711282385
503138000 0.54482614979 -0.195448512432
503148500 0.545769157241 -0.19603565271
503159000 0.54647834758 -0.197442523466
503169500 0.543520840609 -0.197865707565
503180000 0.544263706283 -0.196994494876
503190500 0.551382075316 -0.190283168908
503201000 0.545583323389 -0.198349310656
503211500 0.543935554794 -0.196067624546
503222000 0.54434803995 -0.198451765711
503232500 0.545206523601 -0.194320330471
503243000 0.545633058074 -0.195383834731
503253500 0.545643475172 -0.196088718924
503264000 0.548470206136 -0.196328445027
503274500 0.550474967633 -0.19643259116
503285000 0.547246131686 -0.196429313859
503295500 0.546929065855 -0.197878269121
503306000 0.547629692203 -0.204728408284
503316500 0.550503139394 -0.194554223042
503327000 0.546903861449 -0.195703994409
503337500 0.546327470447 -0.196208722236
503348000 0.545887248803 -0.193991654057
503358500 0.547367449793 -0.196580689093
503369000 0.549938485799 -0.193576675107
503379500 0.550803835583 -0.200361368711
503390000 0.544746197641 -0.191869175801
503400500 0.537979680474 -0.197332129535
503411000 0.540007816201 -0.19637312784
503421500 0.545265076199 -0.194942144061
503432000 0.543694275432 -0.197283018386
503442500 0.542081922484 -0.19458179504
503453000 0.544896441375 -0.190678500179
503463500 0.547010174881 -0.192855040465
503474000 0.539264919767 -0.201428508051
503484500 0.548811233554 -0.199292461885
503495000 0.542030095614 -0.195250621836
503505500 0.542684491461 -0.194429973726
503516000 0.548446958635 -0.191917788921
503526500 0.545143154013 -0.202621297364
503537000 0.544039879622 -0.192131071439
503547500 0.545276938603 -0.202153778061
503558000 0.546557478097 -0.195790859045
503568500 0.547330459115 -0.192997467235
503579000 0.549906612584 -0.196204821192
503589500 0.547814290084 -0.19390300881
503600000 0.547961217625 -0.190935918979
503610500 0.546242613814 -0.195185893592
503621000 0.537406476112 -0.191484458547
503631500 0.54738538151 -0.193886072638
503642000 0.543095163345 -0.199727840615
503652500 0.545722564655 -0.195558375658
503663000 0.541704707388 -0.195969791857
503673500 0.540615229873 -0.20034468109
503684000 0.550861812393 -0.186816756113
503694500 0.5465483634 -0.1954509969
503705000 0.546617328433 -0.194621437372
503715500 0.546872490581 -0.19587137567
503726000 0.543816127159 -0.193063038779
503736500 0.544804623889 -0.194882143697
503747000 0.544919931753 -0.192976004261
503757500 0.547434224051 -0.190076065995
503768000 0.541350936652 -0.191132866332
503778500 0.543947303849 -0.19587059018
503789000 0.547819336431 -0.194707626418
503799500 0.547927509042 -0.200292389643
503810000 0.546367761151 -0.19659613759
503820500 0.549494181449 -0.19243162263
503831000 0.546965584488 -0.193029370069
503841500 0.546046291809 -0.193241341754
503852000 0.548391309849 -0.196488711815
503862500 0.546927310794 -0.194019646268
503873000 0.546647342657 -0.195141869949
503883500 0.547182362193 -0.194864466643
503894000 0.54763250632 -0.194975915125
503904500 0.548667927998 -0.194717812006
503915000 0.547877365841 -0.196426325667
503925500 0.547164395782 -0.194783032679
503936000 0.547843729956 -0.19382637863
503946500 0.547031364352 -0.195346336806
503957000 0.546877500068 -0.195305784852
503967500 0.547125293861 -0.194840293528
503978000 0.546983238512 -0.19382735552
503988500 0.547291567369 -0.195247032155
503999000 0.547235716236 -0.194972489302
504009500 0.547133549258 -0.194746388233
504020000 0.547390266362 -0.194728220253
504030500 0.547250395426 -0.195099082272
504041000 0.547677282452 -0.194568868376
504051500 0.547653506786 -0.194965859683
504062000 0.547097467336 -0.194016326185
504072500 0.547507661525 -0.19450426683
504083000 0.547672567972 -0.194745003331
504093500 0.547269732742 -0.195018661336
504104000 0.547711096999 -0.194708474591
504114500 0.547569915469 -0.195255054866
504125000 0.547699478176 -0.194790198337
504135500 0.547315807169 -0.1953629481
504146000 0.547739823891 -0.194316866168
504156500 0.547506883547 -0.193904662582
504167000 0.54771416133 -0.194210774801
504177500 0.547594343451 -0.194532307818
504188000 0.547113097588 -0.194459474376
504198500 0.547818651169 -0.194483395806
504209000 0.547565181896 -0.194742598952
504219500 0.547390781866 -0.194504321036
504230000 0.547838090262 -0.194389533019
504240500 0.547586468619 -0.193911800255
504251000 0.547809577046 -0.193829514111
504261500 0.547382509009 -0.194221914418
504272000 0.54800238489 -0.194143020866
504282500 0.547731970869 -0.194637444314
504293000 0.547331538677 -0.19428765223
504303500 0.547288540938 -0.19418884199
504314000 0.547514561442 -0.194550113017
504324500 0.547748117685 -0.19434801712
504335000 0.547269088797 -0.193942841961
504345500 0.547643156249 -0.194213040033
504356000 0.547870160493 -0.19380175773
504366500 0.548028424862 -0.193239010617
504377000 0.548113957044 -0.193461312002
504387500 0.547632233532 -0.194184180218
504398000 0.548011291353 -0.194177434704
504408500 0.54788219296 -0.193814196936
504419000 0.548479972088 -0.193608495707
504429500 0.548181180143 -0.193912885824
504440000 0.547771123467 -0.193920345028
504450500 0.548407113434 -0.193621518876
504461000 0.54827315012 -0.193418964666
504471500 0.548373950208 -0.193537274649
504482000 0.54847975862 -0.193712187856
504492500 0.547614580735 -0.193879887566
504503000 0.546685671413 -0.19367813794
504513500 0.546423968262 -0.194457997734
504524000 0.547999042036 -0.19401927487
504534500 0.548351665506 -0.193603516539
504545000 0.548732101039 -0.193678543917
504555500 0.548760961144 -0.193972940075
504566000 0.548165115971 -0.193780282824
504576500 0.548416198503 -0.193878097799
504587000 0.548709565062 -0.193505452156
504597500 0.548198386674 -0.193427731112
504608000 0.549078305284 -0.193573232182
504618500 0.548722531428 -0.193174887358
504629000 0.549266416708 -0.19314974098
504639500 0.548521985574 -0.192959769939
504650000 0.548501759006 -0.193540834414
504660500 0.549670498875 -0.194771363718
504671000 0.549862850318 -0.19403291794
504681500 0.55034653541 -0.194069688463
504692000 0.549906928478 -0.194183349045
504702500 0.549242232714 -0.19379019849
504713000 0.54932515577 -0.193853577038
504723500 0.549552435705 -0.193762140607
504734000 0.549127188431 -0.193938496766
504744500 0.549523590179 -0.194036831954
504755000 0.550020223364 -0.194603695453
504765500 0.549500865002 -0.194455641839
504776000 0.549305676565 -0.194436244098
504786500 0.5491956718 -0.19462417465
504797000 0.549056557919 -0.194087993279
504807500 0.549819245626 -0.19394173914
504818000 0.54988568718 -0.193924040628
504828500 0.549987086802 -0.193909414008
504839000 0.549975892698 -0.194108069294
504849500 0.54965195722 -0.193827551278
504860000 0.549897501412 -0.193944151188
504870500 0.54966075948 -0.194093155634
504881000 0.549661112914 -0.195137495012
504891500 0.54972786194 -0.194532970786
504902000 0.55026734929 -0.194088437816
504912500 0.5499881024 -0.194024702054
504923000 0.549934994776 -0.193962586494
504933500 0.550080284203 -0.194161124627
504944000 0.55022469603 -0.193841025893
504954500 0.550232762873 -0.194422889176
504965000 0.550145346099 -0.194251313085
504975500 0.549882233671 -0.194497129832
504986000 0.549605160784 -0.194108400039
504996500 0.549598611158 -0.194412300084
505007000 0.549741316595 -0.194279839659
505017500 0.549999929638 -0.193956091741
505028000 0.550156504352 -0.193968387596
505038500 0.550050713332 -0.193978889812
505049000 0.550206301117 -0.19393287504
505059500 0.55025289451 -0.19358094479
505070000 0.550151210624 -0.193076098357
505080500 0.550130979566 -0.192763838403
505091000 0.550025597634 -0.194255400544
505101500 0.550351597268 -0.193323325335
505112000 0.550110058897 -0.193529223983
505122500 0.550118522966 -0.194037371776
505133000 0.55008194964 -0.194132689951
505143500 0.549790135524 -0.194182540923
505154000 0.550047261135 -0.19398571818
505164500 0.547062701999 -0.194892083025
505175000 0.550020200657 -0.194000202278
505185500 0.550553102633 -0.193775948075
505196000 0.550227797141 -0.193715171427
505206500 0.550693749312 -0.193906601076
505217000 0.550517655713 -0.19408730972
505227500 0.550236517898 -0.194243414778
505238000 0.550001273483 -0.193700268465
505248500 0.550377661451 -0.193880246177
505259000 0.550295470832 -0.194259755611
505269500 0.550157898574 -0.193710480679
505280000 0.550296547374 -0.193867689835
505290500 0.550344861379 -0.193928187358
505301000 0.55039707036 -0.193888423681
505311500 0.550828499279 -0.193631495435
505322000 0.550865011651 -0.193666722918
505332500 0.550651809161 -0.193493644722
505343000 0.550833021642 -0.193855219467
505353500 0.550450512525 -0.193290754628
505364000 0.55061470133 -0.19341529749
505374500 0.550492135726 -0.193958995002
505385000 0.550869548485 -0.193405432615
505395500 0.550861808419 -0.194328860817
505406000 0.550662982811 -0.193839808046
505416500 0.551047411067 -0.193302133849
505427000 0.550849305117 -0.193907686619
505437500 0.551113031118 -0.193558331642
505448000 0.550884754909 -0.193578776422
505458500 0.55163305959 -0.193840541878
505469000 0.551255467311 -0.193255034756
505479500 0.550330718707 -0.193259297519
505490000 0.550457273911 -0.193303553023
505500500 0.550667436835 -0.193109744181
505511000 0.550952729651 -0.193193543971
505521500 0.550502282403 -0.193491235252
505532000 0.54973090511 -0.193224376479
505542500 0.550148890582 -0.192714254633
505553000 0.54952139482 -0.193678031812
505563500 0.549663290957 -0.192654393999
505574000 0.550234410727 -0.193303124415
505584500 0.550323732041 -0.1936446217
505595000 0.550454292158 -0.193418874547
505605500 0.550197917796 -0.193689222692
505616000 0.550631852936 -0.193595470459
505626500 0.550956604433 -0.193282892408
505637000 0.550727817406 -0.19369254942
505647500 0.55076163251 -0.193611979742
505658000 0.550399290229 -0.194116326065
505668500 0.550694889476 -0.194058379482
505679000 0.550709956818 -0.194041602141
505689500 0.550935667603 -0.193573302529
505700000 0.551124294299 -0.193425480242
505710500 0.550938375863 -0.19427393227
505721000 0.550585073072 -0.194241843122
505731500 0.550992007608 -0.194236238581
505742000 0.55134125776 -0.194344957336
505752500 0.550737872147 -0.194122235717
505763000 0.550468942197 -0.194406696183
505773500 0.550470460158 -0.194094836737
505784000 0.550968889086 -0.194615661491
505794500 0.550617179604 -0.194954460576
505805000 0.550759554742 -0.194130139976
505815500 0.550922285497 -0.194727018166
505826000 0.550885822016 -0.193981010034
505836500 0.550293962608 -0.194149295209
505847000 0.55076591466 -0.194175536215
505857500 0.550697933983 -0.194492357838
505868000 0.551170477049 -0.193865182474
505878500 0.551090890322 -0.194178821732
505889000 0.550139647678 -0.193928673593
505899500 0.551142406141 -0.194081170527
505910000 0.55109300408 -0.194417350556
505920500 0.55101309083 -0.194582172783
505931000 0.550436480068 -0.194131001791
505941500 0.55070568592 -0.193648604675
505952000 0.550636246262 -0.193063592834
505962500 0.550462725783 -0.193200800493
505973000 0.550428857896 -0.192813147824
505983500 0.550515651961 -0.193165493298
505994000 0.550230896921 -0.193859391388
506004500 0.55034722515 -0.193873678628
506015000 0.55038432006 -0.194231784952
506025500 0.55064139845 -0.194327235363
506036000 0.550722283896 -0.194217795601
506046500 0.550313284236 -0.194430512154
506057000 0.550284506454 -0.19415332175
506067500 0.550315115017 -0.193817622209
506078000 0.550725462204 -0.193904290816
506088500 0.550982846286 -0.19336263065
506099000 0.550443780664 -0.193566005323
506109500 0.550391392049 -0.194038339851
506120000 0.549805867259 -0.193808377681
506130500 0.550478448693 -0.194097421941
506141000 0.550193726265 -0.194149645494
506151500 0.550014162537 -0.194163948081
506162000 0.550489531256 -0.193948948289
506172500 0.550210348252 -0.193995878494
506183000 0.55029166981 -0.193524052802
506193500 0.549965447572 -0.193602599983
506204000 0.550153489553 -0.193781808457
506214500 0.55027330388 -0.193570346288
506225000 0.550542032302 -0.193406341591
506235500 0.550244372516 -0.193654485006
506246000 0.550136452112 -0.193507811101
506256500 0.55009649605 -0.193687281954
506267000 0.550165368203 -0.193862736946
506277500 0.549354023182 -0.19303491536
506288000 0.548896523209 -0.193533402279
506298500 0.549156027893 -0.193702097573
506309000 0.549215923132 -0.193521583452
506319500 0.549289290421 -0.19383478661
506330000 0.549334971561 -0.193525507642
506340500 0.549070570337 -0.193596186299
506351000 0.549680614484 -0.193382610132
506361500 0.549416830588 -0.193615861439
506372000 0.549583514482 -0.19425588385
506382500 0.548936942666 -0.193695717605
506393000 0.548905692791 -0.193609359538
506403500 0.548545764072 -0.193325683794
506414000 0.547817482486 -0.193388779817
506424500 0.548716031148 -0.193104227143
506435000 0.548367524429 -0.192710838267
506445500 0.546652678233 -0.194128830132
506456000 0.548421219122 -0.192642158906
506466500 0.548578219555 -0.192293584856
506477000 0.548726604991 -0.192251436098
506487500 0.548535440191 -0.192860918619
506498000 0.548177666209 -0.192575296402
506508500 0.548344045998 -0.192490554437
506519000 0.547933716455 -0.192079726397
506529500 0.548884138774 -0.192585003253
506540000 0.547911608967 -0.192828744925
506550500 0.548122767941 -0.193152595907
506561000 0.549031765267 -0.193126627499
506571500 0.548734702872 -0.192826746382
506582000 0.548395125076 -0.193099135919
506592500 0.548248476058 -0.192500243978
506603000 0.547899936017 -0.192596577749
506613500 0.547645045378 -0.192642081202
506624000 0.548269410501 -0.191954354514
506634500 0.54761538119 -0.192306070624
506645000 0.548280949046 -0.192537539556
506655500 0.547856916011 -0.191577554049
506666000 0.547592036595 -0.191964629056
506676500 0.547914780085 -0.191357953879
506687000 0.547696183893 -0.191623487394
506697500 0.548107401652 -0.191427122071
506708000 0.548650432049 -0.191840385328
506718500 0.547834690644 -0.190972183987
506729000 0.548769558931 -0.191411369118
506739500 0.54866379018 -0.191714617004
506750000 0.548246963014 -0.191447110189
506760500 0.552643606273 -0.192816208515
506771000 0.552214175067 -0.192984845364
506781500 0.552680265047 -0.193350736307
506792000 0.553386965309 -0.193170045536
506802500 0.55266193372 -0.193071971773
506813000 0.553001382026 -0.192944605558
506823500 0.552848978778 -0.193011295054
506834000 0.5515475039 -0.192744309606
506844500 0.552577689592 -0.192742403736
506855000 0.552861939052 -0.192505141662
506865500 0.553517946022 -0.193451931533
506876000 0.552868046144 -0.193044772234
506886500 0.553132215583 -0.193102489117
506897000 0.552459177948 -0.193260458808
506907500 0.552856454577 -0.192964026112
506918000 0.55295312792 -0.193090443718
506928500 0.552945517326 -0.193330568624
506939000 0.552781493637 -0.19341144885
506949500 0.552971421479 -0.193331573527
506960000 0.553072806045 -0.193312309626
506970500 0.553349325842 -0.193401146253
506981000 0.55222792322 -0.193984450993
506991500 0.553133127913 -0.193204845279
507002000 0.55296702423 -0.193341021945
507012500 0.553412777216 -0.192879572997
507023000 0.553048926728 -0.19255282471
507033500 0.553031197131 -0.193038359454
507044000 0.553244314442 -0.19364614944
507054500 0.554000928144 -0.193491115538
507065000 0.553880552079 -0.19369771846
507075500 0.553863268477 -0.192953029202
507086000 0.554708036262 -0.192813274582
507096500 0.554602582083 -0.191825254936
507107000 0.553435104038 -0.192449870752
507117500 0.55399795378 -0.192630386714
507128000 0.553445672725 -0.192948206658
507138500 0.552500829073 -0.193253884952
507149000 0.553999767257 -0.19274205563
507159500 0.553823136751 -0.194235977655
507170000 0.551188951585 -0.192684612098
507180500 0.554699301334 -0.192844784505
507191000 0.553524084632 -0.193259245624
507201500 0.554750454213 -0.193587600589
507212000 0.556165776198 -0.193443867736
507222500 0.554190157902 -0.194369094611
507233000 0.555375925159 -0.192054766412
507243500 0.553001324144 -0.195811797078
507254000 0.553443794766 -0.192181455145
507264500 0.554236188817 -0.192551633826
507275000 0.553486467198 -0.194359703561
507285500 0.553733151605 -0.192599308778
507296000 0.553967844507 -0.192309095937
507306500 0.557335138214 -0.191979281164
507317000 0.553492791554 -0.192318659327
507327500 0.553721415188 -0.191924610312
507338000 0.552614504255 -0.197428630337
507348500 0.554574704809 -0.190931055651
507359000 0.551006341612 -0.194948689777
507369500 0.556989659437 -0.194732660714
507380000 0.554328798338 -0.191387572977
507390500 0.555019040046 -0.193975483801
507401000 0.554340211277 -0.19059158429
507411500 0.555117258569 -0.194212307793
507422000 0.555668255867 -0.19524366523
507432500 0.555113290446 -0.191194096047
507443000 0.554392811448 -0.192502648416
507453500 0.550539135449 -0.191203741179
507464000 0.5574978861 -0.19359455585
507474500 0.552178536704 -0.191278654251
507485000 0.550258013579 -0.190882099324
507495500 0.555314525006 -0.190569788053
507506000 0.555663768521 -0.193277315759
507516500 0.556019881551 -0.191300725206
507527000 0.555526245321 -0.195549103887
507537500 0.553635039731 -0.187022656778
507548000 0.553228491352 -0.192387250195
507558500 0.556135625311 -0.192451945418
507569000 0.554147770742 -0.192048998938
507579500 0.553614330004 -0.195201306126
507590000 0.557065045619 -0.191690881399
507600500 0.554894617988 -0.193976940354
507611000 0.555722680633 -0.19461238948
507621500 0.557666785944 -0.194824127409
507632000 0.557122994647 -0.190549924447
507642500 0.553481501835 -0.194474849404
507653000 0.555370798105 -0.189333598553
507663500 0.554202179105 -0.193278998181
507674000 0.554644280185 -0.191902385324
507684500 0.556020078823 -0.191061641498
507695000 0.554309590992 -0.193967368208
507705500 0.553646198103 -0.19212696054
507716000 0.555806630192 -0.190617294727
507726500 0.559879892759 -0.190552539726
507737000 0.554043448639 -0.191493020815
507747500 0.555963863327 -0.192961728489
507758000 0.555820556987 -0.193059048801
507768500 0.554323074217 -0.192184348508
507779000 0.555173191529 -0.191006450503
507789500 0.555132397232 -0.191623754495
507800000 0.556060023453 -0.192440410492
507810500 0.557214401036 -0.190572327964
507821000 0.557308426548 -0.190633586269
507831500 0.55727449361 -0.192715775776
507842000 0.557267099587 -0.191143473235
507852500 0.558521882278 -0.189039165877
507863000 0.558185292678 -0.191321334785
507873500 0.557045904097 -0.190533700018
507884000 0.556664177619 -0.190579519923
507894500 0.557239965694 -0.190451662166
507905000 0.556762427858 -0.191346504805
507915500 0.557271695729 -0.191368496605
507926000 0.55735319491 -0.19110101414
507936500 0.557189653426 -0.190919887735
507947000 0.556972877178 -0.191291835283
507957500 0.556914136272 -0.190244730468
507968000 0.55727767532 -0.190551646987
507978500 0.557462903571 -0.190777660266
507989000 0.557408241009 -0.190610087985
507999500 0.557028964032 -0.19083487938
508010000 0.557491370583 -0.190246972843
508020500 0.556604969325 -0.189608735628
508031000 0.556488097913 -0.189797344653
508041500 0.556907245475 -0.190144206717
508052000 0.557430517407 -0.189519502423
508062500 0.557697350935 -0.190718637416
508073000 0.557810823349 -0.189525425656
508083500 0.557736697835 -0.189954786262
508094000 0.557399220295 -0.190039133322
508104500 0.556780052961 -0.190029238653
508115000 0.557847615803 -0.189816269623
508125500 0.557864350506 -0.189521399639
508136000 0.557916093546 -0.190298440135
508146500 0.558032716126 -0.190681092827
508157000 0.557092734228 -0.190346345635
508167500 0.558223210503 -0.189763273074
508178000 0.557358525979 -0.190193247676
508188500 0.557707079309 -0.190033721434
508199000 0.558007682647 -0.190215931782
508209500 0.558416764135 -0.189455728128
508220000 0.558977554183 -0.189805739041
508230500 0.558651034502 -0.18898238797
508241000 0.558438072128 -0.188881979913
508251500 0.557604190161 -0.189805687937
508262000 0.558556981436 -0.189126325977
508272500 0.558062095935 -0.191304753511
508283000 0.557503630855 -0.190424678425
508293500 0.55831559116 -0.190816106054
508304000 0.557694988726 -0.191021248852
508314500 0.556762774482 -0.189500591552
508325000 0.557630714623 -0.189977535696
508335500 0.557526239375 -0.18985708564
508346000 0.558671367522 -0.190266259104
508356500 0.558988473926 -0.189784066786
508367000 0.558114013648 -0.189950257388
508377500 0.558876590919 -0.189675819489
508388000 0.559043102205 -0.190660211178
508398500 0.558607764332 -0.189989364644
508409000 0.557905289095 -0.189294781916
508419500 0.55863470055 -0.189392418982
508430000 0.559054000344 -0.18964003546
508440500 0.558699702401 -0.190093269932
508451000 0.558808152092 -0.189598807814
508461500 0.558943775066 -0.189544554726
508472000 0.558440117834 -0.189553846814
508482500 0.559127829849 -0.189576701717
508493000 0.559123750516 -0.188774084648
508503500 0.559163810422 -0.189664605584
508514000 0.558453916821 -0.189084859979
508524500 0.558371788661 -0.189793804096
508535000 0.559708149855 -0.190178574552
508545500 0.558369345217 -0.189880325319
508556000 0.558842260439 -0.189835107787
508566500 0.558956976812 -0.189886823078
508577000 0.559063762068 -0.18999796751
508587500 0.558907888291 -0.189344164439
508598000 0.559066929518 -0.189585755129
508608500 0.559287761806 -0.189601499635
508619000 0.558899007082 -0.188995324016
508629500 0.559298522766 -0.189455810898
508640000 0.559180130175 -0.189467763808
508650500 0.558917230715 -0.189448797813
508661000 0.559160749015 -0.189163926975
508671500 0.559179170136 -0.189527366012
508682000 0.558780348037 -0.189771508287
508692500 0.559134736345 -0.189271917834
508703000 0.558993085013 -0.18927400706
508713500 0.559001284069 -0.189420960081
508724000 0.559756468592 -0.189260793709
508734500 0.559541605417 -0.188807407843
508745000 0.55931177171 -0.189181158236
508755500 0.559623109867 -0.189577887556
508766000 0.559448657918 -0.189603149493
508776500 0.559605001848 -0.189566230074
508787000 0.559476674328 -0.189284592741
508797500 0.559256791779 -0.188956665431
508808000 0.559105192861 -0.189348842196
508818500 0.558909440532 -0.189578302728
508829000 0.558924276482 -0.189143491428
508839500 0.559110488149 -0.188522882863
508850000 0.55938181796 -0.188294826009
508860500 0.560131101047 -0.188436528117
508871000 0.559887592642 -0.18913822318
508881500 0.560602529217 -0.189260059677
508892000 0.559570058161 -0.189491570726
508902500 0.560150865795 -0.189146695439
508913000 0.5598028987 -0.189212666543
508923500 0.559428055531 -0.189249902618
508934000 0.559860659805 -0.188946609042
508944500 0.559876756102 -0.188684533573
508955000 0.560354393525 -0.188777504262
508965500 0.559948576623 -0.188776326378
508976000 0.560043850587 -0.188859521819
508986500 0.559341568128 -0.1886479854
508997000 0.559487910319 -0.188559445023
509007500 0.560100424084 -0.18869082045
509018000 0.56040058192 -0.18877094528
509028500 0.560000809348 -0.188645581271
509039000 0.560252867442 -0.18882895503
509049500 0.559809070467 -0.18868777041
509060000 0.560214658876 -0.188689030301
509070500 0.559749683031 -0.18860191374
509081000 0.559827508451 -0.1882941631
509091500 0.559836599918 -0.188912230226
509102000 0.56028426884 -0.189035849003
509112500 0.560035667172 -0.189561494592
509123000 0.559982935135 -0.188790245383
509133500 0.560170017367 -0.188603758697
509144000 0.557031209675 -0.188001260861
509154500 0.559750611116 -0.189790876294
509165000 0.55441920881 -0.188616946354
509175500 0.559329733278 -0.190824145924
509186000 0.560094032015 -0.189881612996
509196500 0.56080808366 -0.189165516292
509207000 0.56066867643 -0.189282394158
509217500 0.561287032764 -0.189219558486
509228000 0.56090739432 -0.189071249746
509238500 0.560574934752 -0.188590565457
509249000 0.560560161762 -0.189261876301
509259500 0.560290525331 -0.189139811981
509270000 0.561066813492 -0.188867402154
509280500 0.560779568027 -0.189158762654
509291000 0.560176159792 -0.189067193139
509301500 0.5608171212 -0.189348056698
509312000 0.560778238562 -0.189794134098
509322500 0.561103922137 -0.189295551678
509333000 0.56114196332 -0.189170119002
509343500 0.560855495593 -0.188817184933
509354000 0.560863635854 -0.188980525579
509364500 0.560996784603 -0.189397305182
509375000 0.560401394722 -0.18918377762
509385500 0.560816354366 -0.189044666765
509396000 0.560939868546 -0.189161359637
509406500 0.561106672488 -0.188831529177
509417000 0.56084422056 -0.189032656969
509427500 0.560838467946 -0.188890826545
509438000 0.560644788374 -0.188882339916
509448500 0.561269891517 -0.189246679827
509459000 0.561348435362 -0.189039912698
509469500 0.560911198432 -0.188963612731
509480000 0.561298787846 -0.18848120114
509490500 0.561244785677 -0.18844823687
509501000 0.561366534408 -0.188612306635
509511500 0.561199310346 -0.188735414874
509522000 0.561238238683 -0.188746807208
509532500 0.561042781604 -0.188680198094
509543000 0.561237245052 -0.188598901011
509553500 0.561192042269 -0.188520383072
509564000 0.561281212549 -0.188764162295
509574500 0.561444485376 -0.188531172956
509585000 0.561139228892 -0.18812215066
509595500 0.560565238638 -0.187889258362
509606000 0.561552530956 -0.188143953235
509616500 0.561020361018 -0.188551951273
509627000 0.562033523459 -0.188979321897
509637500 0.56143007772 -0.188853642359
509648000 0.561720462779 -0.188226558036
509658500 0.561109166195 -0.188632272654
509669000 0.561419504317 -0.188604122562
509679500 0.561626278698 -0.188674415763
509690000 0.561268164327 -0.188964523883
509700500 0.561225094363 -0.189135449798
509711000 0.561619035488 -0.188985004308
509721500 0.561383157674 -0.189018272037
509732000 0.561592340677 -0.188473510805
509742500 0.561308360662 -0.18919661268
509753000 0.561819134037 -0.18833450076
509763500 0.561706368803 -0.188671333845
509774000 0.561515096694 -0.188905721719
509784500 0.561850825703 -0.188406567616
509795000 0.562064791809 -0.188593078392
509805500 0.562155977335 -0.188672428567
509816000 0.562063878514 -0.188536837784
509826500 0.562186410269 -0.188927584562
509837000 0.562429840172 -0.188579884262
509847500 0.563009320753 -0.18836818346
509858000 0.563355650221 -0.188630473217
509868500 0.56285265469 -0.188862130362
509879000 0.562520381446 -0.188424564185
509889500 0.562430558654 -0.188429874508
509900000 0.562482992782 -0.188863551566
509910500 0.561195457327 -0.188350484286
509921000 0.561524655067 -0.188389897915
509931500 0.561536038016 -0.188042208931
509942000 0.56148466258 -0.187786410301
509952500 0.561463640039 -0.188228263701
509963000 0.561898003448 -0.188381577318
509973500 0.561232849859 -0.188415124674
509984000 0.561488283494 -0.188388550903
509994500 0.561544117777 -0.188757817502
510005000 0.561108796296 -0.1883190684
510015500 0.561016482794 -0.188419100633
510026000 0.561130217261 -0.188406785342
510036500 0.561622036106 -0.188237832521
510047000 0.561383208154 -0.187690933348
510057500 0.561520840589 -0.187850090055
510068000 0.561350752919 -0.187644401289
510078500 0.561622634464 -0.187685924717
510089000 0.561474006364 -0.187947782728
510099500 0.561249238866 -0.188171138714
510110000 0.561401744972 -0.187952151473
510120500 0.561791531728 -0.188256208316
510131000 0.561272043711 -0.188052593111
510141500 0.562149032311 -0.187916448251
510152000 0.560645068443 -0.188381542908
510162500 0.561643251418 -0.187992562968
510173000 0.561605394201 -0.188619196311
510183500 0.561468856363 -0.18841668489
510194000 0.561632223115 -0.188257257615
510204500 0.561813537076 -0.188287025268
510215000 0.562000312648 -0.188409491138
510225500 0.561604842784 -0.188328691241
510236000 0.561420693994 -0.188676126254
510246500 0.561874740128 -0.188238835852
510257000 0.562467804956 -0.188431934408
510267500 0.562262570663 -0.188116438077
510278000 0.562040597831 -0.187947668661
510288500 0.562420372123 -0.187926102193
510299000 0.562087352615 -0.187847621925
510309500 0.562023962245 -0.187568939673
510320000 0.561896998053 -0.187338148567
510330500 0.561834503762 -0.187287830614
510341000 0.561949748988 -0.187527511305
510351500 0.561832026191 -0.18772687949
510362000 0.561920035358 -0.187785563632
510372500 0.561542200264 -0.187665597953
510383000 0.561934800063 -0.187874041092
510393500 0.562031337957 -0.188568595764
510404000 0.562230223902 -0.188422011658
510414500 0.561961375929 -0.188617099679
510425000 0.561492137592 -0.188210022069
510435500 0.561732988631 -0.188394470958
510446000 0.561728926355 -0.188069948508
510456500 0.561546698215 -0.187673899968
510467000 0.562069726386 -0.187726717201
510477500 0.562465641114 -0.187533096852
510488000 0.562910878088 -0.187751468516
510498500 0.562117870812 -0.187955498969
510509000 0.562233138689 -0.187981565664
510519500 0.562508548316 -0.187795575396
510530000 0.562365526758 -0.18804793481
510540500 0.561996193909 -0.188086785547
510551000 0.562343423425 -0.188059265153
510561500 0.562587939711 -0.188374945254
510572000 0.562689700929 -0.188359846252
510582500 0.562330980529 -0.188247222781
510593000 0.562173133067 -0.187907062831
510603500 0.562211816789 -0.188421830464
510614000 0.562430819834 -0.188023305126
510624500 0.562659956025 -0.188150710212
510635000 0.562538860132 -0.187962604978
510645500 0.562953030296 -0.188298336778
510656000 0.562678308127 -0.188179671109
510666500 0.562262915735 -0.188058928166
510677000 0.563063235376 -0.187797304879
510687500 0.562283265882 -0.187776760508
510698000 0.562761079732 -0.187445100647
510708500 0.562858075002 -0.187909852092
510719000 0.562919264926 -0.187902829105
510729500 0.563239535749 -0.187441564096
510740000 0.563152804503 -0.187740380525
510750500 0.563238388415 -0.187795321651
510761000 0.562935245264 -0.187567698708
510771500 0.563477642689 -0.188240508654
510782000 0.563345508145 -0.188313946874
510792500 0.563251128759 -0.187703669034
510803000 0.562883338171 -0.186406901792
510813500 0.562931182204 -0.187532708338
510824000 0.563355180944 -0.187370673129
510834500 0.563754642274 -0.188101735215
510845000 0.563324807759 -0.187409360672
510855500 0.563118998586 -0.187375532202
510866000 0.562484300241 -0.187633648707
510876500 0.562856364945 -0.187678434298
510887000 0.563045776119 -0.187415571203
510897500 0.562807320988 -0.187314064152
510908000 0.562921366894 -0.187441773835
510918500 0.562902740925 -0.187354034511
510929000 0.563045215463 -0.187569721633
510939500 0.563259203156 -0.187114373635
510950000 0.563392461212 -0.187784384916
510960500 0.562997292971 -0.187614669071
510971000 0.56285635294 -0.188358717978
510981500 0.562808409654 -0.188362824035
510992000 0.562902067439 -0.188642939177
511002500 0.562639129684 -0.188348513651
511013000 0.562637256044 -0.187931069814
511023500 0.563168875302 -0.18825826062
511034000 0.563053363216 -0.187955997292
511044500 0.563263683079 -0.187923944118
511055000 0.563424798934 -0.188036997321
511065500 0.56370584858 -0.187993833671
511076000 0.563230508779 -0.188529299334
511086500 0.563365597973 -0.188429600578
511097000 0.563189681287 -0.188514998495
511107500 0.562285458456 -0.188338567634
511118000 0.563304322132 -0.188798916574
511128500 0.562998402462 -0.188604559702
511139000 0.563338766086 -0.188391012611
511149500 0.56303638095 -0.188439186621
511160000 0.563466785311 -0.188662049061
511170500 0.563558189319 -0.18893595742
511181000 0.563895461813 -0.188617024704
511191500 0.562785412415 -0.189358718624
511202000 0.561869439856 -0.190067834709
511212500 0.562050392612 -0.190389061427
511223000 0.56281970438 -0.189333096001
511233500 0.563326937714 -0.188585415222
511244000 0.563201296602 -0.188022183786
511254500 0.563600548347 -0.188448805105
511265000 0.56391448644 -0.188381293438
511275500 0.563359403956 -0.18827267882
511286000 0.563120745187 -0.188530305046
511296500 0.562812433736 -0.188382624288
511307000 0.56316896117 -0.188144977729
511317500 0.563577388856 -0.188001056244
511328000 0.56349696524 -0.187828535813
511338500 0.563874199011 -0.188094409544
511349000 0.563480282313 -0.188746815818
511359500 0.563014040876 -0.188460350471
511370000 0.563335376638 -0.188508284025
511380500 0.563548042087 -0.188957109714
511391000 0.563546392582 -0.188318975994
511401500 0.563790187878 -0.187758712089
511412000 0.563799816329 -0.187457737479
511422500 0.563797771726 -0.188123761167
511433000 0.564298970406 -0.188708395534
511443500 0.56441330595 -0.1883204772
511454000 0.56316602364 -0.188082113555
511464500 0.562760742041 -0.187494772575
511475000 0.563768397505 -0.186608532796
511485500 0.563810130186 -0.188496752972
511496000 0.563537956986 -0.188018786986
511506500 0.563738532214 -0.188324053721
511517000 0.564423507223 -0.187592109181
511527500 0.563777448484 -0.188554110476
511538000 0.564509507928 -0.187827679062
511548500 0.565263541352 -0.188543185874
511559000 0.56374025177 -0.187274110081
511569500 0.563742554912 -0.187805113839
511580000 0.563888689115 -0.187475473369
511590500 0.5649454039 -0.188034962766
511601000 0.562593577078 -0.188798280713
511611500 0.564779564046 -0.188057541655
511622000 0.5649653316 -0.188779664252
511632500 0.563731499675 -0.188253311497
511643000 0.564701830452 -0.189889572745
511653500 0.563973069384 -0.188670535125
511664000 0.564328891625 -0.187143081421
511674500 0.564146552621 -0.188003251752
511685000 0.563229536023 -0.187970979794
511695500 0.563817941935 -0.187992426219
511706000 0.564267132312 -0.188437490335
511716500 0.565145302191 -0.188575647691
511727000 0.565563319549 -0.188086825936
511737500 0.565110770605 -0.18851218739
511748000 0.565088916367 -0.187194861897
511758500 0.564979496002 -0.188848724423
511769000 0.563699299904 -0.187530090114
511779500 0.564554560065 -0.187296556732
511790000 0.564986746865 -0.187673698574
511800500 0.563496243673 -0.188157839426
511811000 0.564339634635 -0.188061150986
511821500 0.56489690574 -0.189223947033
511832000 0.564275123696 -0.189172070794
511842500 0.565078378259 -0.188592779574
511853000 0.56414088628 -0.188162046742
511863500 0.563160784224 -0.18801213829
511874000 0.564305488038 -0.18817866451
511884500 0.563919277347 -0.188390418615
511895000 0.564764355296 -0.188042165675
511905500 0.564360084433 -0.187861092521
511916000 0.563890434011 -0.187806158531
511926500 0.564279334213 -0.1879686427
511937000 0.563868373486 -0.187805859868
511947500 0.565183536585 -0.188153701083
511958000 0.564714543037 -0.188282677976
511968500 0.566462226844 -0.189481201488
511979000 0.565481048869 -0.188680985962
511989500 0.565011446425 -0.187876808505
512000000 0.565364543759 -0.188216290248
