! Calibrated averaged scanner-service zoom
# Hz S RI R 50
769000000 0.653665254328 -0.432953673912
769006000 0.653326775899 -0.433845006049
769012000 0.654077706569 -0.433628558141
769018000 0.654092685115 -0.434075584592
769024000 0.654362582389 -0.433134679628
769030000 0.65370144975 -0.432068918361
769036000 0.654484825316 -0.432496559205
769042000 0.653557608635 -0.433616873401
769048000 0.653671669199 -0.433448612127
769054000 0.653242257038 -0.433052447633
769060000 0.653331593773 -0.432937431586
769066000 0.653246369971 -0.433436532841
769072000 0.653101421999 -0.433388978186
769078000 0.653091006286 -0.433563053162
769084000 0.653263173372 -0.433072492255
769090000 0.653152639413 -0.433117581651
769096000 0.652994032484 -0.433555268711
769102000 0.653615503838 -0.433521903245
769108000 0.653268374129 -0.432950758015
769114000 0.653665697785 -0.434311771728
769120000 0.654457374994 -0.434239379174
769126000 0.653931287575 -0.433797674259
769132000 0.653663291673 -0.433622516822
769138000 0.653832587818 -0.433625939893
769144000 0.653814082754 -0.438452780847
769150000 0.653890178164 -0.432093323788
769156000 0.653809797299 -0.431437531176
769162000 0.654284242465 -0.431020315986
769168000 0.653673468548 -0.434055135489
769174000 0.653513168694 -0.433758060762
769180000 0.654254712158 -0.434565236364
769186000 0.653631122413 -0.433731102461
769192000 0.652946482129 -0.433132955852
769198000 0.65318535983 -0.433184620225
769204000 0.653416194314 -0.432646459411
769210000 0.653696700238 -0.432961311894
769216000 0.652712059872 -0.432139034441
769222000 0.653703099805 -0.432405586826
769228000 0.653107389017 -0.432925037
769234000 0.654361375896 -0.433164580344
769240000 0.653615349421 -0.43361903298
769246000 0.653971699574 -0.434261654068
769252000 0.653919625086 -0.434356000088
769258000 0.65449589548 -0.434024988699
769264000 0.654298675777 -0.433249531819
769270000 0.653223465308 -0.433326015558
769276000 0.654297304437 -0.433317237885
769282000 0.654679824636 -0.433409450475
769288000 0.654575494807 -0.434037434439
769294000 0.654304996021 -0.433711525081
769300000 0.653661373996 -0.432858549618
769306000 0.654470219217 -0.433631385281
769312000 0.654280059987 -0.4330645113
769318000 0.654828602436 -0.433871587658
769324000 0.654677219956 -0.434007462212
769330000 0.653329310827 -0.433916318154
769336000 0.653955894271 -0.43411961066
769342000 0.653136032231 -0.43451179473
769348000 0.653076683288 -0.433481137276
769354000 0.652753222113 -0.433982335399
769360000 0.653816705898 -0.433974393281
769366000 0.653677915894 -0.433629635428
769372000 0.653766451122 -0.433825229752
769378000 0.653512888259 -0.434480280519
769384000 0.653654723426 -0.432703397702
769390000 0.653574929478 -0.433553976398
769396000 0.653462967602 -0.433938436417
769402000 0.654784818932 -0.43452364535
769408000 0.653099888834 -0.434099306925
769414000 0.653671861478 -0.434017438745
769420000 0.654378888699 -0.433327498176
769426000 0.654316048129 -0.433604340186
769432000 0.654122569059 -0.433011492293
769438000 0.65454005822 -0.432661567713
769444000 0.654494213041 -0.43213730298
769450000 0.653717673005 -0.432503731098
769456000 0.653260290214 -0.433325064592
769462000 0.653891053971 -0.43332053506
769468000 0.652518441228 -0.433146953331
769474000 0.652986033164 -0.43368403436
769480000 0.653995153043 -0.433752941487
769486000 0.653529372953 -0.433667695281
769492000 0.654160621676 -0.433633857984
769498000 0.655071026066 -0.433411847821
769504000 0.65461478342 -0.433791175274
769510000 0.654589450163 -0.434245450714
769516000 0.654025366385 -0.43400744814
769522000 0.653770656381 -0.433768290878
769528000 0.653602870935 -0.434233779918
769534000 0.653933334038 -0.434390161534
769540000 0.653925797271 -0.43413012597
769546000 0.653564950852 -0.434131205728
769552000 0.653328534107 -0.434460391294
769558000 0.653416236394 -0.435097394931
769564000 0.653156875016 -0.434886122438
769570000 0.652719198452 -0.434420224035
769576000 0.653485492021 -0.43390961934
769582000 0.653274153963 -0.434530915132
769588000 0.653501591856 -0.434556109056
769594000 0.653764703688 -0.434978509751
769600000 0.654012903206 -0.435083378826
769606000 0.654597534057 -0.435235633907
769612000 0.655177900955 -0.435867204403
769618000 0.655065235408 -0.435854192646
769624000 0.654776845441 -0.435792225701
769630000 0.654510679551 -0.435900115491
769636000 0.654025836363 -0.435110384666
769642000 0.653866734774 -0.435251692274
769648000 0.654523009164 -0.43515716698
769654000 0.653979673443 -0.434754487703
769660000 0.654854369743 -0.435195574549
769666000 0.654094801201 -0.434439766572
769672000 0.654603778137 -0.434869678586
769678000 0.654052872539 -0.434580493698
769684000 0.653620443788 -0.43449608539
769690000 0.653738414133 -0.43380451425
769696000 0.653765922327 -0.434046436159
769702000 0.653666533497 -0.43449993603
769708000 0.653372510951 -0.434533403686
769714000 0.652662517631 -0.434751992148
769720000 0.65356565663 -0.434414399871
769726000 0.652811548051 -0.434665735225
769732000 0.65284066706 -0.434511397013
769738000 0.653483326465 -0.435211622569
769744000 0.653491276603 -0.435308174917
769750000 0.653695628791 -0.436046106426
769756000 0.653149445671 -0.436226495003
769762000 0.653726787741 -0.435312364665
769768000 0.653460845896 -0.435043278668
769774000 0.654619117395 -0.433424129274
769780000 0.65460947322 -0.435169997671
769786000 0.654613322855 -0.43477904778
769792000 0.654484562574 -0.435195033034
769798000 0.65404087801 -0.435000424313
769804000 0.654247916064 -0.435181922575
769810000 0.653616486906 -0.435276010604
769816000 0.654111895621 -0.43477429628
769822000 0.653873601648 -0.434381166708
769828000 0.653967143646 -0.435020548917
769834000 0.654308802252 -0.434169698436
769840000 0.653740913448 -0.434871143479
769846000 0.654018900571 -0.434556114864
769852000 0.653869581778 -0.434346979845
769858000 0.653525972399 -0.434967547799
769864000 0.653720958311 -0.434618622593
769870000 0.654079472453 -0.435174170024
769876000 0.654695583213 -0.434496289325
769882000 0.655134630942 -0.434752789266
769888000 0.653769182981 -0.435027272169
769894000 0.654373054934 -0.434621733815
769900000 0.655240358582 -0.434698325114
769906000 0.654521002182 -0.435368576785
769912000 0.653649956129 -0.435171234591
769918000 0.654490756393 -0.435893590754
769924000 0.653689201388 -0.435146981602
769930000 0.653459921076 -0.434859125443
769936000 0.653149593194 -0.435034733393
769942000 0.651119757238 -0.436130137774
769948000 0.653882207186 -0.435389540224
769954000 0.654073783423 -0.435022095623
769960000 0.654129638043 -0.435112002027
769966000 0.654259098069 -0.435676878668
769972000 0.654164115098 -0.436044365314
769978000 0.653793902135 -0.436052615958
769984000 0.654259070327 -0.436472435506
769990000 0.654115008507 -0.437028141893
769996000 0.654499456238 -0.436207513677
770002000 0.654183347126 -0.435647917826
770008000 0.65420342778 -0.435402902516
770014000 0.654734473662 -0.435103711365
770020000 0.654921331111 -0.435283431639
770026000 0.65472102419 -0.434450046495
770032000 0.654158779069 -0.435343574952
770038000 0.653572346622 -0.43532031301
770044000 0.6542292531 -0.434963465475
770050000 0.654013000907 -0.434846898258
770056000 0.653524282788 -0.434959818325
770062000 0.652580222452 -0.434966200613
770068000 0.653131918856 -0.435120049557
770074000 0.653314135788 -0.43488668735
770080000 0.652675545483 -0.435067408136
770086000 0.653265780466 -0.435394210345
770092000 0.653454056354 -0.434868860634
770098000 0.653922403436 -0.436886579006
770104000 0.653891504776 -0.435545731339
770110000 0.654284335344 -0.435650499968
770116000 0.653433918672 -0.435378108133
770122000 0.653873848739 -0.435954011878
770128000 0.653314076799 -0.435691790429
770134000 0.653737563669 -0.436058512659
770140000 0.653908433984 -0.435338306082
770146000 0.653381084178 -0.435316698211
770152000 0.654130209681 -0.435882121476
770158000 0.653560131809 -0.435887566601
770164000 0.653736108484 -0.435815507173
770170000 0.653552145813 -0.435733178547
770176000 0.653844563396 -0.435955325907
770182000 0.65406160238 -0.436356948635
770188000 0.653668259027 -0.436198838248
770194000 0.653629112148 -0.436579226486
770200000 0.654300044348 -0.43552792557
770206000 0.653759104717 -0.436538837953
770212000 0.654332417583 -0.436540800022
770218000 0.653475113634 -0.436128133099
770224000 0.654289221832 -0.436357732364
770230000 0.654162896597 -0.436588711826
770236000 0.654674026825 -0.436308751866
770242000 0.65403512512 -0.43570880718
770248000 0.654656191646 -0.436570821761
770254000 0.654332923947 -0.436539458837
770260000 0.654073242591 -0.436269783864
770266000 0.654363241137 -0.436760377974
770272000 0.65459962187 -0.436740086504
770278000 0.654384173555 -0.436458322838
770284000 0.654107586809 -0.436758441378
770290000 0.654514087072 -0.436289283228
770296000 0.653981994065 -0.436465260205
770302000 0.653195903905 -0.435796992678
770308000 0.653796118095 -0.43559022961
770314000 0.654192516143 -0.436011504308
770320000 0.654259609341 -0.436779195925
770326000 0.653556085599 -0.436557600159
770332000 0.654313681877 -0.435990974957
770338000 0.653857287468 -0.436192824882
770344000 0.653751972781 -0.43571011562
770350000 0.654015892436 -0.435700050842
770356000 0.653524523663 -0.435965944819
770362000 0.653617960631 -0.436118096613
770368000 0.65351211025 -0.436168838434
770374000 0.65329075118 -0.436221552628
770380000 0.653447021113 -0.435895959292
770386000 0.653248899785 -0.436060468759
770392000 0.653205475037 -0.436521050306
770398000 0.653887236695 -0.436193000223
770404000 0.653020068676 -0.436831957914
770410000 0.652806157008 -0.437133973791
770416000 0.652374466926 -0.437343360612
770422000 0.652799899015 -0.437249658488
770428000 0.652690826189 -0.436461542428
770434000 0.653274578057 -0.437495051287
770440000 0.653510843094 -0.436777597883
770446000 0.653388839588 -0.43715367175
770452000 0.653501748684 -0.436729746315
770458000 0.653842744711 -0.436682559369
770464000 0.653278950293 -0.436612066789
770470000 0.653721072637 -0.436440684147
770476000 0.653566606757 -0.435950988555
770482000 0.653431847279 -0.436525522727
770488000 0.653160259523 -0.436908687407
770494000 0.652915813449 -0.436368450279
770500000 0.652446578584 -0.436574059543
770506000 0.652365598762 -0.436364385911
770512000 0.652978839387 -0.436560974052
770518000 0.65372392914 -0.436314177102
770524000 0.653651369437 -0.43676053503
770530000 0.653359292285 -0.436666982512
770536000 0.653515883928 -0.436757240603
770542000 0.653583615675 -0.436258682513
770548000 0.65374375543 -0.43615477655
770554000 0.654003514287 -0.436557640514
770560000 0.653365673862 -0.436563405672
770566000 0.653019721147 -0.437015005308
770572000 0.654035843174 -0.437002617673
770578000 0.653674620757 -0.436733476454
770584000 0.653748462253 -0.437369976826
770590000 0.653703682335 -0.436794969016
770596000 0.653832556141 -0.437420140465
770602000 0.653134049274 -0.436576177348
770608000 0.653063530298 -0.436580608463
770614000 0.653042979931 -0.436272033149
770620000 0.653227454363 -0.436699851379
770626000 0.653231668058 -0.436715727184
770632000 0.653667075265 -0.436861157613
770638000 0.653740109413 -0.436220755775
770644000 0.653245188894 -0.436812733581
770650000 0.653803818343 -0.436592320839
770656000 0.653712775733 -0.436872695198
770662000 0.654027250487 -0.43729840859
770668000 0.654345269547 -0.437009318567
770674000 0.654104883278 -0.437817921905
770680000 0.653984141631 -0.437508759547
770686000 0.653788412487 -0.437676396587
770692000 0.653984658346 -0.437239307588
770698000 0.656104246649 -0.444180991541
770704000 0.653876318972 -0.437551520824
770710000 0.653041335294 -0.437401200526
770716000 0.652802668774 -0.43718099804
770722000 0.652966286494 -0.43685801125
770728000 0.653081986804 -0.436923412203
770734000 0.652669928936 -0.436901654151
770740000 0.652938242496 -0.436889154629
770746000 0.654070217683 -0.436895949253
770752000 0.65286068301 -0.436720367296
770758000 0.653676104855 -0.437423193061
770764000 0.654027029388 -0.437581243746
770770000 0.653346079314 -0.437167457983
770776000 0.65350978175 -0.436673042176
770782000 0.653181715477 -0.436984515573
770788000 0.652653492597 -0.436632159677
770794000 0.652804230281 -0.436708090639
770800000 0.652813548553 -0.436855125014
770806000 0.652517587934 -0.436747693895
770812000 0.653579576692 -0.437371303727
770818000 0.653380623223 -0.437759228952
770824000 0.653673541693 -0.437919884544
770830000 0.653507840964 -0.43757152745
770836000 0.653474346157 -0.438014485533
770842000 0.653625268145 -0.437989705522
770848000 0.652818763691 -0.437876831573
770854000 0.653318946067 -0.437797219309
770860000 0.653616641418 -0.437977449645
770866000 0.653505293793 -0.437839693108
770872000 0.652768068075 -0.437455785435
770878000 0.653599446446 -0.437190165631
770884000 0.65359037148 -0.437873892415
770890000 0.653207417839 -0.437978575847
770896000 0.653073373011 -0.43786773014
770902000 0.653050637838 -0.43736778846
770908000 0.6532161329 -0.438163805798
770914000 0.653134712782 -0.438029335253
770920000 0.652852442922 -0.438121468279
770926000 0.653166277924 -0.437425045783
770932000 0.653706116036 -0.43836650143
770938000 0.654015632754 -0.438329806051
770944000 0.654075945601 -0.437767702526
770950000 0.653793815996 -0.43717382297
770956000 0.653779832176 -0.43744543063
770962000 0.654795549678 -0.438127169559
770968000 0.653529256145 -0.438322611794
770974000 0.654080197427 -0.438185610463
770980000 0.653826934888 -0.437619685681
770986000 0.652779112513 -0.438675127423
770992000 0.652963950664 -0.438415588663
770998000 0.652273951807 -0.438287513836
771004000 0.652737416377 -0.438159955195
771010000 0.653242937012 -0.437939669154
771016000 0.652736738059 -0.43769381129
771022000 0.6529732095 -0.438344274795
771028000 0.65286189721 -0.437560388037
771034000 0.653183755456 -0.437444994438
771040000 0.653155667382 -0.437449495399
771046000 0.652954158712 -0.437624751049
771052000 0.652666186061 -0.43743188667
771058000 0.653336569429 -0.43825952652
771064000 0.65367574902 -0.438402484035
771070000 0.653421360688 -0.437858674936
771076000 0.653341540533 -0.43836129763
771082000 0.653251600917 -0.438846107096
771088000 0.653399565306 -0.438129029553
771094000 0.653201145323 -0.438391335048
771100000 0.653363037416 -0.438192493119
771106000 0.653172261897 -0.437844086369
771112000 0.652953585515 -0.437986520078
771118000 0.652821879695 -0.438245351285
771124000 0.652581745996 -0.438029320985
771130000 0.652946423627 -0.438015850497
771136000 0.651991257525 -0.438162648407
771142000 0.653195009273 -0.43811309552
771148000 0.653012391865 -0.437941456651
771154000 0.652789424168 -0.437977080314
771160000 0.6527442764 -0.438624442328
771166000 0.653051921936 -0.437856314173
771172000 0.652909288404 -0.437990624977
771178000 0.653737150701 -0.437927379447
771184000 0.653542630662 -0.438091205625
771190000 0.653692656024 -0.437790067448
771196000 0.653987002368 -0.437505873203
771202000 0.653152451869 -0.437790024101
771208000 0.653406955026 -0.437804153496
771214000 0.653781416478 -0.438289810089
771220000 0.653757532908 -0.438258786075
771226000 0.65345029402 -0.438017189282
771232000 0.652817305013 -0.438276791769
771238000 0.652669627022 -0.438718611719
771244000 0.652464687826 -0.438365444507
771250000 0.651844260078 -0.43822121272
771256000 0.651857756426 -0.438519133031
771262000 0.652437586183 -0.438096482715
771268000 0.652845243903 -0.439139548418
771274000 0.653051450148 -0.438782097268
771280000 0.65326710084 -0.439317254622
771286000 0.653094270793 -0.438917033922
771292000 0.653107988936 -0.438525085932
771298000 0.652801023742 -0.438154426514
771304000 0.653631365302 -0.438333785875
771310000 0.653319822062 -0.438511500423
771316000 0.653163028768 -0.438270096149
771322000 0.653436417549 -0.436888980998
771328000 0.653444819151 -0.438662959947
771334000 0.653296783757 -0.438128468529
771340000 0.652917512517 -0.43796261992
771346000 0.653433583064 -0.438529565371
771352000 0.653459101 -0.438410396618
771358000 0.652975016745 -0.43846945012
771364000 0.653054587552 -0.438930945359
771370000 0.652750304762 -0.439249776729
771376000 0.653579961006 -0.438697824909
771382000 0.652876338242 -0.438486687629
771388000 0.65346810944 -0.438679999126
771394000 0.653254218206 -0.438044554198
771400000 0.653138812712 -0.438474324881
771406000 0.652916308596 -0.438144871805
771412000 0.653066003197 -0.43824356019
771418000 0.652711162068 -0.438992170652
771424000 0.65302524257 -0.438619763587
771430000 0.652911214158 -0.439370223202
771436000 0.652816167898 -0.43951136088
771442000 0.653201685981 -0.439075502756
771448000 0.653490790956 -0.43858462988
771454000 0.652996274878 -0.439126898281
771460000 0.652736030398 -0.438778397513
771466000 0.652630286369 -0.438492810161
771472000 0.652423971692 -0.438197468361
771478000 0.652225081822 -0.438638739866
771484000 0.652368302372 -0.43836293407
771490000 0.652684255564 -0.438479655184
771496000 0.65241714033 -0.438512742017
771502000 0.652894747489 -0.438625925938
771508000 0.652567372234 -0.438631103928
771514000 0.6525592272 -0.439460489338
771520000 0.652670948272 -0.439098408179
771526000 0.652768104431 -0.439107937743
771532000 0.652877011014 -0.4398820163
771538000 0.652957155623 -0.439739176767
771544000 0.653408220814 -0.43911906834
771550000 0.652985363396 -0.439577731485
771556000 0.652843362064 -0.439440195649
771562000 0.652650915239 -0.438903257651
771568000 0.652762370115 -0.438587297884
771574000 0.65266679676 -0.43858525563
771580000 0.652708705258 -0.438618143645
771586000 0.652516555121 -0.439085258944
771592000 0.653286430751 -0.438679222254
771598000 0.653306683344 -0.438798222954
771604000 0.6525338925 -0.439227027685
771610000 0.6523960477 -0.438929612883
771616000 0.652463768682 -0.439093111325
771622000 0.652834213127 -0.438823276931
771628000 0.652935606626 -0.439002722977
771634000 0.652837706341 -0.439107047239
771640000 0.652858581964 -0.439050449133
771646000 0.652885946491 -0.439574054007
771652000 0.65278068013 -0.439433575747
771658000 0.652332307386 -0.439540943524
771664000 0.653249032954 -0.439475204836
771670000 0.652814677348 -0.439403944217
771676000 0.652882221538 -0.438915853898
771682000 0.653100625214 -0.439343373075
771688000 0.653305376813 -0.439310738409
771694000 0.652527742338 -0.439206884299
771700000 0.652965415419 -0.439352068027
771706000 0.652502663387 -0.439512021857
771712000 0.653188827573 -0.439410489133
771718000 0.652811963223 -0.439705805036
771724000 0.652539793456 -0.439183390645
771730000 0.652948420873 -0.439285021767
771736000 0.651941800567 -0.438963568038
771742000 0.652770590588 -0.439092104074
771748000 0.652302023432 -0.439530999628
771754000 0.653546391528 -0.440129218263
771760000 0.65253685261 -0.440278299646
771766000 0.652823627485 -0.440035806415
771772000 0.652398987348 -0.440485666083
771778000 0.652823450047 -0.439626690116
771784000 0.652282248928 -0.439455611317
771790000 0.652211330971 -0.439962811284
771796000 0.651618436211 -0.439406205207
771802000 0.65213458918 -0.439529353327
771808000 0.652657806747 -0.439801921597
771814000 0.65268387592 -0.439704249209
771820000 0.653118805973 -0.439589198596
771826000 0.653194796588 -0.439457028751
771832000 0.653379148041 -0.440101482837
771838000 0.653656378244 -0.440304646803
771844000 0.654024415851 -0.440352574347
771850000 0.655006649799 -0.440272793896
771856000 0.652152184499 -0.434941898746
771862000 0.654412341443 -0.44098106799
771868000 0.653767587885 -0.440325217491
771874000 0.653578957435 -0.439632949232
771880000 0.65253334577 -0.439665558368
771886000 0.652582486947 -0.440167174398
771892000 0.65283772278 -0.439895370433
771898000 0.652785272449 -0.439282510767
771904000 0.653358398186 -0.439037455731
771910000 0.653017809353 -0.438675062426
771916000 0.65371559356 -0.438640840659
771922000 0.652799026358 -0.439510410914
771928000 0.653253381106 -0.439785390982
771934000 0.653888798752 -0.439432380283
771940000 0.65334020316 -0.440207760123
771946000 0.653900278995 -0.440009986685
771952000 0.653204917039 -0.440289046105
771958000 0.653432728961 -0.439225839282
771964000 0.653316017936 -0.440044546076
771970000 0.653736468342 -0.439618125138
771976000 0.653373996845 -0.43965361058
771982000 0.652948928496 -0.44050437311
771988000 0.65347440395 -0.440165687113
771994000 0.653264912599 -0.439787337362
772000000 0.652739589274 -0.440239733477
772006000 0.652791378972 -0.44026504679
772012000 0.652936519448 -0.440006339693
772018000 0.651934797759 -0.439390441508
772024000 0.651996863476 -0.439778994638
772030000 0.651989925995 -0.43992328291
772036000 0.652008650747 -0.439645106319
772042000 0.651802289612 -0.439770174244
772048000 0.651613851409 -0.439770638783
772054000 0.651856471962 -0.439440214135
772060000 0.651607635906 -0.439697543289
772066000 0.652076423239 -0.439692838943
772072000 0.652337322562 -0.440157062453
772078000 0.652992382994 -0.440201340526
772084000 0.652461726383 -0.441009500042
772090000 0.65219578308 -0.440410390788
772096000 0.652201709062 -0.440449285717
772102000 0.652318764473 -0.44045675383
772108000 0.652063652158 -0.440026938509
772114000 0.652452362006 -0.440862170593
772120000 0.652239380769 -0.440863697336
772126000 0.651538449064 -0.440838455112
772132000 0.652502411847 -0.440649985985
772138000 0.652437604589 -0.440289739292
772144000 0.652017768109 -0.440526871025
772150000 0.652618129856 -0.440846584598
772156000 0.652052615589 -0.44045537595
772162000 0.652616680408 -0.44062991567
772168000 0.652456271892 -0.440804106532
772174000 0.652793557719 -0.440566374245
772180000 0.652220729954 -0.441444183275
772186000 0.652026975808 -0.441028174779
772192000 0.652100053818 -0.440072697057
772198000 0.652964552472 -0.440191312055
772204000 0.652784877234 -0.439759491425
772210000 0.652187095397 -0.440924848316
772216000 0.652028748388 -0.44098517962
772222000 0.65280999238 -0.440968844308
772228000 0.652865356452 -0.440894783507
772234000 0.652906870394 -0.440604099665
772240000 0.652378271416 -0.440505956214
772246000 0.652992150071 -0.440892967473
772252000 0.652606470803 -0.440619511413
772258000 0.65275580226 -0.440356903329
772264000 0.652672776451 -0.440551230992
772270000 0.65322989097 -0.440412831119
772276000 0.652893701247 -0.440698915948
772282000 0.653273744477 -0.440730652018
772288000 0.65304212765 -0.440668470379
772294000 0.652886776757 -0.440472248945
772300000 0.653024565105 -0.44047806322
772306000 0.653006057797 -0.439864103966
772312000 0.652301383433 -0.440065729713
772318000 0.652539132181 -0.439598946817
772324000 0.652066802871 -0.439809077186
772330000 0.652460124292 -0.440521203973
772336000 0.65151484188 -0.439664789094
772342000 0.651672452894 -0.440448998942
772348000 0.651270260511 -0.440315460249
772354000 0.652114246056 -0.440394263622
772360000 0.652004969232 -0.440889207703
772366000 0.652395199773 -0.440617546298
772372000 0.652307293537 -0.440934840017
772378000 0.652117809805 -0.440155724667
772384000 0.65213726459 -0.440367516443
772390000 0.651971548944 -0.44104966086
772396000 0.65250730205 -0.440543931676
772402000 0.652403184446 -0.440175937001
772408000 0.652680784869 -0.440289826164
772414000 0.652128500304 -0.440743209991
772420000 0.652355593096 -0.440909226253
772426000 0.652205198879 -0.440989267381
772432000 0.652071639513 -0.441513544693
772438000 0.652190550874 -0.441382588375
772444000 0.652334651761 -0.441720924805
772450000 0.652036174584 -0.441647083656
772456000 0.652111656792 -0.441910331687
772462000 0.652607698294 -0.441141942924
772468000 0.652582107161 -0.442233202931
772474000 0.652230154715 -0.441336404673
772480000 0.652549684783 -0.441306097361
772486000 0.653068443701 -0.442087000782
772492000 0.652581496999 -0.441029059724
772498000 0.652607387194 -0.44096095287
772504000 0.652318462906 -0.440499820403
772510000 0.652079057436 -0.440703766196
772516000 0.652543578512 -0.44034387026
772522000 0.652110413343 -0.440452952797
772528000 0.652296154282 -0.440756745558
772534000 0.652106448622 -0.441219447095
772540000 0.652700208235 -0.441629786522
772546000 0.651852975043 -0.441814854327
772552000 0.652818577131 -0.441461693262
772558000 0.652426559266 -0.441234682577
772564000 0.65210867142 -0.441384747784
772570000 0.653162565613 -0.441175085505
772576000 0.653385095359 -0.441283040411
772582000 0.652549043581 -0.440680394464
772588000 0.652720292806 -0.440954074615
772594000 0.652353436027 -0.441527010669
772600000 0.652822494798 -0.440675111934
772606000 0.652392113089 -0.440654779408
772612000 0.652141145806 -0.440779440526
772618000 0.652989967177 -0.440123329463
772624000 0.653065828687 -0.441034265643
772630000 0.652067389967 -0.440088697395
772636000 0.651864101553 -0.440105104754
772642000 0.651995463716 -0.440865372725
772648000 0.65165615561 -0.440609511037
772654000 0.652215588194 -0.441091612064
772660000 0.651511375224 -0.440346252263
772666000 0.651926891338 -0.441363946471
772672000 0.651817876311 -0.440651723379
772678000 0.65240215473 -0.441383198577
772684000 0.652230798617 -0.441359068835
772690000 0.651334054861 -0.441111298953
772696000 0.652150263002 -0.44148858571
772702000 0.651737743943 -0.440955271225
772708000 0.652568836686 -0.440255244805
772714000 0.652006589735 -0.440753154112
772720000 0.651259605946 -0.440652888357
772726000 0.651268814195 -0.440840907343
772732000 0.65156408997 -0.440527934421
772738000 0.651769547889 -0.440734828738
772744000 0.651837655678 -0.441319733337
772750000 0.651457494769 -0.441577823531
772756000 0.651977419941 -0.441060762123
772762000 0.651853646454 -0.440912518564
772768000 0.652007483211 -0.441438208751
772774000 0.65192309019 -0.441240951538
772780000 0.651489842827 -0.441539672584
772786000 0.651926175519 -0.441460252716
772792000 0.651998062068 -0.441620879203
772798000 0.651750485508 -0.440971101094
772804000 0.652157764429 -0.441855587771
772810000 0.651879656519 -0.442223110537
772816000 0.65157748878 -0.442103634635
772822000 0.651813348724 -0.442038082734
772828000 0.651121003056 -0.442415958056
772834000 0.650342245036 -0.441815822849
772840000 0.651274450382 -0.441693433654
772846000 0.651573281601 -0.441299537257
772852000 0.652136702343 -0.441944088546
772858000 0.652298091372 -0.441672818293
772864000 0.652771653947 -0.441393365937
772870000 0.65182370515 -0.441325860891
772876000 0.652264253975 -0.441523206355
772882000 0.651969512612 -0.441341650956
772888000 0.651739078492 -0.442011420541
772894000 0.650873900861 -0.442103887693
772900000 0.651327710431 -0.441613236015
772906000 0.652090463426 -0.44249185314
772912000 0.651967451756 -0.442036861253
772918000 0.651897286348 -0.442282409564
772924000 0.651947432163 -0.442113022016
772930000 0.651435784957 -0.441916738513
772936000 0.651091755426 -0.442427013198
772942000 0.651482455081 -0.442112427354
772948000 0.651485813988 -0.441786725866
772954000 0.651742118018 -0.442396187362
772960000 0.651822755093 -0.441861078529
772966000 0.651604462433 -0.441965480807
772972000 0.652176023339 -0.441849960288
772978000 0.651327210506 -0.441468423645
772984000 0.651671500606 -0.441525248612
772990000 0.651694996428 -0.441759503709
772996000 0.651611455106 -0.442186837921
773002000 0.651220376146 -0.441058366795
773008000 0.651470679373 -0.441245274869
773014000 0.651137323971 -0.441743800579
773020000 0.650931404075 -0.441885629205
773026000 0.651426188816 -0.440463688319
773032000 0.650909314261 -0.442017149612
773038000 0.651665657775 -0.44229898083
773044000 0.651403249429 -0.44163949168
773050000 0.651550924404 -0.442085294921
773056000 0.651746975043 -0.441994532672
773062000 0.652124830534 -0.442244381513
773068000 0.652068504798 -0.441525962804
773074000 0.651563294702 -0.441544479055
773080000 0.651870906058 -0.441924513086
773086000 0.652205260763 -0.441788007306
773092000 0.652167105382 -0.441612979866
773098000 0.652351776926 -0.442462752394
773104000 0.651926887136 -0.441799341324
773110000 0.652321003572 -0.441679977697
773116000 0.652143166173 -0.442517880398
773122000 0.651913831539 -0.441789802654
773128000 0.651312318948 -0.442069253826
773134000 0.65190454529 -0.442507245684
773140000 0.651430464979 -0.442549791373
773146000 0.651404681418 -0.442733838297
773152000 0.650792632727 -0.443611397797
773158000 0.651018677041 -0.442492480699
773164000 0.650650416521 -0.442468782567
773170000 0.651499271334 -0.44245421587
773176000 0.651588896578 -0.442259608753
773182000 0.651273688635 -0.442288381415
773188000 0.651111505775 -0.441849811824
773194000 0.651653897819 -0.441503777403
773200000 0.651170010067 -0.441868583773
773206000 0.65156862342 -0.44210264176
773212000 0.651234495768 -0.442071964091
773218000 0.651486639576 -0.442154658858
773224000 0.651702809723 -0.442070239139
773230000 0.651542749798 -0.441651912509
773236000 0.651740209809 -0.442201224415
773242000 0.651868813996 -0.442372851893
773248000 0.652429022278 -0.442462133529
773254000 0.651967718985 -0.442474472687
773260000 0.652028181003 -0.442665559066
773266000 0.651543640361 -0.442157267487
773272000 0.651001061784 -0.442825199215
773278000 0.651447376443 -0.442613219618
773284000 0.651328244277 -0.442447289652
773290000 0.651240972242 -0.442446769273
773296000 0.651785074778 -0.444278387191
773302000 0.65132804136 -0.443076037547
773308000 0.651632920446 -0.442642083283
773314000 0.651096657382 -0.443172758039
773320000 0.651097187253 -0.442803881239
773326000 0.651266874303 -0.442591414702
773332000 0.65153807442 -0.442958715912
773338000 0.651322587862 -0.44289087825
773344000 0.651839497871 -0.442938768172
773350000 0.651642582096 -0.443054824938
773356000 0.651595633906 -0.443530448622
773362000 0.651075119955 -0.442799018528
773368000 0.651751404868 -0.442643237465
773374000 0.651194899995 -0.441984146106
773380000 0.65105520286 -0.441973517344
773386000 0.651584707369 -0.442326726844
773392000 0.651249391588 -0.442450514848
773398000 0.652375356722 -0.442239272143
773404000 0.651064520617 -0.442787533576
773410000 0.65099166101 -0.44291537278
773416000 0.651663186274 -0.443178604266
773422000 0.651505160861 -0.442719658074
773428000 0.6514655994 -0.442861184859
773434000 0.651505769312 -0.442879067904
773440000 0.652083058084 -0.442450829713
773446000 0.651441067112 -0.442700120647
773452000 0.65093086884 -0.442267085909
773458000 0.651528379393 -0.442540145055
773464000 0.651972948126 -0.441946334426
773470000 0.651454000608 -0.442436455269
773476000 0.650978625605 -0.442570989163
773482000 0.659061781922 -0.454580339219
773488000 0.651219885411 -0.442760656253
773494000 0.642073374611 -0.438778512492
773500000 0.650962134417 -0.443086848293
773506000 0.654858662245 -0.44023293675
773512000 0.650988667293 -0.442932055693
773518000 0.651074109905 -0.442293625723
773524000 0.651909804234 -0.443410998816
773530000 0.651468254025 -0.442924455084
773536000 0.651247910783 -0.44341503269
773542000 0.651532242123 -0.443604603269
773548000 0.651912553637 -0.444000723238
773554000 0.6514969206 -0.443571054238
773560000 0.651712455145 -0.443625432248
773566000 0.650587937836 -0.443772552655
773572000 0.651605497378 -0.443507457601
773578000 0.651324754106 -0.443878068635
773584000 0.651350167603 -0.443445612462
773590000 0.650545413535 -0.443133728272
773596000 0.651433781806 -0.443031361913
773602000 0.650912688046 -0.443597134948
773608000 0.650936613221 -0.443513829628
773614000 0.651569514864 -0.443403734362
773620000 0.651003078973 -0.443097928837
773626000 0.651182821734 -0.443236741859
773632000 0.651491920893 -0.442931252931
773638000 0.651407870098 -0.443014983963
773644000 0.650989785724 -0.442804015692
773650000 0.651464884827 -0.442598746355
773656000 0.651664405457 -0.443031157861
773662000 0.651372094018 -0.443201214726
773668000 0.65233626818 -0.44281788527
773674000 0.651853977102 -0.442522595983
773680000 0.651158986013 -0.443415708889
773686000 0.651073207727 -0.442733876363
773692000 0.650952030982 -0.443168502451
773698000 0.64983752149 -0.443889995673
773704000 0.651343187535 -0.443194876685
773710000 0.650902121917 -0.443274410799
773716000 0.65145614411 -0.443087182534
773722000 0.652625148388 -0.443091748541
773728000 0.651285405198 -0.443013777171
773734000 0.651406736033 -0.443652441572
773740000 0.651559266746 -0.443071959712
773746000 0.650930037347 -0.443317468951
773752000 0.651070792019 -0.443263582855
773758000 0.651469017961 -0.443831341806
773764000 0.651165889908 -0.443388206489
773770000 0.65095776343 -0.443855732498
773776000 0.651583415339 -0.443221931284
773782000 0.650360648443 -0.442928944304
773788000 0.651146005656 -0.442505427483
773794000 0.651005777624 -0.442520697071
773800000 0.650709218696 -0.4427870422
773806000 0.651064898074 -0.442556583551
773812000 0.651061004215 -0.442636116112
773818000 0.650650333139 -0.442626698425
773824000 0.650472437988 -0.442528093585
773830000 0.65114159392 -0.442536527253
773836000 0.650349428928 -0.442747486712
773842000 0.650677655651 -0.442950362407
773848000 0.650595561561 -0.443104571139
773854000 0.650272758844 -0.442564541119
773860000 0.650156315901 -0.44373954636
773866000 0.650046045038 -0.443248477089
773872000 0.650687386769 -0.443143972954
773878000 0.651013722903 -0.44358228543
773884000 0.65048928947 -0.443001273126
773890000 0.651332138564 -0.442671670264
773896000 0.65129106598 -0.444019453042
773902000 0.651200000473 -0.443165231514
773908000 0.651386089833 -0.442869419799
773914000 0.650815994815 -0.443510625591
773920000 0.651271128668 -0.443804727814
773926000 0.651025190267 -0.44384427988
773932000 0.650611552935 -0.444174739146
773938000 0.65082158798 -0.444299015079
773944000 0.650042815239 -0.443744528376
773950000 0.650475086858 -0.443983122022
773956000 0.651273661237 -0.444136216175
773962000 0.651004101802 -0.443383751059
773968000 0.650594787881 -0.44360505598
773974000 0.651292307684 -0.443864488149
773980000 0.651578250591 -0.443852490249
773986000 0.651192230286 -0.443130059175
773992000 0.651066249137 -0.443437284513
773998000 0.650493538978 -0.443893238317
774004000 0.650694914375 -0.444607057353
774010000 0.65079819672 -0.444060463796
774016000 0.650289842634 -0.443600348824
774022000 0.651069078597 -0.444322570365
774028000 0.651268458496 -0.444159827566
774034000 0.651348512399 -0.444210026746
774040000 0.652450621272 -0.444009827322
774046000 0.6516225301 -0.443979563106
774052000 0.652313538951 -0.44427749673
774058000 0.651086201403 -0.443811011955
774064000 0.650874961817 -0.443853869671
774070000 0.650844405288 -0.443819091252
774076000 0.649112345164 -0.444982748972
774082000 0.651150665067 -0.443568472358
774088000 0.650869778264 -0.443491289217
774094000 0.650667989502 -0.44316078015
774100000 0.651344331825 -0.443050901767
774106000 0.65110068717 -0.443581768519
774112000 0.651321682373 -0.444412578671
774118000 0.65175769573 -0.443800213542
774124000 0.65185486934 -0.444201226921
774130000 0.651986017433 -0.444595886351
774136000 0.651278139397 -0.443986671117
774142000 0.652040856578 -0.444324022892
774148000 0.651611368783 -0.444357327712
774154000 0.651089164957 -0.445029128239
774160000 0.651678377569 -0.444983456754
774166000 0.651603221466 -0.444773638981
774172000 0.651567324095 -0.4449353766
774178000 0.65127743415 -0.445096923248
774184000 0.651643230702 -0.445447879699
774190000 0.651579281079 -0.444700177788
774196000 0.651212550412 -0.445433083413
774202000 0.650662799139 -0.445270297829
774208000 0.650553983937 -0.445658254997
774214000 0.650186659992 -0.445145896277
774220000 0.650003955994 -0.444617380431
774226000 0.650187135338 -0.444829661483
774232000 0.649865251346 -0.444716853829
774238000 0.650303260384 -0.444259978116
774244000 0.650918918716 -0.444491814905
774250000 0.651667481255 -0.444283855183
774256000 0.650668483108 -0.444839674723
774262000 0.650534114332 -0.444775346494
774268000 0.650959644672 -0.444729863612
774274000 0.650550353243 -0.444534266565
774280000 0.650995316302 -0.444766219441
774286000 0.650415837518 -0.444761955863
774292000 0.65072315162 -0.444749701614
774298000 0.650405382636 -0.444550743183
774304000 0.650685021684 -0.443582510664
774310000 0.651323309119 -0.444294693207
774316000 0.650974756113 -0.444914274459
774322000 0.651504276718 -0.444682565618
774328000 0.650679974485 -0.444096768074
774334000 0.650927398198 -0.444987858574
774340000 0.650848817063 -0.4447744012
774346000 0.650512581088 -0.445023459705
774352000 0.650658721144 -0.444984243704
774358000 0.65062828381 -0.445463916456
774364000 0.651136677514 -0.445004700595
774370000 0.651375173497 -0.445407844248
774376000 0.650540001363 -0.445290044765
774382000 0.651037805129 -0.445230962928
774388000 0.650938051047 -0.445295254458
774394000 0.650661224851 -0.44445726074
774400000 0.651082819743 -0.445248379696
774406000 0.650846618023 -0.44507084861
774412000 0.651033943225 -0.444415942155
774418000 0.651162311704 -0.444919416108
774424000 0.651450619055 -0.444624064293
774430000 0.651556747767 -0.444829850514
774436000 0.651631637934 -0.44495840744
774442000 0.651231711977 -0.444976697623
774448000 0.651555412626 -0.444320712693
774454000 0.651155733658 -0.444374028972
774460000 0.650478215467 -0.443513315922
774466000 0.65072149366 -0.444474069106
774472000 0.650332477532 -0.444162212419
774478000 0.650426865142 -0.443958815541
774484000 0.65022223753 -0.443831007526
774490000 0.650292901803 -0.443447716399
774496000 0.650395879115 -0.443752698366
774502000 0.650138958263 -0.443460778929
774508000 0.650042865703 -0.444402882216
774514000 0.650054992186 -0.444510963225
774520000 0.649779761284 -0.444736740123
774526000 0.65021001548 -0.443971856597
774532000 0.649914212269 -0.444297162011
774538000 0.65043388842 -0.444577856321
774544000 0.650556010301 -0.444570844779
774550000 0.650658305785 -0.444651282056
774556000 0.650418436447 -0.445146173031
774562000 0.650280928401 -0.445139728536
774568000 0.650712066092 -0.444833028094
774574000 0.651091529943 -0.445125697868
774580000 0.649576694374 -0.444828985581
774586000 0.649845238342 -0.444313175579
774592000 0.649749180921 -0.444760766465
774598000 0.650281566467 -0.445038659369
774604000 0.650009168619 -0.445280982065
774610000 0.650059382693 -0.445821945682
774616000 0.650670319818 -0.446107145605
774622000 0.65031753094 -0.445858026082
774628000 0.650378390919 -0.445308438047
774634000 0.650333502965 -0.445291976726
774640000 0.650948216654 -0.445318835297
774646000 0.650484655477 -0.445678116203
774652000 0.650515108145 -0.445377055868
774658000 0.650028710602 -0.444611468734
774664000 0.650299495382 -0.445363233169
774670000 0.650569975373 -0.445511565402
774676000 0.650025826799 -0.444969879244
774682000 0.65027058611 -0.445831767675
774688000 0.650066236709 -0.44533603721
774694000 0.650343132341 -0.444908610717
774700000 0.650276308299 -0.444745991645
774706000 0.649967182556 -0.445149075483
774712000 0.650269585853 -0.445120073569
774718000 0.651468882625 -0.445390637965
774724000 0.650711075852 -0.445166477882
774730000 0.650616230403 -0.445392274917
774736000 0.650354700769 -0.444980625628
774742000 0.650031214602 -0.444636546832
774748000 0.65038316348 -0.444706738772
774754000 0.651203761916 -0.444323862389
774760000 0.650156901661 -0.444893016051
774766000 0.65089736314 -0.444511227053
774772000 0.650293267344 -0.444675501387
774778000 0.649884561445 -0.444790754728
774784000 0.650790158075 -0.445329473469
774790000 0.650795058885 -0.445568331023
774796000 0.650980877045 -0.445096399974
774802000 0.650149715231 -0.444756032732
774808000 0.650399054701 -0.445177260372
774814000 0.650193166897 -0.444787634721
774820000 0.650829981587 -0.44508771095
774826000 0.65050928724 -0.445204192206
774832000 0.650733661794 -0.445366226431
774838000 0.650568719552 -0.445178483791
774844000 0.651102204562 -0.445720824815
774850000 0.650660134845 -0.44563622728
774856000 0.651260849322 -0.445365191769
774862000 0.650651666305 -0.445222169092
774868000 0.650847702768 -0.444964587955
774874000 0.650587565309 -0.444819508231
774880000 0.650503898662 -0.444880131949
774886000 0.650900283874 -0.445821892952
774892000 0.65041202643 -0.445774161159
774898000 0.649963941219 -0.444650443449
774904000 0.650965363944 -0.44597172967
774910000 0.650153591394 -0.446203115232
774916000 0.649781814507 -0.44544492555
774922000 0.650357909136 -0.445345768437
774928000 0.649310669251 -0.445705931674
774934000 0.649915508606 -0.445520154646
774940000 0.649726414492 -0.445303581014
774946000 0.649798214823 -0.445213205994
774952000 0.649862355002 -0.445620763731
774958000 0.65068503077 -0.445342193188
774964000 0.650463824446 -0.445594872639
774970000 0.650228984604 -0.445973074416
774976000 0.64963697823 -0.445936781064
774982000 0.649414705034 -0.446219375942
774988000 0.6498718235 -0.445731026346
774994000 0.650346739197 -0.446071865497
775000000 0.6501413225 -0.446304404307
