! Calibrated averaged scanner-service zoom
# Hz S RI R 50
88000000 0.824731497865 -0.143916433924
88010000 0.824822824795 -0.144093561725
88020000 0.825262921499 -0.144620030262
88030000 0.824991769324 -0.144767897267
88040000 0.82511768831 -0.145117313215
88050000 0.825579591012 -0.145080106518
88060000 0.825186460418 -0.145773996005
88070000 0.825763239581 -0.146082121448
88080000 0.82566349472 -0.146150124594
88090000 0.825712270716 -0.146627597561
88100000 0.825936061678 -0.14643853049
88110000 0.825819925018 -0.147165123714
88120000 0.825956777995 -0.147336743369
88130000 0.826609773587 -0.147334503483
88140000 0.826432600626 -0.147799342312
88150000 0.826885563766 -0.147797227728
88160000 0.826513081067 -0.148560375845
88170000 0.826657800739 -0.148611335258
88180000 0.827066393052 -0.14874696104
88190000 0.827093093427 -0.14907086018
88200000 0.82718527226 -0.149323116554
88210000 0.827460646344 -0.150030610669
88220000 0.827287226024 -0.150168655114
88230000 0.827307750278 -0.150428576796
88240000 0.828002023604 -0.150290989031
88250000 0.8274989857 -0.150935648286
88260000 0.828182350504 -0.151270289192
88270000 0.82821852999 -0.15143219848
88280000 0.827921433321 -0.151858781885
88290000 0.828300812329 -0.151582122962
88300000 0.828036268196 -0.152333940732
88310000 0.828436343298 -0.152618079764
88320000 0.828808476279 -0.15277012471
88330000 0.828530652476 -0.153275347506
88340000 0.828997788049 -0.153265614679
88350000 0.82859202356 -0.153956290305
88360000 0.828728111168 -0.154136987166
88370000 0.829107346034 -0.154233352362
88380000 0.829308455497 -0.154571433987
88390000 0.829244247287 -0.154717504061
88400000 0.829583266264 -0.155395410152
88410000 0.829422538637 -0.155503856775
88420000 0.829623707245 -0.15567601403
88430000 0.830088001334 -0.15571532526
88440000 0.829696821187 -0.15621677786
88450000 0.83011455308 -0.156662501444
88460000 0.830190648678 -0.156849883789
88470000 0.829917065632 -0.157318539023
88480000 0.830409192365 -0.157214747251
88490000 0.830174648956 -0.157883761723
88500000 0.830060298397 -0.158202191095
88510000 0.830813229256 -0.158459708939
88520000 0.830492962227 -0.158695778528
88530000 0.831131332766 -0.15874121501
88540000 0.830558216339 -0.159442962247
88550000 0.830878038842 -0.159567228448
88560000 0.831470792162 -0.159668682898
88570000 0.831274615078 -0.160063333315
88580000 0.831470405602 -0.160163017232
88590000 0.831436587382 -0.160962233903
88600000 0.831270540808 -0.161183275454
88610000 0.831241032296 -0.161294973411
88620000 0.83193347912 -0.161361688869
88630000 0.831321985631 -0.161799605111
88640000 0.831769563539 -0.162324080193
88650000 0.832004478288 -0.162529408248
88660000 0.83183422025 -0.162939555394
88670000 0.832506501252 -0.162837569033
88680000 0.831967500118 -0.163271989049
88690000 0.832513070112 -0.163615927619
88700000 0.832706193165 -0.163936501608
88710000 0.832315743303 -0.1643310935
88720000 0.832943339592 -0.164329193052
88730000 0.832238825295 -0.165037106548
88740000 0.832365188945 -0.165232960175
88750000 0.832688624514 -0.16531399132
88760000 0.832879624916 -0.165750466536
88770000 0.83282099432 -0.165880474839
88780000 0.833021958194 -0.166599744036
88790000 0.832932062538 -0.166756018649
88800000 0.83340139739 -0.166844330444
88810000 0.833762592478 -0.167161977252
88820000 0.833482731101 -0.16739838659
88830000 0.833696074363 -0.168069940427
88840000 0.833641974009 -0.168249465662
88850000 0.833506226837 -0.16856597643
88860000 0.834162142739 -0.168530161472
88870000 0.833512611634 -0.169046922869
88880000 0.833701991904 -0.169422568442
88890000 0.834049273137 -0.169710251369
88900000 0.833888509689 -0.170053056852
88910000 0.834529166349 -0.170039148929
88920000 0.833778017051 -0.170651639519
88930000 0.83422946913 -0.170836742886
88940000 0.834829018807 -0.171129476085
88950000 0.834355624164 -0.171491987847
88960000 0.834828745315 -0.171656178599
88970000 0.834357353016 -0.172268187677
88980000 0.8344427768 -0.172350964179
88990000 0.83475624132 -0.172499985702
89000000 0.835122682193 -0.17297488877
89010000 0.834587296424 -0.17316769653
89020000 0.834537567069 -0.173874891549
89030000 0.835619056426 -0.173787741319
89040000 0.835174136772 -0.174207338248
89050000 0.835484880424 -0.174397348361
89060000 0.834755253363 -0.175176605796
89070000 0.835090847418 -0.175476505924
89080000 0.835420963015 -0.175316170367
89090000 0.83577428996 -0.175659679789
89100000 0.835596182144 -0.175823899441
89110000 0.834792076702 -0.176668611806
89120000 0.835729578492 -0.176832989891
89130000 0.835795823978 -0.176890745976
89140000 0.836222318487 -0.177106880266
89150000 0.835997307353 -0.177502357028
89160000 0.835373362604 -0.178284099796
89170000 0.836302831648 -0.178370964833
89180000 0.835873315027 -0.178572515385
89190000 0.836367681666 -0.178741448368
89200000 0.835664974668 -0.179142561185
89210000 0.835906941668 -0.1797732537
89220000 0.836440006367 -0.179704565711
89230000 0.836415352889 -0.180084087066
89240000 0.836784420393 -0.180316501941
89250000 0.835838987066 -0.180869462998
89260000 0.836172374893 -0.181356689034
89270000 0.836984020909 -0.18129201396
89280000 0.836958135514 -0.181596829271
89290000 0.836995426716 -0.181783024601
89300000 0.836109552187 -0.18257912719
89310000 0.836679672715 -0.182912333153
89320000 0.836791258282 -0.182889218022
89330000 0.837351385967 -0.183166290614
89340000 0.836777982368 -0.183424851926
89350000 0.836674006421 -0.184229974123
89360000 0.837369306594 -0.184443582139
89370000 0.836979122722 -0.184543555893
89380000 0.837417954497 -0.184682492032
89390000 0.836984597006 -0.185047955055
89400000 0.836667615627 -0.185667578577
89410000 0.838022763739 -0.185835680673
89420000 0.837509815208 -0.18615938693
89430000 0.837866978779 -0.186417170804
89440000 0.83694976356 -0.186908702961
89450000 0.837167929918 -0.187371197155
89460000 0.837779903409 -0.187309799544
89470000 0.83800576175 -0.187721144287
89480000 0.837870192994 -0.187841571215
89490000 0.837011215997 -0.188536128155
89500000 0.837480060901 -0.188883348158
89510000 0.837761025895 -0.188837911435
89520000 0.838259751687 -0.189245597216
89530000 0.838235081857 -0.189510833037
89540000 0.836975642852 -0.19019891139
89550000 0.838061078581 -0.190578998864
89560000 0.837816548916 -0.190620936979
89570000 0.838355954774 -0.190865661606
89580000 0.837963566317 -0.191231821
89590000 0.83778205777 -0.191935689847
89600000 0.83835397905 -0.191972169902
89610000 0.838235969928 -0.192303267181
89620000 0.838694344846 -0.192611838232
89630000 0.837807327668 -0.192952283366
89640000 0.837955600669 -0.19346804385
89650000 0.839016775721 -0.193698703814
89660000 0.838700073605 -0.194021503981
89670000 0.838823622774 -0.194110852778
89680000 0.837747483538 -0.194598223809
89690000 0.838227449184 -0.195136164756
89700000 0.83868909391 -0.195304546017
89710000 0.839041914695 -0.195747640764
89720000 0.838661774243 -0.195966343232
89730000 0.83805699297 -0.196682682677
89740000 0.838562325086 -0.196887898469
89750000 0.838637804742 -0.196983531128
89760000 0.839146049066 -0.197336549133
89770000 0.838692248954 -0.197624566577
89780000 0.837998555877 -0.198107461497
89790000 0.839361471259 -0.198519176092
89800000 0.838867084962 -0.198616872682
89810000 0.839434909894 -0.198995438739
89820000 0.838619876495 -0.199369952709
89830000 0.838601094748 -0.199958521369
89840000 0.839617126361 -0.200284927361
89850000 0.839190804039 -0.200547144687
89860000 0.839374280893 -0.200699660515
89870000 0.838410512372 -0.201140327965
89880000 0.838718948427 -0.201723948392
89890000 0.83907985536 -0.201820811964
89900000 0.839576360326 -0.20223244769
89910000 0.839524509463 -0.202522518459
89920000 0.838130326709 -0.20285211903
89930000 0.839121926287 -0.20343173643
89940000 0.839120631293 -0.203565033293
89950000 0.839534587478 -0.203886116246
89960000 0.839254445374 -0.204122240377
89970000 0.838685301706 -0.204747663532
89980000 0.839516601473 -0.205159403851
89990000 0.838989885351 -0.205288687754
90000000 0.839506746222 -0.205758288422
90010000 0.83988456527 -0.206085432819
90020000 0.838660473147 -0.206203017028
90030000 0.839060039804 -0.207009644117
90040000 0.838672498678 -0.207112818435
90050000 0.839596396181 -0.207756979125
90060000 0.839857633631 -0.2077930829
90070000 0.838244570993 -0.208014604152
90080000 0.839129414086 -0.208667085361
90090000 0.838680656102 -0.209020595937
90100000 0.839851369257 -0.209466186491
90110000 0.839544284564 -0.209604514618
90120000 0.838210891978 -0.209991535027
90130000 0.838767275687 -0.210398699056
90140000 0.838826196325 -0.210886131781
90150000 0.839864804549 -0.211205581215
90160000 0.839197464884 -0.211421502425
90170000 0.838389555739 -0.211962018866
90180000 0.838725883379 -0.212151480551
90190000 0.838921572968 -0.21265971742
90200000 0.839811459743 -0.212854218315
90210000 0.838268273298 -0.212853587817
90220000 0.838752589973 -0.213786962305
90230000 0.838362088602 -0.213764929337
90240000 0.839167166663 -0.214429519603
90250000 0.839680675113 -0.214628606928
90260000 0.838147922553 -0.214800562308
90270000 0.83894569934 -0.215625677408
90280000 0.838062056009 -0.215710741022
90290000 0.839334330287 -0.216324470988
90300000 0.83910398254 -0.216513410109
90310000 0.837686237231 -0.216692762436
90320000 0.838197491052 -0.21722827134
90330000 0.838147923512 -0.217691326452
90340000 0.839234633171 -0.218072920377
90350000 0.838566657949 -0.218120574233
90360000 0.83768697955 -0.21858507653
90370000 0.837803871131 -0.218809623656
90380000 0.838149538121 -0.219492399885
90390000 0.83907164895 -0.219814386681
90400000 0.838014825926 -0.219808476726
90410000 0.837921424358 -0.220468900209
90420000 0.837730516034 -0.220639815372
90430000 0.838249359251 -0.221316859384
90440000 0.838718208847 -0.221580490313
90450000 0.836946954623 -0.221441005055
90460000 0.837552333978 -0.222279680205
90470000 0.83727859647 -0.222577044971
90480000 0.838370013441 -0.223375477033
90490000 0.838295418976 -0.223356787084
90500000 0.83672728047 -0.223459446475
90510000 0.837452629428 -0.224104138837
90520000 0.837044211688 -0.224441719051
90530000 0.83806799024 -0.224941652827
90540000 0.837558473862 -0.225014229003
90550000 0.836425281054 -0.225260567476
90560000 0.83690801532 -0.225781974015
90570000 0.836859154639 -0.226280773134
90580000 0.837792474911 -0.226684142116
90590000 0.836435523701 -0.226341679295
90600000 0.836470155379 -0.227165024678
90610000 0.83639630377 -0.227386650453
90620000 0.836761481926 -0.228000247648
90630000 0.837381504066 -0.228391678314
90640000 0.835966421595 -0.228199308522
90650000 0.836568966375 -0.229233312743
90660000 0.835626054882 -0.229048018395
90670000 0.836820683827 -0.230055273423
90680000 0.836823440606 -0.230070500052
90690000 0.835362860348 -0.230022269539
90700000 0.835824401043 -0.230700894251
90710000 0.835626479182 -0.231067805824
90720000 0.836635320067 -0.231735796988
90730000 0.835893423041 -0.23148983769
90740000 0.834921294007 -0.231761866422
90750000 0.835474127684 -0.232291588683
90760000 0.835226994599 -0.232853832664
90770000 0.836165637679 -0.233402524553
90780000 0.835278407445 -0.233232204207
90790000 0.834719227989 -0.233701838167
90800000 0.834729292082 -0.23386512858
90810000 0.835054268517 -0.234647962685
90820000 0.835782120319 -0.235136606026
90830000 0.834194186578 -0.234691803792
90840000 0.834312910563 -0.235447784638
90850000 0.834095706852 -0.235584776436
90860000 0.834883478334 -0.236484512638
90870000 0.834989218465 -0.236563258268
90880000 0.833365982756 -0.236352247233
90890000 0.83408660075 -0.237326056855
90900000 0.833465056041 -0.237432377739
90910000 0.834598279337 -0.238261728916
90920000 0.834197277491 -0.238257553863
90930000 0.83282260643 -0.238157404013
90940000 0.833438165357 -0.238840721536
90950000 0.833121437316 -0.239259370375
90960000 0.834142044826 -0.239889167175
90970000 0.833074631074 -0.239512058376
90980000 0.832482377294 -0.239956119793
90990000 0.83270140569 -0.240322313878
91000000 0.832907241665 -0.240899556612
91010000 0.83184511597 -0.24066946744
91020000 0.83350095995 -0.2422073344
91030000 0.833360672861 -0.242037344115
91040000 0.831610777712 -0.241482756706
91050000 0.831932967432 -0.242406827057
91060000 0.831216391679 -0.242218373402
91070000 0.832787181702 -0.243430711612
91080000 0.832394360602 -0.243428221349
91090000 0.831293603367 -0.243370922839
91100000 0.831140914303 -0.243831219912
91110000 0.830915640183 -0.244410592306
91120000 0.832263931671 -0.245159224736
91130000 0.831392793306 -0.244880248822
91140000 0.830401949468 -0.244856283145
91150000 0.830759687759 -0.245585622733
91160000 0.831012568265 -0.246459853109
91170000 0.831536817402 -0.246618570992
91180000 0.830326674274 -0.246158350951
91190000 0.829818478588 -0.246693610484
91200000 0.829382378945 -0.246644303943
91210000 0.830957317031 -0.248398516742
91220000 0.83087304055 -0.248115275978
91230000 0.829748572052 -0.247728846836
91240000 0.8292431966 -0.248072886887
91250000 0.828754589327 -0.248059474264
91260000 0.830167186374 -0.249583155071
91270000 0.829865762321 -0.249367707801
91280000 0.828640402379 -0.249075946765
91290000 0.828974880223 -0.250073392038
91300000 0.82825953244 -0.25003092126
91310000 0.829619208052 -0.251107913394
91320000 0.828915580313 -0.250792160987
91330000 0.827721453222 -0.250576103124
91340000 0.827729291696 -0.250907035049
91350000 0.828180672613 -0.252151907897
91360000 0.828875797001 -0.252511903012
91370000 0.827878436041 -0.252102802809
91380000 0.827090168112 -0.252347115949
91390000 0.82677067812 -0.252371210904
91400000 0.828020765939 -0.254247342859
91410000 0.828137883511 -0.254112534254
91420000 0.82660102788 -0.25325589881
91430000 0.826491130336 -0.254063615513
91440000 0.825957725084 -0.253760542001
91450000 0.827421690449 -0.255405114462
91460000 0.827292881536 -0.255227882804
91470000 0.826132408798 -0.254889153456
91480000 0.825728581863 -0.255160665896
91490000 0.825253383623 -0.25532729182
91500000 0.826690576942 -0.256701816237
91510000 0.826169506943 -0.256368527505
91520000 0.825062769371 -0.256054031025
91530000 0.82535661191 -0.257065069822
91540000 0.825033254493 -0.257616992805
91550000 0.825852420319 -0.258134275793
91560000 0.82495149521 -0.257451107122
91570000 0.824273207621 -0.257801985501
91580000 0.823979105584 -0.257766615665
91590000 0.824951200615 -0.25980659176
91600000 0.825141776523 -0.259657769148
91610000 0.824102165691 -0.259129414468
91620000 0.82343281353 -0.259217484605
91630000 0.823051710506 -0.259018517039
91640000 0.824356527492 -0.260978242115
91650000 0.824255375206 -0.260741601579
91660000 0.82316359445 -0.260177138001
91670000 0.823083957981 -0.260938779607
91680000 0.822256952064 -0.260393084706
91690000 0.823621160822 -0.262087965349
91700000 0.82320585047 -0.261780733745
91710000 0.82184382042 -0.261149300572
91720000 0.822078117906 -0.262089930937
91730000 0.821786943842 -0.262543480317
91740000 0.822670160855 -0.263298367446
91750000 0.82201786673 -0.262853158627
91760000 0.821091277073 -0.262819209122
91770000 0.820855731171 -0.262878316952
91780000 0.82150169755 -0.264837853174
91790000 0.821922231266 -0.264736602763
91800000 0.821020972636 -0.264060889007
91810000 0.820378547068 -0.264233164573
91820000 0.820071946054 -0.264028953828
91830000 0.821005713707 -0.26610652213
91840000 0.821058677026 -0.265787215183
91850000 0.819914115752 -0.264951516202
91860000 0.819811042956 -0.265718942905
91870000 0.819074360227 -0.265157931754
91880000 0.820295274325 -0.267170613311
91890000 0.820026678347 -0.266793782516
91900000 0.81894365864 -0.266040546298
91910000 0.818866136259 -0.266765787121
91920000 0.818548392288 -0.267067882282
91930000 0.819411605523 -0.268286597968
91940000 0.818869723945 -0.267696096681
91950000 0.817959050708 -0.267533266119
91960000 0.818040401769 -0.267964849275
91970000 0.818143540702 -0.269445765303
91980000 0.818692311376 -0.269570195963
91990000 0.817869474857 -0.268788754753
92000000 0.81708473862 -0.268759865453
92010000 0.81752077006 -0.269741201489
92020000 0.817493975386 -0.269751658201
92030000 0.816061824853 -0.26833012547
92040000 0.817279912001 -0.271200438455
92050000 0.816840535238 -0.270459432486
92060000 0.816717697019 -0.270929409753
92070000 0.816510424179 -0.270296217747
92080000 0.815269447808 -0.270007388761
92090000 0.816272231403 -0.271459635904
92100000 0.816072695524 -0.271772653037
92110000 0.816004953194 -0.272284169949
92120000 0.81554236129 -0.27134575444
92130000 0.814799000106 -0.272381815017
92140000 0.815547676163 -0.272565053249
92150000 0.815212861654 -0.273170988129
92160000 0.815155488277 -0.27355476784
92170000 0.814122094279 -0.271602176863
92180000 0.814434293114 -0.274420312003
92190000 0.814584059891 -0.273533905356
92200000 0.814286955203 -0.274112712136
92210000 0.814336648296 -0.274484969763
92220000 0.813027877563 -0.272555517381
92230000 0.813736713966 -0.274989569525
92240000 0.813733794054 -0.274666860744
92250000 0.813685149517 -0.275167441121
92260000 0.813604121496 -0.275098258696
92270000 0.81225720918 -0.273780707947
92280000 0.813220774608 -0.276165975598
92290000 0.812916363182 -0.275837545727
92300000 0.812802468816 -0.276268910068
92310000 0.812339811517 -0.274980800353
92320000 0.811465324096 -0.27607449832
92330000 0.812310961767 -0.276860785432
92340000 0.81190641151 -0.277111088178
92350000 0.811906415252 -0.277587930984
92360000 0.811186888684 -0.275447632938
92370000 0.811011665614 -0.278134224855
92380000 0.811460120356 -0.277654265022
92390000 0.811056799918 -0.278056712783
92400000 0.811205807961 -0.278584042274
92410000 0.810290405256 -0.276394924843
92420000 0.810652542066 -0.279605394551
92430000 0.810695474526 -0.278595253711
92440000 0.81044113165 -0.279040368686
92450000 0.81059434757 -0.278899662595
92460000 0.809485226627 -0.277309131698
92470000 0.810142436854 -0.280015958935
92480000 0.809851410622 -0.279625340669
92490000 0.809679689925 -0.280091949652
92500000 0.809640567883 -0.279432073799
92510000 0.808483740136 -0.27946630164
92520000 0.809283677415 -0.280294550642
92530000 0.80883910403 -0.28090548809
92540000 0.808793567532 -0.281363680144
92550000 0.808445269995 -0.279423913993
92560000 0.807922919851 -0.28178419902
92570000 0.808625500156 -0.281210382369
92580000 0.808133699647 -0.281714490451
92590000 0.808217742686 -0.28222587774
92600000 0.807611855918 -0.279876412595
92610000 0.807459564429 -0.282883285509
92620000 0.807827621478 -0.282041950905
92630000 0.807504839298 -0.282562031856
92640000 0.807604464794 -0.282803687854
92650000 0.806820402537 -0.280754434383
92660000 0.807075911341 -0.283783182603
92670000 0.80703023958 -0.283169406803
92680000 0.806826583641 -0.283558757869
92690000 0.806932585624 -0.282686940609
92700000 0.805919472163 -0.282703928136
92710000 0.806540211144 -0.284208604137
92720000 0.806179111208 -0.284189639208
92730000 0.806054005401 -0.284699507029
92740000 0.806061344797 -0.282641706235
92750000 0.805188588535 -0.284851934032
92760000 0.806040385139 -0.284648453013
92770000 0.805416454774 -0.285100605163
92780000 0.805400230975 -0.285701706546
92790000 0.805223363933 -0.283368223559
92800000 0.804682666494 -0.286460968753
92810000 0.805229356643 -0.285501559664
92820000 0.804720109304 -0.286100614353
92830000 0.804873264468 -0.286048418046
92840000 0.804415440969 -0.284134132057
92850000 0.804434933129 -0.287253249107
92860000 0.804461531717 -0.286631356442
92870000 0.804243871395 -0.287020981511
92880000 0.804477886738 -0.286526306896
92890000 0.803658706884 -0.285784734745
92900000 0.804096529269 -0.287297431579
92910000 0.803691408761 -0.287658889722
92920000 0.803570455847 -0.288067571746
92930000 0.803779555738 -0.286599460061
92940000 0.802705000204 -0.287854373646
92950000 0.803504381848 -0.288176158399
92960000 0.803020582603 -0.288531966512
92970000 0.802867246147 -0.28917131467
92980000 0.803107648503 -0.286697369807
92990000 0.80209194823 -0.289763700935
93000000 0.802937973458 -0.288952009743
93010000 0.80246582217 -0.289285003661
93020000 0.802943002719 -0.287244643458
93030000 0.801618069935 -0.290586101366
93040000 0.802575903546 -0.290790166866
93050000 0.802055569573 -0.289588634044
93060000 0.802025759857 -0.290313152915
93070000 0.802102080035 -0.287903283349
93080000 0.801278188361 -0.291990092235
93090000 0.802004619055 -0.291246804639
93100000 0.801417919599 -0.290381222859
93110000 0.801959042159 -0.289731227762
93120000 0.801414023374 -0.289385751412
93130000 0.801224829088 -0.292538351374
93140000 0.801405204198 -0.291702758066
93150000 0.800781740545 -0.291628162843
93160000 0.801442614003 -0.290790271113
93170000 0.800120309166 -0.291681205903
93180000 0.8008369487 -0.29365831028
93190000 0.800905431473 -0.292104502814
93200000 0.800179158233 -0.29278042929
93210000 0.801194641768 -0.290472720178
93220000 0.79964883635 -0.29370384962
93230000 0.800588728151 -0.294275070352
93240000 0.800102912983 -0.292887352036
93250000 0.800276233278 -0.292990810231
93260000 0.800530233808 -0.291156113159
93270000 0.798649631318 -0.295652642686
93280000 0.800611209796 -0.295271560023
93290000 0.799765135774 -0.294025271127
93300000 0.799773356033 -0.294188150689
93310000 0.799710420242 -0.292913738536
93320000 0.799045028223 -0.296058254665
93330000 0.799518125444 -0.294984294461
93340000 0.79899663185 -0.295224473861
93350000 0.800090319641 -0.293627513258
93360000 0.798470651891 -0.294987537009
93370000 0.798804106474 -0.297174643704
93380000 0.799204191909 -0.295715549711
93390000 0.798649575505 -0.29600471632
93400000 0.799673758902 -0.29479168073
93410000 0.797900971108 -0.296955221139
93420000 0.798719421468 -0.297890413791
93430000 0.79857992466 -0.296676223524
93440000 0.798213259384 -0.297517669275
93450000 0.79922282833 -0.295281588067
93460000 0.797101647915 -0.298841189584
93470000 0.798204006018 -0.298680917381
93480000 0.797968418456 -0.297601187437
93490000 0.798364306324 -0.297643429285
93500000 0.798408040998 -0.296678966779
93510000 0.797369496533 -0.299837765626
93520000 0.797896300683 -0.299266199192
93530000 0.797461763325 -0.298806196116
93540000 0.798217976363 -0.298583045834
93550000 0.79726804804 -0.298495193295
93560000 0.797110452795 -0.300983837082
93570000 0.797596219462 -0.299781298516
93580000 0.796874621863 -0.300069876822
93590000 0.798058187735 -0.299006156587
93600000 0.796309556436 -0.300474674997
93610000 0.796950520985 -0.301809005432
93620000 0.796986250618 -0.300626178135
93630000 0.796708334271 -0.301153168806
93640000 0.79794698267 -0.299244489714
93650000 0.795354078648 -0.302529794623
93660000 0.796718157563 -0.302733064557
93670000 0.796618192805 -0.301514606209
93680000 0.796565825196 -0.302264191994
93690000 0.797085075859 -0.300738003917
93700000 0.795529315274 -0.303657872178
93710000 0.79629080866 -0.303287619004
93720000 0.795902342239 -0.30294628938
93730000 0.796825675787 -0.302897955403
93740000 0.796018885044 -0.302512340218
93750000 0.795423062393 -0.305020576989
93760000 0.796095595383 -0.303973652846
93770000 0.795615386764 -0.304057347963
93780000 0.79687844031 -0.303250883707
93790000 0.794993007814 -0.304490885911
93800000 0.795434627 -0.305966032015
93810000 0.795761009257 -0.304764268006
93820000 0.795055892974 -0.305564940653
93830000 0.796665102133 -0.304159044998
93840000 0.793878479748 -0.306538642441
93850000 0.795011096977 -0.307037562355
93860000 0.795039452198 -0.305891311123
93870000 0.794889284012 -0.306622433389
93880000 0.795837783998 -0.305293546372
93890000 0.793933605097 -0.307898738767
93900000 0.794651947236 -0.307842284749
93910000 0.794439376819 -0.307260651218
93920000 0.795086071206 -0.307536521884
93930000 0.794857551247 -0.306991365798
93940000 0.793774563661 -0.309468291145
93950000 0.794507766568 -0.308794778746
93960000 0.794007780944 -0.308701529467
93970000 0.79493452707 -0.308665925139
93980000 0.793681856531 -0.308889775143
93990000 0.793772180594 -0.310573244508
94000000 0.794158695537 -0.309523086513
94010000 0.793476220494 -0.310197141504
94020000 0.793822235061 -0.310689050985
94030000 0.79381543264 -0.309972349521
94040000 0.793597920173 -0.310740594771
94050000 0.793558035331 -0.31076502684
94060000 0.792542785774 -0.31179357855
94070000 0.793621491864 -0.311490307845
94080000 0.793004551702 -0.311497224049
94090000 0.793527633427 -0.312075852074
94100000 0.793393067193 -0.312016140698
94110000 0.79241454698 -0.31317102649
94120000 0.793314420124 -0.312697820251
94130000 0.792362444287 -0.313288630133
94140000 0.793038073859 -0.313454949342
94150000 0.792791130867 -0.313399701737
94160000 0.792248999292 -0.314553042193
94170000 0.792989507578 -0.31375257533
94180000 0.792145080768 -0.314597951285
94190000 0.79249878864 -0.314445309936
94200000 0.791979554295 -0.315069900966
94210000 0.792402705703 -0.315435161039
94220000 0.792224488167 -0.315023787471
94230000 0.792013710602 -0.315752436245
94240000 0.791737468397 -0.315923025857
94250000 0.790940515006 -0.316769944467
94260000 0.791678803949 -0.316968330912
94270000 0.791187656915 -0.316765346149
94280000 0.791566155179 -0.317375596482
94290000 0.791366541346 -0.317321288293
94300000 0.790503117981 -0.318214039388
94310000 0.791548676753 -0.317920379227
94320000 0.790596860596 -0.318415494005
94330000 0.791212929698 -0.31881726776
94340000 0.790934843153 -0.318707676099
94350000 0.790161282432 -0.319676811736
94360000 0.79101192489 -0.31911374942
94370000 0.790354111749 -0.319532952403
94380000 0.790211593 -0.320216795818
94390000 0.789931688417 -0.320417662268
94400000 0.789909320819 -0.321118055214
94410000 0.790221235525 -0.320501138291
94420000 0.789710134068 -0.321334164374
94430000 0.789861650129 -0.321372148439
94440000 0.788873602856 -0.322101830529
94450000 0.789795526242 -0.322215069233
94460000 0.789200337363 -0.322061402169
94470000 0.789495317023 -0.322720879434
94480000 0.789364709951 -0.322684875111
94490000 0.788355055434 -0.323544878303
94500000 0.789210372558 -0.323612922004
94510000 0.788406816564 -0.323751888132
94520000 0.788991619668 -0.3242993561
94530000 0.788864105652 -0.324178214397
94540000 0.789121002051 -0.325320495962
94550000 0.788824400149 -0.324814560554
94560000 0.787777146757 -0.325474483887
94570000 0.788331109767 -0.325521410287
94580000 0.787800868649 -0.325903363351
94590000 0.787864817535 -0.326490034898
94600000 0.788083481341 -0.326148744365
94610000 0.787642214395 -0.326745284194
94620000 0.787426492779 -0.327090576132
94630000 0.786639672312 -0.327539587597
94640000 0.787080596237 -0.328099975513
94650000 0.786903695972 -0.327663867225
94660000 0.786908050006 -0.328469837425
94670000 0.786770756153 -0.328499113552
94680000 0.785743676429 -0.32917818435
94690000 0.786509099153 -0.329408349346
94700000 0.785931628807 -0.329438574701
94710000 0.786496528112 -0.329956850316
94720000 0.786316308875 -0.329955847251
94730000 0.785288884434 -0.330823981292
94740000 0.78609867465 -0.330618695577
94750000 0.785492291135 -0.330807324344
94760000 0.785410500758 -0.331573228991
94770000 0.785226702234 -0.331687836163
94780000 0.784866036262 -0.332483414046
94790000 0.785344414098 -0.332030425269
94800000 0.784570286251 -0.332638208142
94810000 0.78483596895 -0.33278326139
94820000 0.784100464063 -0.333402685304
94830000 0.784256546351 -0.334070104833
94840000 0.784222676332 -0.333636959071
94850000 0.784019872027 -0.334324173191
94860000 0.78401476134 -0.334391186871
94870000 0.783118830507 -0.334853393825
94880000 0.783860843945 -0.335143181183
94890000 0.783300642799 -0.335155635772
94900000 0.783469198161 -0.336066714028
94910000 0.783430988751 -0.335889022887
94920000 0.782344749202 -0.336631972865
94930000 0.783094564933 -0.336709639871
94940000 0.782079230204 -0.337010415846
94950000 0.782681657294 -0.337395357136
94960000 0.782212996595 -0.337551746227
94970000 0.781689232817 -0.338321559858
94980000 0.782349760333 -0.338003285316
94990000 0.781648449846 -0.338504550471
95000000 0.781543514785 -0.338906666547
95010000 0.782234961088 -0.338821498656
95020000 0.780558132129 -0.339752995631
95030000 0.780743643923 -0.33990915177
95040000 0.780724082784 -0.34019996133
95050000 0.780775201905 -0.340683546076
95060000 0.780786416183 -0.340358007423
95070000 0.779955673871 -0.341641206366
95080000 0.779734967967 -0.341443683522
95090000 0.779518388352 -0.34184953119
95100000 0.780236706428 -0.342026395372
95110000 0.77914734401 -0.342023719206
95120000 0.779353372849 -0.343154015211
95130000 0.7788238377 -0.342883539255
95140000 0.778309053034 -0.343395498101
95150000 0.77971755355 -0.343253097125
95160000 0.77783638094 -0.343799461567
95170000 0.778382630169 -0.344634870905
95180000 0.778070088902 -0.344561202421
95190000 0.777721603876 -0.34503935599
95200000 0.778704071618 -0.34486533369
95210000 0.777050647849 -0.345635537021
95220000 0.777217160741 -0.345926691985
95230000 0.777033605496 -0.346216858117
95240000 0.776836863873 -0.346727952109
95250000 0.77722204963 -0.346317202662
95260000 0.776450419132 -0.347375149757
95270000 0.776113835011 -0.347368358963
95280000 0.77582095493 -0.347891423673
95290000 0.776399576756 -0.34804183598
95300000 0.775307772488 -0.347978503595
95310000 0.775441311086 -0.349143526935
95320000 0.774986469261 -0.348878560517
95330000 0.774646557149 -0.3493482721
95340000 0.775549309807 -0.349604106142
95350000 0.774002058059 -0.349731960976
95360000 0.774316340565 -0.350608328857
95370000 0.774081739366 -0.350475070204
95380000 0.773414214741 -0.350926579359
95390000 0.774549323189 -0.350960485414
95400000 0.772895479908 -0.351614645449
95410000 0.773096479776 -0.352024616338
95420000 0.772968056705 -0.352190709491
95430000 0.772697717299 -0.352623341895
95440000 0.77318292426 -0.352349820938
95450000 0.771944789967 -0.35339187995
95460000 0.771856081917 -0.35333271469
95470000 0.771636556279 -0.353808882294
95480000 0.771881798543 -0.354014453862
95490000 0.771176890916 -0.353915448225
95500000 0.77116209159 -0.354959766845
95510000 0.770642903252 -0.354739067899
95520000 0.770252213178 -0.355322487667
95530000 0.771115291736 -0.35551429936
95540000 0.769580965726 -0.355610749171
95550000 0.769920260305 -0.356467173613
95560000 0.769688610403 -0.356348614709
95570000 0.768948886884 -0.356757401675
95580000 0.770023089644 -0.356843682071
95590000 0.768201629006 -0.357371407179
95600000 0.768647559634 -0.357769086681
95610000 0.76845494363 -0.358223253229
95620000 0.767977843138 -0.358296116606
95630000 0.768222547203 -0.358362633829
95640000 0.767819068789 -0.359206772204
95650000 0.767311885992 -0.358603055422
95660000 0.766500105888 -0.358384015815
95670000 0.767460572869 -0.359490322605
95680000 0.766701008556 -0.359385308077
95690000 0.766562575166 -0.359828565077
95700000 0.765449377963 -0.360416576315
95710000 0.765627761113 -0.361075739908
95720000 0.766497776399 -0.361517368393
95730000 0.765066001764 -0.361056797209
95740000 0.765336374085 -0.362432349233
95750000 0.765078504583 -0.362431553235
95760000 0.764083330505 -0.362248393717
95770000 0.76467300267 -0.362806229688
95780000 0.763821456288 -0.363060856759
95790000 0.763720207646 -0.36364720558
95800000 0.763394374643 -0.363731437637
95810000 0.762854786971 -0.364091691961
95820000 0.763748721868 -0.36397976182
95830000 0.762176134116 -0.36463320095
95840000 0.762147501635 -0.364763983369
95850000 0.761901456248 -0.365158208464
95860000 0.762104006094 -0.36533560921
95870000 0.761718431404 -0.365268383349
95880000 0.761113700719 -0.366381464438
95890000 0.760886467952 -0.366046477144
95900000 0.760379374565 -0.366605077014
95910000 0.760769291986 -0.367010345287
95920000 0.759808852412 -0.36667523846
95930000 0.759840081182 -0.367691854922
95940000 0.75967812037 -0.367647531682
95950000 0.7588775813 -0.367885874706
95960000 0.759833786676 -0.36817816736
95970000 0.75809100247 -0.368398702091
95980000 0.758433617441 -0.36894183516
95990000 0.758196945565 -0.369100017871
96000000 0.7576715364 -0.369342504668
96010000 0.75806623843 -0.369693987851
96020000 0.756962409 -0.369747518765
96030000 0.756489265411 -0.370632233315
96040000 0.75702429185 -0.370319611596
96050000 0.756171085028 -0.370928903203
96060000 0.756992187637 -0.371233014159
96070000 0.755339217393 -0.371242939401
96080000 0.755621746752 -0.371796936019
96090000 0.755266285715 -0.371571521403
96100000 0.75463175254 -0.372368793923
96110000 0.755426905747 -0.372256666022
96120000 0.753855027465 -0.372890782145
96130000 0.754467169282 -0.373034166319
96140000 0.753570535118 -0.373073186913
96150000 0.753329332643 -0.373683461797
96160000 0.753539421272 -0.373500202818
96170000 0.752256952506 -0.374418117978
96180000 0.753077850554 -0.374381281421
96190000 0.75191383868 -0.374573035545
96200000 0.752284944214 -0.37489645397
96210000 0.751456406319 -0.374949244418
96220000 0.75126499119 -0.375723623977
96230000 0.751479554377 -0.375496537791
96240000 0.750243605112 -0.375992870386
96250000 0.751284253567 -0.376250954299
96260000 0.749720540753 -0.376265191464
96270000 0.749722413903 -0.376834834376
96280000 0.749606530148 -0.376884383807
96290000 0.748823007812 -0.377413825787
96300000 0.749513632139 -0.377471161287
96310000 0.748001275222 -0.377842255807
96320000 0.748687081 -0.378128797987
96330000 0.747885758866 -0.378147103476
96340000 0.74749749873 -0.378744375924
96350000 0.747826599644 -0.378716820879
96360000 0.746598902587 -0.379282389037
96370000 0.747265374302 -0.379395719453
96380000 0.746243233663 -0.379557484343
96390000 0.746720270899 -0.379880263328
96400000 0.745667454906 -0.379959259565
96410000 0.744842685768 -0.380621696924
96420000 0.745640694758 -0.380534593672
96430000 0.744451597586 -0.381008362153
96440000 0.745185271365 -0.381278555542
96450000 0.743647301704 -0.380987134485
96460000 0.743969240907 -0.382104136305
96470000 0.743829728734 -0.381806294909
96480000 0.74313510046 -0.382006043283
96490000 0.743681748089 -0.382315763967
96500000 0.742352929051 -0.382465927579
96510000 0.742326214883 -0.382773869454
96520000 0.741684791992 -0.382866636788
96530000 0.74186215384 -0.383614458678
96540000 0.742122460623 -0.383246960244
96550000 0.740610971196 -0.384048530575
96560000 0.741158699736 -0.384231795463
96570000 0.739942909657 -0.38446038415
96580000 0.740539497442 -0.384816844117
96590000 0.739788377795 -0.384650188564
96600000 0.739038825646 -0.385293831353
96610000 0.7397020106 -0.385327504174
96620000 0.738360299624 -0.385522902924
96630000 0.739110787854 -0.385927931304
96640000 0.737767296126 -0.385925854651
96650000 0.737493200936 -0.386493004032
96660000 0.737658248127 -0.386512358887
96670000 0.736650733229 -0.386938461504
96680000 0.737582891365 -0.387091478099
96690000 0.736000356938 -0.387248961069
96700000 0.736445923938 -0.387571156949
96710000 0.735716382654 -0.387613358546
96720000 0.735361711821 -0.387994125025
96730000 0.735601369935 -0.388166823368
96740000 0.7342502878 -0.388479943435
96750000 0.735040090227 -0.388756445325
96760000 0.733925165158 -0.388856470212
96770000 0.734083734604 -0.389287395785
96780000 0.733478524079 -0.389156601136
96790000 0.732545511976 -0.38976933441
96800000 0.733422532077 -0.389917696537
96810000 0.732063194635 -0.389966367837
96820000 0.732707732773 -0.390491788764
96830000 0.731449344137 -0.390396992133
96840000 0.731139138465 -0.390858096839
96850000 0.73138838549 -0.390950403816
96860000 0.730435559421 -0.391208552617
96870000 0.73124442652 -0.391589791103
96880000 0.729583495521 -0.391644344955
96890000 0.730026897181 -0.392060701095
96900000 0.729288996168 -0.392018831547
96910000 0.728826292558 -0.392404578004
96920000 0.729319595062 -0.392707583316
96930000 0.727915462629 -0.392900211038
96940000 0.728623706616 -0.393214916275
96950000 0.72751625495 -0.393298114851
96960000 0.727443788546 -0.3936165996
96970000 0.727087736722 -0.393468161902
96980000 0.726077171809 -0.39402667281
96990000 0.72694490357 -0.394392881783
97000000 0.725597517228 -0.394310364272
97010000 0.725243495619 -0.394684236125
97020000 0.725161776946 -0.394672564467
97030000 0.725455771234 -0.395227601075
97040000 0.724218873509 -0.395202213555
97050000 0.724924708697 -0.395603318479
97060000 0.723417754326 -0.395889150382
97070000 0.723527234321 -0.395876452215
97080000 0.72341661452 -0.396082407443
97090000 0.722841095529 -0.396451117479
97100000 0.722846453118 -0.39645300231
97110000 0.721695193596 -0.396835412739
97120000 0.722011293832 -0.39720349779
97130000 0.721225011872 -0.396538851497
97140000 0.721058360417 -0.397585654742
97150000 0.720555145863 -0.397134903768
97160000 0.72004710987 -0.397620242753
97170000 0.720366715895 -0.398292988349
97180000 0.719039074175 -0.397768325262
97190000 0.719741458245 -0.398689635707
97200000 0.718615064838 -0.398537942723
97210000 0.718451109222 -0.398706884118
97220000 0.718843982928 -0.399332028158
97230000 0.717516002125 -0.3988603933
97240000 0.717977755547 -0.399629546791
97250000 0.716797285395 -0.399394417033
97260000 0.71621834555 -0.400036559154
97270000 0.716531475059 -0.400073825217
97280000 0.71592950041 -0.400243350954
97290000 0.716297934123 -0.400710107913
97300000 0.715297497081 -0.400396613453
97310000 0.715660987647 -0.400670714197
97320000 0.714464111425 -0.400766509288
97330000 0.714283496768 -0.401206238867
97340000 0.713832166441 -0.401264927791
97350000 0.713028099928 -0.401468442598
97360000 0.713470710961 -0.40206901835
97370000 0.712253615827 -0.401371013808
97380000 0.712741488048 -0.40247440269
97390000 0.711636884792 -0.402153511565
97400000 0.711511184178 -0.402523334994
97410000 0.711790643717 -0.403104350341
97420000 0.710372243391 -0.402635281069
97430000 0.711113695196 -0.403401905804
97440000 0.709645650112 -0.403283362901
97450000 0.709968193422 -0.403406615851
97460000 0.70967225824 -0.403931404983
97470000 0.708978345424 -0.403899916735
97480000 0.709320188757 -0.404051037947
97490000 0.708034178701 -0.404429991982
97500000 0.708360859559 -0.404627277558
97510000 0.707611143914 -0.404362121145
97520000 0.707115654079 -0.404911647315
97530000 0.706831885979 -0.404512571349
97540000 0.706150256539 -0.404992110322
97550000 0.706555617908 -0.405535619795
97560000 0.705411549899 -0.404836636026
97570000 0.705804114949 -0.405930139786
97580000 0.704621412584 -0.405462403321
97590000 0.704466840435 -0.405796832298
97600000 0.704736894042 -0.406470425299
97610000 0.703554135253 -0.405968056174
97620000 0.704058209824 -0.406909834166
97630000 0.702530644183 -0.406663086071
97640000 0.702681765269 -0.40679993606
97650000 0.702636216259 -0.407250749242
97660000 0.701503246569 -0.406895720464
97670000 0.702242646638 -0.407559255376
97680000 0.700836384983 -0.407666768975
97690000 0.701402081891 -0.40795691821
97700000 0.70057896644 -0.407541099484
97710000 0.700210082844 -0.408183417061
97720000 0.699928516348 -0.40787194363
97730000 0.698960548195 -0.408377565596
97740000 0.699176299128 -0.40894461821
97750000 0.698376363552 -0.40793370583
97760000 0.698512850817 -0.409102804334
97770000 0.697610766664 -0.408589729668
97780000 0.697285830917 -0.409152847125
97790000 0.69750018145 -0.40974651908
97800000 0.696230178365 -0.408854957823
97810000 0.69691780185 -0.409909312262
97820000 0.69538824776 -0.409449604002
97830000 0.695771905451 -0.409894111044
97840000 0.695444572401 -0.41027392436
97850000 0.694545988502 -0.409938988829
97860000 0.69510435296 -0.410568358064
97870000 0.693586388898 -0.410561030287
97880000 0.694002707653 -0.410869097759
97890000 0.69351700542 -0.410740993102
97900000 0.692547018795 -0.411146754592
97910000 0.692717569118 -0.41078425368
97920000 0.691801745558 -0.411151972018
97930000 0.692053344045 -0.411686963665
97940000 0.691295061617 -0.410944789693
97950000 0.691126602852 -0.411920668645
97960000 0.690386473301 -0.411243153524
97970000 0.690057268307 -0.411876808926
97980000 0.690264901554 -0.41241318074
97990000 0.689242831814 -0.411511712186
98000000 0.689617532766 -0.412809947673
98010000 0.688735295817 -0.412332806146
98020000 0.688044215476 -0.412468072472
98030000 0.688407652532 -0.412707209657
98040000 0.687165417632 -0.412945725151
98050000 0.687900758328 -0.413683698511
98060000 0.686896558211 -0.412707858628
98070000 0.687047075351 -0.41382309591
98080000 0.686177027074 -0.412666099437
98090000 0.68561309685 -0.413531654511
98100000 0.685677984598 -0.413862304758
98110000 0.684678393751 -0.412917038327
98120000 0.685123450124 -0.414490998768
98130000 0.683678144394 -0.413513838067
98140000 0.683692896797 -0.414366067195
98150000 0.683855124429 -0.414820525403
98160000 0.682747150655 -0.414107800396
98170000 0.683332218071 -0.41521327988
98180000 0.681682099545 -0.414526961167
98190000 0.682254215321 -0.415197046377
98200000 0.681718770799 -0.414878351869
98210000 0.681246856398 -0.414994120615
98220000 0.681488462696 -0.415478084069
98230000 0.67999269 -0.415271296727
98240000 0.680475209757 -0.416009897055
98250000 0.679697466205 -0.414963862419
98260000 0.679322959615 -0.415789316781
98270000 0.679143757893 -0.415317102891
98280000 0.678172025318 -0.415704781613
98290000 0.678298536518 -0.41664706289
98300000 0.677499563588 -0.415362172926
98310000 0.677798046507 -0.416887158025
98320000 0.676873699229 -0.415805600469
98330000 0.676757286249 -0.416683284572
98340000 0.67674909676 -0.417250040418
98350000 0.67582021647 -0.41632610696
98360000 0.676287530913 -0.417528616383
98370000 0.674798771172 -0.416558305897
98380000 0.675000904894 -0.417211503656
98390000 0.674716659465 -0.41718294405
98400000 0.673803010524 -0.416985101959
98410000 0.674345519316 -0.417724836779
98420000 0.672865374235 -0.417317355996
98430000 0.67348331525 -0.418329415498
98440000 0.672777646374 -0.417329914124
98450000 0.672341301083 -0.418102816855
98460000 0.672081617887 -0.417493607332
98470000 0.671053037259 -0.417894625779
98480000 0.671338091123 -0.418708422469
98490000 0.670717988954 -0.417332347985
98500000 0.670825428133 -0.41892412233
98510000 0.669994854959 -0.417870365415
98520000 0.66946430599 -0.418591206949
98530000 0.669607015395 -0.419300945528
98540000 0.668905046504 -0.418211043461
98550000 0.669162291516 -0.419669673124
98560000 0.667846687219 -0.418474109055
98570000 0.667960528583 -0.41935324237
98580000 0.667685343397 -0.419296551228
98590000 0.667240401252 -0.419025705845
98600000 0.66744042016 -0.420106215104
98610000 0.665900376471 -0.419318730249
98620000 0.666137993009 -0.420287560281
98630000 0.665821689193 -0.419460069675
98640000 0.665154873255 -0.419985825371
98650000 0.665394457957 -0.419704335946
98660000 0.664155326968 -0.419797125486
98670000 0.664104903936 -0.420773677646
98680000 0.663900084657 -0.419184887633
98690000 0.663618828062 -0.420604902328
98700000 0.663263651403 -0.419541209408
98710000 0.662512711925 -0.42052666101
98720000 0.662662732784 -0.421320831483
98730000 0.661844164417 -0.420159676434
98740000 0.662114057637 -0.421514008291
98750000 0.661060120969 -0.420220447592
98760000 0.660921533818 -0.420880101008
98770000 0.660613102751 -0.42144653268
98780000 0.660054653711 -0.42064359983
98790000 0.660434117126 -0.42222602168
98800000 0.659113983772 -0.420961300434
98810000 0.659396208666 -0.422126613051
98820000 0.659150755159 -0.421268415558
98830000 0.658549864067 -0.422005157323
98840000 0.658164070421 -0.422016424327
98850000 0.657743025442 -0.42163191727
98860000 0.657895919523 -0.422641504283
98870000 0.657083750839 -0.421245143709
98880000 0.656294222947 -0.423700854721
98890000 0.656617484806 -0.421877518392
98900000 0.655173519704 -0.421996996188
98910000 0.655580855246 -0.423481167769
98920000 0.655335122907 -0.421716500016
98930000 0.655399576093 -0.423898916143
98940000 0.654470100198 -0.421943893639
98950000 0.654172462728 -0.422934945602
98960000 0.65415027696 -0.423260596201
98970000 0.653481617451 -0.422676703277
98980000 0.65335044309 -0.424239468945
98990000 0.652373511309 -0.422766117354
99000000 0.652443827341 -0.423822393242
99010000 0.65171148762 -0.42336148275
99020000 0.651822926508 -0.423237867542
99030000 0.651539254859 -0.424290355586
99040000 0.651246481701 -0.422925481
99050000 0.65065201291 -0.424143757252
99060000 0.649944624128 -0.424022130327
99070000 0.650033421736 -0.424246760213
99080000 0.65018097244 -0.424772008743
99090000 0.649195721396 -0.423942402212
99100000 0.648951435883 -0.424176341977
99110000 0.648189614787 -0.42410667932
99120000 0.64820106461 -0.4243606947
99130000 0.648438443959 -0.424602928321
99140000 0.64728860731 -0.424791552875
99150000 0.647114830423 -0.424858800776
99160000 0.646696865835 -0.424930009514
99170000 0.646565615886 -0.425549347056
99180000 0.646897163946 -0.424730933387
99190000 0.645650280187 -0.425605642045
99200000 0.64515264047 -0.425098635901
99210000 0.645183617736 -0.425016175399
99220000 0.644649914 -0.426315323482
99230000 0.64480501861 -0.424670177076
99240000 0.644113580264 -0.425925605184
99250000 0.643310990897 -0.425817359705
99260000 0.643362754148 -0.426035235775
99270000 0.643168142353 -0.426918305471
99280000 0.642678989363 -0.425737811553
99290000 0.642385865298 -0.426011811954
99300000 0.641611725832 -0.42609695626
99310000 0.641732914153 -0.426444273192
99320000 0.64155058075 -0.426938344323
99330000 0.640712765857 -0.426565767104
99340000 0.64047668881 -0.426825217407
99350000 0.64005608909 -0.426737920037
99360000 0.639771316386 -0.427478074998
99370000 0.640256533847 -0.426839792913
99380000 0.6388431533 -0.427558907685
99390000 0.638419121299 -0.42701054098
99400000 0.638460836773 -0.426803634602
99410000 0.637998699051 -0.428001730814
99420000 0.638287391328 -0.426759249077
99430000 0.637311263204 -0.428065130151
99440000 0.636666803294 -0.427753428648
99450000 0.636779476065 -0.42807940265
99460000 0.63636395411 -0.42889588853
99470000 0.636207135716 -0.427865035415
99480000 0.635752545231 -0.428063797561
99490000 0.634840290591 -0.428029084733
99500000 0.634827571276 -0.428136100524
99510000 0.634700636999 -0.429061630929
99520000 0.634158107495 -0.428378552136
99530000 0.633919379773 -0.428768276582
99540000 0.633356320348 -0.428778215439
99550000 0.63297470336 -0.429487017639
99560000 0.633346229887 -0.429165236915
99570000 0.632100385601 -0.429534985495
99580000 0.63181068971 -0.429030601378
99590000 0.631855672106 -0.428906133428
99600000 0.631015496283 -0.430269736354
99610000 0.631557128173 -0.429110566708
99620000 0.630240421018 -0.430058810727
99630000 0.629858728377 -0.429865292516
99640000 0.629900257014 -0.43010380822
99650000 0.629227336703 -0.431252416759
99660000 0.629552026646 -0.429875978176
99670000 0.628896791457 -0.430324007535
99680000 0.62831511872 -0.430134003627
99690000 0.628293329421 -0.430402929316
99700000 0.627790115491 -0.431307962756
99710000 0.627372348887 -0.430819781504
99720000 0.627228013318 -0.430875845748
99730000 0.626441584394 -0.430980890013
99740000 0.625658130768 -0.431773647753
99750000 0.626361700148 -0.431652290972
99760000 0.625195574898 -0.431734308949
99770000 0.6250209463 -0.431051715145
99780000 0.624943865409 -0.431014106449
99790000 0.624102196819 -0.432078506214
99800000 0.624711134071 -0.431420171563
99810000 0.623297988018 -0.432236265048
99820000 0.62286582489 -0.432158817914
99830000 0.622799473803 -0.432427886823
99840000 0.621962028715 -0.433312777879
99850000 0.622704660214 -0.43248348658
99860000 0.621969785129 -0.432843470406
99870000 0.621490734224 -0.432508852909
99880000 0.620369210267 -0.432396150685
99890000 0.62063512182 -0.433788684063
99900000 0.618935920765 -0.432267331479
99910000 0.620170983977 -0.433318465973
99920000 0.619377037266 -0.433274708113
99930000 0.618880097723 -0.433585645258
99940000 0.618964983623 -0.434061642853
99950000 0.61807607399 -0.433966850702
99960000 0.61807890857 -0.433274515791
99970000 0.617866175093 -0.433432005382
99980000 0.616856207174 -0.434502719035
99990000 0.617515872002 -0.434122163182
100000000 0.615964512507 -0.43450937955
100010000 0.616288245765 -0.435052227111
100020000 0.615669555203 -0.434640013463
100030000 0.615226505037 -0.434542123721
100040000 0.615393366297 -0.434262893429
100050000 0.6141868822 -0.435284124431
100060000 0.615322363854 -0.434604514735
100070000 0.613695253524 -0.435188520933
100080000 0.613407488801 -0.43534873838
100090000 0.613196704564 -0.435175683617
100100000 0.611491262005 -0.436550344115
100110000 0.612721830982 -0.435416689492
100120000 0.611433375771 -0.436036693899
100130000 0.611491756739 -0.435513830658
100140000 0.611310396281 -0.435705838242
100150000 0.609608341701 -0.436944155525
100160000 0.610946089157 -0.435679872596
100170000 0.608989801788 -0.437003637883
100180000 0.609366749401 -0.436208845302
100190000 0.608564441678 -0.437102623614
100200000 0.608401592655 -0.437434076813
100210000 0.608189292433 -0.436892416656
100220000 0.60771877226 -0.437056534803
100230000 0.607761464866 -0.436637328647
100240000 0.60652678742 -0.437338548416
100250000 0.607586979719 -0.437108837
100260000 0.606107634096 -0.437290023268
100270000 0.60564742476 -0.437733074522
100280000 0.605515279583 -0.437540646302
100290000 0.603506595925 -0.438757947398
100300000 0.605115263042 -0.437758111296
100310000 0.603743196579 -0.438271757142
100320000 0.603947523862 -0.437700208326
100330000 0.603684309082 -0.438176177226
100340000 0.601300974557 -0.439055540566
100350000 0.603117588827 -0.438037681278
100360000 0.601104096778 -0.439160707898
100370000 0.601584026822 -0.438585168317
100380000 0.600929029243 -0.439222653033
100390000 0.600126967482 -0.439857527792
100400000 0.600344516724 -0.439197854913
100410000 0.599876465838 -0.439290125972
100420000 0.599971702696 -0.438989463471
100430000 0.598849117133 -0.439754056719
100440000 0.599509182201 -0.43975849972
100450000 0.598441776484 -0.439730011623
100460000 0.597641715179 -0.439979009944
100470000 0.597677035866 -0.439898968606
100480000 0.595592025079 -0.440799002264
100490000 0.59717406977 -0.440407613033
100500000 0.59560832602 -0.440491828563
100510000 0.595914414835 -0.440082969001
100520000 0.595857644448 -0.440336129724
100530000 0.593092292057 -0.441127869196
100540000 0.595285172103 -0.440594649553
100550000 0.592824866947 -0.441344930397
100560000 0.593293530731 -0.440899649242
100570000 0.592561647642 -0.44149044452
100580000 0.591378310865 -0.442034429997
100590000 0.592104371487 -0.44162803783
100600000 0.591471527534 -0.441696438526
100610000 0.591670145708 -0.44132412152
100620000 0.590642941624 -0.441534572726
100630000 0.590850467029 -0.44194802907
100640000 0.590513807505 -0.441784097145
100650000 0.589177224009 -0.442184300195
100660000 0.589285149286 -0.442240438158
100670000 0.586916607025 -0.442535778324
100680000 0.588892899081 -0.442560317089
100690000 0.587561414475 -0.442629936089
100700000 0.587667493565 -0.442498106197
100710000 0.587605339018 -0.442657343802
100720000 0.584616902931 -0.442847965471
100730000 0.587126635656 -0.442809803718
100740000 0.584527429901 -0.44320834304
100750000 0.584883253323 -0.44310315477
100760000 0.584177042425 -0.443501282048
100770000 0.582367092925 -0.443911612969
100780000 0.583647922203 -0.443534668163
100790000 0.582964825014 -0.443634104022
100800000 0.583200611338 -0.443442432512
100810000 0.582221196494 -0.443863214029
100820000 0.581862574079 -0.44401331359
100830000 0.581883200378 -0.443873031956
100840000 0.580301528374 -0.444124459177
100850000 0.580641774009 -0.444156315947
100860000 0.578194492285 -0.444548310526
100870000 0.579851834305 -0.444919211602
100880000 0.578573907894 -0.444769972879
100890000 0.578876362865 -0.444564573394
100900000 0.5788038688 -0.444837614962
100910000 0.575718243108 -0.4446953185
100920000 0.578205977516 -0.445134942526
100930000 0.575710026904 -0.445118701053
100940000 0.575976088985 -0.445022613799
100950000 0.575277334389 -0.445543356717
100960000 0.573082781299 -0.445541843201
100970000 0.574484147812 -0.44579935861
100980000 0.573811894656 -0.445549360699
100990000 0.573969265619 -0.445389095662
101000000 0.573309922204 -0.445672809651
101010000 0.572184370762 -0.44609754699
101020000 0.57116555577 -0.446035559013
101030000 0.571464001411 -0.446243882287
101040000 0.571556592093 -0.446405739051
101050000 0.569806086583 -0.44603064052
101060000 0.570943703911 -0.446482320279
101070000 0.56925661695 -0.446352364162
101080000 0.568662006096 -0.446507003389
101090000 0.569085373064 -0.4469468224
101100000 0.567156380978 -0.44650098442
101110000 0.567329150642 -0.446812645236
101120000 0.566949225751 -0.447107422859
101130000 0.56584237949 -0.446879730519
101140000 0.566614530237 -0.447253845696
101150000 0.565362032128 -0.446923312618
101160000 0.565552836185 -0.447184987801
101170000 0.564758817902 -0.447637042412
101180000 0.563611900612 -0.447395643919
101190000 0.563440930746 -0.447651678869
101200000 0.562486784307 -0.447675328806
101210000 0.561805873273 -0.447453434038
101220000 0.562181390207 -0.44778748124
101230000 0.56204574769 -0.448113132426
101240000 0.560828402798 -0.447666477544
101250000 0.561237379239 -0.448158784883
101260000 0.559622011341 -0.447735284247
101270000 0.55908707641 -0.448006080824
101280000 0.559378332396 -0.448797031517
101290000 0.557415076267 -0.448010923351
101300000 0.557252389485 -0.448415342057
101310000 0.556853124201 -0.448466179798
101320000 0.55606533085 -0.44820702444
101330000 0.556891770208 -0.448893537832
101340000 0.555395629402 -0.448209361971
101350000 0.555818378904 -0.448771103074
101360000 0.55480607193 -0.448875556175
101370000 0.553618118861 -0.448514359001
101380000 0.55375742288 -0.44903175388
101390000 0.55240343341 -0.448875012204
101400000 0.55173220154 -0.448716169311
101410000 0.5515486072 -0.448873047553
101420000 0.551890296231 -0.449338988577
101430000 0.551006474776 -0.449092080051
101440000 0.550812195733 -0.449725350576
101450000 0.54944819905 -0.448950125027
101460000 0.54889487305 -0.449172811967
101470000 0.549199516591 -0.44984460363
101480000 0.547409755196 -0.44913106382
101490000 0.547151825936 -0.449736175423
101500000 0.546579070157 -0.449553436462
101510000 0.545652719731 -0.448967748614
101520000 0.546677048307 -0.45010876225
101530000 0.54524478318 -0.449173146947
101540000 0.545451423024 -0.45008341979
101550000 0.544171285234 -0.450010895797
101560000 0.543113706929 -0.4492943953
101570000 0.542906264091 -0.449479498802
101580000 0.54196895289 -0.449599281609
101590000 0.541434091238 -0.449521372465
101600000 0.541806428891 -0.450281133256
101610000 0.541074635036 -0.450072016063
101620000 0.540465844989 -0.449858309188
101630000 0.540439379793 -0.450295572064
101640000 0.539311226408 -0.449704224902
101650000 0.538547512106 -0.450006169644
101660000 0.538459911461 -0.450724701137
101670000 0.536925015178 -0.449698598002
101680000 0.536463458709 -0.450080698833
101690000 0.535832677913 -0.449834279322
101700000 0.535303026976 -0.449739617795
101710000 0.535913790361 -0.451050109559
101720000 0.534369039752 -0.449592660981
101730000 0.534820495758 -0.450587008185
101740000 0.533697788693 -0.450300909294
101750000 0.53261516162 -0.449537745115
101760000 0.532538552933 -0.450594472527
101770000 0.531078229155 -0.449702319915
101780000 0.530543483527 -0.449761494149
101790000 0.530800469239 -0.450558507521
101800000 0.530148244634 -0.450305804917
101810000 0.529745638231 -0.450383421209
101820000 0.529380251106 -0.450542695157
101830000 0.528490365986 -0.45002805404
101840000 0.527655165901 -0.45017802219
101850000 0.527476213894 -0.450700032297
101860000 0.526280115174 -0.449867664371
101870000 0.525542633694 -0.45015898408
101880000 0.52475813061 -0.44959118662
101890000 0.524331888806 -0.449467930969
101900000 0.524955608923 -0.451036508755
101910000 0.523761483587 -0.449417585323
101920000 0.523619241732 -0.450775058539
101930000 0.522618466319 -0.450081483956
101940000 0.521301266753 -0.44920274265
101950000 0.521377189064 -0.450457448661
101960000 0.520162894293 -0.449197998009
101970000 0.519315111791 -0.44896877503
101980000 0.519721948565 -0.450410176297
101990000 0.518931205712 -0.449919402602
102000000 0.518637603373 -0.4502193675
102010000 0.517600451971 -0.449639163935
102020000 0.516602450306 -0.448841234259
102030000 0.517143475225 -0.450760203714
102040000 0.515928211904 -0.449305229968
102050000 0.515134732797 -0.449445908736
102060000 0.515049125333 -0.449640877867
102070000 0.514626853451 -0.450070457051
102080000 0.51356622446 -0.449275791175
102090000 0.513143197976 -0.449396472233
102100000 0.512601522623 -0.449435884671
102110000 0.51130837995 -0.448518984857
102120000 0.511502096629 -0.450420539088
102130000 0.510852657662 -0.448821936023
102140000 0.509901068797 -0.449205169768
102150000 0.509336203668 -0.448216945117
102160000 0.508701263231 -0.448416570621
102170000 0.508336342217 -0.44994949298
102180000 0.507489793012 -0.447781803319
102190000 0.507410059589 -0.449336031565
102200000 0.506369376329 -0.448664494347
102210000 0.505218015967 -0.447539795902
102220000 0.505655266534 -0.449808051799
102230000 0.504744582579 -0.447959921114
102240000 0.503977949001 -0.448328365639
102250000 0.503779105361 -0.448701055829
102260000 0.503268315146 -0.448961576575
102270000 0.50226808148 -0.448389747445
102280000 0.501832984049 -0.44797068541
102290000 0.501526213516 -0.448155065116
102300000 0.500246786445 -0.447299087731
102310000 0.500174145547 -0.448770556429
102320000 0.499546108389 -0.447615752057
102330000 0.498508292662 -0.447586503453
102340000 0.498030035582 -0.446605490205
102350000 0.497471927057 -0.446571956652
102360000 0.497106131825 -0.448460002034
102370000 0.496373735892 -0.44624593677
102380000 0.495939971873 -0.4476289666
102390000 0.495259440543 -0.446696803961
102400000 0.494336400083 -0.445299795565
102410000 0.494289521573 -0.448275778527
102420000 0.493791955821 -0.446135936711
102430000 0.492627494948 -0.4462913544
102440000 0.492928340626 -0.446784956492
102450000 0.491924911209 -0.446622380721
102460000 0.491104362242 -0.446703816258
102470000 0.491141275668 -0.445957422095
102480000 0.49013193283 -0.445652336303
102490000 0.48883312469 -0.445902342268
102500000 0.488492401552 -0.446460093543
102510000 0.488475804891 -0.445720799462
102520000 0.487515780422 -0.445540098372
102530000 0.487108455109 -0.44473287727
102540000 0.486420930657 -0.444685300867
102550000 0.485431592769 -0.446599750835
102560000 0.485339411428 -0.443802654705
102570000 0.484699228514 -0.445236256451
102580000 0.484212980805 -0.444431028441
102590000 0.483260777737 -0.442908194457
102600000 0.482709867321 -0.44594277184
102610000 0.482713906107 -0.443535397954
102620000 0.481557208684 -0.444131890433
102630000 0.481522098435 -0.444212146072
102640000 0.480663058077 -0.444346304622
102650000 0.479554610986 -0.444230378557
102660000 0.479801005953 -0.443161651853
102670000 0.478980900388 -0.443837488939
102680000 0.478166553302 -0.442999551238
102690000 0.477321071795 -0.443742188449
102700000 0.477183698182 -0.443502096334
102710000 0.476375633188 -0.442629232538
102720000 0.476111898373 -0.441741565309
102730000 0.475684478057 -0.44186062838
102740000 0.474197928774 -0.443747229623
102750000 0.474460036621 -0.441478974906
102760000 0.47360905514 -0.442174353872
102770000 0.47324803061 -0.441401048199
102780000 0.472617436093 -0.439729563191
102790000 0.471439670803 -0.443115303047
102800000 0.471879125068 -0.440715960306
102810000 0.470293263147 -0.441099510386
102820000 0.470324851861 -0.441048440817
102830000 0.469628883426 -0.440930003478
102840000 0.468477430617 -0.441300226315
102850000 0.468883011318 -0.440176054034
102860000 0.467942052533 -0.441216046389
102870000 0.467322918256 -0.438948590675
102880000 0.466347404397 -0.440190557299
102890000 0.466506513736 -0.439688779839
102900000 0.465746926183 -0.439440840095
102910000 0.465348167614 -0.438812086141
102920000 0.464756389685 -0.438728071328
102930000 0.463002958425 -0.440367297294
102940000 0.463590506701 -0.438015721883
102950000 0.462860970227 -0.438729642018
102960000 0.46247983073 -0.438200206368
102970000 0.461902049268 -0.436464649238
102980000 0.460154175183 -0.439614324261
102990000 0.460998540594 -0.437281341725
103000000 0.45977328492 -0.437113620857
103010000 0.457971153961 -0.437737690894
103020000 0.456303654768 -0.440613907384
103030000 0.459362272493 -0.436705528704
103040000 0.458456131923 -0.437236185781
103050000 0.460069901548 -0.432665007408
103060000 0.454565292119 -0.43779658403
103070000 0.454051592775 -0.439831012551
103080000 0.456578861998 -0.435455463479
103090000 0.455546211239 -0.435630953359
103100000 0.456895900733 -0.431940493246
103110000 0.451055448481 -0.437220074044
103120000 0.452161623464 -0.437907119518
103130000 0.453859103968 -0.435365151601
103140000 0.452894788909 -0.434641944205
103150000 0.452597321 -0.432954258039
103160000 0.447711497135 -0.437718392372
103170000 0.45078690125 -0.434556959163
103180000 0.450950002999 -0.434016385967
103190000 0.45164276178 -0.431953363
103200000 0.447853470429 -0.433412968315
103210000 0.445033934609 -0.436304066289
103220000 0.449107503959 -0.433221012081
103230000 0.447969050697 -0.433717538624
103240000 0.45025247559 -0.429430139653
103250000 0.444046746913 -0.433175374179
103260000 0.442726606386 -0.435544121332
103270000 0.446292057281 -0.43168664171
103280000 0.445950980085 -0.431270501048
103290000 0.447530107326 -0.428183242874
103300000 0.440426530192 -0.432433021463
103310000 0.440990377655 -0.433916646899
103320000 0.443787276693 -0.431605409462
103330000 0.442719320532 -0.431186910777
103340000 0.44318704451 -0.428853809412
103350000 0.436605107807 -0.433022640371
103360000 0.440088895347 -0.430770133041
103370000 0.440893059109 -0.430033882375
103380000 0.442155806533 -0.427872742109
103390000 0.43789995755 -0.42905967486
103400000 0.433872843757 -0.431496604536
103410000 0.438712860033 -0.42929481675
103420000 0.437808709221 -0.429755650527
103430000 0.440339496147 -0.426307701483
103440000 0.433933786332 -0.42876147352
103450000 0.431436574744 -0.431086828338
103460000 0.436271407017 -0.42764851166
103470000 0.435125413413 -0.42783519276
103480000 0.438243972711 -0.424572362741
103490000 0.430380588509 -0.427661774148
103500000 0.429838192108 -0.429448817749
103510000 0.433724693677 -0.427680990849
103520000 0.432535139931 -0.42700044761
103530000 0.433896537148 -0.424618322421
103540000 0.426095260465 -0.427864807106
103550000 0.429306537819 -0.426891527358
103560000 0.430795491218 -0.426105221427
103570000 0.431349390469 -0.425147962647
103580000 0.42861691996 -0.424713238462
103590000 0.423258649925 -0.426561084101
103600000 0.428421081158 -0.425447302472
103610000 0.42780275923 -0.425802557621
103620000 0.430450272367 -0.423011552927
103630000 0.424492614179 -0.424088810347
103640000 0.420486200763 -0.426283135776
103650000 0.426153192214 -0.423964520231
103660000 0.425475454723 -0.423898265231
103670000 0.429204410714 -0.420570541662
103680000 0.420431579195 -0.422567901858
103690000 0.418185543227 -0.425300576955
103700000 0.423598848381 -0.423894886857
103710000 0.421315072012 -0.422885022016
103720000 0.424187927854 -0.421154743985
103730000 0.416086811212 -0.422271620531
103740000 0.418366287858 -0.42237202859
103750000 0.42074231334 -0.422042615359
103760000 0.42023107762 -0.421208660441
103770000 0.419454526321 -0.420366328369
103780000 0.41296441854 -0.421149307361
103790000 0.418138278478 -0.421490156119
103800000 0.417657690959 -0.421603374134
103810000 0.42025712877 -0.419020053632
103820000 0.414710168374 -0.419379070501
103830000 0.409913337963 -0.420861150493
103840000 0.41647827829 -0.419884027334
103850000 0.414994708987 -0.419851716375
103860000 0.419089505537 -0.417480046108
103870000 0.410961572806 -0.417738809755
103880000 0.408076760408 -0.419593227805
103890000 0.413396800292 -0.419584931303
103900000 0.411713895421 -0.418967454098
103910000 0.415545238813 -0.416880278259
103920000 0.406319428707 -0.417371052937
103930000 0.407878941489 -0.417919896665
103940000 0.410812879963 -0.417932184254
103950000 0.410150233575 -0.41720597842
103960000 0.409963161446 -0.416013642051
103970000 0.402804511269 -0.415693531626
103980000 0.407557870169 -0.417046473758
103990000 0.407391942123 -0.417294393371
104000000 0.40947038392 -0.415523019631
104010000 0.406907386837 -0.416271325834
104020000 0.406285907582 -0.415534922623
104030000 0.407365483844 -0.414446082674
104040000 0.400475314239 -0.413551000972
104050000 0.401695215346 -0.415172878956
104060000 0.403647666905 -0.415990792796
104070000 0.404230022704 -0.414605785234
104080000 0.403611447076 -0.413227852713
104090000 0.396189627082 -0.413336536438
104100000 0.400468506961 -0.413876663366
104110000 0.401291557742 -0.413985104706
104120000 0.403555809732 -0.412881623275
104130000 0.398975911349 -0.411741247379
104140000 0.394014792022 -0.411197657172
104150000 0.398533324166 -0.413337700748
104160000 0.397615122572 -0.413141204202
104170000 0.400965428417 -0.411731601137
104180000 0.394116828295 -0.410550359372
104190000 0.391957103435 -0.410939338922
104200000 0.396326925027 -0.411596262267
104210000 0.396877982775 -0.410874599463
104220000 0.3976918895 -0.410148821513
104230000 0.390655480696 -0.408334644476
104240000 0.390841693453 -0.40992686881
104250000 0.393087546812 -0.4114347151
104260000 0.393517053354 -0.410031237994
104270000 0.393810306504 -0.408770534659
104280000 0.386050127763 -0.407529066384
104290000 0.389851476058 -0.408902196924
104300000 0.390895412246 -0.409424495631
104310000 0.393380086025 -0.408292186789
104320000 0.389163870472 -0.406957093884
104330000 0.383957036391 -0.405330390577
104340000 0.387979809294 -0.408582467569
104350000 0.387084242071 -0.408280352218
104360000 0.390355054759 -0.407333316097
104370000 0.384361641009 -0.405466086996
104380000 0.381189111565 -0.405113097399
104390000 0.385749201577 -0.406970961815
104400000 0.385207058526 -0.406022582939
104410000 0.387320530052 -0.405985209745
104420000 0.380594392858 -0.402919757044
104430000 0.380203335126 -0.404219152396
104440000 0.38244255725 -0.406617391217
104450000 0.3825082119 -0.405038006755
104460000 0.383824496061 -0.404033970134
104470000 0.376052926013 -0.401574849209
104480000 0.379075847331 -0.403755225842
104490000 0.380020537315 -0.404427153712
104500000 0.382097227323 -0.403822005708
104510000 0.379213025488 -0.402131640052
104520000 0.373947449002 -0.399131694118
104530000 0.377026953608 -0.403366415776
104540000 0.376313939373 -0.403197452469
104550000 0.379791172122 -0.402769731026
104560000 0.374287715851 -0.400173357001
104570000 0.37055187243 -0.398771664789
104580000 0.375020619722 -0.401905815022
104590000 0.374457232617 -0.401064931622
104600000 0.377182996074 -0.401309977333
104610000 0.370416404821 -0.397213380251
104620000 0.36950767451 -0.398123257683
104630000 0.371432211972 -0.401207628876
104640000 0.371822111278 -0.399776987819
104650000 0.373550362624 -0.399372105227
104660000 0.366022500103 -0.395518816374
104670000 0.368054336856 -0.397736301675
104680000 0.369193264167 -0.399170874194
104690000 0.371360862494 -0.398646342022
104700000 0.368877916418 -0.397135127613
104710000 0.363884561108 -0.392944702819
104720000 0.36607241662 -0.397887840574
104730000 0.365427212546 -0.397837346355
104740000 0.369977368854 -0.397846559804
104750000 0.3643262741 -0.39468634156
104760000 0.36033061848 -0.392316113531
104770000 0.363962697105 -0.396488590129
104780000 0.363689384494 -0.395496582314
104790000 0.366435663707 -0.3962409008
104800000 0.360460286367 -0.391365093117
104810000 0.35886622362 -0.391621382429
104820000 0.360484913664 -0.395759496387
104830000 0.360674239916 -0.394309486046
104840000 0.362663898604 -0.394413600624
104850000 0.355973674522 -0.389286136681
104860000 0.357307163275 -0.391560254891
104870000 0.358214277772 -0.393568266751
104880000 0.360150141272 -0.3933611258
104890000 0.358342009722 -0.392047063203
104900000 0.353826448062 -0.386598428013
104910000 0.354780910168 -0.391519356689
104920000 0.354212991875 -0.39181506353
104930000 0.357935468933 -0.392405388848
104940000 0.353856600627 -0.389145988866
104950000 0.349799160162 -0.385550350407
104960000 0.352590668997 -0.390375015569
104970000 0.352511109876 -0.389790048951
104980000 0.355619386842 -0.391063288173
104990000 0.350080854701 -0.38543508743
105000000 0.348232108389 -0.38480678451
105010000 0.348232288841 -0.386529186006
105020000 0.347716527023 -0.386756573621
105030000 0.349920072192 -0.388232913748
105040000 0.349320291848 -0.387826346829
105050000 0.347686216271 -0.383887101742
105060000 0.346723662452 -0.386030053043
105070000 0.34454672051 -0.385178872858
105080000 0.347400695523 -0.3880992234
105090000 0.344541668068 -0.384399907344
105100000 0.344374389688 -0.382350323978
105110000 0.342735711567 -0.384724376023
105120000 0.342627886504 -0.383788480513
105130000 0.346192334591 -0.387260151817
105140000 0.342697561613 -0.382972134153
105150000 0.340821598825 -0.380414837904
105160000 0.340157461518 -0.381979263566
105170000 0.339754951878 -0.383200309693
105180000 0.341760337496 -0.38534080848
105190000 0.338990130383 -0.379947333562
105200000 0.337011728333 -0.379560066838
105210000 0.336559134754 -0.379866825626
105220000 0.338533548368 -0.382130509926
105230000 0.338317608758 -0.381980752524
105240000 0.336398496337 -0.377165885038
105250000 0.335245320579 -0.380003698845
105260000 0.33308527495 -0.378871011311
105270000 0.335692343951 -0.381200448682
105280000 0.33266621585 -0.377786639707
105290000 0.333695670209 -0.375915315313
105300000 0.331736494093 -0.37898544701
105310000 0.330910404373 -0.376927862338
105320000 0.333927386933 -0.381163363459
105330000 0.330285072947 -0.376058951483
105340000 0.329943226613 -0.373654414603
105350000 0.328539508265 -0.375220200807
105360000 0.327655668265 -0.375904449397
105370000 0.329663314729 -0.379112000619
105380000 0.327389270367 -0.37329119442
105390000 0.325657671988 -0.372126350235
105400000 0.324624801021 -0.37288173294
105410000 0.325867069379 -0.374762076841
105420000 0.325728715906 -0.375412947868
105430000 0.325101871259 -0.370684211614
105440000 0.323097808102 -0.371696520128
105450000 0.321335914108 -0.370705888854
105460000 0.32231452027 -0.374170394042
105470000 0.320845086274 -0.370982475809
105480000 0.321876637085 -0.36894912354
105490000 0.318830317247 -0.370285059345
105500000 0.318726207321 -0.369204074855
105510000 0.3206044111 -0.373735828018
105520000 0.318260567997 -0.368558986867
105530000 0.318275973142 -0.366070726588
105540000 0.316362805735 -0.367543723533
105550000 0.315130261101 -0.368140828142
105560000 0.316414662546 -0.371877207406
105570000 0.315268355445 -0.365574886015
105580000 0.313793685943 -0.364069770997
105590000 0.312559529981 -0.364787021572
105600000 0.313058561989 -0.366576603511
105610000 0.313001316477 -0.368230761168
105620000 0.312851340141 -0.363259288093
105630000 0.310665433637 -0.363251508646
105640000 0.309275320938 -0.362372887857
105650000 0.309294130723 -0.365580588562
105660000 0.308565720068 -0.36347143674
105670000 0.30972759366 -0.360919315628
105680000 0.306242793427 -0.361742379223
105690000 0.306271754382 -0.360342425686
105700000 0.307146074726 -0.365534472355
105710000 0.305715950522 -0.360075265691
105720000 0.306204273966 -0.357957909839
105730000 0.303740536645 -0.358955529795
105740000 0.302106250246 -0.359018993629
105750000 0.303131201698 -0.363267953239
105760000 0.302709150985 -0.35675788294
105770000 0.301649666213 -0.355188507987
105780000 0.299809961069 -0.355652886446
105790000 0.300147735101 -0.357430337087
105800000 0.299792193016 -0.359536861691
105810000 0.300096194447 -0.354414097469
105820000 0.298168351618 -0.35360309084
105830000 0.296580855319 -0.352918749264
105840000 0.295590389272 -0.356041909186
105850000 0.295424644107 -0.354065604363
105860000 0.297099493989 -0.351759767004
105870000 0.293434256587 -0.35175134989
105880000 0.293692288383 -0.350524634825
105890000 0.293342663302 -0.355321522694
105900000 0.292773186498 -0.350323547126
105910000 0.293764548418 -0.348538233796
105920000 0.290853994437 -0.34882282527
105930000 0.289232369811 -0.348412387672
105940000 0.289177551525 -0.353096823818
105950000 0.289745109806 -0.346929509797
105960000 0.289414966387 -0.345128660447
105970000 0.287086992317 -0.345093925861
105980000 0.286731905073 -0.346755831235
105990000 0.286190742302 -0.34949884802
106000000 0.287304396064 -0.344264392136
106010000 0.286139440635 -0.343737583122
106020000 0.283214871682 -0.342713183473
106030000 0.283730827257 -0.343312500649
106040000 0.282624702293 -0.346999873176
106050000 0.283522350197 -0.341332681077
106060000 0.282701368006 -0.340512485478
106070000 0.280913037665 -0.339300842282
106080000 0.279007413722 -0.341351544274
106090000 0.278871197205 -0.341087154963
106100000 0.280790087843 -0.337346473302
106110000 0.277507558419 -0.337168289075
106120000 0.277757777323 -0.335818760648
106130000 0.276180048322 -0.339795745455
106140000 0.276186335365 -0.336426177501
106150000 0.278104621598 -0.334922640661
106160000 0.274592144083 -0.334578001869
106170000 0.274087684808 -0.332746890573
106180000 0.271524714067 -0.337303518425
106190000 0.273247101983 -0.331624577925
106200000 0.27365648397 -0.331742196988
106210000 0.270747612348 -0.330159114352
106220000 0.271401651087 -0.330475414363
106230000 0.268960316043 -0.334512447561
106240000 0.270984029859 -0.328485817458
106250000 0.270379242114 -0.327911379411
106260000 0.268812086513 -0.326645290716
106270000 0.266341975592 -0.327760408632
106280000 0.265759553263 -0.328840670722
106290000 0.268197708293 -0.324731436815
106300000 0.265307893913 -0.32372943309
106310000 0.265341305891 -0.322643298546
106320000 0.263283044506 -0.326033180754
106330000 0.263690346203 -0.323425688492
106340000 0.265668362475 -0.322154806919
106350000 0.262107331 -0.321093633082
106360000 0.262026981131 -0.319047436893
106370000 0.258533026029 -0.32277425899
106380000 0.261232223934 -0.318038834321
106390000 0.261499715327 -0.318563805935
106400000 0.258548890438 -0.31638398895
106410000 0.259216530207 -0.316191189305
106420000 0.255908137702 -0.320115979736
106430000 0.25878208895 -0.314817230912
106440000 0.258713235085 -0.314319324151
106450000 0.256900597836 -0.312768631848
106460000 0.254308198211 -0.313125778757
106470000 0.253010851235 -0.314456051613
106480000 0.25627468941 -0.310764406587
106490000 0.254265006416 -0.309433973232
106500000 0.253870738259 -0.308321468427
106510000 0.251299247512 -0.311180568445
106520000 0.251322475102 -0.308959173336
106530000 0.253782375092 -0.307684703408
106540000 0.250791537305 -0.305635864948
106550000 0.250932280152 -0.304001600825
106560000 0.246507112603 -0.307083227075
106570000 0.249447026665 -0.303301941813
106580000 0.249736419995 -0.303383981818
106590000 0.247128059933 -0.300620850037
106600000 0.248176165461 -0.300750760869
106610000 0.243744141211 -0.304282539824
106620000 0.247393941459 -0.299553386481
106630000 0.247227531568 -0.299097309128
106640000 0.245649557093 -0.29690779165
106650000 0.243401180035 -0.296483001143
106660000 0.24138389117 -0.298231663215
106670000 0.245266382396 -0.295131938769
106680000 0.243309324434 -0.293742474481
106690000 0.242934675935 -0.291979823568
106700000 0.24015382596 -0.293855859325
106710000 0.240170181388 -0.292558621926
106720000 0.242993156686 -0.291588232853
106730000 0.240565609243 -0.289495022072
106740000 0.240308354687 -0.28783486065
106750000 0.235703807812 -0.289094140355
106760000 0.239091873667 -0.286508057735
106770000 0.239526794827 -0.287052829241
106780000 0.237382818459 -0.283832939703
106790000 0.237905868695 -0.28408589682
106800000 0.232896064002 -0.286042690351
106810000 0.236845767026 -0.282595719605
106820000 0.237395135259 -0.282457557412
106830000 0.235875054811 -0.279787170106
106840000 0.233740680286 -0.279000976303
106850000 0.230586848403 -0.280475387142
106860000 0.235021473886 -0.277958724326
106870000 0.233863736779 -0.275988790573
106880000 0.233596948827 -0.274449305477
106890000 0.230816065903 -0.275317223406
106900000 0.230490640744 -0.275067745589
106910000 0.233096747053 -0.274141694385
106920000 0.231278854951 -0.271487411992
106930000 0.231634436298 -0.269610016403
106940000 0.226795382163 -0.269835402865
106950000 0.229958579366 -0.268730326927
106960000 0.230233857629 -0.268935978758
106970000 0.228629589194 -0.265579114819
106980000 0.22900713879 -0.265606452905
106990000 0.223943908875 -0.266624176252
107000000 0.228014737533 -0.264163981441
107010000 0.227559596363 -0.263111001241
107020000 0.227051453388 -0.260631281496
107030000 0.224549162998 -0.261160372589
107040000 0.224604038992 -0.260102758197
107050000 0.225780647529 -0.259222618838
107060000 0.226648985286 -0.258666755227
107070000 0.225677256607 -0.257697078886
107080000 0.222270201129 -0.255690641026
107090000 0.223399567289 -0.255737882366
107100000 0.222635076037 -0.253997986642
107110000 0.224576743031 -0.250925798751
107120000 0.223090432229 -0.251202367446
107130000 0.221895881109 -0.250198393454
107140000 0.221435359981 -0.25046382344
107150000 0.220871461017 -0.249089156653
107160000 0.223353085304 -0.248413514375
107170000 0.220265247765 -0.246325755949
107180000 0.220507770628 -0.245283425897
107190000 0.220992132457 -0.245163879947
107200000 0.220235164876 -0.243508819537
107210000 0.220647718722 -0.240520793572
107220000 0.218507098608 -0.240977991324
107230000 0.218508429972 -0.239838541268
107240000 0.219582927744 -0.239685656885
107250000 0.219882677529 -0.239374857659
107260000 0.219293156888 -0.237971936674
107270000 0.216632062654 -0.235062226675
107280000 0.217911866818 -0.235348854913
107290000 0.217436410367 -0.233996788318
107300000 0.219115003771 -0.231771785713
107310000 0.217528111786 -0.231113382074
107320000 0.216391757505 -0.229826237561
107330000 0.216086602669 -0.230047897799
107340000 0.2162019951 -0.22878871851
107350000 0.218270870474 -0.229052279063
107360000 0.215572297486 -0.226119831313
107370000 0.215513225605 -0.224536576162
107380000 0.215925995734 -0.224352381893
107390000 0.215675839492 -0.223025151645
107400000 0.216822280086 -0.220484154639
107410000 0.214846610127 -0.220576579713
107420000 0.214236649335 -0.219354656051
107430000 0.215069796165 -0.219312741099
107440000 0.21547783091 -0.218621498847
107450000 0.215739680644 -0.217400531197
107460000 0.213264367309 -0.214395623766
107470000 0.214056156131 -0.214768343133
107480000 0.213596891696 -0.213214907615
107490000 0.215664922253 -0.211540119575
107500000 0.214762174818 -0.210271617404
107510000 0.214005427721 -0.209099813548
107520000 0.213019709461 -0.209621895989
107530000 0.212925856979 -0.208216826439
107540000 0.214794914769 -0.208613975202
107550000 0.213315219831 -0.205499824924
107560000 0.213439756002 -0.203867790249
107570000 0.213763606115 -0.204287780404
107580000 0.213207497526 -0.202889799878
107590000 0.214503676177 -0.200573915861
107600000 0.212687050451 -0.20003772317
107610000 0.212662736319 -0.198301450944
107620000 0.213477765116 -0.198501806308
107630000 0.21349864837 -0.198251727176
107640000 0.212806126763 -0.197698580781
107650000 0.212244166375 -0.194127316309
107660000 0.212624366427 -0.194187740315
107670000 0.212378336741 -0.193018000628
107680000 0.214248094888 -0.191690490941
107690000 0.214388418024 -0.190198894223
107700000 0.212243538469 -0.18944947639
107710000 0.211539533048 -0.188349213346
107720000 0.21299451675 -0.18694401117
107730000 0.21420162943 -0.188217938482
107740000 0.213073911103 -0.184983426276
107750000 0.212972026314 -0.183274826681
107760000 0.212945662305 -0.183652533413
107770000 0.212739474355 -0.182074188892
107780000 0.214739511913 -0.180293551703
107790000 0.213346590289 -0.179883330221
107800000 0.213062495247 -0.178185964222
107810000 0.213242236637 -0.178628837098
107820000 0.213346302112 -0.177974361378
107830000 0.213992484093 -0.177426496625
107840000 0.213124407343 -0.173623027764
107850000 0.213574049852 -0.173893590387
107860000 0.213647433403 -0.17289728736
107870000 0.215238013486 -0.171797771107
107880000 0.215047744086 -0.170401758993
107890000 0.214309666891 -0.168948367091
107900000 0.213449033648 -0.168702949654
107910000 0.214017847715 -0.167723282453
107920000 0.214826395455 -0.168805745648
107930000 0.21476053079 -0.165838078343
107940000 0.214963026962 -0.163790882553
107950000 0.214734910533 -0.164370372038
107960000 0.214635711869 -0.162641066378
107970000 0.216545566977 -0.160930795579
107980000 0.215736673588 -0.160494376851
107990000 0.215799958304 -0.158286931609
108000000 0.21558428543 -0.1592047141
