! Calibrated averaged scanner-service zoom
# Hz S RI R 50
159810000 0.824262437911 -0.1957741474
159811755 0.82402878927 -0.195710641162
159813510 0.823857061418 -0.195769858053
159815265 0.823990856941 -0.196108430651
159817020 0.824041694361 -0.195970825012
159818775 0.824302132665 -0.196196485784
159820530 0.823984196372 -0.195959889548
159822285 0.823853182242 -0.196047250225
159824040 0.823885888045 -0.196054167831
159825795 0.824128243837 -0.195923235176
159827550 0.823877581116 -0.195921183935
159829305 0.823942174996 -0.196048710852
159831060 0.823708113893 -0.196190477481
159832815 0.824041144979 -0.195933284959
159834570 0.823648973451 -0.196053709325
159836325 0.823869967029 -0.196037472656
159838080 0.823570425332 -0.196309294551
159839835 0.82391459654 -0.196125263695
159841590 0.823641445209 -0.19628183307
159843345 0.823691328508 -0.196155226921
159845100 0.823405280618 -0.196374839719
159846855 0.823675634815 -0.196116375299
159848610 0.823472141262 -0.19635097947
159850365 0.823662478507 -0.19637007829
159852120 0.823210308431 -0.196464319334
159853875 0.823727077439 -0.196380926733
159855630 0.823419395913 -0.196373627315
159857385 0.823306878851 -0.19637099384
159859140 0.823105369582 -0.196502435292
159860895 0.823577674372 -0.196289424394
159862650 0.823464667203 -0.196470904136
159864405 0.823607041216 -0.196333606076
159866160 0.823525655863 -0.196588627551
159867915 0.82354215962 -0.196427926935
159869670 0.823471147045 -0.196465068134
159871425 0.823353587644 -0.196509504035
159873180 0.823477835557 -0.196725323599
159874935 0.823366293691 -0.196707017921
159876690 0.823455609514 -0.196647371717
159878445 0.823277161532 -0.196682198797
159880200 0.823215730135 -0.196696011459
159881955 0.823156000272 -0.196742678595
159883710 0.823484155076 -0.196729598859
159885465 0.8231221471 -0.196659941792
159887220 0.823104884447 -0.19649696385
159888975 0.823232225301 -0.1972752368
159890730 0.823334438232 -0.196900573994
159892485 0.823001683845 -0.196907887515
159894240 0.822923306032 -0.196969265975
159895995 0.822746494796 -0.197208910368
159897750 0.82286669234 -0.19686480518
159899505 0.822857877533 -0.196856633632
159901260 0.822944538116 -0.197338116887
159903015 0.822783114951 -0.197065629609
159904770 0.822915276921 -0.197115891022
159906525 0.822799208259 -0.196992283403
159908280 0.822869744818 -0.196990112015
159910035 0.822769675944 -0.197263779178
159911790 0.823001476159 -0.197333788179
159913545 0.822898988827 -0.197013739841
159915300 0.822833968966 -0.197194915636
159917055 0.822687587048 -0.197168856751
159918810 0.822783910874 -0.197317797363
159920565 0.822803604779 -0.197149385444
159922320 0.822703900809 -0.197171275035
159924075 0.82263870604 -0.197249129334
159925830 0.822555052498 -0.197421405615
159927585 0.822725071187 -0.197312267768
159929340 0.8226136798 -0.197313124549
159931095 0.82246592779 -0.197456327513
159932850 0.82239969942 -0.197726985515
159934605 0.822417750285 -0.197401651655
159936360 0.822583859501 -0.197427411668
159938115 0.822482534003 -0.197614594012
159939870 0.822256703521 -0.197604238887
159941625 0.822506970635 -0.197627542085
159943380 0.822371987163 -0.197427352845
159945135 0.822398905367 -0.197577496553
159946890 0.822483436729 -0.197692662223
159948645 0.822278667652 -0.197763562516
159950400 0.82252564352 -0.197600107331
159952155 0.822368233163 -0.197606501231
159953910 0.822287174723 -0.197554419876
159955665 0.822375105934 -0.19776685309
159957420 0.822099184308 -0.197371474668
159959175 0.82230849932 -0.197742792326
159960930 0.822206352679 -0.19769919956
159962685 0.822266730127 -0.197834607208
159964440 0.822381659235 -0.197758912727
159966195 0.822420261699 -0.197804442617
159967950 0.822286847022 -0.197840422669
159969705 0.822109808668 -0.197921069177
159971460 0.822338752579 -0.197870045236
159973215 0.822115325554 -0.198129547324
159974970 0.822116350771 -0.198072192894
159976725 0.821949992612 -0.198362299739
159978480 0.82211697617 -0.198016884325
159980235 0.822153963407 -0.198134459423
159981990 0.821895590088 -0.198113470718
159983745 0.822059673531 -0.198426263118
159985500 0.822059256058 -0.198172951992
159987255 0.821739727453 -0.198452058516
159989010 0.821871284654 -0.198253244283
159990765 0.821954761744 -0.197988016438
159992520 0.821883720321 -0.198193461247
159994275 0.821680724405 -0.19842338562
159996030 0.821811195312 -0.198259252878
159997785 0.822078415103 -0.198291013272
159999540 0.826149675704 -0.198327023982
160001295 0.82149844816 -0.19849897871
160003050 0.821591187299 -0.198563063565
160004805 0.821906605682 -0.198239361782
160006560 0.821583348974 -0.198421282059
160008315 0.821517291182 -0.198557450076
160010070 0.821712883669 -0.198696275224
160011825 0.821934817468 -0.198316235943
160013580 0.821469389079 -0.198466827236
160015335 0.821500505035 -0.198574082605
160017090 0.8212758295 -0.198916068673
160018845 0.821685794737 -0.198443075641
160020600 0.821461336105 -0.198511378374
160022355 0.821214051975 -0.198602638106
160024110 0.821616811035 -0.199024731456
160025865 0.821400776742 -0.19856831396
160027620 0.821470634395 -0.198689281912
160029375 0.821097147912 -0.198634073447
160031130 0.821057906297 -0.198992767915
160032885 0.82143717251 -0.198697066757
160034640 0.821563294675 -0.198588469246
160036395 0.821145234946 -0.198643223933
160038150 0.821073680054 -0.199072699385
160039905 0.821302143655 -0.198785340599
160041660 0.821680260695 -0.198806144645
160043415 0.821368361124 -0.198771528163
160045170 0.820990080982 -0.199129172488
160046925 0.821187672733 -0.199051332864
160048680 0.821314614746 -0.198747922984
160050435 0.821375335541 -0.198913125359
160052190 0.821109543881 -0.198986118847
160053945 0.821206365639 -0.199226360003
160055700 0.82155828062 -0.19904007972
160057455 0.821159372249 -0.199119217978
160059210 0.82095544542 -0.199121297413
160060965 0.820712872524 -0.199305258245
160062720 0.821140016632 -0.19909746936
160064475 0.820907929534 -0.199097543473
160066230 0.820821295934 -0.199215277512
160067985 0.820613163346 -0.199496345899
160069740 0.821024847775 -0.199187640939
160071495 0.821093198258 -0.198986541726
160073250 0.820729023141 -0.199313102728
160075005 0.820594613183 -0.199550080999
160076760 0.820865878435 -0.199424723579
160078515 0.820954640595 -0.199329948093
160080270 0.820769635886 -0.199343338494
160082025 0.820479825079 -0.199650527381
160083780 0.820638642761 -0.199419767969
160085535 0.820841079002 -0.199207907345
160087290 0.820560245382 -0.199298986522
160089045 0.820303195841 -0.199648238564
160090800 0.820523065038 -0.199633853523
160092555 0.820634863877 -0.199301888407
160094310 0.820521453309 -0.199403078064
160096065 0.820164798319 -0.199622622714
160097820 0.820358992023 -0.199818904855
160099575 0.820636489077 -0.199483443685
160101330 0.820459507875 -0.199560293751
160103085 0.820294350481 -0.199724712912
160104840 0.820111210535 -0.200125406389
160106595 0.820452997374 -0.199555094328
160108350 0.82039354233 -0.199606870902
160110105 0.819983153554 -0.199806210722
160111860 0.819850448817 -0.20010748368
160113615 0.82055376589 -0.19968243224
160115370 0.820262267802 -0.199742960722
160117125 0.820141538172 -0.199848607837
160118880 0.819876927139 -0.200228555745
160120635 0.820287533231 -0.199959543435
160122390 0.820325313508 -0.199711336405
160124145 0.820263087092 -0.200092083608
160125900 0.819863318681 -0.200180693058
160127655 0.820275362445 -0.200154092265
160129410 0.820350171251 -0.199857745245
160131165 0.820268379667 -0.200032182446
160132920 0.820014086302 -0.200269168597
160134675 0.820039825969 -0.200356501789
160136430 0.820467555252 -0.200154324904
160138185 0.820077328716 -0.200089685335
160139940 0.819861938349 -0.200394757367
160141695 0.819992516452 -0.200572678522
160143450 0.82010675147 -0.20023349708
160145205 0.820119716125 -0.200308572847
160146960 0.819622622306 -0.200341893577
160148715 0.819844932086 -0.200686746055
160150470 0.820009902146 -0.200253613395
160152225 0.819785374072 -0.200327217052
160153980 0.81959031115 -0.200383729868
160155735 0.8195300731 -0.200734205225
160157490 0.819896383739 -0.200274398278
160159245 0.819696797085 -0.200386079315
160161000 0.819341189348 -0.200406014247
160162755 0.819630185874 -0.200503654833
160164510 0.819467534787 -0.200557126537
160166265 0.819399355526 -0.200591722697
160168020 0.819412309379 -0.200579986639
160169775 0.819541526275 -0.20054460735
160171530 0.819427349146 -0.200399704698
160173285 0.819276214052 -0.200573654676
160175040 0.819414296219 -0.200600758195
160176795 0.819418728463 -0.200637721164
160178550 0.819120282507 -0.200668958139
160180305 0.819236593549 -0.200632740371
160182060 0.819492958628 -0.200748310237
160183815 0.819219745196 -0.200691542523
160185570 0.819292353489 -0.20069942568
160187325 0.818946559294 -0.200714145244
160189080 0.81926669271 -0.2007001387
160190835 0.819207109873 -0.200798867449
160192590 0.81913497949 -0.200783791474
160194345 0.81922158396 -0.2010053246
160196100 0.818905315717 -0.200855187784
160197855 0.819057345357 -0.200947615245
160199610 0.819092521682 -0.200951674842
160201365 0.819259129588 -0.201186762442
160203120 0.819035369504 -0.200870333356
160204875 0.818831351425 -0.201077370266
160206630 0.818837536316 -0.200903396415
160208385 0.819123540025 -0.201011392854
160210140 0.818859021428 -0.201028422246
160211895 0.818911983054 -0.201122303144
160213650 0.818861237748 -0.201143000559
160215405 0.819048655477 -0.201156008207
160217160 0.818933188096 -0.201080330954
160218915 0.818867813155 -0.201253501973
160220670 0.818945777735 -0.201237455058
160222425 0.818912669665 -0.20119388381
160224180 0.818747761782 -0.201263529609
160225935 0.818919405654 -0.201313574326
160227690 0.818840687887 -0.201404855197
160229445 0.819079720443 -0.201178075221
160231200 0.818651536802 -0.201268615803
160232955 0.818858284204 -0.20132883181
160234710 0.81862857962 -0.201422422594
160236465 0.818785063359 -0.201297142811
160238220 0.818662829269 -0.201214482957
160239975 0.818537011291 -0.201349379943
160241730 0.818538659813 -0.201524161086
160243485 0.818593831208 -0.201491437978
160245240 0.818750176393 -0.201519425733
160246995 0.818384691797 -0.201482082507
160248750 0.818219336415 -0.201598133724
160250505 0.818344309443 -0.201406475704
160252260 0.818329906524 -0.201390709253
160254015 0.818329203695 -0.201453690584
160255770 0.818125863543 -0.201692788875
160257525 0.818321775569 -0.201616938219
160259280 0.818216260721 -0.201626834295
160261035 0.818063366209 -0.201470047995
160262790 0.818128699028 -0.201789075139
160264545 0.818098674583 -0.201570339853
160266300 0.818096084046 -0.201618001313
160268055 0.818062808287 -0.201623816994
160269810 0.817949047496 -0.201794455771
160271565 0.817902161536 -0.201739435244
160273320 0.818022151797 -0.201706669753
160275075 0.817746422972 -0.201723565337
160276830 0.81793440882 -0.20190899261
160278585 0.817642180706 -0.201834672958
160280340 0.817933724806 -0.203460274166
160282095 0.817723511018 -0.201870114116
160283850 0.817675904669 -0.201877629441
160285605 0.817495580517 -0.201940594803
160287360 0.818676018829 -0.202334685104
160289115 0.817467545324 -0.201937946962
160290870 0.817897969728 -0.202037882909
160292625 0.817431477611 -0.202120003554
160294380 0.817644243105 -0.202011680403
160296135 0.817504513989 -0.20204258666
160297890 0.817583326627 -0.202084743924
160299645 0.817552646248 -0.202267002078
160301400 0.81775024966 -0.202180876169
160303155 0.81762522426 -0.202213893885
160304910 0.817591189376 -0.20203893418
160306665 0.817621484879 -0.202317222405
160308420 0.817592838922 -0.202190760461
160310175 0.81755914108 -0.202091147727
160311930 0.817455900851 -0.20210670738
160313685 0.817639016334 -0.202289571246
160315440 0.81757779102 -0.202276218522
160317195 0.817578584924 -0.202270546582
160318950 0.818183086817 -0.201989753873
160320705 0.817883879373 -0.202009650554
160322460 0.817601838864 -0.202900880066
160324215 0.816942492743 -0.202245129376
160325970 0.817369267086 -0.202268012954
160327725 0.817390748237 -0.202302693977
160329480 0.818162124897 -0.202782780081
160331235 0.818037657944 -0.203364681739
160332990 0.817206193784 -0.203153504004
160334745 0.817413006634 -0.202573426107
160336500 0.817229455358 -0.202537661332
160338255 0.817533268001 -0.202224732106
160340010 0.817108242228 -0.202683966676
160341765 0.817487012493 -0.202431805497
160343520 0.817237904685 -0.202591164218
160345275 0.817462082836 -0.202257582771
160347030 0.816970824986 -0.202869857956
160348785 0.81725537837 -0.20260945845
160350540 0.817196258265 -0.202710401869
160352295 0.81730432281 -0.202586762196
160354050 0.816934345584 -0.202902906105
160355805 0.817316785689 -0.20286066532
160357560 0.817105255264 -0.202951344465
160359315 0.816970133026 -0.202579748612
160361070 0.817061752004 -0.203033942228
160362825 0.816978927895 -0.203105737512
160364580 0.817263746409 -0.20308680965
160366335 0.817090740074 -0.202846615021
160368090 0.81692580605 -0.20296471181
160369845 0.816786516285 -0.20313364596
160371600 0.817159650999 -0.203104095506
160373355 0.816921558945 -0.203062715148
160375110 0.816873835426 -0.202984842438
160376865 0.816619679099 -0.20328076503
160378620 0.816888844847 -0.20303041373
160380375 0.816738498421 -0.203171591485
160382130 0.816913069467 -0.203082255812
160383885 0.816442313416 -0.203320431983
160385640 0.816860602953 -0.203190485498
160387395 0.816700070746 -0.203123088905
160389150 0.816886163654 -0.20291946038
160390905 0.81645885451 -0.203548949683
160392660 0.816792278147 -0.203247227626
160394415 0.816515417001 -0.203398274733
160396170 0.816770843228 -0.203065128456
160397925 0.816549926454 -0.203599458852
160399680 0.816511152141 -0.203399655598
160401435 0.816417357763 -0.203536754363
160403190 0.81652889713 -0.20314741108
160404945 0.816239379497 -0.203574681042
160406700 0.8163378453 -0.20353754111
160408455 0.816396049933 -0.203485899741
160410210 0.816515145555 -0.203252947035
160411965 0.816257643499 -0.203346696916
160413720 0.816035929419 -0.203532641336
160415475 0.816327530047 -0.203548705592
160417230 0.816501374523 -0.203607037971
160418985 0.816149744486 -0.203386007839
160420740 0.815886497501 -0.203806706041
160422495 0.816133113588 -0.203367257762
160424250 0.816021120109 -0.203589464253
160426005 0.816064027925 -0.203533018344
160427760 0.81597508906 -0.203850354239
160429515 0.81611479634 -0.203590552428
160431270 0.815866657238 -0.203838900339
160433025 0.815940035185 -0.203513858749
160434780 0.815536423837 -0.20408564291
160436535 0.815883559197 -0.203715806566
160438290 0.815800535768 -0.20395877264
160440045 0.815736868528 -0.20377241305
160441800 0.815667752425 -0.204247581927
160443555 0.815553536064 -0.20407065787
160445310 0.814801794022 -0.204108559436
160447065 0.815586249469 -0.203861818943
160448820 0.815337164039 -0.204343827809
160450575 0.815302561461 -0.204362787992
160452330 0.815381662772 -0.204411764115
160454085 0.815346781755 -0.204335237272
160455840 0.815322892118 -0.204407590206
160457595 0.815151007071 -0.204628825338
160459350 0.815438495208 -0.204470055742
160461105 0.815229612225 -0.204367575248
160462860 0.815343466703 -0.204454728867
160464615 0.815052049858 -0.204671726224
160466370 0.815491212768 -0.204277441168
160468125 0.815133751565 -0.20433217319
160469880 0.815387768437 -0.204111235759
160471635 0.815114141499 -0.204606387429
160473390 0.815181264679 -0.20425251605
160475145 0.815194293526 -0.204405786854
160476900 0.815222703894 -0.20407588405
160478655 0.814982430182 -0.204719397364
160480410 0.815113392783 -0.204274678955
160482165 0.815253512816 -0.204367659295
160483920 0.815138879954 -0.20403661355
160485675 0.814958186564 -0.204460444305
160487430 0.814933457923 -0.204350089317
160489185 0.815081672209 -0.204330833724
160490940 0.81484969881 -0.204218333314
160492695 0.815083365761 -0.204551959139
160494450 0.814788445842 -0.204440401337
160496205 0.81497064667 -0.204413462018
160497960 0.814980563013 -0.204444218767
160499715 0.814915344601 -0.204386042164
160501470 0.81476578488 -0.204601634131
160503225 0.814941754641 -0.204409661297
160504980 0.814571384659 -0.204442977614
160506735 0.814814837843 -0.204323623202
160508490 0.814460153741 -0.204656592254
160510245 0.81497542858 -0.204457316258
160512000 0.814760638729 -0.204633537647
160513755 0.814962980331 -0.204244145464
160515510 0.814412901046 -0.204750824635
160517265 0.814443576805 -0.204596336416
160519020 0.814521800484 -0.204738696659
160520775 0.814721395888 -0.204306176169
160522530 0.814456638442 -0.204962537273
160524285 0.814507189821 -0.204813278408
160526040 0.814530903189 -0.204902733514
160527795 0.814599321524 -0.204446965118
160529550 0.814507951982 -0.204820880174
160531305 0.81432706862 -0.204900892373
160533060 0.814692922191 -0.20492854493
160534815 0.814835924009 -0.204425581651
160536570 0.81446818383 -0.204732436959
160538325 0.814198261103 -0.205098900535
160540080 0.814627889868 -0.205004468565
160541835 0.814544545916 -0.204905469758
160543590 0.814547014691 -0.204637986722
160545345 0.814106449953 -0.205064531218
160547100 0.814467345847 -0.204968520591
160548855 0.81453785993 -0.205032927331
160550610 0.814942631552 -0.202820674189
160552365 0.814087980561 -0.205091078016
160554120 0.81433264718 -0.204934263536
160555875 0.814097119571 -0.2051773218
160557630 0.814569827329 -0.204711687217
160559385 0.813981526162 -0.205195188411
160561140 0.814242208842 -0.205094977625
160562895 0.814231303731 -0.205347913865
160564650 0.814358972693 -0.204760618358
160566405 0.814088579668 -0.205310963127
160568160 0.814165456015 -0.205309506284
160569915 0.814352908419 -0.205487249064
160571670 0.81436976342 -0.204990109714
160573425 0.81406374727 -0.205302979227
160575180 0.814089722174 -0.205587754184
160576935 0.814401455017 -0.20551913311
160578690 0.814248335799 -0.205131317748
160580445 0.814008463877 -0.205215435602
160582200 0.814006482528 -0.20566220398
160583955 0.814210016021 -0.2055101151
160585710 0.814184361471 -0.205212646947
160587465 0.814246084703 -0.205155503656
160589220 0.81375428127 -0.205764520886
160590975 0.813900793246 -0.205597897375
160592730 0.813881063784 -0.205654561901
160594485 0.81399968282 -0.205155570296
160596240 0.813567329104 -0.205688947544
160597995 0.81375283972 -0.205611321802
160599750 0.813737675984 -0.205723890167
160601505 0.813971206955 -0.20516299751
160603260 0.813325980863 -0.205567603327
160605015 0.813372887223 -0.205219889841
160606770 0.813223505437 -0.205285853938
160608525 0.813261534228 -0.204588242111
160610280 0.812711867154 -0.204765106807
160612035 0.812531374494 -0.204597583959
160613790 0.81254568625 -0.204505140583
160615545 0.812405303103 -0.203847000055
160617300 0.812159201025 -0.20404903745
160619055 0.811771388324 -0.204023872851
160620810 0.811840389602 -0.203751346353
160622565 0.811729135037 -0.203314943836
160624320 0.811578304218 -0.203200699355
160626075 0.811109713108 -0.203391785485
160627830 0.811133163786 -0.203019333345
160629585 0.810829189204 -0.202716486266
160631340 0.811438274939 -0.202812816164
160633095 0.811054227268 -0.203459194358
160634850 0.811298149561 -0.203398213752
160636605 0.811366115948 -0.203583310979
160638360 0.811733178947 -0.203481571952
160640115 0.811418163448 -0.204232315433
160641870 0.81210704923 -0.204327053255
160643625 0.812298613807 -0.204020502247
160645380 0.812253168653 -0.204322104783
160647135 0.811913436036 -0.204997730917
160648890 0.812144059165 -0.205160683376
160650645 0.812331573051 -0.205514285268
160652400 0.812583429539 -0.205246975078
160654155 0.81245326974 -0.205888450484
160655910 0.812534273391 -0.206187957087
160657665 0.812819092631 -0.206343588995
160659420 0.812959235339 -0.206113170854
160661175 0.812738124771 -0.206507998175
160662930 0.812535722131 -0.206544940623
160664685 0.812782371779 -0.206630536573
160666440 0.812683919496 -0.206347376454
160668195 0.812929940692 -0.206255828934
160669950 0.812387178705 -0.206766590575
160671705 0.812705919093 -0.206618076707
160673460 0.812598925028 -0.206487811551
160675215 0.812762647708 -0.206237804029
160676970 0.812358113655 -0.20686564082
160678725 0.812440824416 -0.206561461079
160680480 0.812795907219 -0.207023414445
160682235 0.812444049455 -0.206198747148
160683990 0.812203704701 -0.206779712902
160685745 0.81223930467 -0.206647381931
160687500 0.81233063335 -0.206948513401
160689255 0.812360859758 -0.206990312249
160691010 0.812513549771 -0.206506051683
160692765 0.812381717337 -0.206672814091
160694520 0.812226244029 -0.206937127387
160696275 0.812253055032 -0.207114897689
160698030 0.812204208066 -0.206746997739
160699785 0.812322744223 -0.206702088337
160701540 0.812194459883 -0.206966403253
160703295 0.812127094328 -0.207241596033
160705050 0.812285723925 -0.206888148042
160706805 0.812484597895 -0.206526873312
160708560 0.81207537791 -0.206991843575
160710315 0.812141473564 -0.207165240122
160712070 0.812110428773 -0.207019602219
160713825 0.812428846691 -0.206619262799
160715580 0.812111072806 -0.206790924353
160717335 0.811982274242 -0.207139525246
160719090 0.812017559167 -0.207187649049
160720845 0.812357004824 -0.206720893187
160722600 0.811932827602 -0.206956963261
160724355 0.811846271538 -0.207200123175
160726110 0.811741971459 -0.207373297114
160727865 0.812022655529 -0.206805816707
160729620 0.811657698567 -0.207073530765
160731375 0.811351691475 -0.207254976777
160733130 0.811525455505 -0.207525628422
160734885 0.811480990811 -0.207044054532
160736640 0.81155634574 -0.207253004669
160738395 0.811248709186 -0.207264955258
160740150 0.81146707274 -0.207647842268
160741905 0.811541816131 -0.207185804305
160743660 0.811178531895 -0.207109470032
160745415 0.811244490564 -0.207391643248
160747170 0.811008606008 -0.207578400583
160748925 0.811338591963 -0.207372702468
160750680 0.81141894677 -0.207060587858
160752435 0.811294264494 -0.207472499611
160754190 0.811214858441 -0.207668519053
160755945 0.811377250911 -0.207543051806
160757700 0.811528625399 -0.207183514288
160759455 0.811277641961 -0.207390427958
160761210 0.811191342055 -0.207646797567
160762965 0.811410999155 -0.207825237362
160764720 0.811786206834 -0.207286130818
160766475 0.811569622889 -0.207546141904
160768230 0.811173937606 -0.207783755287
160769985 0.811374841044 -0.208004479428
160771740 0.811616166526 -0.20749375902
160773495 0.811365563596 -0.207637579155
160775250 0.811151787921 -0.207892029144
160777005 0.811184744223 -0.2079719686
160778760 0.811440625675 -0.207658743574
160780515 0.811137692276 -0.207699807598
160782270 0.811069824423 -0.2079719985
160784025 0.811123339002 -0.208191090863
160785780 0.811003532882 -0.207963329775
160787535 0.810996987037 -0.207764296786
160789290 0.810791786617 -0.208197586248
160791045 0.810775207797 -0.208392627706
160792800 0.810787193927 -0.207904921649
160794555 0.810877875682 -0.207657100918
160796310 0.810588164822 -0.208013628952
160798065 0.810546597093 -0.208343707084
160799820 0.810741632665 -0.208156116713
160801575 0.810773587332 -0.207725857002
160803330 0.810387908442 -0.207844135896
160805085 0.810412270953 -0.208297007178
160806840 0.81028983491 -0.208214842835
160808595 0.81060440267 -0.207868870157
160810350 0.810329546864 -0.208042221705
160812105 0.810186761179 -0.208240708655
160813860 0.810273625306 -0.208483842258
160815615 0.810362490521 -0.207992853587
160817370 0.810019863292 -0.208107138466
160819125 0.810078077554 -0.208459163195
160820880 0.809940721236 -0.208689612546
160822635 0.81010941804 -0.208237591801
160824390 0.810064293415 -0.208142660847
160826145 0.809828632801 -0.208555672644
160827900 0.809770502744 -0.208703937162
160829655 0.809932057749 -0.208291531315
160831410 0.810091894164 -0.208124867672
160833165 0.809458778299 -0.208662948785
160834920 0.809264056207 -0.209074417708
160836675 0.809533959079 -0.208899368896
160838430 0.809341834058 -0.208677959194
160840185 0.808981231808 -0.209345547265
160841940 0.808852914295 -0.209605842674
160843695 0.808798486751 -0.209451418358
160845450 0.808664301 -0.209389583695
160847205 0.808390731667 -0.209685052225
160848960 0.807978211488 -0.210111924847
160850715 0.808181957735 -0.210379225359
160852470 0.808049307309 -0.20995049007
160854225 0.80755867632 -0.210241089018
160855980 0.807252875035 -0.210646995906
160857735 0.807382803272 -0.211007306044
160859490 0.807340096632 -0.210614583839
160861245 0.807111195705 -0.210749456231
160863000 0.807140832166 -0.210827915472
160864755 0.807161585011 -0.211286663271
160866510 0.807668929716 -0.210541193807
160868265 0.807904535995 -0.210298837414
160870020 0.807806344162 -0.209784575283
160871775 0.807698871865 -0.21073067986
160873530 0.800854707099 -0.207747854375
160875285 0.808561446115 -0.20954272415
160877040 0.80848927706 -0.209279890226
160878795 0.808025861468 -0.210358097831
160880550 0.808522213326 -0.210008996959
160882305 0.808952225409 -0.209439339708
160884060 0.808747708472 -0.208799731947
160885815 0.808701992235 -0.209706219281
160887570 0.808828506656 -0.209641287538
160889325 0.809482036386 -0.209113069926
160891080 0.809174445376 -0.208614553361
160892835 0.808974044578 -0.209299967385
160894590 0.808842337308 -0.209705377462
160896345 0.809324411871 -0.209167250101
160898100 0.809245163513 -0.208790846268
160899855 0.80904954211 -0.209064496052
160901610 0.808699838127 -0.209990590168
160903365 0.809258187395 -0.209301321297
160905120 0.809078370393 -0.208800731654
160906875 0.808998249878 -0.209031830873
160908630 0.808329658943 -0.209918228999
160910385 0.809091853379 -0.209495376452
160912140 0.808779227863 -0.209119464691
160913895 0.808810822755 -0.208909069093
160915650 0.808381747852 -0.210066498284
160917405 0.808817591848 -0.209603784274
160919160 0.809159414982 -0.209159730503
160920915 0.808993744333 -0.208841997732
160922670 0.808301820252 -0.2100521978
160924425 0.807824380999 -0.209583460005
160926180 0.80890196455 -0.209514668832
160927935 0.808771316827 -0.208934067424
160929690 0.808290931337 -0.209942209963
160931445 0.807979722982 -0.2100012634
160933200 0.808682765058 -0.209470289197
160934955 0.808602576885 -0.208962434702
160936710 0.808247335135 -0.209758896234
160938465 0.807764291695 -0.210082684274
160940220 0.808655302099 -0.209545733324
160941975 0.808321832329 -0.209241225102
160943730 0.808077633201 -0.209437804345
160945485 0.80783612657 -0.210424610046
160947240 0.808437039079 -0.209736156912
160948995 0.808318834457 -0.209171594343
160950750 0.808224955791 -0.209329390028
160952505 0.807463443355 -0.210477012155
160954260 0.808230428119 -0.209755631111
160956015 0.808092983852 -0.209446027456
160957770 0.808013048995 -0.209261039495
160959525 0.807404771461 -0.210470321245
160961280 0.807917695205 -0.209961018509
160963035 0.808204654429 -0.209498832195
160964790 0.807931228166 -0.209215267855
160966545 0.807355559064 -0.210284879303
160968300 0.807587680473 -0.210092995971
160970055 0.808059286472 -0.209692037512
160971810 0.807680717698 -0.209134021329
160973565 0.807306530836 -0.210114138664
160975320 0.807266564207 -0.210347918539
160977075 0.807772919227 -0.209813420208
160978830 0.807588908 -0.209152534952
160980585 0.807265598684 -0.210012459845
160982340 0.806956929596 -0.210528195321
160984095 0.807749245335 -0.209930532855
160985850 0.807409235004 -0.209454861618
160987605 0.807342709926 -0.209897866197
160989360 0.806787628641 -0.210557536542
160991115 0.80750638817 -0.210056052899
160992870 0.807563456961 -0.209664233766
160994625 0.807250539155 -0.209737841418
160996380 0.806738440763 -0.210874717191
160998135 0.807373109542 -0.210282206624
160999890 0.807230778924 -0.2099580579
161001645 0.807049715971 -0.20963587767
161003400 0.806477672989 -0.2106774714
161005155 0.80704275377 -0.210330217735
161006910 0.807301989207 -0.210261277247
161008665 0.807241835225 -0.209607671277
161010420 0.806665992186 -0.210797608289
161012175 0.806919484053 -0.210710296264
161013930 0.807310848474 -0.210391561641
161015685 0.80691132893 -0.209666861439
161017440 0.806441989216 -0.211045994381
161019195 0.806699952873 -0.210979906899
161020950 0.807002473472 -0.210372021819
161022705 0.807006901274 -0.20988314831
161024460 0.806560298832 -0.210484861982
161026215 0.806362989798 -0.211094017111
161027970 0.806747029737 -0.210612594865
161029725 0.80657502983 -0.210056129214
161031480 0.806262740718 -0.210435504191
161033235 0.806233015321 -0.211321626441
161034990 0.807263956178 -0.210557649064
161036745 0.806490641558 -0.210067367772
161038500 0.806566239067 -0.210387880347
161040255 0.806408884874 -0.210241743362
161042010 0.806293308249 -0.210570914518
161043765 0.806355673482 -0.210601970859
161045520 0.806542513433 -0.21077008181
161047275 0.806406857584 -0.210388227998
161049030 0.806281772254 -0.210602330159
161050785 0.805788839702 -0.210971996997
161052540 0.806320410922 -0.210895181276
161054295 0.806335427343 -0.210761258412
161056050 0.806213439653 -0.210727118269
161057805 0.805635396216 -0.210980824767
161059560 0.806159896161 -0.211103615558
161061315 0.806027978348 -0.210661424971
161063070 0.806107623793 -0.210473849495
161064825 0.805606959829 -0.210992856356
161066580 0.805896644892 -0.211015898551
161068335 0.805775926897 -0.210945959927
161070090 0.806111724268 -0.210459519448
161071845 0.805735100435 -0.210851385744
161073600 0.805719964865 -0.21091537237
161075355 0.805735664926 -0.211046192141
161077110 0.806068132275 -0.210397568025
161078865 0.805541140935 -0.210968120408
161080620 0.805585798259 -0.210928427622
161082375 0.805636965372 -0.211086507657
161084130 0.80588390231 -0.210500943533
161085885 0.805602586103 -0.2109550151
161087640 0.805429715421 -0.211076312365
161089395 0.805676419323 -0.211280906477
161091150 0.805774854384 -0.210758466507
161092905 0.805644571505 -0.211017351443
161094660 0.805094003982 -0.211215090329
161096415 0.805363656195 -0.211248992489
161098170 0.805477662617 -0.211036868597
161099925 0.805392283497 -0.210916285015
161101680 0.804979330357 -0.211283223795
161103435 0.805154739691 -0.211380163161
161105190 0.805171880124 -0.211143276286
161106945 0.805470282334 -0.210779227745
161108700 0.804956264562 -0.211382235024
161110455 0.805193262653 -0.211388716058
161112210 0.805164861197 -0.211122637936
161113965 0.805446407532 -0.210673552703
161115720 0.804941051416 -0.211242624828
161117475 0.804996969411 -0.211345560798
161119230 0.805051518481 -0.211461003063
161120985 0.805413291052 -0.210824832915
161122740 0.804801690927 -0.211264054029
161124495 0.804923213178 -0.211189428791
161126250 0.804840847601 -0.211380632602
161128005 0.804966225394 -0.210845887323
161129760 0.804739248824 -0.211317940184
161131515 0.804691765089 -0.211322717545
161133270 0.80486648374 -0.211621299753
161135025 0.804846478041 -0.211107207482
161136780 0.804565457422 -0.21129876743
161138535 0.804569793274 -0.211552003323
161140290 0.804545025604 -0.211601321745
161142045 0.804557968631 -0.211271204416
161143800 0.804443223445 -0.211315432737
161145555 0.804290007827 -0.211745204347
161147310 0.804215824358 -0.211699255646
161149065 0.804331535243 -0.211414773286
161150820 0.804576900065 -0.211132820043
161152575 0.804142747584 -0.211631818965
161154330 0.804374900593 -0.211736568465
161156085 0.804400495744 -0.211572843775
161157840 0.80466497076 -0.211169487381
161159595 0.804041883154 -0.211650150889
161161350 0.804002710245 -0.211679617125
161163105 0.804279451846 -0.21169112957
161164860 0.804453524799 -0.211071829361
161166615 0.804157588983 -0.211573419124
161168370 0.804308854931 -0.21179033329
161170125 0.804319339916 -0.211881523368
161171880 0.804307262889 -0.211306362047
161173635 0.804072993217 -0.211612493453
161175390 0.804228181783 -0.211876725503
161177145 0.804121710528 -0.211915142376
161178900 0.804153787287 -0.211530715503
161180655 0.803946899511 -0.21177266138
161182410 0.803835192676 -0.211976069391
161184165 0.803948249796 -0.21201963464
161185920 0.804016905012 -0.211542642424
161187675 0.803969283482 -0.211835574629
161189430 0.803353851418 -0.212218991743
161191185 0.803668374673 -0.212171457934
161192940 0.803930583581 -0.212078731113
161194695 0.803889103402 -0.211713202518
161196450 0.803777778386 -0.212365250975
161198205 0.803385100134 -0.212010160098
161199960 0.803718069541 -0.211870653697
161201715 0.803865265576 -0.21163977619
161203470 0.803508711276 -0.212281831578
161205225 0.803728449697 -0.212054234599
161206980 0.803717135922 -0.212271340301
161208735 0.803713221712 -0.211578417041
161210490 0.803396957613 -0.212094985603
161212245 0.803582502108 -0.21220741578
161214000 0.803540357054 -0.212306232304
161215755 0.803144779411 -0.212669375284
161217510 0.80331324742 -0.212207737367
161219265 0.803578816286 -0.211621479679
161221020 0.803090224748 -0.212043612347
161222775 0.802686558376 -0.212678049962
161224530 0.803027580583 -0.21224987582
161226285 0.803297579456 -0.211566502156
161228040 0.802911669995 -0.211904546646
161229795 0.802535309535 -0.212665359368
161231550 0.803220542101 -0.212397007472
161233305 0.803051807958 -0.211476519414
161235060 0.802875392703 -0.211125952511
161236815 0.802579339021 -0.212515163218
161238570 0.802911672214 -0.21243099813
161240325 0.802872630184 -0.211806473948
161242080 0.802906478103 -0.211656072236
161243835 0.802573456088 -0.212564694799
161245590 0.802825493831 -0.212451136824
161247345 0.802963993487 -0.212073573089
161249100 0.80314719175 -0.211653881384
161250855 0.802308849889 -0.212453003832
161252610 0.802451543567 -0.212739686899
161254365 0.802875632734 -0.212423672997
161256120 0.802964798946 -0.211853351706
161257875 0.802271890061 -0.212597648173
161259630 0.802297140586 -0.21320510314
161261385 0.802494178679 -0.212560889603
161263140 0.802708552603 -0.211996700772
161264895 0.80236475414 -0.21267490919
161266650 0.802002922772 -0.213097147671
161268405 0.802679948903 -0.212784849562
161270160 0.802560326474 -0.21202601776
161271915 0.802460262176 -0.212336290849
161273670 0.802024758298 -0.213108639955
161275425 0.802506087279 -0.212834324566
161277180 0.802670715445 -0.212036433581
161278935 0.80240896931 -0.21207845101
161280690 0.80189054838 -0.213014131766
161282445 0.802360425732 -0.212903420384
161284200 0.802531374901 -0.212351244372
161285955 0.802241477708 -0.211941204272
161287710 0.801935312016 -0.213015442094
161289465 0.802105258425 -0.213025658813
161291220 0.802400496324 -0.212378523871
161292975 0.802327162701 -0.212135697147
161294730 0.801917302924 -0.212871948484
161296485 0.801873856116 -0.213116489084
161298240 0.80230099976 -0.212705598777
161299995 0.802148459878 -0.212307988863
161301750 0.801628598257 -0.212866735899
161303505 0.801409693118 -0.213377168889
161305260 0.802106957081 -0.212962088173
161307015 0.802130746276 -0.212330244066
161308770 0.80147969176 -0.212861094739
161310525 0.801291829813 -0.213555577577
161312280 0.801768295006 -0.213071266579
161314035 0.801839000564 -0.212335753812
161315790 0.801527388882 -0.21254180249
161317545 0.801195288631 -0.213468909891
161319300 0.801638393022 -0.213175001868
161321055 0.801666659141 -0.212439954102
161322810 0.801391976453 -0.21251353567
161324565 0.80107013949 -0.213455461142
161326320 0.801466812339 -0.21325633172
161328075 0.801692282943 -0.212593922523
161329830 0.801579259003 -0.212443634793
161331585 0.801090321803 -0.213441788513
161333340 0.801104938183 -0.213467764208
161335095 0.80166165106 -0.212964389241
161336850 0.801594138781 -0.212614686825
161338605 0.800940309008 -0.213333170485
161340360 0.801056185679 -0.213610075755
161342115 0.801322883788 -0.213244602616
161343870 0.801374438846 -0.212730350334
161345625 0.800767167445 -0.21354678916
161347380 0.800745556265 -0.213902303223
161349135 0.80110610695 -0.213514484718
161350890 0.801387080938 -0.212832545882
161352645 0.800716826588 -0.213320838736
161354400 0.800554907862 -0.21404551738
161356155 0.801172693821 -0.213573410373
161357910 0.801097788399 -0.212835093045
161359665 0.800755281376 -0.213052261679
161361420 0.800608646551 -0.213995602457
161363175 0.801065638606 -0.213427950017
161364930 0.800988914708 -0.212843768777
161366685 0.800797088372 -0.212915224852
161368440 0.800432177163 -0.213941775869
161370195 0.800778485832 -0.213617654701
161371950 0.801054334887 -0.213071436898
161373705 0.800819792373 -0.212842449842
161375460 0.800361127135 -0.213735639903
161377215 0.800615975757 -0.21364558139
161378970 0.800647873001 -0.213286914637
161380725 0.800844420492 -0.212849479668
161382480 0.80017545874 -0.213812705373
161384235 0.800320456406 -0.213912478781
161385990 0.800573700982 -0.213641528921
161387745 0.800511010656 -0.213140265426
161389500 0.800147331826 -0.213700047518
161391255 0.80043667532 -0.213173889605
161393010 0.800088704332 -0.213987486906
161394765 0.800513865953 -0.213326358685
161396520 0.800281658066 -0.213496293389
161398275 0.800465865659 -0.213297608787
161400030 0.799892484749 -0.214029517634
161401785 0.800250248121 -0.213508847823
161403540 0.80024972543 -0.213500763856
161405295 0.800088330455 -0.21321130319
161407050 0.799747042867 -0.214161712292
161408805 0.799971118043 -0.21365845628
161410560 0.800006453785 -0.213807083266
161412315 0.79981656504 -0.213423253534
161414070 0.799575478691 -0.2140294847
161415825 0.80005607362 -0.213984687635
161417580 0.800103228187 -0.213909549424
161419335 0.799577325747 -0.213391861899
161421090 0.799742808067 -0.213847826756
161422845 0.799444791804 -0.213924014039
161424600 0.799892285493 -0.213708189371
161426355 0.79965587246 -0.213548119852
161428110 0.799620599355 -0.2137901531
161429865 0.799323943138 -0.213958829683
161431620 0.7998911075 -0.213685250134
161433375 0.799497710559 -0.213747516065
161435130 0.799635784786 -0.213421270276
161436885 0.799285459308 -0.214166074586
161438640 0.799648701152 -0.21352473779
161440395 0.799411019205 -0.213736894137
161442150 0.799524230391 -0.213499704805
161443905 0.799068901189 -0.214368246301
161445660 0.799857331676 -0.213765680538
161447415 0.799356035329 -0.214126988051
161449170 0.799623539037 -0.21350673065
161450925 0.799090241398 -0.214446369472
161452680 0.799316085428 -0.214021854708
161454435 0.799453903318 -0.214109676156
161456190 0.799446744787 -0.213778699022
161457945 0.799076929359 -0.214415863293
161459700 0.799361481368 -0.214305315609
161461455 0.799264033386 -0.214217242415
161463210 0.799364128823 -0.21380342496
161464965 0.799263677661 -0.214198720135
161466720 0.798911162636 -0.214462857246
161468475 0.799420866208 -0.214197287648
161470230 0.799002712956 -0.213925586372
161471985 0.799126110145 -0.214128097827
161473740 0.79883467246 -0.214412503298
161475495 0.799269349213 -0.214014345285
161477250 0.798872394856 -0.214130020892
161479005 0.799005475314 -0.213918263026
161480760 0.798530220485 -0.21469923031
161482515 0.798936368552 -0.214034434478
161484270 0.798778073473 -0.214190743672
161486025 0.798793908698 -0.213837373792
161487780 0.798044344242 -0.214768961705
161489535 0.798785849794 -0.214135835344
161491290 0.798372765458 -0.214291100845
161493045 0.798812273217 -0.213844520532
161494800 0.798260525679 -0.21484208876
161496555 0.798387612921 -0.214262114675
161498310 0.798389694963 -0.214507226098
161500065 0.798465134727 -0.21368792744
161501820 0.798138301315 -0.214800654178
161503575 0.798123488296 -0.214525508471
161505330 0.798314293732 -0.214530430329
161507085 0.798005520729 -0.214144607606
161508840 0.797996564883 -0.214554359993
161510595 0.797863623392 -0.214768255292
161512350 0.79821849021 -0.214455713427
161514105 0.797962711593 -0.214285691653
161515860 0.797872920443 -0.214415232444
161517615 0.797859494394 -0.214848392914
161519370 0.798211471561 -0.214389297342
161521125 0.797767312587 -0.214432682233
161522880 0.798043706181 -0.214247346779
161524635 0.797625405406 -0.215132616466
161526390 0.797915703178 -0.214314688637
161528145 0.797955427729 -0.214605170522
161529900 0.797947775528 -0.21430354862
161531655 0.797476681568 -0.215059754594
161533410 0.79776879739 -0.214466319528
161535165 0.797481538384 -0.214752384476
161536920 0.797613441911 -0.214201601826
161538675 0.797243419956 -0.215282021035
161540430 0.797491219978 -0.214687711172
161542185 0.797512645711 -0.214895747648
161543940 0.797258443786 -0.214424767551
161545695 0.797136114072 -0.215149284434
161547450 0.797309861362 -0.21487674475
161549205 0.797299113646 -0.2149488691
161550960 0.79722769293 -0.214461025456
161552715 0.7972447837 -0.214965999355
161554470 0.79694701856 -0.215142386474
161556225 0.797422311203 -0.214765990071
161557980 0.797219647262 -0.214672545375
161559735 0.796985343386 -0.214903994636
161561490 0.796761697839 -0.215027721228
161563245 0.797451035173 -0.214851922531
161565000 0.7969659304 -0.214680932849
