! Calibrated averaged scanner-service zoom
# Hz S RI R 50
976000000 0.563752406429 -0.592667173128
976004000 0.562625826802 -0.589787941479
976008000 0.561058643841 -0.591940635926
976012000 0.561070042052 -0.589954563631
976016000 0.563316202076 -0.591303783724
976020000 0.561949685671 -0.588633492613
976024000 0.56756002811 -0.587036258756
976028000 0.566112709726 -0.590081223857
976032000 0.565188439312 -0.589663963956
976036000 0.564493165014 -0.58975157527
976040000 0.563770187505 -0.590575994205
976044000 0.561849216399 -0.589935163169
976048000 0.560737885945 -0.589679050381
976052000 0.561505934908 -0.59199161323
976056000 0.561756851768 -0.59275476078
976060000 0.561608498355 -0.595279084287
976064000 0.560752088176 -0.596047145494
976068000 0.559926244439 -0.595777319885
976072000 0.560578642509 -0.594518620548
976076000 0.562548279594 -0.596993477405
976080000 0.561502862959 -0.593194282885
976084000 0.559714229326 -0.595046221274
976088000 0.561889676321 -0.595162566103
976092000 0.563350400594 -0.594812128435
976096000 0.566922277542 -0.593828468197
976100000 0.565800033782 -0.592753520007
976104000 0.564196085319 -0.591201241707
976108000 0.565183326617 -0.595102125399
976112000 0.565863375171 -0.594661757604
976116000 0.566264465384 -0.590259950773
976120000 0.565790030318 -0.590808299308
976124000 0.567693861614 -0.588276880497
976128000 0.563976978451 -0.589208258343
976132000 0.565647180979 -0.590380524649
976136000 0.562979955754 -0.590841522903
976140000 0.56464152014 -0.587117582562
976144000 0.562060134199 -0.590741154345
976148000 0.562576086585 -0.588355433229
976152000 0.561333489635 -0.5908523483
976156000 0.56223304839 -0.590202879512
976160000 0.559561814214 -0.592924645868
976164000 0.562074613317 -0.590576195779
976168000 0.562781356696 -0.591370604316
976172000 0.561224543097 -0.59007105183
976176000 0.561556146421 -0.593556275596
976180000 0.560441592183 -0.593470551677
976184000 0.561319827114 -0.593109442354
976188000 0.56271935196 -0.593134655297
976192000 0.561413850552 -0.589088758092
976196000 0.563248065787 -0.591947009494
976200000 0.563273024282 -0.593342186342
976204000 0.562952007602 -0.590073203721
976208000 0.564889090668 -0.592462798132
976212000 0.564168300339 -0.587828522937
976216000 0.562586875922 -0.592737102818
976220000 0.561346128044 -0.591864250221
976224000 0.562379191893 -0.590979014576
976228000 0.56358645827 -0.589122998034
976232000 0.562738101225 -0.590823784039
976236000 0.56009865805 -0.593281774968
976240000 0.563875646808 -0.59484531478
976244000 0.564967024176 -0.591979604952
976248000 0.563315737367 -0.592290382547
976252000 0.565987399277 -0.592360873916
976256000 0.565183334549 -0.592700237529
976260000 0.564441091738 -0.592584663378
976264000 0.565093248368 -0.591928475704
976268000 0.563974356084 -0.592197096634
976272000 0.567711528799 -0.591754287804
976276000 0.568206372286 -0.590066505967
976280000 0.565443250126 -0.59424685203
976284000 0.563373714024 -0.592296584106
976288000 0.565209321244 -0.592599762954
976292000 0.56801532289 -0.592973629361
976296000 0.565897156672 -0.592830032753
976300000 0.567595397378 -0.590376438743
976304000 0.566143123653 -0.587985419739
976308000 0.562458006898 -0.593523804709
976312000 0.56183066431 -0.591645209524
976316000 0.563073168813 -0.589487112116
976320000 0.563487479299 -0.593100863326
976324000 0.561175569704 -0.593685377996
976328000 0.559608228722 -0.588044990126
976332000 0.562494937069 -0.588052489198
976336000 0.560321410894 -0.594040551094
976340000 0.561058523252 -0.593898008218
976344000 0.565330128811 -0.59512083669
976348000 0.565181926788 -0.59286366796
976352000 0.561784406526 -0.593339198549
976356000 0.562586523186 -0.593617013366
976360000 0.565384381612 -0.59901297527
976364000 0.563647796565 -0.597235217145
976368000 0.560060030038 -0.594004935186
976372000 0.559750049582 -0.593210259113
976376000 0.563831775075 -0.596750050128
976380000 0.559677368621 -0.596115373244
976384000 0.561073454591 -0.597176236692
976388000 0.560184326257 -0.596081717853
976392000 0.558792223441 -0.59235207624
976396000 0.558146766142 -0.59122017876
976400000 0.556414736142 -0.589173403338
976404000 0.560379820564 -0.59348381203
976408000 0.557489569003 -0.594114458086
976412000 0.560487481965 -0.593092370457
976416000 0.559288245559 -0.591444158654
976420000 0.559571926707 -0.59153884251
976424000 0.558495977116 -0.593776968098
976428000 0.558218924797 -0.594109105528
976432000 0.560616616383 -0.591294219117
976436000 0.56170941803 -0.592354669818
976440000 0.560843575796 -0.593816771031
976444000 0.561387131108 -0.592503270006
976448000 0.563528230019 -0.594624825213
976452000 0.563306340755 -0.591548517455
976456000 0.564179320059 -0.595058102016
976460000 0.562246564379 -0.594437572477
976464000 0.566837566881 -0.593239390758
976468000 0.565635570034 -0.593018403042
976472000 0.565828928838 -0.589744179316
976476000 0.563758886448 -0.591908619788
976480000 0.565182125414 -0.592207597077
976484000 0.565602789611 -0.595090303336
976488000 0.562033695905 -0.595790640705
976492000 0.564104549388 -0.597741581945
976496000 0.563394724329 -0.595292360236
976500000 0.565421800418 -0.590433998201
976504000 0.562572945677 -0.59446034083
976508000 0.563158901119 -0.593207073185
976512000 0.562951970263 -0.591957217289
976516000 0.562244647471 -0.594058320117
976520000 0.565068128877 -0.592811793301
976524000 0.56432368071 -0.594220744751
976528000 0.564349908465 -0.593077251946
976532000 0.565819039714 -0.59390653604
976536000 0.563128846184 -0.591151241939
976540000 0.563826608108 -0.591833851108
976544000 0.564477683865 -0.589454647714
976548000 0.564271620329 -0.590077684369
976552000 0.563112230426 -0.588199197396
976556000 0.562850998362 -0.591729078201
976560000 0.563655177213 -0.592080443592
976564000 0.566454446565 -0.593590741659
976568000 0.561767864039 -0.588836743769
976572000 0.569202049797 -0.589079868424
976576000 0.570742233185 -0.590467141467
976580000 0.570179396486 -0.594723030068
976584000 0.572139707399 -0.593844273455
976588000 0.570179729462 -0.592438885652
976592000 0.570915404078 -0.59279884596
976596000 0.568124273387 -0.591348235633
976600000 0.570394199823 -0.593582252084
976604000 0.571802204335 -0.594527439958
976608000 0.568829848355 -0.592126555086
976612000 0.568663642179 -0.593111603198
976616000 0.567029953334 -0.593222954256
976620000 0.567731410154 -0.594374991267
976624000 0.568160457705 -0.594618257253
976628000 0.570064367188 -0.593719835146
976632000 0.564888625783 -0.597502891085
976636000 0.566279661536 -0.597020038554
976640000 0.564773714674 -0.599342840185
976644000 0.56331652616 -0.595981817726
976648000 0.569130490653 -0.598266426788
976652000 0.566348241146 -0.595828296954
976656000 0.568142619398 -0.596314207533
976660000 0.56756597219 -0.596992717117
976664000 0.568972989076 -0.597288374146
976668000 0.569230335042 -0.5973875663
976672000 0.564919066317 -0.598978263066
976676000 0.564814298308 -0.59958696742
976680000 0.566697048185 -0.600086846639
976684000 0.568105524444 -0.59680993849
976688000 0.567752259375 -0.596671779396
976692000 0.565824715872 -0.597322665858
976696000 0.568424770507 -0.600174454133
976700000 0.56868681475 -0.598079091109
976704000 0.564419830672 -0.597540952566
976708000 0.566792022764 -0.599135875062
976712000 0.568345159915 -0.597845459236
976716000 0.568887349132 -0.600780402671
976720000 0.569154239228 -0.594158905719
976724000 0.572224733076 -0.593747793511
976728000 0.570347987825 -0.596305418745
976732000 0.568245458082 -0.593968577572
976736000 0.568348321388 -0.594958737696
976740000 0.567072326856 -0.594733366647
976744000 0.566854160054 -0.591919259544
976748000 0.564611811622 -0.588646228411
976752000 0.563904409065 -0.592676478368
976756000 0.561891671772 -0.590417933688
976760000 0.564843207358 -0.59201694226
976764000 0.561409629352 -0.592815304903
976768000 0.562348122684 -0.59448912784
976772000 0.56197324374 -0.596617212171
976776000 0.562893833549 -0.599070640052
976780000 0.563904488405 -0.597647987396
976784000 0.561230236099 -0.599708525322
976788000 0.558026903789 -0.598498004206
976792000 0.562648517535 -0.596653303231
976796000 0.564561483032 -0.593384130574
976800000 0.561806793587 -0.596511099534
976804000 0.564436256429 -0.592777644022
976808000 0.560461028206 -0.592100854965
976812000 0.559818042466 -0.591690939708
976816000 0.561817307069 -0.592597465573
976820000 0.561318820506 -0.596668417366
976824000 0.557299153923 -0.597034030184
976828000 0.558392113237 -0.592563991123
976832000 0.555816423168 -0.593907450792
976836000 0.557980283112 -0.595963011594
976840000 0.555233188157 -0.594315915069
976844000 0.556480690036 -0.597687575094
976848000 0.560154974966 -0.598934056528
976852000 0.562639498613 -0.595271797279
976856000 0.559267743209 -0.59847325139
976860000 0.56425683527 -0.595878542948
976864000 0.562397785029 -0.596346235728
976868000 0.562777602309 -0.596887502614
976872000 0.563190024256 -0.601139420488
976876000 0.569299465851 -0.596686364168
976880000 0.564777763647 -0.595698339549
976884000 0.567249487028 -0.594440283663
976888000 0.565245735889 -0.595709127039
976892000 0.567926260634 -0.593394871281
976896000 0.565762701289 -0.592205139948
976900000 0.570594321077 -0.59166291453
976904000 0.564304325281 -0.5914047222
976908000 0.563430466776 -0.591303934671
976912000 0.564482591447 -0.591470656345
976916000 0.563955905821 -0.591867099089
976920000 0.564237161109 -0.592078174205
976924000 0.563656112789 -0.591451285049
976928000 0.561197466861 -0.590099448333
976932000 0.561291698521 -0.594695189796
976936000 0.560243697486 -0.592163550762
976940000 0.564637517832 -0.59251415585
976944000 0.56187845813 -0.593361443376
976948000 0.559507317734 -0.595246350888
976952000 0.561197331455 -0.595453583258
976956000 0.559436022603 -0.59609969609
976960000 0.563503076796 -0.595277165406
976964000 0.562194168805 -0.597161174701
976968000 0.561691121141 -0.595601739881
976972000 0.562477301922 -0.591724153759
976976000 0.563340306019 -0.592970559613
976980000 0.563602461891 -0.59616292053
976984000 0.564809215482 -0.593982715438
976988000 0.565655324669 -0.592794082845
976992000 0.563352588381 -0.590597435711
976996000 0.558571995071 -0.587714181173
977000000 0.565163227506 -0.595921071869
977004000 0.561056200823 -0.591871806846
977008000 0.563292794328 -0.594975535406
977012000 0.559694335036 -0.592472813828
977016000 0.559635001402 -0.592038603058
977020000 0.561712363217 -0.593707655291
977024000 0.556779679167 -0.594127698818
977028000 0.559791209819 -0.597226088103
977032000 0.560439395083 -0.595824433969
977036000 0.563045876896 -0.596378880275
977040000 0.561495842293 -0.597016861865
977044000 0.560649097948 -0.597500091622
977048000 0.560927605772 -0.59755856115
977052000 0.558448964246 -0.59820457683
977056000 0.559104194118 -0.5994490223
977060000 0.557074135718 -0.597451853875
977064000 0.556386882473 -0.599686331799
977068000 0.555934481693 -0.597817370812
977072000 0.554134749624 -0.599859014363
977076000 0.558248401988 -0.600271936362
977080000 0.557629275468 -0.596806231757
977084000 0.557460979413 -0.596991787707
977088000 0.556396470026 -0.598855288524
977092000 0.561861306352 -0.595952239958
977096000 0.559799933254 -0.597981659042
977100000 0.563598690947 -0.595316497342
977104000 0.562575784953 -0.592043049012
977108000 0.564265222594 -0.596159726935
977112000 0.559575425868 -0.595428849364
977116000 0.564961339572 -0.593477186012
977120000 0.560495930576 -0.597978899381
977124000 0.557541981199 -0.59429848034
977128000 0.559009444966 -0.595682992331
977132000 0.558825309775 -0.598068392157
977136000 0.555457442008 -0.599546033928
977140000 0.55663440403 -0.597020731813
977144000 0.559660416867 -0.593579527899
977148000 0.557979833277 -0.593440862875
977152000 0.552483320342 -0.593652334325
977156000 0.555301407281 -0.593319851841
977160000 0.55787534119 -0.591194776785
977164000 0.559529758239 -0.593310248773
977168000 0.558416278021 -0.595380360262
977172000 0.558613981996 -0.595770866726
977176000 0.560564104935 -0.59053287573
977180000 0.560460392456 -0.591646360502
977184000 0.562166911884 -0.591590245123
977188000 0.563562661215 -0.592999901792
977192000 0.558043769354 -0.592146021874
977196000 0.56075661891 -0.596677980096
977200000 0.562466677713 -0.591720327394
977204000 0.563568471499 -0.594313721078
977208000 0.566905386853 -0.591483060836
977212000 0.565363586335 -0.592974097366
977216000 0.564382367241 -0.592244220912
977220000 0.561681876382 -0.595178735528
977224000 0.563695709329 -0.592335999748
977228000 0.560347822702 -0.592198653492
977232000 0.563405164725 -0.589713852082
977236000 0.563347492265 -0.59304392933
977240000 0.560379712382 -0.593280193856
977244000 0.558497776041 -0.59572184805
977248000 0.560188060764 -0.595002448424
977252000 0.560184149421 -0.594745235333
977256000 0.560967191449 -0.593259603437
977260000 0.56402439814 -0.588630172123
977264000 0.561662556264 -0.592348532122
977268000 0.562745646768 -0.593505008133
977272000 0.5628882255 -0.594103737213
977276000 0.562669695272 -0.592879631863
977280000 0.561518373392 -0.593607270781
977284000 0.563823125583 -0.59043393758
977288000 0.56009109409 -0.59102524927
977292000 0.560717060846 -0.591048506943
977296000 0.560948618728 -0.588409250001
977300000 0.560402299427 -0.590100083491
977304000 0.558921244892 -0.5911591206
977308000 0.560801375803 -0.592943279737
977312000 0.558307066168 -0.592167665216
977316000 0.558333438505 -0.592104790531
977320000 0.560350872249 -0.596194676198
977324000 0.559949751936 -0.593075647403
977328000 0.565246317672 -0.592229707349
977332000 0.564879911824 -0.594400833742
977336000 0.560310561221 -0.593096805117
977340000 0.563906047877 -0.594748472901
977344000 0.559659382372 -0.596251328874
977348000 0.563193820238 -0.592910491699
977352000 0.559374035319 -0.595394712093
977356000 0.558991009105 -0.594502373219
977360000 0.562464961349 -0.595780137933
977364000 0.562861583356 -0.593101582715
977368000 0.566822498351 -0.5951650484
977372000 0.563504309208 -0.592526216805
977376000 0.562621445879 -0.589488317756
977380000 0.564358849827 -0.592656519795
977384000 0.562265251773 -0.591485216358
977388000 0.561668818298 -0.591279008874
977392000 0.563055607606 -0.590312490964
977396000 0.561492681195 -0.589763114306
977400000 0.559247720574 -0.592129482446
977404000 0.564271204371 -0.595530994323
977408000 0.56265188016 -0.591466454366
977412000 0.562349961641 -0.59368986214
977416000 0.557772130827 -0.590226636248
977420000 0.557737344862 -0.591079997484
977424000 0.559709297366 -0.591914225538
977428000 0.559214393889 -0.592562504254
977432000 0.561183377555 -0.590552213834
977436000 0.560545917265 -0.588073822855
977440000 0.560596939381 -0.59301163962
977444000 0.563055130303 -0.590458229756
977448000 0.560918913631 -0.589719032157
977452000 0.56198520514 -0.589878602112
977456000 0.562109174839 -0.592540518365
977460000 0.56166882933 -0.593699901068
977464000 0.563051916215 -0.596614261932
977468000 0.564303859884 -0.593737745413
977472000 0.560809235082 -0.592582623082
977476000 0.559857257897 -0.596065561764
977480000 0.55745172065 -0.596851159427
977484000 0.558202259585 -0.593925497169
977488000 0.560403913443 -0.595941234728
977492000 0.559883439 -0.592898202675
977496000 0.557517548453 -0.596667652165
977500000 0.556796650185 -0.591547673989
977504000 0.560748894915 -0.593530850289
977508000 0.558339283345 -0.592869265604
977512000 0.558158421476 -0.592808032077
977516000 0.560124793987 -0.595249932352
977520000 0.557999963809 -0.591031173302
977524000 0.556006909899 -0.591278359137
977528000 0.55880707235 -0.59064287695
977532000 0.555734228857 -0.594388414386
977536000 0.553410959188 -0.594089322012
977540000 0.559963200368 -0.594357443139
977544000 0.557297673635 -0.598410803082
977548000 0.558182134867 -0.594520303675
977552000 0.557906888837 -0.59569186302
977556000 0.557866544929 -0.59437529185
977560000 0.560868457628 -0.594765304961
977564000 0.560608291838 -0.593852145923
977568000 0.559845192329 -0.59261514605
977572000 0.563173614271 -0.593736822002
977576000 0.561480889685 -0.596445203973
977580000 0.563826272776 -0.596463447171
977584000 0.563942379051 -0.597004769523
977588000 0.563343965909 -0.593581081404
977592000 0.564695882408 -0.596673367327
977596000 0.561189760051 -0.593057158256
977600000 0.557768436619 -0.592610669705
977604000 0.559006652528 -0.59616209671
977608000 0.56253415797 -0.596078595107
977612000 0.561252592697 -0.596031979559
977616000 0.558872141657 -0.59560936174
977620000 0.555759558739 -0.597729081572
977624000 0.55817819916 -0.596756320273
977628000 0.56057805922 -0.596145158519
977632000 0.556469329626 -0.595353338427
977636000 0.557538913858 -0.595338866482
977640000 0.555395745683 -0.594991921601
977644000 0.555203056492 -0.595800808858
977648000 0.554914089993 -0.593434908246
977652000 0.555138295725 -0.592215655242
977656000 0.55459725016 -0.5951739173
977660000 0.556879891609 -0.594000320545
977664000 0.557152419313 -0.597939806279
977668000 0.557982653524 -0.595533844427
977672000 0.556917611279 -0.596529249495
977676000 0.551434395792 -0.599941051827
977680000 0.557511642689 -0.593069158849
977684000 0.556268409517 -0.598303411766
977688000 0.560551978056 -0.595247511689
977692000 0.55795246929 -0.594192325039
977696000 0.556756584941 -0.592215382623
977700000 0.559021728368 -0.594250693284
977704000 0.558651208954 -0.590895567021
977708000 0.55698190549 -0.590519703088
977712000 0.560062145934 -0.589718377815
977716000 0.554669752906 -0.587596262199
977720000 0.558299325337 -0.589182470372
977724000 0.556991222358 -0.588544271275
977728000 0.557518183928 -0.586608900148
977732000 0.5577113309 -0.587934680008
977736000 0.555269391968 -0.589748238427
977740000 0.557124692928 -0.583949580472
977744000 0.558820877733 -0.587069087247
977748000 0.560418745992 -0.58924861684
977752000 0.560369392998 -0.591262058722
977756000 0.562004079521 -0.587264485326
977760000 0.566289959451 -0.588890591466
977764000 0.561521511251 -0.589062924421
977768000 0.55968160364 -0.591681490066
977772000 0.559898469105 -0.594323668397
977776000 0.561895517422 -0.590709324802
977780000 0.558732880079 -0.594375128398
977784000 0.5599902114 -0.592287322617
977788000 0.557194654666 -0.592993801478
977792000 0.558505178498 -0.592867770556
977796000 0.560210658798 -0.597068919883
977800000 0.556178011481 -0.594393979025
977804000 0.558421382524 -0.595329769651
977808000 0.556997784977 -0.592930712558
977812000 0.556935832907 -0.591161699235
977816000 0.558910400794 -0.594202643428
977820000 0.558191038902 -0.591079867279
977824000 0.560860184417 -0.593963687642
977828000 0.555253942831 -0.591562556043
977832000 0.559583645013 -0.595080139252
977836000 0.556282153591 -0.588952708672
977840000 0.561137729521 -0.592006225502
977844000 0.56119642434 -0.589916790214
977848000 0.559415786514 -0.590372720956
977852000 0.559363263184 -0.593571331473
977856000 0.559882928072 -0.59232496889
977860000 0.549832406059 -0.59115571546
977864000 0.556842682497 -0.590138284124
977868000 0.561274636545 -0.59395530267
977872000 0.559958726481 -0.591569669511
977876000 0.562793080872 -0.588817046018
977880000 0.556702517994 -0.591150672102
977884000 0.560338844241 -0.590458438553
977888000 0.560361491828 -0.591085989185
977892000 0.561520685364 -0.589715937031
977896000 0.560848428546 -0.589264338977
977900000 0.56376101168 -0.592718482211
977904000 0.560103600008 -0.593300172687
977908000 0.561070377275 -0.592058951299
977912000 0.560941367884 -0.59041693946
977916000 0.559098655667 -0.592007016264
977920000 0.557101892738 -0.590959697626
977924000 0.559136618321 -0.590980771153
977928000 0.560344598701 -0.589926578535
977932000 0.556540856954 -0.593527529119
977936000 0.558668023113 -0.590939386465
977940000 0.558436681445 -0.591330446561
977944000 0.558661432134 -0.591389546908
977948000 0.559043596039 -0.592831248874
977952000 0.557177327038 -0.592092569736
977956000 0.555864386315 -0.59139794889
977960000 0.55851532827 -0.592800751141
977964000 0.558148250254 -0.590326136414
977968000 0.553690735936 -0.594023812195
977972000 0.555584131515 -0.592406444178
977976000 0.554385314048 -0.58905399923
977980000 0.553842915056 -0.591133841292
977984000 0.551736953139 -0.592859515264
977988000 0.550684984727 -0.590260644244
977992000 0.548723860169 -0.591853414242
977996000 0.554123332436 -0.595257458117
978000000 0.551584024473 -0.593610576003
978004000 0.555356874755 -0.596614243435
978008000 0.555213096672 -0.594537620112
978012000 0.558295074748 -0.59364951429
978016000 0.556433892883 -0.592504672637
978020000 0.560539922033 -0.595463366
978024000 0.559434127409 -0.593810943946
978028000 0.558520235347 -0.597323606974
978032000 0.557361016424 -0.598133693537
978036000 0.558502304871 -0.594873894977
978040000 0.560670617984 -0.600417487449
978044000 0.559508709444 -0.599646441415
978048000 0.557982807262 -0.599102155122
978052000 0.55742838836 -0.601537973858
978056000 0.558185782276 -0.600066299881
978060000 0.562252506453 -0.600322710558
978064000 0.558006407515 -0.596320563314
978068000 0.557004405858 -0.596247869919
978072000 0.559240957615 -0.591476262674
978076000 0.559327338622 -0.595597818236
978080000 0.559268720421 -0.590855379058
978084000 0.559611252792 -0.593942625146
978088000 0.559313936783 -0.593448335472
978092000 0.556583930563 -0.59294122356
978096000 0.559436116811 -0.594391660689
978100000 0.560966425239 -0.596038816926
978104000 0.55537970812 -0.596262192936
978108000 0.555542818652 -0.598001805229
978112000 0.560143812793 -0.59840105023
978116000 0.556389833188 -0.597455296611
978120000 0.556145108803 -0.596812793477
978124000 0.560768159252 -0.59836488409
978128000 0.56042913644 -0.598818513016
978132000 0.562585692669 -0.599934075767
978136000 0.561137226459 -0.598270397395
978140000 0.564055904787 -0.598847958601
978144000 0.561727691864 -0.598741440509
978148000 0.559900651335 -0.595254550447
978152000 0.561644974763 -0.594977928507
978156000 0.558383861217 -0.593930303463
978160000 0.56023137648 -0.596693260789
978164000 0.558287222209 -0.595584264319
978168000 0.55908506685 -0.594187946518
978172000 0.557076172437 -0.595059889032
978176000 0.560873572 -0.59422737177
978180000 0.560235652099 -0.595023837283
978184000 0.56412137339 -0.594550496491
978188000 0.562763988013 -0.595692633104
978192000 0.562599202804 -0.596199640766
978196000 0.568624411616 -0.595463284133
978200000 0.559405805549 -0.598403043212
978204000 0.558041553169 -0.596885078214
978208000 0.567104902177 -0.592714652171
978212000 0.559901653181 -0.585809832592
978216000 0.591547926042 -0.579761756371
978220000 0.587834483413 -0.584339063817
978224000 0.563966600548 -0.598170050206
978228000 0.575766107524 -0.602831821258
978232000 0.567886626317 -0.592054400281
978236000 0.556389134717 -0.600413174009
978240000 0.556802902012 -0.590763931561
978244000 0.553810600852 -0.585241669404
978248000 0.569250867588 -0.589445141305
978252000 0.558514146127 -0.584897380805
978256000 0.545666666973 -0.579808776223
978260000 0.567630769684 -0.574959463932
978264000 0.567157384107 -0.600320091645
978268000 0.573021019609 -0.599051365413
978272000 0.570242508972 -0.601450815653
978276000 0.575750824561 -0.596364855618
978280000 0.568391866991 -0.60019570607
978284000 0.574719685415 -0.599937994115
978288000 0.574021100506 -0.603108628735
978292000 0.571810627893 -0.605124053366
978296000 0.567441488508 -0.602559058535
978300000 0.563740836758 -0.599235586143
978304000 0.563569099454 -0.598954329881
978308000 0.564533138539 -0.600690240505
978312000 0.560836481154 -0.598768466928
978316000 0.559325379047 -0.603443058453
978320000 0.559429441521 -0.599721574893
978324000 0.554107715474 -0.599945507266
978328000 0.556239933887 -0.595233361777
978332000 0.557146855801 -0.599797943797
978336000 0.553123657715 -0.604208587946
978340000 0.554180735781 -0.598515982024
978344000 0.553102954888 -0.596128221452
978348000 0.555982955369 -0.597207935081
978352000 0.55213521675 -0.592506553787
978356000 0.551000091286 -0.592665484253
978360000 0.552076334592 -0.592857291291
978364000 0.549773856771 -0.594294990814
978368000 0.549801968349 -0.594327182842
978372000 0.554617843464 -0.593206400227
978376000 0.554641751102 -0.592137600062
978380000 0.556058897154 -0.598175144917
978384000 0.559763463412 -0.597285382739
978388000 0.562618500485 -0.598153502959
978392000 0.563824678509 -0.595816800617
978396000 0.561472460166 -0.59758570412
978400000 0.562140748115 -0.599252340704
978404000 0.561893609092 -0.598698635496
978408000 0.556945112076 -0.601221188086
978412000 0.561336128334 -0.598595745466
978416000 0.558277680798 -0.600198896102
978420000 0.55365821057 -0.60321896211
978424000 0.551210785483 -0.596970873
978428000 0.557332598507 -0.599463505755
978432000 0.558034388306 -0.597224915469
978436000 0.56182197923 -0.59738905854
978440000 0.557690612985 -0.590914097702
978444000 0.563364156518 -0.593875138182
978448000 0.564447557333 -0.595947192784
978452000 0.563787610686 -0.596264355145
978456000 0.56245354946 -0.594696731166
978460000 0.561194609478 -0.593885624341
978464000 0.558377351229 -0.593548422428
978468000 0.559289180745 -0.591581374862
978472000 0.564150734399 -0.591139819441
978476000 0.558949497779 -0.591350710178
978480000 0.558471353666 -0.594445832464
978484000 0.559033716856 -0.592145226614
978488000 0.560307912276 -0.590758727923
978492000 0.564251145223 -0.595745273067
978496000 0.558338813516 -0.591529890521
978500000 0.56204158704 -0.594096855105
978504000 0.565302698416 -0.596354963165
978508000 0.564774005457 -0.595601281043
978512000 0.563664536084 -0.598411315902
978516000 0.564545416371 -0.597665841027
978520000 0.562706514185 -0.594032819783
978524000 0.559085251248 -0.594029291368
978528000 0.561436739228 -0.59760457265
978532000 0.560106765874 -0.597796693169
978536000 0.556410799646 -0.596645700573
978540000 0.557536478558 -0.595864247185
978544000 0.559932845112 -0.597112430701
978548000 0.558556291808 -0.594445594108
978552000 0.560586413376 -0.595526326014
978556000 0.560116836509 -0.597111222855
978560000 0.559302631294 -0.594891025923
978564000 0.563654811235 -0.591434681766
978568000 0.56038889971 -0.594589296823
978572000 0.562924419072 -0.594317749196
978576000 0.560338587959 -0.596664860072
978580000 0.562425809858 -0.597496838764
978584000 0.558975470796 -0.597946606168
978588000 0.561855222129 -0.597517112655
978592000 0.560033946257 -0.596799726007
978596000 0.56029862448 -0.597576612116
978600000 0.561745904982 -0.598954478577
978604000 0.560987838149 -0.600410283136
978608000 0.558192903507 -0.601299809028
978612000 0.563412063052 -0.597663876494
978616000 0.560647767624 -0.598010033268
978620000 0.558671621338 -0.601709768635
978624000 0.557052925548 -0.598743072362
978628000 0.559302532182 -0.602226926672
978632000 0.55921743536 -0.599211335849
978636000 0.562641363584 -0.595460269735
978640000 0.561829129065 -0.596288465511
978644000 0.560251918735 -0.592030731968
978648000 0.568600097602 -0.594720232544
978652000 0.566737205564 -0.5962634724
978656000 0.562114859777 -0.5937615965
978660000 0.561107229873 -0.594164443103
978664000 0.562716080361 -0.596822107824
978668000 0.561496068698 -0.594772709509
978672000 0.558744924339 -0.593901505312
978676000 0.557150894913 -0.594608126846
978680000 0.559062868821 -0.592907469544
978684000 0.554969498257 -0.595526221501
978688000 0.559753314641 -0.595788878577
978692000 0.559042693695 -0.594239871786
978696000 0.558438612284 -0.597350425513
978700000 0.56430655187 -0.59686133635
978704000 0.561264030665 -0.596886869815
978708000 0.561515027191 -0.597554821058
978712000 0.564884169798 -0.598729887088
978716000 0.563191929336 -0.596234111074
978720000 0.563579867906 -0.598562709291
978724000 0.560839346543 -0.598357716885
978728000 0.564044229468 -0.6013929787
978732000 0.564315774325 -0.601080102516
978736000 0.564322718645 -0.601582766128
978740000 0.564137844043 -0.600761068473
978744000 0.565376652863 -0.600020659718
978748000 0.564045507286 -0.600659051867
978752000 0.562531829819 -0.604089047937
978756000 0.558001489343 -0.599530743669
978760000 0.562275369978 -0.600681549581
978764000 0.555939007528 -0.599077826737
978768000 0.556820546576 -0.597896414584
978772000 0.556020473269 -0.598970245039
978776000 0.558241512051 -0.597279777917
978780000 0.556629942524 -0.593777723443
978784000 0.559410438585 -0.593397543044
978788000 0.557268235164 -0.58945848033
978792000 0.558778378338 -0.590892546475
978796000 0.559342107185 -0.590516608963
978800000 0.560912805789 -0.592370534576
978804000 0.559982290193 -0.590519234863
978808000 0.561258719484 -0.594430798407
978812000 0.559118069338 -0.595204732201
978816000 0.557799927914 -0.598592831948
978820000 0.558351860497 -0.596184211875
978824000 0.557551130226 -0.601576890128
978828000 0.55613326896 -0.600802427493
978832000 0.55762278906 -0.597827872853
978836000 0.556653602635 -0.596892873239
978840000 0.561489807384 -0.596679021553
978844000 0.558038234967 -0.594994084874
978848000 0.558045546839 -0.598362943256
978852000 0.560629142568 -0.597330672675
978856000 0.558847325832 -0.598304311459
978860000 0.559789480074 -0.595570154907
978864000 0.55967283071 -0.596732967324
978868000 0.558313575251 -0.597241933143
978872000 0.558290802873 -0.596127772276
978876000 0.562810774971 -0.595696875522
978880000 0.557981850136 -0.59955725928
978884000 0.557926876166 -0.601613872536
978888000 0.557098895672 -0.595410146413
978892000 0.558241210713 -0.59769603417
978896000 0.557202001614 -0.595819699385
978900000 0.559062363535 -0.597483152144
978904000 0.558896802332 -0.595789986232
978908000 0.560419433954 -0.595638178491
978912000 0.562119854667 -0.596630036175
978916000 0.560863470827 -0.598635313417
978920000 0.563544376226 -0.594700888507
978924000 0.563097842435 -0.5941121315
978928000 0.560118758342 -0.597726999692
978932000 0.562880928674 -0.597464266562
978936000 0.562243802672 -0.599120026009
978940000 0.561866505924 -0.598093250194
978944000 0.560846473143 -0.597765402711
978948000 0.565509626562 -0.599188792589
978952000 0.563657323588 -0.594489330968
978956000 0.564608148083 -0.598384261108
978960000 0.560532490219 -0.600952728947
978964000 0.563180595398 -0.599060499102
978968000 0.565308023293 -0.599814246381
978972000 0.562959631951 -0.602813658372
978976000 0.559736762761 -0.598348381856
978980000 0.556647792506 -0.597950344881
978984000 0.561702117236 -0.594468344503
978988000 0.559342799203 -0.593838919068
978992000 0.563867987154 -0.588570035239
978996000 0.556779668241 -0.592181342284
979000000 0.559247156991 -0.588480512345
979004000 0.56110521301 -0.5879630847
979008000 0.562218920487 -0.59242827878
979012000 0.562966602734 -0.589290250061
979016000 0.562518497242 -0.592787846669
979020000 0.560900662913 -0.593267400167
979024000 0.564354895255 -0.598611844908
979028000 0.561332442289 -0.593022079364
979032000 0.558668215532 -0.596579266254
979036000 0.561755106625 -0.594839970329
979040000 0.562618258228 -0.596232099444
979044000 0.559102120951 -0.596889820954
979048000 0.561804314168 -0.59774892879
979052000 0.556296273859 -0.596498015826
979056000 0.559183146638 -0.596950428068
979060000 0.557234489959 -0.594293052841
979064000 0.554400955644 -0.593810013975
979068000 0.556328693158 -0.596507061743
979072000 0.556315134579 -0.596160408199
979076000 0.554522529172 -0.590701378957
979080000 0.553699067195 -0.596939455233
979084000 0.554455364241 -0.594184861857
979088000 0.554615406891 -0.595605525898
979092000 0.557679754098 -0.5939891592
979096000 0.55594783363 -0.59041167039
979100000 0.558415720661 -0.594136940145
979104000 0.563731308332 -0.62010081085
979108000 0.559484845949 -0.593871094949
979112000 0.558713699397 -0.59312808906
979116000 0.559108621838 -0.592489122494
979120000 0.559455389312 -0.592839351305
979124000 0.561851635904 -0.595830068212
979128000 0.561683287651 -0.596311590993
979132000 0.55783227131 -0.599709011779
979136000 0.560675568702 -0.601192843752
979140000 0.561348587542 -0.601629302226
979144000 0.563602696061 -0.604125974344
979148000 0.558558699583 -0.601594041369
979152000 0.558361226555 -0.603273055278
979156000 0.556720700271 -0.59962703657
979160000 0.557751187753 -0.59726236218
979164000 0.556487960984 -0.59850522437
979168000 0.555820340468 -0.599597274923
979172000 0.553573744015 -0.602319643001
979176000 0.553776499257 -0.601977574569
979180000 0.553311222042 -0.599922970956
979184000 0.557998664746 -0.600108658095
979188000 0.558610582576 -0.597486510767
979192000 0.555232496069 -0.602623458793
979196000 0.555512657302 -0.598347283351
979200000 0.555326344051 -0.597586321186
979204000 0.556252934026 -0.602189034202
979208000 0.556803498877 -0.596404371535
979212000 0.555507476521 -0.599235242065
979216000 0.55692372926 -0.596875724511
979220000 0.556062609295 -0.595540225515
979224000 0.554762922776 -0.596713085538
979228000 0.551052770419 -0.592538558622
979232000 0.553248165079 -0.594149482709
979236000 0.556636653493 -0.596152834227
979240000 0.553515860057 -0.591932271049
979244000 0.554170652207 -0.59566090183
979248000 0.554942859606 -0.595099550425
979252000 0.55540358924 -0.59391120627
979256000 0.557319083102 -0.592608405087
979260000 0.555622129406 -0.591860320837
979264000 0.557143511289 -0.595939766254
979268000 0.559647783102 -0.594987879184
979272000 0.557350465964 -0.595961301677
979276000 0.551897688473 -0.595689424915
979280000 0.552616028882 -0.594963480397
979284000 0.554306240108 -0.595045326243
979288000 0.55544469268 -0.59498218268
979292000 0.55634734944 -0.594886575073
979296000 0.55436442972 -0.595530490018
979300000 0.554914329375 -0.595885363323
979304000 0.556696263267 -0.59752099451
979308000 0.559934208485 -0.603285563959
979312000 0.560111864245 -0.602538110984
979316000 0.561490280726 -0.603916179065
979320000 0.561303980531 -0.602055157976
979324000 0.562087880047 -0.597417011882
979328000 0.561693815304 -0.598927784233
979332000 0.562539391808 -0.598586630091
979336000 0.559038761239 -0.595441270865
979340000 0.553755662457 -0.596818038625
979344000 0.555756080115 -0.597141563279
979348000 0.554015296203 -0.598397376154
979352000 0.557396932708 -0.598051175413
979356000 0.558878432664 -0.598435983413
979360000 0.556630060621 -0.600092306542
979364000 0.554702482488 -0.600566072099
979368000 0.559623188251 -0.599836084303
979372000 0.557352981909 -0.603146483476
979376000 0.555673415586 -0.600762758941
979380000 0.559816806807 -0.600680583137
979384000 0.558510251937 -0.59795263115
979388000 0.556750479886 -0.600862705355
979392000 0.557777063474 -0.600126003807
979396000 0.560146912437 -0.596044126091
979400000 0.552562995573 -0.594830118493
979404000 0.554308315601 -0.595482997678
979408000 0.55774860783 -0.597120984187
979412000 0.556273579715 -0.593623678571
979416000 0.559630179748 -0.59713551173
979420000 0.561762433317 -0.594336544358
979424000 0.559568676745 -0.590168703061
979428000 0.564648510616 -0.590312712755
979432000 0.558262722883 -0.587834375318
979436000 0.560782189829 -0.593487487733
979440000 0.561622815561 -0.594039109167
979444000 0.559099920126 -0.592128141905
979448000 0.561763620777 -0.594234104377
979452000 0.562384570668 -0.594560947924
979456000 0.562744285402 -0.598768239538
979460000 0.561946636342 -0.596225115573
979464000 0.560281118994 -0.599071642622
979468000 0.561264955723 -0.596351568193
979472000 0.557183789001 -0.596051687288
979476000 0.557911621466 -0.597662019496
979480000 0.558182905595 -0.599624820804
979484000 0.554711543208 -0.598668045833
979488000 0.554758379117 -0.601432635348
979492000 0.552898313147 -0.599522203214
979496000 0.556865063419 -0.598592692731
979500000 0.554233301436 -0.598171147649
979504000 0.555478938933 -0.593647178833
979508000 0.559384497351 -0.595897880917
979512000 0.556016724252 -0.592658627219
979516000 0.556090751154 -0.592350503237
979520000 0.557152752436 -0.594603321632
979524000 0.559618627744 -0.593396172374
979528000 0.561495651755 -0.595599383959
979532000 0.560254244442 -0.597766336012
979536000 0.560847186078 -0.596146294872
979540000 0.561030615248 -0.596173277679
979544000 0.563520723488 -0.597019236384
979548000 0.562065398491 -0.598269214458
979552000 0.563877647428 -0.591631351887
979556000 0.567858468776 -0.589807491629
979560000 0.56667299004 -0.587403935632
979564000 0.569349955951 -0.589504832845
979568000 0.568326708513 -0.584216677071
979572000 0.575143754441 -0.58488485655
979576000 0.569972836834 -0.583233652112
979580000 0.570843441835 -0.586964708696
979584000 0.564303305798 -0.583831907993
979588000 0.561699677955 -0.584613479611
979592000 0.561287318291 -0.589660002299
979596000 0.556340599165 -0.588257833225
979600000 0.558835347482 -0.592704633167
979604000 0.55744998904 -0.590548749698
979608000 0.555850966691 -0.592099869801
979612000 0.557158147379 -0.592695734502
979616000 0.556650522214 -0.595372348172
979620000 0.560000886618 -0.59410026725
979624000 0.562222262235 -0.599178906909
979628000 0.557577351301 -0.596263209632
979632000 0.559374477083 -0.600548284262
979636000 0.559389669601 -0.603477958057
979640000 0.556216253236 -0.600302432449
979644000 0.559893120476 -0.601815223539
979648000 0.561042707143 -0.599408559815
979652000 0.562722330453 -0.602240656615
979656000 0.561337736881 -0.604207920488
979660000 0.562014649507 -0.602653871277
979664000 0.56101619647 -0.602052489086
979668000 0.555371946076 -0.601544408971
979672000 0.559304209276 -0.600193508418
979676000 0.556451560998 -0.605994840184
979680000 0.560893115271 -0.596827207104
979684000 0.557377982509 -0.600190424202
979688000 0.555956675239 -0.601652725336
979692000 0.557137137301 -0.601563729998
979696000 0.553098964938 -0.60751422459
979700000 0.557562539868 -0.599305000159
979704000 0.556044884754 -0.595554898402
979708000 0.558555562911 -0.596753045082
979712000 0.559847773424 -0.595063228957
979716000 0.557782491229 -0.59477187993
979720000 0.55805690944 -0.595959538695
979724000 0.557843346919 -0.594207706994
979728000 0.554660911854 -0.595228605214
979732000 0.557234868677 -0.596934190746
979736000 0.556924502775 -0.59457811333
979740000 0.557903209307 -0.594456260805
979744000 0.555018695508 -0.596393227622
979748000 0.557114265383 -0.594960541164
979752000 0.548127024949 -0.595758961028
979756000 0.554480068337 -0.596099296727
979760000 0.554468627802 -0.596938156756
979764000 0.553083324641 -0.595680740218
979768000 0.555932556412 -0.596867887609
979772000 0.55822359116 -0.597851974878
979776000 0.55272382896 -0.599576552573
979780000 0.553522879 -0.601284927463
979784000 0.554250154008 -0.598771227474
979788000 0.552666245286 -0.599929680254
979792000 0.553665741103 -0.600709211702
979796000 0.554999256436 -0.601192225483
979800000 0.551944098786 -0.602000739595
979804000 0.553437270077 -0.602424092963
979808000 0.552977420543 -0.604419568959
979812000 0.555528708098 -0.59909842888
979816000 0.559026972212 -0.604988035682
979820000 0.560900890852 -0.598494002456
979824000 0.557010290587 -0.604144987043
979828000 0.560050842289 -0.601557726241
979832000 0.560227379242 -0.598075920051
979836000 0.561436102257 -0.600112697677
979840000 0.559953985166 -0.595803599571
979844000 0.558948983 -0.59653100285
979848000 0.561893614415 -0.599210668885
979852000 0.559396999535 -0.596990459395
979856000 0.558660668923 -0.594530638252
979860000 0.558530377863 -0.592594761516
979864000 0.555950968994 -0.597992393544
979868000 0.557238139043 -0.594136218984
979872000 0.559672879316 -0.597053544195
979876000 0.561261938225 -0.59695874667
979880000 0.556682252278 -0.602020745109
979884000 0.560817920878 -0.599480787332
979888000 0.55665399388 -0.600586315644
979892000 0.561975196726 -0.597795091336
979896000 0.560453602622 -0.599541395261
979900000 0.561853397455 -0.598865709351
979904000 0.557396832888 -0.601870822565
979908000 0.561080163264 -0.598727348936
979912000 0.56038994177 -0.596816153877
979916000 0.557448482385 -0.604498530466
979920000 0.557326432381 -0.596069307186
979924000 0.56003992523 -0.59318384188
979928000 0.556193196852 -0.596530151541
979932000 0.562258724356 -0.598233491742
979936000 0.564375480773 -0.599125825649
979940000 0.559982336244 -0.596822444334
979944000 0.56144509542 -0.594735293871
979948000 0.564407096287 -0.592689531397
979952000 0.560726145626 -0.600313834498
979956000 0.559478028307 -0.597967823857
979960000 0.558807513847 -0.599385655565
979964000 0.557738568049 -0.601362972929
979968000 0.557537178283 -0.599994531577
979972000 0.560472774682 -0.604296130557
979976000 0.553547094359 -0.604300411981
979980000 0.554188562181 -0.603840215415
979984000 0.554286210203 -0.60313953444
979988000 0.555809018247 -0.597535285384
979992000 0.553574333223 -0.593617107158
979996000 0.556795279516 -0.599772219859
980000000 0.563361481346 -0.598733649097
