! Calibrated averaged scanner-service zoom
# Hz S RI R 50
420000000 0.248812210284 -0.570782073499
420010000 0.248785233562 -0.570540867481
420020000 0.248558370739 -0.571386677034
420030000 0.248304464905 -0.571602088365
420040000 0.248640526151 -0.571214455259
420050000 0.2494820497 -0.57143449742
420060000 0.249253252212 -0.572004682266
420070000 0.248559015382 -0.572383174941
420080000 0.248554037427 -0.573007532582
420090000 0.24960071418 -0.571715322299
420100000 0.248951628848 -0.57251578159
420110000 0.249517048354 -0.572543594743
420120000 0.248813324507 -0.572205941313
420130000 0.249434439659 -0.573093349433
420140000 0.249512693028 -0.572283086125
420150000 0.249083746339 -0.574002811691
420160000 0.249452154577 -0.573258572489
420170000 0.249853965306 -0.57257325927
420180000 0.249878443892 -0.574095055037
420190000 0.25085093272 -0.574074464042
420200000 0.249959025013 -0.572805180823
420210000 0.24989502167 -0.57365546709
420220000 0.250042475031 -0.573649099903
420230000 0.250170950926 -0.573416194158
420240000 0.249824058931 -0.574078272694
420250000 0.250053270455 -0.573981851444
420260000 0.250497346463 -0.573916239505
420270000 0.249856984257 -0.574765955814
420280000 0.250158638356 -0.574894618917
420290000 0.25060611916 -0.574623031038
420300000 0.250528249808 -0.574976321876
420310000 0.250854820344 -0.575275930619
420320000 0.252068551604 -0.578868433989
420330000 0.251485820377 -0.574606647511
420340000 0.250577404618 -0.574677157063
420350000 0.250217280023 -0.575479576851
420360000 0.250285762789 -0.574943005402
420370000 0.250883264627 -0.575458459263
420380000 0.250329557348 -0.575009118162
420390000 0.250699490277 -0.576105291278
420400000 0.250888848717 -0.575346604039
420410000 0.251252175817 -0.574781722686
420420000 0.251423844698 -0.575025792748
420430000 0.251544533557 -0.576119550297
420440000 0.250667815345 -0.576649925627
420450000 0.25109985232 -0.575038665023
420460000 0.251716007744 -0.576319786749
420470000 0.252081195608 -0.576301928832
420480000 0.250717667946 -0.577179544483
420490000 0.252156020532 -0.575998145622
420500000 0.251348103663 -0.576160075914
420510000 0.252349896118 -0.576641026274
420520000 0.251272088982 -0.57643363265
420530000 0.251327026528 -0.576834109442
420540000 0.251666333834 -0.577268652428
420550000 0.2516025192 -0.575979993729
420560000 0.252444122925 -0.576944464834
420570000 0.25269194716 -0.577545931492
420580000 0.252496708675 -0.57726267649
420590000 0.252562255099 -0.577628465227
420600000 0.251924051222 -0.576518716918
420610000 0.252171673508 -0.578261911943
420620000 0.252526068613 -0.578529527628
420630000 0.252729407942 -0.577871424048
420640000 0.252827057988 -0.578637453168
420650000 0.252993511041 -0.578673038023
420660000 0.25326967633 -0.577972480679
420670000 0.253190087689 -0.577668922807
420680000 0.253581261329 -0.578946492037
420690000 0.253417778484 -0.578861898378
420700000 0.252527186868 -0.578642645351
420710000 0.252663770432 -0.578536195435
420720000 0.2536386829 -0.578595115613
420730000 0.253910039733 -0.57920514853
420740000 0.253848923429 -0.578905809265
420750000 0.25334850596 -0.579935106011
420760000 0.253116257347 -0.579724673176
420770000 0.253893496041 -0.579948738626
420780000 0.253150248262 -0.580101178839
420790000 0.254459513146 -0.579824444908
420800000 0.254493066515 -0.579701284762
420810000 0.254315288509 -0.580145625732
420820000 0.253920928131 -0.581124463591
420830000 0.253766038954 -0.580810031479
420840000 0.253977625814 -0.580147886714
420850000 0.253816013112 -0.580699381749
420860000 0.253625742593 -0.581315989408
420870000 0.254079575859 -0.58147949608
420880000 0.25402398859 -0.582223216277
420890000 0.253769982035 -0.581794967921
420900000 0.255008203211 -0.582209682894
420910000 0.254614403059 -0.581547715777
420920000 0.254508682662 -0.581025615817
420930000 0.254524514795 -0.581655350087
420940000 0.254104314 -0.581824506395
420950000 0.254864742883 -0.582038675974
420960000 0.254849414219 -0.582583352621
420970000 0.255038655863 -0.582243032624
420980000 0.254355471986 -0.583042138143
420990000 0.255088246744 -0.582799384796
421000000 0.254971907368 -0.583065355685
421010000 0.255909695835 -0.58257233468
421020000 0.255312998835 -0.581077516115
421030000 0.255129104269 -0.5818629395
421040000 0.254860774658 -0.582424801268
421050000 0.255739821922 -0.583110493748
421060000 0.25507250949 -0.582874386829
421070000 0.254302663755 -0.583285742819
421080000 0.25493066135 -0.582390978748
421090000 0.25497550217 -0.582900575852
421100000 0.254822669361 -0.583249411315
421110000 0.255305755064 -0.583240866033
421120000 0.256194795551 -0.582373967775
421130000 0.256964598337 -0.583032114256
421140000 0.256466958453 -0.583004496877
421150000 0.255672748246 -0.583500987893
421160000 0.256074575434 -0.583348373921
421170000 0.256017688247 -0.583602412678
421180000 0.255899691121 -0.583828378184
421190000 0.255975104823 -0.584434716321
421200000 0.255810479174 -0.584441760588
421210000 0.255983222878 -0.584108399067
421220000 0.255466688714 -0.584445541675
421230000 0.256295996559 -0.584117545357
421240000 0.255645194834 -0.585184052082
421250000 0.256105788989 -0.585029084193
421260000 0.256803463389 -0.584536959203
421270000 0.256630984411 -0.584935592968
421280000 0.256486589276 -0.584626005249
421290000 0.257032958007 -0.585043151571
421300000 0.256703457125 -0.585178984441
421310000 0.256979458044 -0.585327188504
421320000 0.257601485398 -0.585035139221
421330000 0.257876324873 -0.585522254175
421340000 0.257940222907 -0.585160953098
421350000 0.257821395 -0.585369922462
421360000 0.258193168698 -0.586451957562
421370000 0.258023972495 -0.586722031879
421380000 0.258286207835 -0.586478757619
421390000 0.258221501836 -0.587067435666
421400000 0.257815958077 -0.587538222222
421410000 0.258175218585 -0.58716536901
421420000 0.257959788919 -0.586938193466
421430000 0.258134840767 -0.587085169902
421440000 0.258425629905 -0.587331710841
421450000 0.25800420643 -0.586517927475
421460000 0.258352576108 -0.586928703239
421470000 0.257786523857 -0.586867450544
421480000 0.258572448666 -0.587653423265
421490000 0.258383955731 -0.587492515505
421500000 0.259211442918 -0.587171504897
421510000 0.258942471918 -0.587839394546
421520000 0.258883110236 -0.587351308654
421530000 0.257968446605 -0.588427874686
421540000 0.258811717114 -0.588136500728
421550000 0.258806000304 -0.588615668874
421560000 0.260917003022 -0.582290899407
421570000 0.258763819957 -0.587403098129
421580000 0.25903324269 -0.588268729983
421590000 0.260236398284 -0.58817606611
421600000 0.259532335828 -0.588530254877
421610000 0.259350396514 -0.589749725269
421620000 0.259427744993 -0.590262930903
421630000 0.259034096272 -0.589603833143
421640000 0.258671270486 -0.591460232067
421650000 0.259203188892 -0.589889551915
421660000 0.258506142874 -0.589826805778
421670000 0.259368557116 -0.590247534797
421680000 0.259657656923 -0.589343822891
421690000 0.259445864484 -0.589431806993
421700000 0.259705970254 -0.58917184154
421710000 0.259215072688 -0.589606532764
421720000 0.259901098579 -0.590262430767
421730000 0.260477762182 -0.590618231312
421740000 0.259849370973 -0.591177737909
421750000 0.261181906541 -0.59102479826
421760000 0.261861695501 -0.591102544005
421770000 0.262446139127 -0.592273670339
421780000 0.261560688352 -0.590211400227
421790000 0.261696705385 -0.59138460864
421800000 0.260669203026 -0.592308391483
421810000 0.260010905656 -0.591828768022
421820000 0.259946029457 -0.591741958382
421830000 0.260275018317 -0.591824218119
421840000 0.260616635619 -0.591474348033
421850000 0.260289944164 -0.591958006003
421860000 0.260525574107 -0.591972930672
421870000 0.261012779067 -0.591788386091
421880000 0.260932931988 -0.592490957143
421890000 0.261274992345 -0.59261202456
421900000 0.260673819196 -0.593001413233
421910000 0.260715095656 -0.59326965627
421920000 0.261166161384 -0.593278554794
421930000 0.261083393511 -0.593050386908
421940000 0.260932929859 -0.593021168858
421950000 0.261109189479 -0.593133693807
421960000 0.261566583179 -0.593574621386
421970000 0.261168911437 -0.593383015717
421980000 0.261596176763 -0.593875513145
421990000 0.261037320839 -0.593941977124
422000000 0.26113960701 -0.593602742793
422010000 0.261890783569 -0.594798776813
422020000 0.261936656241 -0.594608038075
422030000 0.262584523686 -0.594477741279
422040000 0.261734396902 -0.594952366181
422050000 0.262267205999 -0.594967540766
422060000 0.261964729717 -0.595259890441
422070000 0.262887887688 -0.595534847771
422080000 0.263023879533 -0.595321675261
422090000 0.262673181254 -0.595538866088
422100000 0.263288356279 -0.595829206698
422110000 0.262606137037 -0.59650162802
422120000 0.263507956501 -0.597193865257
422130000 0.264155228686 -0.596534445899
422140000 0.26349970076 -0.596289831967
422150000 0.264022602987 -0.596407111109
422160000 0.262869114933 -0.597091881997
422170000 0.262824484669 -0.596710176854
422180000 0.263848951196 -0.596488974301
422190000 0.263328088252 -0.596681707105
422200000 0.263642058137 -0.59754336649
422210000 0.264046855407 -0.596941738088
422220000 0.264136816671 -0.596882936509
422230000 0.263626779705 -0.597520850547
422240000 0.264084942374 -0.597735849174
422250000 0.264693478231 -0.598323761617
422260000 0.264754872782 -0.598175006884
422270000 0.26390496687 -0.59805179943
422280000 0.264206478844 -0.598129483775
422290000 0.264251383085 -0.599187566481
422300000 0.26485465558 -0.598843589822
422310000 0.264043443136 -0.599314891295
422320000 0.264699718104 -0.59843524944
422330000 0.26546580668 -0.598800025871
422340000 0.264797548839 -0.598252236952
422350000 0.2650035824 -0.599544579712
422360000 0.265154046473 -0.599583156598
422370000 0.264961763539 -0.599947152525
422380000 0.26462798272 -0.599659306242
422390000 0.264351007579 -0.599698432961
422400000 0.264032143819 -0.599587812118
422410000 0.264501432614 -0.599829028454
422420000 0.264558380876 -0.600079952758
422430000 0.264548853473 -0.60036064711
422440000 0.265012973494 -0.600204360767
422450000 0.264656484052 -0.600129720277
422460000 0.263556120214 -0.599105799343
422470000 0.263417958289 -0.59797678525
422480000 0.262003520722 -0.594472539452
422490000 0.264850339164 -0.591068564938
422500000 0.268012008202 -0.594398746809
422510000 0.265065235218 -0.60011514144
422520000 0.265326539324 -0.601009078888
422530000 0.265358267338 -0.601444382248
422540000 0.265208720286 -0.602139789966
422550000 0.265393506819 -0.602579074244
422560000 0.265775043622 -0.602591403155
422570000 0.265568161635 -0.602247753781
422580000 0.265675032 -0.602096678478
422590000 0.26507770381 -0.602141645518
422600000 0.265566744225 -0.602715987301
422610000 0.265650539065 -0.602212939707
422620000 0.26604941307 -0.60348496992
422630000 0.265907913322 -0.603380498832
422640000 0.265930635618 -0.602426496021
422650000 0.265819212027 -0.603360099291
422660000 0.265444957684 -0.603697624012
422670000 0.265720045036 -0.603616349585
422680000 0.266787167674 -0.603447394099
422690000 0.266098790426 -0.603927571666
422700000 0.265899173516 -0.603789296686
422710000 0.26674341727 -0.603728627952
422720000 0.265773480475 -0.603803019639
422730000 0.265921347493 -0.60382663354
422740000 0.267100763876 -0.603183072313
422750000 0.266433344362 -0.604357039089
422760000 0.265854048004 -0.604284236269
422770000 0.265751306129 -0.605316706916
422780000 0.266080746882 -0.604625338342
422790000 0.266533256142 -0.604075788782
422800000 0.267083370042 -0.604174204063
422810000 0.266606261572 -0.604742654946
422820000 0.267128670365 -0.604704504584
422830000 0.268076812767 -0.604257917161
422840000 0.267283869011 -0.605766987706
422850000 0.267035224783 -0.605085119202
422860000 0.266980670496 -0.60582022466
422870000 0.266702174439 -0.606224656358
422880000 0.266428039554 -0.607119390982
422890000 0.265929743451 -0.607569254419
422900000 0.266467685695 -0.607579721636
422910000 0.267026298372 -0.606990775611
422920000 0.266949464527 -0.607325916213
422930000 0.266892111436 -0.607429253422
422940000 0.266990744972 -0.608080308142
422950000 0.267622074266 -0.608516590062
422960000 0.267277969978 -0.60810091907
422970000 0.267304685174 -0.6082185258
422980000 0.267385032136 -0.608572702121
422990000 0.267421517321 -0.608606714386
423000000 0.267735680817 -0.608750694326
423010000 0.26866014915 -0.610063285212
423020000 0.268809328671 -0.609908440329
423030000 0.268086358901 -0.610098365919
423040000 0.268201362593 -0.61058959346
423050000 0.268664062175 -0.609689665861
423060000 0.268232426278 -0.610523750535
423070000 0.269219350885 -0.61052776323
423080000 0.26875473658 -0.611494865858
423090000 0.268582144927 -0.610661303559
423100000 0.268819507426 -0.610813698664
423110000 0.269160804713 -0.610968203658
423120000 0.269187918058 -0.610968836291
423130000 0.269014947699 -0.611901579674
423140000 0.269293578745 -0.612031110929
423150000 0.26889389584 -0.611996733635
423160000 0.268766565033 -0.612195290514
423170000 0.268317022247 -0.611993499774
423180000 0.26820512343 -0.611319370298
423190000 0.268782950439 -0.612212865172
423200000 0.269401233725 -0.613734065295
423210000 0.270848706921 -0.614734724787
423220000 0.269652636676 -0.613371355615
423230000 0.270116912869 -0.613431004378
423240000 0.269451647752 -0.613443296823
423250000 0.269452853449 -0.613407881563
423260000 0.269109087647 -0.612630796616
423270000 0.269388689877 -0.6134115982
423280000 0.268183156737 -0.613561839031
423290000 0.269240633742 -0.613892715082
423300000 0.269267618644 -0.61367004702
423310000 0.26884257299 -0.614598430533
423320000 0.268522190707 -0.613793909147
423330000 0.268743863295 -0.613596674673
423340000 0.269889198491 -0.613960452875
423350000 0.26982828728 -0.613599039127
423360000 0.269561674075 -0.614395377087
423370000 0.26866472537 -0.614508279616
423380000 0.269681912011 -0.615297918482
423390000 0.268810457162 -0.613574091411
423400000 0.270059035291 -0.615529905783
423410000 0.270156457959 -0.615726870294
423420000 0.270023382735 -0.616004521628
423430000 0.27060659205 -0.615853376767
423440000 0.270561056262 -0.616374288243
423450000 0.270118037439 -0.616404198132
423460000 0.268721248177 -0.616065027796
423470000 0.26921364428 -0.616130345763
423480000 0.270320455707 -0.616328828557
423490000 0.270000032427 -0.616691699907
423500000 0.269554151337 -0.616033114077
423510000 0.270761688322 -0.615718451556
423520000 0.270291839812 -0.615602780596
423530000 0.270064821556 -0.616809217682
423540000 0.269767272859 -0.616822553516
423550000 0.270410657681 -0.617074109917
423560000 0.270084880734 -0.617604287133
423570000 0.269672786871 -0.617672231331
423580000 0.269910347562 -0.617841362637
423590000 0.269321413151 -0.618214121708
423600000 0.270235076198 -0.61874962996
423610000 0.270428889057 -0.618481747059
423620000 0.26944873398 -0.618655178631
423630000 0.27012980865 -0.618732109417
423640000 0.270701494612 -0.618926668542
423650000 0.270387968079 -0.618815412165
423660000 0.270513372675 -0.618848189321
423670000 0.269696418087 -0.620019330802
423680000 0.270533217219 -0.618552404637
423690000 0.268768919761 -0.617071124056
423700000 0.269360365985 -0.619026075763
423710000 0.270254559062 -0.619631264456
423720000 0.271122100915 -0.619967539499
423730000 0.270757590443 -0.62024015597
423740000 0.27030124087 -0.619543014858
423750000 0.270496887137 -0.620358763194
423760000 0.27109616746 -0.620766631632
423770000 0.270501561246 -0.621346031174
423780000 0.270488099172 -0.621570706432
423790000 0.270366632953 -0.620850403638
423800000 0.269719124629 -0.62059599715
423810000 0.270489816091 -0.620910868746
423820000 0.270579065823 -0.621328766664
423830000 0.270113319326 -0.622511902132
423840000 0.270217946938 -0.62148696453
423850000 0.270426058975 -0.622143387356
423860000 0.270288987796 -0.621863324184
423870000 0.270165524339 -0.622152231307
423880000 0.270429157593 -0.622048218006
423890000 0.270499361272 -0.621346390296
423900000 0.27028030792 -0.622100580024
423910000 0.270693384998 -0.62262877228
423920000 0.270577198891 -0.623303703134
423930000 0.271332161922 -0.623701651344
423940000 0.270640207814 -0.623351233018
423950000 0.270655233014 -0.62383116013
423960000 0.270879605002 -0.623240894412
423970000 0.270868302309 -0.623625126421
423980000 0.270762083385 -0.62367340638
423990000 0.270393948486 -0.623294987806
424000000 0.269980574722 -0.623865937124
424010000 0.269789338018 -0.623396540027
424020000 0.269629115665 -0.624145977369
424030000 0.26893378825 -0.624835948446
424040000 0.269585786395 -0.625294280339
424050000 0.270030920624 -0.6245576772
424060000 0.27027374849 -0.624307796896
424070000 0.270311994923 -0.624549371569
424080000 0.269897046364 -0.624800470656
424090000 0.269888027233 -0.624677368494
424100000 0.269497585292 -0.624970012353
424110000 0.269261770457 -0.624845256139
424120000 0.269808598261 -0.625040383288
424130000 0.270276634536 -0.625014917684
424140000 0.269757445202 -0.625231290792
424150000 0.269900429495 -0.625533447496
424160000 0.269756836183 -0.625656983364
424170000 0.269995980755 -0.62537061853
424180000 0.269857977846 -0.625223969581
424190000 0.269924166339 -0.625764184527
424200000 0.270250988381 -0.626765384443
424210000 0.27053863652 -0.627082440197
424220000 0.270687701359 -0.626830280483
424230000 0.270360865588 -0.627534659727
424240000 0.270753810808 -0.627544614858
424250000 0.270553687028 -0.627436071077
424260000 0.270334049316 -0.626999790997
424270000 0.270204735827 -0.626995798997
424280000 0.269906376738 -0.627276389927
424290000 0.270083832783 -0.62734726878
424300000 0.27021649537 -0.627467631062
424310000 0.270365967215 -0.627820418874
424320000 0.270843530025 -0.628282447539
424330000 0.270388214743 -0.628516507059
424340000 0.270877360861 -0.629109595112
424350000 0.271136578188 -0.628665062157
424360000 0.269929032418 -0.629308116085
424370000 0.270103927778 -0.628984393245
424380000 0.270338682076 -0.629557894605
424390000 0.27030096173 -0.629440769795
424400000 0.270744715365 -0.629311859833
424410000 0.270515003115 -0.630013683293
424420000 0.270586955857 -0.629624084115
424430000 0.270441880469 -0.630636095329
424440000 0.269856059699 -0.630354873895
424450000 0.269490866307 -0.630293090747
424460000 0.270570308263 -0.63083634983
424470000 0.270414237125 -0.630476548318
424480000 0.270126027365 -0.630218900488
424490000 0.2701825024 -0.630418438555
424500000 0.270038573701 -0.631059759018
424510000 0.270671410603 -0.631477310972
424520000 0.270891062791 -0.631156368505
424530000 0.270154237917 -0.631135781394
424540000 0.270498842966 -0.63134376325
424550000 0.271328411077 -0.631767387374
424560000 0.270835336987 -0.631975001518
424570000 0.270524619452 -0.63209922307
424580000 0.270522804019 -0.632320072873
424590000 0.27084382513 -0.632815537324
424600000 0.270683063912 -0.633110063337
424610000 0.270911515752 -0.633619290375
424620000 0.270338473256 -0.632951105458
424630000 0.270814525095 -0.633349074531
424640000 0.270174229254 -0.633179249892
424650000 0.270316056812 -0.633737573343
424660000 0.270383369658 -0.633424459311
424670000 0.270749679307 -0.633788534784
424680000 0.270436246927 -0.633811509234
424690000 0.270099825268 -0.634114636267
424700000 0.269874383484 -0.634459632264
424710000 0.269407717587 -0.633876924757
424720000 0.269946496505 -0.634029480515
424730000 0.269531162169 -0.634110975893
424740000 0.27015797502 -0.634000152897
424750000 0.270501723323 -0.634465447226
424760000 0.270343320736 -0.634723823962
424770000 0.270095240184 -0.634906380498
424780000 0.269996373401 -0.635086644999
424790000 0.270231262541 -0.634998916429
424800000 0.270621607589 -0.634346117391
424810000 0.270884465115 -0.633765245662
424820000 0.269469248974 -0.634410300318
424830000 0.269424283389 -0.635245678343
424840000 0.270032308464 -0.635544931487
424850000 0.270338548676 -0.636342125687
424860000 0.269665958477 -0.637189674092
424870000 0.270584074048 -0.637386803223
424880000 0.269362088656 -0.637475544981
424890000 0.269706589636 -0.637651432959
424900000 0.269546380963 -0.637618889604
424910000 0.269496991594 -0.637577109345
424920000 0.269753404612 -0.637343700119
424930000 0.269893093457 -0.637657912619
424940000 0.26977556687 -0.638046760297
424950000 0.269664157403 -0.638121698318
424960000 0.270174009053 -0.638323922897
424970000 0.269936585081 -0.638717741767
424980000 0.26961921256 -0.639106338407
424990000 0.269143859143 -0.639195243865
425000000 0.269683220818 -0.639115116573
425010000 0.269175286653 -0.638787502808
425020000 0.269399469718 -0.638080893711
425030000 0.268796346525 -0.638836687046
425040000 0.269179614426 -0.638534536114
425050000 0.269590255639 -0.63895520136
425060000 0.269914008843 -0.638912371806
425070000 0.26977589126 -0.638921306647
425080000 0.269836876837 -0.639209322995
425090000 0.269529421858 -0.638751974326
425100000 0.269722718889 -0.639315705941
425110000 0.269287532932 -0.639661524019
425120000 0.268592424672 -0.63944788653
425130000 0.269003359264 -0.639452447543
425140000 0.268592512987 -0.640248189458
425150000 0.268552790713 -0.640377379785
425160000 0.268750730673 -0.640799037823
425170000 0.269189873366 -0.640749120633
425180000 0.26897920684 -0.641105467178
425190000 0.268776179549 -0.640984963642
425200000 0.268482667026 -0.641718741606
425210000 0.268381752916 -0.641754242402
425220000 0.269316135093 -0.641554414945
425230000 0.269432008498 -0.641956386464
425240000 0.269234248364 -0.642098589237
425250000 0.269749956662 -0.642248567745
425260000 0.269235544961 -0.642495996691
425270000 0.269235589927 -0.642130848219
425280000 0.268626944859 -0.642685614294
425290000 0.269327814308 -0.642872805849
425300000 0.268916634382 -0.642977274773
425310000 0.268829429484 -0.64251196163
425320000 0.269330364008 -0.642910349572
425330000 0.269205394079 -0.642933733466
425340000 0.271600885998 -0.643845000422
425350000 0.269495625315 -0.645119330879
425360000 0.268098648359 -0.64440901396
425370000 0.268559798246 -0.645072209808
425380000 0.2692900759 -0.644953581993
425390000 0.268790296757 -0.644500265848
425400000 0.26852163115 -0.644489031004
425410000 0.268791759222 -0.644606240296
425420000 0.268713169806 -0.645206366825
425430000 0.268713695547 -0.6444288534
425440000 0.268677102006 -0.645256700799
425450000 0.269008376309 -0.645331533255
425460000 0.269525506683 -0.644979672453
425470000 0.269165197677 -0.645728241297
425480000 0.268788344067 -0.64619816351
425490000 0.268400533314 -0.645652921638
425500000 0.268658835536 -0.646179055192
425510000 0.268768268305 -0.646298724982
425520000 0.268489476369 -0.646772862656
425530000 0.267961290181 -0.646805253735
425540000 0.268486356929 -0.646440229803
425550000 0.26925256265 -0.646941035499
425560000 0.268941128606 -0.647401990472
425570000 0.268946522891 -0.647175681516
425580000 0.269314167818 -0.647035318483
425590000 0.269336959326 -0.64710116315
425600000 0.269168851502 -0.647427793849
425610000 0.268444369055 -0.647389948436
425620000 0.269066057768 -0.64807175167
425630000 0.268763103738 -0.648055197213
425640000 0.268735088484 -0.648124087431
425650000 0.268760874488 -0.648455838258
425660000 0.268667743151 -0.648956921065
425670000 0.26842131489 -0.649128659272
425680000 0.268275454542 -0.649045892076
425690000 0.267868418831 -0.64876954302
425700000 0.26818178055 -0.648761479145
425710000 0.268305183015 -0.649163606219
425720000 0.268642555551 -0.649264008656
425730000 0.268634563055 -0.649724466255
425740000 0.268365757933 -0.649772911572
425750000 0.268269277726 -0.650083208209
425760000 0.267843290643 -0.649662320298
425770000 0.267983575106 -0.649673388613
425780000 0.268199933443 -0.649858933033
425790000 0.268691440749 -0.65002824929
425800000 0.268457207982 -0.649906459325
425810000 0.268149523769 -0.650304708898
425820000 0.268520490049 -0.650266476879
425830000 0.268621778716 -0.650681243144
425840000 0.268817205716 -0.650826406395
425850000 0.269431316821 -0.649858989964
425860000 0.268305601528 -0.651217112281
425870000 0.268568413732 -0.651574136597
425880000 0.268755102913 -0.652512716471
425890000 0.26912560809 -0.652618496168
425900000 0.269097102771 -0.652326267126
425910000 0.268648502308 -0.652484581357
425920000 0.268215159743 -0.652292017172
425930000 0.268586451053 -0.652100499178
425940000 0.268009030673 -0.65269452229
425950000 0.268111045221 -0.652781491405
425960000 0.268537076253 -0.653487554938
425970000 0.268464440812 -0.653972640637
425980000 0.267642327884 -0.65347156396
425990000 0.267949239566 -0.653157963199
426000000 0.268635891726 -0.65384377336
426010000 0.269219537304 -0.653915412225
426020000 0.269131947686 -0.654830811395
426030000 0.268813849246 -0.654540251837
426040000 0.268542758256 -0.654305386936
426050000 0.267442076708 -0.654459452923
426060000 0.267943779546 -0.65430096489
426070000 0.267929747512 -0.654394991722
426080000 0.268733102749 -0.654435795812
426090000 0.269283536491 -0.653955636437
426100000 0.27038096604 -0.65476785591
426110000 0.269519840869 -0.656680801698
426120000 0.269104865895 -0.65694392516
426130000 0.268500958247 -0.656630643605
426140000 0.268544629782 -0.656217020908
426150000 0.268257341705 -0.656547754436
426160000 0.269254962476 -0.655968031141
426170000 0.268414985042 -0.656495130352
426180000 0.268182443318 -0.656207113051
426190000 0.268334720649 -0.655921491792
426200000 0.26890259076 -0.656378457247
426210000 0.267933459955 -0.656791071989
426220000 0.267268289314 -0.656682055472
426230000 0.267685432977 -0.656526025944
426240000 0.267591107999 -0.657165675411
426250000 0.267219697231 -0.657529230584
426260000 0.267898603506 -0.657733479674
426270000 0.267900804095 -0.657773030517
426280000 0.267591836935 -0.658006168726
426290000 0.267338011569 -0.658794489789
426300000 0.267622829299 -0.658557379293
426310000 0.268217568313 -0.658567178778
426320000 0.267932121877 -0.658640137009
426330000 0.267472216353 -0.65823278041
426340000 0.26750461889 -0.658606586303
426350000 0.267816444598 -0.658596924274
426360000 0.267830469883 -0.658517812205
426370000 0.267715814004 -0.65918055084
426380000 0.267321605699 -0.658621157477
426390000 0.267336606866 -0.659613467481
426400000 0.266931958446 -0.659694526442
426410000 0.267319456952 -0.660153292576
426420000 0.267396684685 -0.659563694985
426430000 0.267281837447 -0.660346669208
426440000 0.267364056461 -0.65953330443
426450000 0.268147996919 -0.65955998067
426460000 0.267309170352 -0.660325361175
426470000 0.266694245091 -0.660336573007
426480000 0.26579383637 -0.660294836444
426490000 0.26651302431 -0.661224007405
426500000 0.267873573931 -0.660997243227
426510000 0.267408643956 -0.66045601031
426520000 0.268003827462 -0.660616943462
426530000 0.268020873317 -0.660948070357
426540000 0.267760696384 -0.6611148146
426550000 0.267213657539 -0.661701227569
426560000 0.266275764183 -0.661476013254
426570000 0.266145616064 -0.661896137224
426580000 0.266499014092 -0.662922403648
426590000 0.267289435567 -0.662218534541
426600000 0.26653780062 -0.662830915925
426610000 0.26721058008 -0.662966338753
426620000 0.266708573889 -0.662710704906
426630000 0.266471729855 -0.663357797259
426640000 0.267091673537 -0.662628706765
426650000 0.266638745054 -0.662544952305
426660000 0.266817577335 -0.662473537891
426670000 0.266654440676 -0.662740744345
426680000 0.266188827718 -0.663812402848
426690000 0.266016486143 -0.663427466536
426700000 0.266419726908 -0.66365424226
426710000 0.266293127762 -0.664296779552
426720000 0.266597101359 -0.664129457986
426730000 0.266248084553 -0.664249022382
426740000 0.266314127114 -0.664693516683
426750000 0.266233786282 -0.664542249244
426760000 0.265707934719 -0.66435294036
426770000 0.266149961796 -0.664515134447
426780000 0.265948656648 -0.665302565605
426790000 0.265185522764 -0.665500471884
426800000 0.265127717374 -0.665384028573
426810000 0.26514959193 -0.665145403944
426820000 0.265924053045 -0.664785849176
426830000 0.266057820587 -0.665093039776
426840000 0.265661552149 -0.666042665855
426850000 0.266076523872 -0.666802469951
426860000 0.26573349238 -0.666831496212
426870000 0.26514828682 -0.666321408009
426880000 0.266501888311 -0.666199356152
426890000 0.26538577666 -0.666269048235
426900000 0.265096637857 -0.666411232784
426910000 0.265070649278 -0.666685090726
426920000 0.265652499398 -0.666994390946
426930000 0.264973188959 -0.667071333931
426940000 0.26512819339 -0.667652060153
426950000 0.262362065365 -0.66655548609
426960000 0.264452076181 -0.667658372033
426970000 0.264286001922 -0.668086360843
426980000 0.264545539151 -0.668097722941
426990000 0.264422221196 -0.667660799186
427000000 0.26540607856 -0.668043326401
427010000 0.263804252508 -0.670582931619
427020000 0.263275573277 -0.670720853878
427030000 0.262777824983 -0.67121339854
427040000 0.263392038311 -0.670962620419
427050000 0.263334455804 -0.671252602849
427060000 0.263757431956 -0.671274081613
427070000 0.263848313214 -0.671526096009
427080000 0.262928091646 -0.671749713397
427090000 0.262838316058 -0.671668417911
427100000 0.262875249667 -0.671847707531
427110000 0.263620103793 -0.67283173325
427120000 0.263638334905 -0.67325171861
427130000 0.263303161452 -0.672922075547
427140000 0.262902787659 -0.672752142424
427150000 0.263581816808 -0.673073715476
427160000 0.26297108226 -0.672815906856
427170000 0.262697003233 -0.672652425137
427180000 0.262933921821 -0.672643274605
427190000 0.262535459981 -0.673041981019
427200000 0.262589110102 -0.672965429484
427210000 0.262254958992 -0.673414389869
427220000 0.262394987518 -0.673223054129
427230000 0.262400340847 -0.673906228276
427240000 0.263295766395 -0.674138025711
427250000 0.262989038359 -0.673984686945
427260000 0.261965166834 -0.673724993131
427270000 0.262645430059 -0.67418018767
427280000 0.262892727393 -0.674336171299
427290000 0.262835347398 -0.674950378038
427300000 0.262147521126 -0.674918874004
427310000 0.262318069213 -0.675452559088
427320000 0.262291994069 -0.67511141999
427330000 0.26268169455 -0.675861097095
427340000 0.262679561116 -0.675122391906
427350000 0.263021635774 -0.675444216047
427360000 0.263741872543 -0.676058922955
427370000 0.26359396482 -0.675697019244
427380000 0.26325361479 -0.676411493349
427390000 0.262092309207 -0.67625326272
427400000 0.262082679665 -0.67671795954
427410000 0.262434058172 -0.677761110147
427420000 0.261682926677 -0.678049171376
427430000 0.26129649843 -0.676957948883
427440000 0.262030283209 -0.677029976472
427450000 0.261828212012 -0.677270807362
427460000 0.26190005437 -0.676709802641
427470000 0.262261034264 -0.676557227524
427480000 0.262686627235 -0.676747447279
427490000 0.262747304968 -0.677643586995
427500000 0.262598020123 -0.678140130814
427510000 0.262099278854 -0.678637549765
427520000 0.262075764296 -0.678855791116
427530000 0.26206654567 -0.678993327152
427540000 0.262183657245 -0.678596629111
427550000 0.262035787288 -0.678603041204
427560000 0.262174735645 -0.678996811713
427570000 0.261963338176 -0.679736345092
427580000 0.262168270428 -0.67957559612
427590000 0.261423925804 -0.679346725668
427600000 0.261580598485 -0.679525126407
427610000 0.261575427234 -0.679248565673
427620000 0.261131579695 -0.679573793074
427630000 0.261640177248 -0.680604578622
427640000 0.260993166772 -0.680203537876
427650000 0.261836214751 -0.680380493423
427660000 0.262326127176 -0.680578931148
427670000 0.261019492649 -0.680786834985
427680000 0.261209228686 -0.680756437401
427690000 0.260769360178 -0.680902780929
427700000 0.261385791329 -0.680982766697
427710000 0.261242268526 -0.680042859839
427720000 0.261086881533 -0.680997214739
427730000 0.261539551804 -0.682069184466
427740000 0.261106805091 -0.681629046792
427750000 0.261010815105 -0.681904411784
427760000 0.260762361098 -0.681583075193
427770000 0.259870039083 -0.681678594369
427780000 0.260323987426 -0.681792797265
427790000 0.260728905374 -0.682289260131
427800000 0.260949564932 -0.683315750606
427810000 0.260852773987 -0.683107227215
427820000 0.261317760116 -0.682731867631
427830000 0.261196308156 -0.682760683156
427840000 0.260621663403 -0.682428591915
427850000 0.261019202441 -0.683015242197
427860000 0.260504379575 -0.683327300403
427870000 0.260359248507 -0.682922478208
427880000 0.260601847192 -0.682882303105
427890000 0.260775851336 -0.683301970696
427900000 0.257621083438 -0.681048911105
427910000 0.264097395456 -0.681952552417
427920000 0.260532921325 -0.684124000398
427930000 0.260333180596 -0.684181727055
427940000 0.260561731514 -0.685025087508
427950000 0.260323636909 -0.685446029799
427960000 0.260287556464 -0.684836948067
427970000 0.26010458635 -0.685259525498
427980000 0.260294931365 -0.68484007537
427990000 0.260049356943 -0.685386905136
428000000 0.259620963798 -0.684376852062
428010000 0.26162606531 -0.681593793782
428020000 0.262158807336 -0.682112848415
428030000 0.261912959602 -0.682192959776
428040000 0.261774567929 -0.682156958503
428050000 0.262545984808 -0.682387013081
428060000 0.261836922145 -0.682871906741
428070000 0.261435935869 -0.682246472992
428080000 0.261412986904 -0.682528348388
428090000 0.260663003011 -0.682963096836
428100000 0.261028444113 -0.683168687687
428110000 0.261112319399 -0.682719740269
428120000 0.260738437685 -0.682896586738
428130000 0.261005867136 -0.682627198536
428140000 0.26138944571 -0.682904576766
428150000 0.261353104119 -0.68232610401
428160000 0.261238760668 -0.683105260487
428170000 0.260456642356 -0.684460462584
428180000 0.260119425393 -0.685424495207
428190000 0.260491791186 -0.685130622951
428200000 0.260706815003 -0.684757896702
428210000 0.260297922168 -0.685383521836
428220000 0.260445230154 -0.684564795955
428230000 0.260619879251 -0.684411151276
428240000 0.260235423292 -0.684124035745
428250000 0.259635071814 -0.685132138535
428260000 0.259997767105 -0.684616571951
428270000 0.259586978053 -0.684865582269
428280000 0.25968806823 -0.685384458841
428290000 0.259999156047 -0.684577261187
428300000 0.260227295072 -0.684995934266
428310000 0.260578793055 -0.685973652505
428320000 0.261811914236 -0.685974510528
428330000 0.260377244503 -0.68612891123
428340000 0.259767511353 -0.686276513109
428350000 0.259270982753 -0.686243155174
428360000 0.25932100727 -0.686216383917
428370000 0.259586209772 -0.686975827811
428380000 0.25978707135 -0.687044224584
428390000 0.259453038509 -0.68772420845
428400000 0.25941210379 -0.687227687107
428410000 0.259758005135 -0.686953292196
428420000 0.259640018828 -0.68750893822
428430000 0.258622310361 -0.688169183816
428440000 0.258222299921 -0.688116195778
428450000 0.258437953103 -0.687699234097
428460000 0.258888906778 -0.68823014531
428470000 0.258398692367 -0.688149698151
428480000 0.257809199515 -0.688330506527
428490000 0.258329563135 -0.688651658909
428500000 0.258176609311 -0.688667900708
428510000 0.258085013466 -0.688296100312
428520000 0.25857148668 -0.688194742855
428530000 0.258112811428 -0.688472018328
428540000 0.258596805118 -0.688924019225
428550000 0.258727895006 -0.688767077596
428560000 0.258010703942 -0.68938118463
428570000 0.258305803992 -0.689817289497
428580000 0.258207803827 -0.689799432431
428590000 0.258022233987 -0.689109171385
428600000 0.256975604907 -0.689456555062
428610000 0.257271892085 -0.689354287258
428620000 0.257105444178 -0.689798319779
428630000 0.256832426048 -0.689791936749
428640000 0.256882052373 -0.690338158146
428650000 0.256748275509 -0.690207519573
428660000 0.256960224772 -0.690805493102
428670000 0.256842581224 -0.690895073039
428680000 0.253959952796 -0.692352060816
428690000 0.256728541218 -0.691112752817
428700000 0.256732519684 -0.691287194594
428710000 0.256941865001 -0.690799739145
428720000 0.256704213969 -0.691410347854
428730000 0.257065916573 -0.691731737893
428740000 0.257274917122 -0.691676735171
428750000 0.256396534581 -0.691566688013
428760000 0.25601122295 -0.691835665974
428770000 0.256507587384 -0.690862185659
428780000 0.255777619638 -0.691522212485
428790000 0.256222689566 -0.69208604136
428800000 0.256238774097 -0.692223102268
428810000 0.256464878966 -0.692218328765
428820000 0.255532429807 -0.693063597799
428830000 0.255509670508 -0.693381661153
428840000 0.25593835029 -0.693472172091
428850000 0.25627978246 -0.693079385883
428860000 0.256819537434 -0.693457135434
428870000 0.256322362842 -0.692667810631
428880000 0.256196226432 -0.692645296563
428890000 0.255390559191 -0.693138997923
428900000 0.256304030579 -0.692969153503
428910000 0.255817233999 -0.693277129661
428920000 0.2554865805 -0.693606689664
428930000 0.254806537595 -0.693176439087
428940000 0.254619954947 -0.693588604207
428950000 0.254866666419 -0.693276477786
428960000 0.255304634796 -0.693393819397
428970000 0.256050379273 -0.693573324315
428980000 0.256700281649 -0.692453920911
428990000 0.246220677052 -0.706702926951
429000000 0.258335455398 -0.677394569583
429010000 0.256402343233 -0.691275579537
429020000 0.255871135634 -0.692634755623
429030000 0.254534702469 -0.694424769163
429040000 0.254711892938 -0.695572227209
429050000 0.254422179331 -0.69584180431
429060000 0.254240690833 -0.695828496305
429070000 0.254113276491 -0.696186537162
429080000 0.253665092842 -0.696213061156
429090000 0.253723960822 -0.695741507093
429100000 0.253963807412 -0.695535427861
429110000 0.253362438594 -0.696124505505
429120000 0.252953362785 -0.696243249856
429130000 0.252923846102 -0.696685978538
429140000 0.253505573879 -0.697228027546
429150000 0.254027541663 -0.69680775138
429160000 0.253838989236 -0.697224536985
429170000 0.254238803345 -0.69725466616
429180000 0.253569509421 -0.697437324936
429190000 0.253478835727 -0.697555884465
429200000 0.253208576388 -0.697465589938
429210000 0.252721548633 -0.697097632972
429220000 0.252640191506 -0.698130084843
429230000 0.253143369853 -0.698314136025
429240000 0.252686018368 -0.697988901288
429250000 0.252600288687 -0.698694573754
429260000 0.253724013202 -0.700464901526
429270000 0.252313235111 -0.699511496967
429280000 0.252434398646 -0.699314482681
429290000 0.251790841468 -0.699492278201
429300000 0.251783820101 -0.700079833567
429310000 0.252097504209 -0.699226604794
429320000 0.251436899032 -0.699505442519
429330000 0.251866955713 -0.699468900021
429340000 0.251201804388 -0.699643639118
429350000 0.251765856901 -0.699620479907
429360000 0.251520225843 -0.69970825527
429370000 0.251310364456 -0.699633156094
429380000 0.253154293383 -0.699770094433
429390000 0.250871327285 -0.69992851039
429400000 0.251268840903 -0.700132044909
429410000 0.250833150316 -0.700928662023
429420000 0.251231818279 -0.700690370599
429430000 0.250955142725 -0.701595473948
429440000 0.250367585244 -0.700595587021
429450000 0.250650562286 -0.701127494101
429460000 0.250899010245 -0.701420287811
429470000 0.250517686124 -0.701295000728
429480000 0.250458291258 -0.701820513915
429490000 0.250384510439 -0.701583084178
429500000 0.250524912932 -0.70143256145
429510000 0.250344611089 -0.701924080127
429520000 0.250544596222 -0.701873862194
429530000 0.250461918227 -0.701902658365
429540000 0.250652613235 -0.702359937492
429550000 0.250250590673 -0.702410930124
429560000 0.250779089095 -0.702921635396
429570000 0.249892308789 -0.702381821658
429580000 0.250342940964 -0.703071038527
429590000 0.249872775838 -0.70296057753
429600000 0.250015641728 -0.703533239388
429610000 0.249377596675 -0.703521775193
429620000 0.249407371406 -0.703085843544
429630000 0.2500401232 -0.70278186717
429640000 0.249235510317 -0.702532204881
429650000 0.250248158216 -0.702423949802
429660000 0.249208411042 -0.702824892996
429670000 0.249112931372 -0.703739256596
429680000 0.249239376413 -0.704634810106
429690000 0.248463138083 -0.704568175637
429700000 0.249019998938 -0.704635453556
429710000 0.249690307481 -0.706007600912
429720000 0.24871417338 -0.704338219917
429730000 0.24858385857 -0.704680408768
429740000 0.248775503458 -0.704353311432
429750000 0.248193257469 -0.705212399697
429760000 0.247993955085 -0.705669312113
429770000 0.248529594833 -0.705909415016
429780000 0.248036634225 -0.706296783508
429790000 0.248205363392 -0.706493298661
429800000 0.248065335448 -0.706736575995
429810000 0.248321149555 -0.705945393661
429820000 0.247944344024 -0.706185168308
429830000 0.247837083147 -0.706247850947
429840000 0.247956396237 -0.706515134819
429850000 0.247414237656 -0.706648077526
429860000 0.247323264886 -0.706943917409
429870000 0.247457318254 -0.706140421151
429880000 0.247012049539 -0.70729386073
429890000 0.246993041694 -0.70728741015
429900000 0.247087616553 -0.708967484635
429910000 0.246757352565 -0.707739270524
429920000 0.246507165873 -0.707743791603
429930000 0.246043210914 -0.706677372076
429940000 0.246000698761 -0.707679516738
429950000 0.246393026304 -0.707612829479
429960000 0.247361133208 -0.707750198144
429970000 0.247277020314 -0.709791633075
429980000 0.248654462472 -0.711607299593
429990000 0.248636388861 -0.712787970658
430000000 0.247545643097 -0.710965901406
430010000 0.244881530598 -0.711339483457
430020000 0.243737825119 -0.709517270697
430030000 0.243536819691 -0.709714613606
430040000 0.24316339678 -0.710277929962
430050000 0.243322771407 -0.710449485958
430060000 0.243996416469 -0.709784833059
430070000 0.243780430208 -0.710454947169
430080000 0.242942541778 -0.709849970943
430090000 0.243577914691 -0.710269470862
430100000 0.243817876636 -0.71025668949
430110000 0.243531161258 -0.710949677596
430120000 0.243406289074 -0.710463611012
430130000 0.242328691183 -0.710685944388
430140000 0.242437781843 -0.71129360721
430150000 0.242424092925 -0.711625024207
430160000 0.242432262319 -0.711905998421
430170000 0.244475823542 -0.711074738083
430180000 0.242874997068 -0.71219406093
430190000 0.242907793937 -0.711898868359
430200000 0.242579688856 -0.711906245392
430210000 0.242008516956 -0.712206084018
430220000 0.242137463808 -0.712756690829
430230000 0.242119831814 -0.712744732491
430240000 0.241673739715 -0.712100697555
430250000 0.242069359875 -0.711527222789
430260000 0.241791676517 -0.712399643323
430270000 0.242106314959 -0.712113693298
430280000 0.241961259595 -0.712551693822
430290000 0.241643166624 -0.713100497293
430300000 0.241372042805 -0.712640193287
430310000 0.242108608975 -0.713547839594
430320000 0.241679303239 -0.713139946359
430330000 0.242043320711 -0.712862347456
430340000 0.242059827628 -0.71363470417
430350000 0.242125764887 -0.713581824099
430360000 0.241914838123 -0.713556840108
430370000 0.241044503901 -0.713273854732
430380000 0.240502612289 -0.713658343896
430390000 0.239817063915 -0.713378194744
430400000 0.240416789127 -0.713253358657
430410000 0.240189111363 -0.714478874047
430420000 0.240298318731 -0.714875996595
430430000 0.240679344104 -0.714680385546
430440000 0.241058768426 -0.714623283783
430450000 0.241080927737 -0.714526544749
430460000 0.240343296052 -0.715074311886
430470000 0.241117226613 -0.714945796922
430480000 0.240295913765 -0.715337490054
430490000 0.239943403984 -0.715047231766
430500000 0.240167996775 -0.715672728469
430510000 0.239823822531 -0.71545122455
430520000 0.24015791356 -0.715629082755
430530000 0.239295932038 -0.715974830601
430540000 0.239179892637 -0.715952784868
430550000 0.239932635101 -0.715821026746
430560000 0.239943880445 -0.716392468818
430570000 0.239949961175 -0.716464256981
430580000 0.239455200525 -0.715953885252
430590000 0.23922818912 -0.716693011047
430600000 0.238909955071 -0.71656366352
430610000 0.238436405179 -0.716824429865
430620000 0.238665589002 -0.716974298763
430630000 0.239286181694 -0.717006774261
430640000 0.238470788324 -0.716856089309
430650000 0.238545398242 -0.716548745463
430660000 0.238725893862 -0.716789830929
430670000 0.238451373113 -0.717541002796
430680000 0.238240603517 -0.717514197659
430690000 0.237897555667 -0.717217081618
430700000 0.238216236814 -0.716933024335
430710000 0.237529444551 -0.717078917232
430720000 0.237552229203 -0.717970831594
430730000 0.238152457415 -0.717810917147
430740000 0.237392798075 -0.717745075169
430750000 0.237222566756 -0.718090410753
430760000 0.237993603128 -0.719082399594
430770000 0.237813348649 -0.718964321653
430780000 0.237287661541 -0.718634930133
430790000 0.237393301009 -0.718493875303
430800000 0.237562465305 -0.718492281398
430810000 0.238029371117 -0.718462427771
430820000 0.238472276507 -0.719302060004
430830000 0.2374745701 -0.719139133173
430840000 0.237232803009 -0.719062961247
430850000 0.237462696661 -0.718775345884
430860000 0.237086405052 -0.719013516336
430870000 0.237226819382 -0.719595164873
430880000 0.23737088409 -0.719201438628
430890000 0.237582221555 -0.719435278255
430900000 0.23679190793 -0.719711124858
430910000 0.235971687487 -0.719978473805
430920000 0.236149037695 -0.719533886411
430930000 0.236353211128 -0.720305871216
430940000 0.236492583321 -0.720191758487
430950000 0.23627803915 -0.720925197364
430960000 0.235870728915 -0.720625649522
430970000 0.236046928379 -0.72039777706
430980000 0.235937851058 -0.721083142597
430990000 0.235349685756 -0.720101638202
431000000 0.234653143746 -0.720762252944
431010000 0.234863909857 -0.721130327719
431020000 0.234664811645 -0.721413508485
431030000 0.235069147509 -0.721054597286
431040000 0.235558113651 -0.721309497084
431050000 0.235442273817 -0.720884640346
431060000 0.235573277443 -0.721581303123
431070000 0.234792170043 -0.721110067835
431080000 0.235586189528 -0.721644525093
431090000 0.235639164333 -0.721826956094
431100000 0.235225010392 -0.722164662079
431110000 0.235338981415 -0.722648486096
431120000 0.235064624419 -0.722057009112
431130000 0.234940877707 -0.722067839002
431140000 0.234007461951 -0.721359414724
431150000 0.234038033897 -0.721900917805
431160000 0.233912362193 -0.722159842671
431170000 0.234310918085 -0.722593795746
431180000 0.23391212004 -0.722957695168
431190000 0.233622123593 -0.722495482825
431200000 0.23375356152 -0.722666754431
431210000 0.232937930368 -0.722897324295
431220000 0.232894772273 -0.723432681508
431230000 0.233436924645 -0.722478107502
431240000 0.233848573669 -0.723187992886
431250000 0.233643490794 -0.723392272595
431260000 0.233462789334 -0.72319960087
431270000 0.2330740495 -0.72376921949
431280000 0.23299681993 -0.723032040598
431290000 0.232831695698 -0.724283537118
431300000 0.232531769088 -0.723133825967
431310000 0.231631532354 -0.723235308001
431320000 0.2318027022 -0.722713798955
431330000 0.231482246864 -0.723525063116
431340000 0.232153765378 -0.723246429335
431350000 0.231676547673 -0.72500235802
431360000 0.23168248936 -0.724330724998
431370000 0.231944599242 -0.724630682408
431380000 0.232082184472 -0.724319505136
431390000 0.232077079057 -0.724231778076
431400000 0.232057148796 -0.725068638967
431410000 0.23137621053 -0.724665945166
431420000 0.231818417035 -0.724930540717
431430000 0.231092009007 -0.72569195486
431440000 0.23097704449 -0.724758076615
431450000 0.230608599865 -0.724857079232
431460000 0.230350086521 -0.725079697222
431470000 0.230636744926 -0.725098365643
431480000 0.230450095616 -0.725265742094
431490000 0.231459165078 -0.725182719634
431500000 0.230595972212 -0.725504092381
431510000 0.23085262348 -0.725568503414
431520000 0.231133088681 -0.725505139869
431530000 0.230738412686 -0.725560644183
431540000 0.229852334909 -0.725560702799
431550000 0.230199561909 -0.726308532943
431560000 0.229671562889 -0.726260344397
431570000 0.228828832679 -0.726531236089
431580000 0.228867612006 -0.726065939851
431590000 0.229494287285 -0.72612391031
431600000 0.229279701054 -0.725951300825
431610000 0.228333620353 -0.726556976726
431620000 0.22832853377 -0.726436600913
431630000 0.228346557673 -0.72688648417
431640000 0.227625478228 -0.727296591036
431650000 0.226970780186 -0.72795209559
431660000 0.226805419403 -0.727902654203
431670000 0.227587321933 -0.727407064255
431680000 0.227399980067 -0.72722618692
431690000 0.227807834929 -0.727744978635
431700000 0.227385300899 -0.727046820524
431710000 0.227466571245 -0.727028340941
431720000 0.227558850405 -0.727849146051
431730000 0.227873483339 -0.728224650462
431740000 0.227645388317 -0.727839710898
431750000 0.227458790623 -0.728736689017
431760000 0.227530369037 -0.728660446924
431770000 0.226849093269 -0.728943281767
431780000 0.22691581079 -0.728898679767
431790000 0.227179397208 -0.72913959402
431800000 0.227891105823 -0.728307442137
431810000 0.227585594931 -0.729163846595
431820000 0.226893739247 -0.728565024393
431830000 0.227145016305 -0.728493705648
431840000 0.227092168388 -0.728509965374
431850000 0.227630837902 -0.729322068172
431860000 0.226997151125 -0.729040620718
431870000 0.227016549352 -0.72932814156
431880000 0.226349825419 -0.729599415035
431890000 0.225951992157 -0.729685498277
431900000 0.225605573389 -0.729923356229
431910000 0.226060612787 -0.729407881224
431920000 0.226065163678 -0.729530226017
431930000 0.226251989297 -0.729561015959
431940000 0.227560860139 -0.72969461807
431950000 0.226382659744 -0.729923300852
431960000 0.225981974532 -0.730126613046
431970000 0.225688746061 -0.73020723409
431980000 0.225573134759 -0.730310094477
431990000 0.225695401642 -0.729880115512
432000000 0.225252322361 -0.73053572025
432010000 0.225008376256 -0.730339616197
432020000 0.224615371497 -0.730173496036
432030000 0.22491860797 -0.731610550363
432040000 0.224641971219 -0.731174311737
432050000 0.22446653844 -0.730882060056
432060000 0.224588536714 -0.731363322458
432070000 0.224651109832 -0.731510528098
432080000 0.224557323453 -0.731927779688
432090000 0.224345748262 -0.731503346491
432100000 0.223625776811 -0.731561188091
432110000 0.22307925799 -0.732169147393
432120000 0.223570594983 -0.731536318195
432130000 0.223376627565 -0.732141499572
432140000 0.223166134195 -0.731759138425
432150000 0.222249338422 -0.732189099818
432160000 0.222384283104 -0.732110802173
432170000 0.22220193554 -0.732661227089
432180000 0.222607170812 -0.731343813429
432190000 0.222955388636 -0.732441035396
432200000 0.22289486691 -0.732596236647
432210000 0.222908329344 -0.732632089542
432220000 0.222778152456 -0.733020725688
432230000 0.221872982271 -0.732938502913
432240000 0.22192512366 -0.733056497137
432250000 0.221731591614 -0.733000042102
432260000 0.221159442599 -0.732324024441
432270000 0.221595355568 -0.733057979016
432280000 0.221879928473 -0.733464092102
432290000 0.221870600678 -0.733005821573
432300000 0.221828909823 -0.733969130311
432310000 0.221694635304 -0.73399771421
432320000 0.221825471526 -0.733409955542
432330000 0.221188104283 -0.734095952092
432340000 0.221385146877 -0.734019402996
432350000 0.222180692802 -0.734298937807
432360000 0.220499137896 -0.734104659003
432370000 0.220918163339 -0.734204673791
432380000 0.220194729137 -0.733706732769
432390000 0.220404341974 -0.733606045896
432400000 0.220900007785 -0.733786518365
432410000 0.220087951459 -0.733982235585
432420000 0.219878078256 -0.734504425153
432430000 0.219759716777 -0.735659401002
432440000 0.219766940536 -0.735367452229
432450000 0.220147131209 -0.735291955472
432460000 0.219981776098 -0.735811408054
432470000 0.219917682809 -0.735125518859
432480000 0.219595104956 -0.734688676802
432490000 0.219839174221 -0.734868123753
432500000 0.219735201266 -0.734310158872
432510000 0.219263609621 -0.734920971976
432520000 0.218930211645 -0.735034120289
432530000 0.219485905903 -0.735402749676
432540000 0.218646757502 -0.735615679486
432550000 0.219712894961 -0.735822220123
432560000 0.219371295351 -0.735600036444
432570000 0.218606038644 -0.735805919487
432580000 0.218979273226 -0.735430347844
432590000 0.218234546367 -0.735718879179
432600000 0.218070440802 -0.735145920305
432610000 0.217572963793 -0.735855884035
432620000 0.217712003484 -0.736588404014
432630000 0.217116652355 -0.73665071396
432640000 0.217370850764 -0.73623762363
432650000 0.217476045212 -0.736403919043
432660000 0.217198111274 -0.735552657657
432670000 0.217717165688 -0.736476843468
432680000 0.217768534019 -0.736096986523
432690000 0.217762272521 -0.736650583089
432700000 0.218313987194 -0.736876005176
432710000 0.218428043722 -0.736807426335
432720000 0.218061225906 -0.736993487229
432730000 0.216635640771 -0.736277674826
432740000 0.216461867998 -0.737378263554
432750000 0.215887761833 -0.737951641099
432760000 0.216103136619 -0.737702367048
432770000 0.21602052893 -0.737205640684
432780000 0.216055606059 -0.737310168177
432790000 0.21593486436 -0.737808156054
432800000 0.216110012996 -0.737610270441
432810000 0.215499053499 -0.738423145306
432820000 0.216129246376 -0.73731949453
432830000 0.215515524862 -0.736831285792
432840000 0.214240229271 -0.736938164696
432850000 0.215570862967 -0.73805881402
432860000 0.215830331654 -0.73872847984
432870000 0.215416796169 -0.739298785178
432880000 0.215212393121 -0.738971183144
432890000 0.214675043117 -0.738872815245
432900000 0.215039663123 -0.739411670522
432910000 0.214914163173 -0.739366645049
432920000 0.215211137362 -0.739188613071
432930000 0.214493633168 -0.739115898735
432940000 0.213610715336 -0.738843572801
432950000 0.212991081743 -0.738844869823
432960000 0.213800371678 -0.739325731832
432970000 0.213411450633 -0.738977998969
432980000 0.213212885159 -0.739689041052
432990000 0.213493396992 -0.739754494322
433000000 0.214192758679 -0.739942421201
433010000 0.213641011718 -0.739142112771
433020000 0.213667606409 -0.739539413372
433030000 0.214047290425 -0.738665744243
433040000 0.213676037253 -0.739756091576
433050000 0.213014384346 -0.739846251017
433060000 0.212547180748 -0.740392364921
433070000 0.212349401893 -0.740251921534
433080000 0.212684927124 -0.740046795932
433090000 0.212565774259 -0.739871606098
433100000 0.213094059361 -0.740206347552
433110000 0.211818521036 -0.740511916362
433120000 0.212890557853 -0.740659431518
433130000 0.211778596249 -0.740743766632
433140000 0.212159143148 -0.74060127813
433150000 0.211233480641 -0.741068883164
433160000 0.211255303693 -0.74030152671
433170000 0.211058348234 -0.7410483353
433180000 0.211295192152 -0.741113010597
433190000 0.210995811128 -0.741287966908
433200000 0.211150482516 -0.74126459417
433210000 0.210746266737 -0.741216798093
433220000 0.21110251512 -0.741362173752
433230000 0.211954510234 -0.741553896117
433240000 0.21163432596 -0.7408976076
433250000 0.211081057779 -0.740780597403
433260000 0.210539892794 -0.742467526798
433270000 0.211006490065 -0.741599297999
433280000 0.213238015867 -0.738088058771
433290000 0.217072398212 -0.735177301366
433300000 0.238819417846 -0.729437436567
433310000 0.206322303604 -0.750487539425
433320000 0.202818155925 -0.743090906496
433330000 0.201665517647 -0.740520460689
433340000 0.208645230271 -0.741186792157
433350000 0.213552786649 -0.738865294671
433360000 0.213784069716 -0.739059946861
433370000 0.210761996205 -0.740529233794
433380000 0.209909109933 -0.74219990408
433390000 0.209516964174 -0.741794479224
433400000 0.209513153939 -0.742533317264
433410000 0.209280905441 -0.742407600538
433420000 0.209445310579 -0.742856712882
433430000 0.209671180434 -0.742736625172
433440000 0.209502243631 -0.743301250727
433450000 0.208672211784 -0.743607839449
433460000 0.209065740407 -0.744221718155
433470000 0.209012062658 -0.743956485947
433480000 0.208575583652 -0.743951816823
433490000 0.208486887792 -0.743934401339
433500000 0.20921162741 -0.743419030472
433510000 0.208376757297 -0.743738766136
433520000 0.207829191954 -0.743733158856
433530000 0.20823039659 -0.743717164716
433540000 0.20731112157 -0.744348651448
433550000 0.20749159999 -0.744391614445
433560000 0.207333416791 -0.744367965172
433570000 0.206964870375 -0.744294671826
433580000 0.206612159302 -0.744014512307
433590000 0.206906541312 -0.744529552339
433600000 0.206929083276 -0.744173263616
433610000 0.206566583485 -0.744453513092
433620000 0.206492074634 -0.74444660402
433630000 0.206318172715 -0.744676170131
433640000 0.205716808942 -0.744771875712
433650000 0.205380233777 -0.744600416977
433660000 0.205754954146 -0.744307171198
433670000 0.205886803216 -0.744194720257
433680000 0.205830469255 -0.744167237874
433690000 0.205851729049 -0.743908572953
433700000 0.205453369239 -0.744397838181
433710000 0.206062668866 -0.745083861028
433720000 0.205878491868 -0.745786960325
433730000 0.205626396042 -0.745930368411
433740000 0.205740412636 -0.745517516118
433750000 0.204448263714 -0.745540954373
433760000 0.204727279821 -0.745393695017
433770000 0.203989978949 -0.745783215537
433780000 0.204603069899 -0.745864649126
433790000 0.203690046255 -0.746461080432
433800000 0.204118956584 -0.745508419495
433810000 0.203331261128 -0.745741464599
433820000 0.20332158955 -0.745989851934
433830000 0.203527810752 -0.745966977591
433840000 0.203901865662 -0.745537569439
433850000 0.203524309505 -0.74626730328
433860000 0.203568542846 -0.74624520169
433870000 0.203812783844 -0.746349279167
433880000 0.203329652607 -0.746185380386
433890000 0.203099780964 -0.746137070505
433900000 0.203336452506 -0.746273391172
433910000 0.202843494344 -0.746892063068
433920000 0.203540163966 -0.746881286928
433930000 0.203630593654 -0.748765300773
433940000 0.202809975476 -0.747358806304
433950000 0.201597836215 -0.747205132663
433960000 0.201847719357 -0.747266076824
433970000 0.201286990426 -0.746659480924
433980000 0.20086669073 -0.745947691764
433990000 0.201260102874 -0.746224238332
434000000 0.20109891196 -0.746495439636
434010000 0.201724758524 -0.747037147469
434020000 0.200775280613 -0.747060584264
434030000 0.201752741985 -0.747779797445
434040000 0.202064058078 -0.747330091675
434050000 0.201438564757 -0.747256682672
434060000 0.201385135355 -0.747998492446
434070000 0.200276164958 -0.747511661975
434080000 0.200872663073 -0.748131366392
434090000 0.201046350086 -0.748633549105
434100000 0.20030745479 -0.747805185796
434110000 0.199938674374 -0.747365629081
434120000 0.200251453843 -0.747596769921
434130000 0.199183624381 -0.747468255059
434140000 0.200260725658 -0.747472631469
434150000 0.199058004497 -0.747242369719
434160000 0.199482271663 -0.747636120118
434170000 0.199112860119 -0.747331254816
434180000 0.199923040339 -0.747221165361
434190000 0.199698554187 -0.747529219272
434200000 0.198739957447 -0.747114116828
434210000 0.198651504885 -0.747806174742
434220000 0.197015519401 -0.748251999533
434230000 0.195785019932 -0.748908149086
434240000 0.193949231131 -0.75021628792
434250000 0.194990815203 -0.750649814126
434260000 0.196007697397 -0.748866393908
434270000 0.197504130744 -0.748065913918
434280000 0.198205236615 -0.748974300481
434290000 0.197985563893 -0.748834823913
434300000 0.197778063649 -0.748474944013
434310000 0.198297874153 -0.749105719104
434320000 0.197231153221 -0.749694104263
434330000 0.197552550295 -0.749088095262
434340000 0.19725164045 -0.750006003223
434350000 0.197387743169 -0.749871978607
434360000 0.197111398906 -0.749700788309
434370000 0.196495672819 -0.749536222671
434380000 0.196809707449 -0.75019920646
434390000 0.196856043093 -0.750723589267
434400000 0.196429628343 -0.75076074036
434410000 0.196112290502 -0.750524238288
434420000 0.195904770248 -0.750368080767
434430000 0.196225348705 -0.750495322978
434440000 0.19511756054 -0.75104899535
434450000 0.195202500754 -0.750421851529
434460000 0.195175906994 -0.750397678061
434470000 0.195187251484 -0.749718391049
434480000 0.195351298608 -0.750379960823
434490000 0.195069918106 -0.750417542263
434500000 0.195464114154 -0.750820490381
434510000 0.194628851804 -0.750396668755
434520000 0.194070870344 -0.751430808881
434530000 0.193918773952 -0.750959431475
434540000 0.195509904484 -0.752305288093
434550000 0.198084656417 -0.75316218649
434560000 0.194416055743 -0.754904019732
434570000 0.197729331101 -0.753571632988
434580000 0.195704509572 -0.752081470631
434590000 0.194235640573 -0.751411321652
434600000 0.193563224838 -0.751534543676
434610000 0.194591198412 -0.751249532526
434620000 0.193883310087 -0.751216510778
434630000 0.193702235673 -0.751272994434
434640000 0.194667558447 -0.750437573263
434650000 0.193806818346 -0.751250787905
434660000 0.193336801556 -0.750832883758
434670000 0.193414701396 -0.751732353855
434680000 0.193088322458 -0.751653876259
434690000 0.193055914023 -0.751762751966
434700000 0.192348093047 -0.751511846873
434710000 0.192166804826 -0.75162752123
434720000 0.192229294878 -0.751821897286
434730000 0.192327924238 -0.750717262174
434740000 0.192522464233 -0.751377622506
434750000 0.192558753807 -0.751077605915
434760000 0.19212496965 -0.750860975547
434770000 0.191483099225 -0.751078269552
434780000 0.19182836814 -0.752049854198
434790000 0.191527503509 -0.752490400211
434800000 0.191794355821 -0.752770963566
434810000 0.191468071687 -0.752941347806
434820000 0.191544419786 -0.753231855621
434830000 0.191565469022 -0.752941881697
434840000 0.191817096923 -0.753031828113
434850000 0.19197489604 -0.752559647723
434860000 0.191313855977 -0.751957320766
434870000 0.190564924296 -0.752565723135
434880000 0.190205790221 -0.752206274959
434890000 0.190482702021 -0.75254009319
434900000 0.190048562918 -0.753229265566
434910000 0.190048750067 -0.75290657024
434920000 0.190199555716 -0.752734802518
434930000 0.189689641311 -0.753492737212
434940000 0.190447446073 -0.752686857981
434950000 0.190242274464 -0.75353297553
434960000 0.189960894799 -0.75374786817
434970000 0.190450074739 -0.753713546635
434980000 0.190159297528 -0.752846696856
434990000 0.190072417869 -0.753116445037
435000000 0.190168029943 -0.753442920564
435010000 0.189511748635 -0.754014833664
435020000 0.189063203052 -0.754046068536
435030000 0.188649739097 -0.754152614368
435040000 0.188599709531 -0.754019277966
435050000 0.189540766731 -0.753477616782
435060000 0.189396716216 -0.754331425555
435070000 0.188964574167 -0.754554008243
435080000 0.187996259109 -0.754674903628
435090000 0.188358048629 -0.7544970638
435100000 0.187528543146 -0.75386926217
435110000 0.187406579965 -0.753896298762
435120000 0.187452754355 -0.754595080675
435130000 0.187282897234 -0.75477052809
435140000 0.18729963985 -0.754672515721
435150000 0.186843817716 -0.754555929044
435160000 0.186573131615 -0.754614296713
435170000 0.186770239474 -0.754259517505
435180000 0.186084931011 -0.754608849562
435190000 0.185605219274 -0.754156766337
435200000 0.185949605462 -0.754571554114
435210000 0.186154581097 -0.754386112258
435220000 0.185945700816 -0.754880966968
435230000 0.185957800281 -0.754988701597
435240000 0.186465814957 -0.755282899151
435250000 0.185945463587 -0.755587075885
435260000 0.185928624058 -0.755056272638
435270000 0.185511749141 -0.755229475916
435280000 0.185299192667 -0.754601753854
435290000 0.184728425018 -0.754257810582
435300000 0.185362428207 -0.754992839659
435310000 0.185681520748 -0.755288118107
435320000 0.184104124974 -0.755328624694
435330000 0.184334495809 -0.75554774268
435340000 0.183960757012 -0.756089612699
435350000 0.183769125001 -0.755591498105
435360000 0.183897647192 -0.755367034556
435370000 0.183955637501 -0.755046677698
435380000 0.183771636499 -0.755587972346
435390000 0.184069141041 -0.755865234889
435400000 0.183692491688 -0.756076531244
435410000 0.183675972068 -0.755740689952
435420000 0.183676035031 -0.756100899576
435430000 0.1835097342 -0.756127748558
435440000 0.183848763851 -0.756109804546
435450000 0.183288999994 -0.757022928416
435460000 0.183751294052 -0.756597748285
435470000 0.183079178605 -0.756315774248
435480000 0.18299112635 -0.756178351021
435490000 0.177057128214 -0.75584385715
435500000 0.182454146305 -0.75661979933
435510000 0.18296054853 -0.756610083922
435520000 0.182776653949 -0.756512577808
435530000 0.182107443316 -0.756544742849
435540000 0.182145278994 -0.756590692627
435550000 0.182019241926 -0.756630984173
435560000 0.181972310827 -0.756844698274
435570000 0.181661770916 -0.757286874921
435580000 0.181030052607 -0.756911212179
435590000 0.181307827905 -0.757317852193
435600000 0.180883683965 -0.756810463655
435610000 0.181311326138 -0.756317669048
435620000 0.180495875094 -0.755839495864
435630000 0.180537224758 -0.756088420597
435640000 0.180781877233 -0.755934904179
435650000 0.180945489559 -0.756416453616
435660000 0.180863154921 -0.756746102799
435670000 0.180929610801 -0.756908599311
435680000 0.180628269404 -0.757344766903
435690000 0.180521643937 -0.757205722273
435700000 0.179636192729 -0.75699294334
435710000 0.179553756858 -0.757444080524
435720000 0.179604963425 -0.75767743455
435730000 0.180503073317 -0.75799614055
435740000 0.17950997336 -0.758400254323
435750000 0.179633564744 -0.757878462267
435760000 0.178706645132 -0.757943428621
435770000 0.178787326873 -0.757335431617
435780000 0.179102920666 -0.757630435525
435790000 0.179472042699 -0.757976327833
435800000 0.179747276856 -0.75799363046
435810000 0.179115681888 -0.757954436983
435820000 0.179151049423 -0.757108073193
435830000 0.177880851694 -0.757189131291
435840000 0.178339955481 -0.75806269903
435850000 0.178075419628 -0.758398221256
435860000 0.1776546494 -0.758617297543
435870000 0.178309266915 -0.758661850081
435880000 0.177088738595 -0.75822579024
435890000 0.177110578961 -0.758216314661
435900000 0.177313662191 -0.758696235151
435910000 0.177747877596 -0.758855937811
435920000 0.178185603755 -0.759441412642
435930000 0.176541562826 -0.759438239852
435940000 0.176864240361 -0.758850658442
435950000 0.177092526946 -0.758917539673
435960000 0.176934011218 -0.760134974765
435970000 0.176520415566 -0.759183509396
435980000 0.176478421844 -0.75939083434
435990000 0.176029986171 -0.759610034009
436000000 0.175876572151 -0.759704638726
436010000 0.175298861847 -0.760208969184
436020000 0.175928153308 -0.760159326066
436030000 0.176097007312 -0.759870780074
436040000 0.176043444716 -0.759773325466
436050000 0.176067209935 -0.759581865414
436060000 0.175807383014 -0.759433127784
436070000 0.175741815277 -0.759549385887
436080000 0.175522842058 -0.759802978622
436090000 0.17499650091 -0.759510247261
436100000 0.175183270341 -0.759400506898
436110000 0.175346893118 -0.75986621556
436120000 0.174640594553 -0.7594975684
436130000 0.174674636643 -0.760132981052
436140000 0.174536404154 -0.760421809632
436150000 0.174382043462 -0.760730870261
436160000 0.174645749645 -0.760690116303
436170000 0.174654366966 -0.76051115003
436180000 0.17416996634 -0.760583211259
436190000 0.17385543026 -0.760651122712
436200000 0.173126559129 -0.760839489481
436210000 0.173868042195 -0.762860104276
436220000 0.172950243254 -0.760878611781
436230000 0.173120803475 -0.761164859819
436240000 0.172926014348 -0.760980517616
436250000 0.173198207539 -0.760656443862
436260000 0.172855834022 -0.760397410026
436270000 0.173007251187 -0.760194455197
436280000 0.172855097919 -0.760432984068
436290000 0.17279745001 -0.760250626192
436300000 0.172486449655 -0.760898556556
436310000 0.172503084889 -0.761252624576
436320000 0.172353237081 -0.761236101738
436330000 0.172840221159 -0.761471315224
436340000 0.17144954692 -0.761053996793
436350000 0.171589419738 -0.761161350643
436360000 0.171154324964 -0.760611416019
436370000 0.171450021049 -0.761730497423
436380000 0.171535263616 -0.761606864891
436390000 0.171756910167 -0.761353689099
436400000 0.171399700259 -0.761989605229
436410000 0.170829705956 -0.761384923808
436420000 0.170428413627 -0.762498004353
436430000 0.170299047323 -0.761382368346
436440000 0.170661325454 -0.761878226804
436450000 0.17001989457 -0.761734980282
436460000 0.170446283793 -0.761582967252
436470000 0.170836619175 -0.761974181627
436480000 0.17042392701 -0.762301076234
436490000 0.17001525497 -0.762126216206
436500000 0.16995201858 -0.762017868929
436510000 0.169474306078 -0.761894782882
436520000 0.169823954625 -0.761985584193
436530000 0.169694486503 -0.762211546585
436540000 0.170388846055 -0.762495759402
436550000 0.169843816407 -0.762500038715
436560000 0.169403906059 -0.762841655686
436570000 0.168558683443 -0.762416994654
436580000 0.1685744321 -0.762589990875
436590000 0.168888433665 -0.762311293933
436600000 0.169232105171 -0.762525509772
436610000 0.168871886328 -0.762135764376
436620000 0.168922111598 -0.762731441392
436630000 0.168637924161 -0.763014588638
436640000 0.168697209466 -0.763175869966
436650000 0.169031342585 -0.763248721943
436660000 0.168273010272 -0.762826962275
436670000 0.16825471184 -0.762636952255
436680000 0.168311223934 -0.763425209066
436690000 0.168095568252 -0.763651788379
436700000 0.167459600004 -0.763027515375
436710000 0.167920619688 -0.762620949631
436720000 0.167408990278 -0.762970155046
436730000 0.168134888822 -0.763289417968
436740000 0.167720629214 -0.763355240667
436750000 0.167453576579 -0.763940774742
436760000 0.1673588369 -0.76326828817
436770000 0.166958401828 -0.763167030677
436780000 0.166597624009 -0.762939045611
436790000 0.166151330517 -0.763102674911
436800000 0.166202602591 -0.763777599238
436810000 0.165813627916 -0.764018052769
436820000 0.165916056292 -0.763408094011
436830000 0.16621981047 -0.763650915325
436840000 0.165550645559 -0.763149153162
436850000 0.16516060132 -0.763632217684
436860000 0.164961630266 -0.763061526905
436870000 0.165197941039 -0.763772669452
436880000 0.164712922226 -0.763686816461
436890000 0.164932419478 -0.764023710956
436900000 0.164427217628 -0.763571312046
436910000 0.164404742598 -0.763479174606
436920000 0.164803307779 -0.764041525037
436930000 0.163785615843 -0.765298376591
436940000 0.164886657839 -0.764011848086
436950000 0.164974808166 -0.764242020193
436960000 0.164442126819 -0.7639832694
436970000 0.163723784239 -0.763947139485
436980000 0.16397225952 -0.764298986068
436990000 0.163446546237 -0.764037799477
437000000 0.163812608944 -0.764464811803
437010000 0.163520651819 -0.76455421517
437020000 0.163754475714 -0.764290950173
437030000 0.163556858366 -0.764711570435
437040000 0.163341690662 -0.764009374261
437050000 0.163687116209 -0.764630014634
437060000 0.162493218807 -0.763901959623
437070000 0.162618642993 -0.764213143377
437080000 0.162581487914 -0.764254490534
437090000 0.16204652459 -0.76438389606
437100000 0.162226332273 -0.764343716906
437110000 0.162285106388 -0.764783387105
437120000 0.162231671088 -0.764966819557
437130000 0.162052711941 -0.765749742202
437140000 0.162366262177 -0.765878939486
437150000 0.162294434458 -0.766015065743
437160000 0.161697423192 -0.765432003365
437170000 0.162157408952 -0.764761124466
437180000 0.162203060991 -0.765104633727
437190000 0.161618132131 -0.765378805589
437200000 0.162035912398 -0.765253309362
437210000 0.161637836172 -0.765484670135
437220000 0.161675178197 -0.765482656246
437230000 0.161399555589 -0.765711286998
437240000 0.164685172428 -0.765292736519
437250000 0.17004996266 -0.765214078714
437260000 0.174768039169 -0.765506732061
437270000 0.172748913402 -0.765233478295
437280000 0.16703112717 -0.765200405615
437290000 0.162499002022 -0.765092340889
437300000 0.160816956948 -0.765126842878
437310000 0.160414235579 -0.765809924703
437320000 0.160085315529 -0.765929015262
437330000 0.159841967969 -0.765911612882
437340000 0.159184722386 -0.766204702192
437350000 0.159820381241 -0.766093648529
437360000 0.159788583581 -0.766498116694
437370000 0.159772199973 -0.766372911358
437380000 0.159645383758 -0.765669049887
437390000 0.159985193915 -0.766790962403
437400000 0.159692931057 -0.766364918271
437410000 0.158081041666 -0.766037935268
437420000 0.157806233421 -0.764952724182
437430000 0.157819549486 -0.764625671323
437440000 0.158093041564 -0.764349992246
437450000 0.158343933259 -0.764806438837
437460000 0.1582947816 -0.765622709341
437470000 0.15843835518 -0.766323276444
437480000 0.15725944397 -0.76621497625
437490000 0.156561563056 -0.76686741529
437500000 0.157288011909 -0.767007499018
437510000 0.15702731874 -0.766797588578
437520000 0.157277801632 -0.766826970892
437530000 0.157031481911 -0.766892518445
437540000 0.156913983048 -0.766586802444
437550000 0.156923739818 -0.766735662668
437560000 0.156780234348 -0.766526925746
437570000 0.156097204919 -0.766357904659
437580000 0.156034177354 -0.765990285465
437590000 0.156078007589 -0.766635313546
437600000 0.155778769978 -0.767184393329
437610000 0.155709872373 -0.767227988427
437620000 0.155832249418 -0.766901588092
437630000 0.155628623046 -0.76718258076
437640000 0.155796345562 -0.767418478971
437650000 0.156057451083 -0.766649871658
437660000 0.156112581349 -0.766486373758
437670000 0.155778491554 -0.76628896187
437680000 0.15532424568 -0.767073703821
437690000 0.155058350135 -0.767660536632
437700000 0.154902865282 -0.767262785672
437710000 0.154447106199 -0.766663947188
437720000 0.15404954365 -0.766693884372
437730000 0.154114612903 -0.766088236722
437740000 0.15382078046 -0.766845436551
437750000 0.154099101173 -0.766649996546
437760000 0.15432195249 -0.767181361613
437770000 0.154290211649 -0.766629984451
437780000 0.154747184528 -0.766931292309
437790000 0.154903883861 -0.766921728017
437800000 0.154181947339 -0.767177828402
437810000 0.154439815215 -0.767894266256
437820000 0.15347431435 -0.767567430024
437830000 0.153612109057 -0.767566215359
437840000 0.153541732734 -0.76737516006
437850000 0.152783034792 -0.767868851214
437860000 0.152207028232 -0.767570603955
437870000 0.151966935178 -0.767350269575
437880000 0.152226946664 -0.767238750848
437890000 0.152871702709 -0.767635474875
437900000 0.152888163466 -0.767069618535
437910000 0.152562537899 -0.766961322507
437920000 0.152511528017 -0.766979544652
437930000 0.152144455835 -0.767051485853
437940000 0.15206797819 -0.767365394596
437950000 0.15243385695 -0.767907991169
437960000 0.152018106632 -0.767791745648
437970000 0.15169546943 -0.767607557193
437980000 0.152075087985 -0.767487200578
437990000 0.151498567768 -0.767698886326
438000000 0.151987389735 -0.767843736725
438010000 0.152234639263 -0.767963927219
438020000 0.151613411601 -0.76807178097
438030000 0.151130812618 -0.767856705755
438040000 0.150989656343 -0.767541749416
438050000 0.150964988561 -0.768049313909
438060000 0.151194226019 -0.768720589809
438070000 0.150703232608 -0.768526503336
438080000 0.150234511609 -0.768073760303
438090000 0.150355764326 -0.768513653532
438100000 0.149360625961 -0.768602965054
438110000 0.150223169854 -0.76814108809
438120000 0.149734347176 -0.768484231115
438130000 0.150831830361 -0.768541082827
438140000 0.150357004738 -0.768191793053
438150000 0.149721840599 -0.768451635231
438160000 0.149434143896 -0.768135687985
438170000 0.149538129221 -0.768533453982
438180000 0.149410468645 -0.768461832595
438190000 0.149168572943 -0.768079369814
438200000 0.149185403355 -0.767999614339
438210000 0.149383549174 -0.768118367696
438220000 0.148722062806 -0.768078750333
438230000 0.148900374798 -0.768011892041
438240000 0.1482769123 -0.768851141307
438250000 0.14823189067 -0.768857695381
438260000 0.148217804113 -0.768820828465
438270000 0.147711561398 -0.768710123917
438280000 0.148048637854 -0.768493768768
438290000 0.147416926549 -0.76849193886
438300000 0.147887349648 -0.768239388138
438310000 0.147398030196 -0.767954033388
438320000 0.147107614758 -0.767739013728
438330000 0.147004006668 -0.768594504051
438340000 0.146917743247 -0.768762126473
438350000 0.147252287727 -0.768699101019
438360000 0.147425086937 -0.770051230044
438370000 0.146987623355 -0.769295413503
438380000 0.146788857396 -0.76956560085
438390000 0.146534588822 -0.769278319749
438400000 0.146347114953 -0.768786151643
438410000 0.145839337457 -0.768777818527
438420000 0.14504857083 -0.768101365383
438430000 0.145987926023 -0.769539088451
438440000 0.145106788864 -0.769735819823
438450000 0.145160345555 -0.769841458766
438460000 0.144900592899 -0.768967334462
438470000 0.144798036423 -0.769397679824
438480000 0.145042852461 -0.768760197753
438490000 0.144814618147 -0.769162840929
438500000 0.144882481559 -0.769360473882
438510000 0.144410304709 -0.768893023389
438520000 0.144421350425 -0.768891370557
438530000 0.144371225472 -0.769058789122
438540000 0.143980761933 -0.768992963275
438550000 0.143895823586 -0.769854468027
438560000 0.143916973077 -0.769939577828
438570000 0.143294512904 -0.769396254286
438580000 0.143425308457 -0.768990082613
438590000 0.143705360393 -0.769337071368
438600000 0.143608666547 -0.769593590748
438610000 0.142761386502 -0.769455577136
438620000 0.142829172242 -0.769502968055
438630000 0.143055257772 -0.769354481813
438640000 0.142802903822 -0.769126854133
438650000 0.142127473398 -0.768870871993
438660000 0.142110916163 -0.768150177012
438670000 0.141652295772 -0.767983033902
438680000 0.142191650938 -0.768942987449
438690000 0.14220093289 -0.769646015896
438700000 0.142426501013 -0.770338937456
438710000 0.141875631958 -0.770115317961
438720000 0.14162705839 -0.768356549557
438730000 0.141941873322 -0.767975088797
438740000 0.1421031425 -0.769023142291
438750000 0.142800238963 -0.768876437106
438760000 0.143226082108 -0.76875084572
438770000 0.142506652563 -0.769139652847
438780000 0.142075775666 -0.768747350655
438790000 0.14211206544 -0.769199918864
438800000 0.141533432907 -0.769098251631
438810000 0.140703576577 -0.769201019641
438820000 0.140299127259 -0.769264442234
438830000 0.140503026009 -0.769682989424
438840000 0.140117413237 -0.769208685555
438850000 0.140225419339 -0.768996037028
438860000 0.140050537395 -0.769918173156
438870000 0.140236002754 -0.770453524797
438880000 0.140415477855 -0.770081573678
438890000 0.140103158838 -0.769791780195
438900000 0.140247672301 -0.769452526623
438910000 0.139955557081 -0.769662157001
438920000 0.139824400432 -0.769863136315
438930000 0.139662578557 -0.769591986802
438940000 0.139750438274 -0.770246313483
438950000 0.138995024792 -0.769395414658
438960000 0.139097507697 -0.769355566315
438970000 0.139180184056 -0.77019247796
438980000 0.13913724944 -0.769762643877
438990000 0.138516830335 -0.769922409797
439000000 0.13835871339 -0.769793452446
439010000 0.139059719331 -0.76940854394
439020000 0.138863492534 -0.76954114788
439030000 0.13858165994 -0.769395554
439040000 0.138601720903 -0.769224757147
439050000 0.138653597302 -0.769642141932
439060000 0.139037296875 -0.769641213208
439070000 0.139053384334 -0.769230957235
439080000 0.138833948986 -0.769827810553
439090000 0.137834100678 -0.769874580415
439100000 0.137764463831 -0.769792701013
439110000 0.137726762145 -0.769724936731
439120000 0.138999122167 -0.770853469084
439130000 0.138156636615 -0.769614793979
439140000 0.138022244981 -0.769975218006
439150000 0.138185266926 -0.769580931375
439160000 0.137757513961 -0.769666993022
439170000 0.137077879127 -0.769226363344
439180000 0.137742394409 -0.769775680771
439190000 0.137371718227 -0.769478939751
439200000 0.137104886984 -0.76955188891
439210000 0.13699308357 -0.769751675932
439220000 0.136230381956 -0.770464036178
439230000 0.13595320547 -0.76989657497
439240000 0.135522053593 -0.769963775097
439250000 0.136496349324 -0.770066003343
439260000 0.136485379248 -0.769432878283
439270000 0.136067892188 -0.76949688139
439280000 0.136582467537 -0.769743335469
439290000 0.136017812178 -0.770380159609
439300000 0.135854828879 -0.770672489342
439310000 0.136042997048 -0.770327594967
439320000 0.135104523241 -0.77019973268
439330000 0.135073647264 -0.770575297743
439340000 0.134273552939 -0.769302342212
439350000 0.134730350041 -0.769790273453
439360000 0.133915771373 -0.769399053721
439370000 0.13429837375 -0.769214933958
439380000 0.134797942585 -0.769653618668
439390000 0.134309985898 -0.770045604916
439400000 0.134620768823 -0.769981258693
439410000 0.134296062489 -0.770157328626
439420000 0.133894217248 -0.770142498293
439430000 0.134030194009 -0.769856609692
439440000 0.133905510467 -0.770369284376
439450000 0.133800449558 -0.770496679427
439460000 0.133342685965 -0.769843491903
439470000 0.133861852465 -0.769769070673
439480000 0.133571077859 -0.769324306055
439490000 0.13324382519 -0.769388317003
439500000 0.133037351867 -0.769602153108
439510000 0.132534421892 -0.771518367087
439520000 0.132266897808 -0.770399433556
439530000 0.132327887607 -0.770621289636
439540000 0.132353866856 -0.770360504156
439550000 0.132766347683 -0.770013245274
439560000 0.133570620938 -0.770662624664
439570000 0.133004227709 -0.770181914864
439580000 0.132412225978 -0.771194097664
439590000 0.132259856093 -0.770866100631
439600000 0.132076291255 -0.77109260976
439610000 0.131783103394 -0.770623416099
439620000 0.132586338442 -0.771484096032
439630000 0.131403371936 -0.770695812762
439640000 0.132639035309 -0.770589488355
439650000 0.131017255374 -0.77058216816
439660000 0.13102613448 -0.770006325503
439670000 0.130941046212 -0.769543375165
439680000 0.13066829178 -0.769704224846
439690000 0.130643060747 -0.770117016704
439700000 0.130041305917 -0.771101818766
439710000 0.130364903958 -0.77099781777
439720000 0.12986167971 -0.770250479479
439730000 0.129913040382 -0.770166331545
439740000 0.129986458647 -0.770544715851
439750000 0.129498841184 -0.770589192
439760000 0.129547596518 -0.770166876291
439770000 0.128427238368 -0.770779261293
439780000 0.12884210358 -0.769962098155
439790000 0.12878879693 -0.770921925094
439800000 0.12923144902 -0.770221228984
439810000 0.128926794354 -0.771341083574
439820000 0.129034056293 -0.771188298318
439830000 0.128499178871 -0.771210610568
439840000 0.127670940443 -0.770594743029
439850000 0.127803100228 -0.77026903941
439860000 0.127221885066 -0.769684121493
439870000 0.127347752307 -0.770453140435
439880000 0.126666010281 -0.769751484162
439890000 0.127305604979 -0.770560922055
439900000 0.127697393966 -0.77044042032
439910000 0.128272169607 -0.770622524891
439920000 0.127440265878 -0.770532323238
439930000 0.126855274242 -0.77007282757
439940000 0.125898068081 -0.770673537399
439950000 0.126305475696 -0.770510874352
439960000 0.126496328971 -0.770178311386
439970000 0.127331606479 -0.770470438747
439980000 0.126623935637 -0.770345342249
439990000 0.127329340676 -0.770514783139
440000000 0.126234747665 -0.771186378794
440010000 0.126158491221 -0.770623612491
440020000 0.125670709568 -0.770441336719
440030000 0.126188324781 -0.770213790036
440040000 0.125885550278 -0.769579510949
440050000 0.126303164341 -0.770200404348
440060000 0.126310970084 -0.769394434393
440070000 0.125485979249 -0.769811750055
440080000 0.125886224747 -0.769480495137
440090000 0.125917489565 -0.770127440702
440100000 0.125275921626 -0.770742173441
440110000 0.124982557148 -0.770959965293
440120000 0.124660129993 -0.770561187683
440130000 0.124565339249 -0.770785778311
440140000 0.123802237877 -0.771340360027
440150000 0.123992756882 -0.770892351878
440160000 0.123655428425 -0.770696263534
440170000 0.123615391901 -0.770891754726
440180000 0.123964900893 -0.771289284987
440190000 0.12384871479 -0.770550973599
440200000 0.123418593428 -0.771227262312
440210000 0.123631502265 -0.770461162938
440220000 0.123332685612 -0.771015916653
440230000 0.123621697583 -0.771020145682
440240000 0.123356793031 -0.770958248064
440250000 0.123299792857 -0.771054906885
440260000 0.123096039398 -0.770490406685
440270000 0.123185802852 -0.770675956004
440280000 0.122401767654 -0.7708678954
440290000 0.123300747298 -0.77077494908
440300000 0.123469057411 -0.771484400662
440310000 0.123236919991 -0.7716775033
440320000 0.123549440282 -0.771585506118
440330000 0.122872248014 -0.770182271681
440340000 0.122798701164 -0.77067864177
440350000 0.122762550596 -0.771448181516
440360000 0.12228676202 -0.771305462459
440370000 0.12145886563 -0.771439311635
440380000 0.1207301082 -0.771125582971
440390000 0.120744220877 -0.770468033621
440400000 0.120574989503 -0.771003416277
440410000 0.121371788912 -0.770877451078
440420000 0.121019905673 -0.771454393837
440430000 0.121408986407 -0.771390547679
440440000 0.120468701253 -0.771156924363
440450000 0.120448637093 -0.77088151842
440460000 0.120667802968 -0.770877796647
440470000 0.120054247143 -0.770519325235
440480000 0.120765960141 -0.770566665942
440490000 0.120610120439 -0.770721294436
440500000 0.120107127895 -0.770923856953
440510000 0.119891379493 -0.771238115352
440520000 0.123169773467 -0.768374069583
440530000 0.125876473781 -0.765570287355
440540000 0.122148191695 -0.763668811658
440550000 0.131860117976 -0.775433759305
440560000 0.122204577867 -0.768135534085
440570000 0.118735473014 -0.771351592971
440580000 0.118968933424 -0.771123240672
440590000 0.119020980089 -0.771296070269
440600000 0.11912529045 -0.770687668686
440610000 0.119098543092 -0.770617957582
440620000 0.118872008258 -0.770235157778
440630000 0.119005529982 -0.770774533795
440640000 0.118095870804 -0.770473828434
440650000 0.117117300243 -0.770351328146
440660000 0.11692518968 -0.770696504456
440670000 0.117144834504 -0.770717473538
440680000 0.117518815699 -0.771591870637
440690000 0.117340422655 -0.770695361
440700000 0.117475788647 -0.770789108907
440710000 0.117811945083 -0.771108166312
440720000 0.117406655144 -0.771107920803
440730000 0.116672473493 -0.771555450164
440740000 0.116918950343 -0.770937566871
440750000 0.116930422123 -0.769835292421
440760000 0.116652673781 -0.770885981455
440770000 0.116702129682 -0.77149088966
440780000 0.117004808772 -0.771301347898
440790000 0.116719080127 -0.77070540732
440800000 0.115957986765 -0.770790493967
440810000 0.115764389942 -0.77058737227
440820000 0.116089125517 -0.770492968823
440830000 0.115656798483 -0.770290022124
440840000 0.115497770459 -0.769873929957
440850000 0.115194318701 -0.770733142352
440860000 0.11538908941 -0.770805106526
440870000 0.115487844168 -0.770513214395
440880000 0.115406720972 -0.77095930653
440890000 0.115342507787 -0.770390593453
440900000 0.115256200638 -0.771121790391
440910000 0.114780295557 -0.770680659538
440920000 0.114810186996 -0.770271372129
440930000 0.114899438343 -0.770402743503
440940000 0.114097431457 -0.770270385945
440950000 0.114435953832 -0.770385098731
440960000 0.114424098264 -0.771187731544
440970000 0.114193266311 -0.770517995242
440980000 0.114713383667 -0.771065480161
440990000 0.114550257986 -0.770724919633
441000000 0.114604805004 -0.77121919645
441010000 0.114469872607 -0.770104831654
441020000 0.114020289023 -0.769772350619
441030000 0.113967367958 -0.769766177747
441040000 0.113332092388 -0.770053725828
441050000 0.112850065898 -0.769986951107
441060000 0.112272261906 -0.769852988497
441070000 0.11272014837 -0.770046199165
441080000 0.112615908316 -0.770610326951
441090000 0.112602643015 -0.770200810554
441100000 0.112262384227 -0.770792343893
441110000 0.112366972454 -0.77080047623
441120000 0.112949266658 -0.771160000337
441130000 0.112372175761 -0.771351298334
441140000 0.112890936423 -0.770682899318
441150000 0.112478684627 -0.770542082335
441160000 0.111971630963 -0.770842281659
441170000 0.11196038331 -0.770719829457
441180000 0.1115737385 -0.770562292896
441190000 0.112206153545 -0.771132143016
441200000 0.111482216161 -0.772262456446
441210000 0.11174003478 -0.77125365146
441220000 0.11166147344 -0.77085834921
441230000 0.110965447079 -0.771274298853
441240000 0.111125526942 -0.770900211145
441250000 0.110942742295 -0.770926487114
441260000 0.111221801529 -0.770266093315
441270000 0.110685149905 -0.770310623427
441280000 0.111096490797 -0.770593159626
441290000 0.110687194264 -0.770720565236
441300000 0.111701109826 -0.770734222769
441310000 0.100867610783 -0.765152668416
441320000 0.11009589956 -0.770876045656
441330000 0.110032520892 -0.770784487766
441340000 0.109665898199 -0.770568983307
441350000 0.109296728925 -0.77067864421
441360000 0.109248055235 -0.770218845764
441370000 0.108738374825 -0.769952338104
441380000 0.108977463095 -0.769985015534
441390000 0.109007800845 -0.769991862527
441400000 0.108944658031 -0.76983526015
441410000 0.109102442478 -0.770074766806
441420000 0.108927250037 -0.77049491846
441430000 0.108711995656 -0.770095849626
441440000 0.108868422678 -0.770760549562
441450000 0.108640858679 -0.771256443613
441460000 0.108117935335 -0.771394621127
441470000 0.108019565518 -0.771285703294
441480000 0.107588034696 -0.771357373258
441490000 0.107806719134 -0.771324578116
441500000 0.107787193098 -0.770116914771
441510000 0.107946174251 -0.77000985217
441520000 0.108021707944 -0.769874868964
441530000 0.107715905603 -0.77010221879
441540000 0.107841424875 -0.770878566396
441550000 0.107480632984 -0.770727630857
441560000 0.107413818516 -0.771219857765
441570000 0.107408303262 -0.770337693898
441580000 0.10681703012 -0.770899152945
441590000 0.106027346319 -0.770416297679
441600000 0.105694661595 -0.769960043086
441610000 0.106850840843 -0.770658121248
441620000 0.107173715521 -0.77092949463
441630000 0.107318835265 -0.771468582033
441640000 0.106721481052 -0.771486249293
441650000 0.106478413886 -0.771094159618
441660000 0.10582451489 -0.77094991203
441670000 0.105114890633 -0.770656347852
441680000 0.105623732844 -0.770223087439
441690000 0.105610032083 -0.770174464646
441700000 0.105024134351 -0.770212503349
441710000 0.105684217907 -0.770611800209
441720000 0.104956340066 -0.770563790838
441730000 0.104986835458 -0.770172589527
441740000 0.104813117553 -0.770880174389
441750000 0.104447709972 -0.770673749568
441760000 0.104638653331 -0.771437065841
441770000 0.104010341136 -0.770813747311
441780000 0.104156374521 -0.770373250444
441790000 0.10452837507 -0.770754296039
441800000 0.105280129609 -0.770460759571
441810000 0.103542578669 -0.770810452534
441820000 0.103040050488 -0.770340272384
441830000 0.102730333672 -0.770630010188
441840000 0.102751788518 -0.770446895968
441850000 0.102656605814 -0.770695629462
441860000 0.102819560161 -0.770935793764
441870000 0.102908485399 -0.770526888388
441880000 0.103188253234 -0.77046220835
441890000 0.102957086394 -0.77057465082
441900000 0.102836584956 -0.770603395468
441910000 0.103031751543 -0.771093500433
441920000 0.1029587071 -0.771121669476
441930000 0.102755820024 -0.770451433242
441940000 0.102584006472 -0.770488921539
441950000 0.101615792069 -0.77061224001
441960000 0.102578742918 -0.771044958248
441970000 0.102655303184 -0.770961786437
441980000 0.102191173461 -0.771940528186
441990000 0.0904327270279 -0.768273264765
442000000 0.0993452863817 -0.771372383164
442010000 0.101959919106 -0.770518853777
442020000 0.101947151901 -0.770728670995
442030000 0.10141895643 -0.770080441527
442040000 0.101205583232 -0.770501755959
442050000 0.101839732807 -0.770020361884
442060000 0.100973164452 -0.771439199976
442070000 0.101060843283 -0.770724031079
442080000 0.101071051591 -0.770695281794
442090000 0.100743456404 -0.771255960131
442100000 0.100969645512 -0.771322578368
442110000 0.102186294789 -0.770899946828
442120000 0.100792936392 -0.770880134903
442130000 0.101154093521 -0.770695034186
442140000 0.0987262622229 -0.770218660298
442150000 0.100067422759 -0.772897122364
442160000 0.0994437186072 -0.772022902258
442170000 0.0997508380824 -0.771589723444
442180000 0.0990622680649 -0.773425635512
442190000 0.0988265229905 -0.769899717953
442200000 0.0988707188857 -0.771783681468
442210000 0.098658455058 -0.770503405491
442220000 0.100275219616 -0.770753908005
442230000 0.0985522451216 -0.773497573857
442240000 0.100695139379 -0.769886015618
442250000 0.10039864537 -0.768343851112
442260000 0.098463827915 -0.770000650221
442270000 0.0994665132271 -0.770690430979
442280000 0.0987432507142 -0.771461972459
442290000 0.0963651846928 -0.76964812928
442300000 0.099659282034 -0.770463724555
442310000 0.0957106627379 -0.771521748989
442320000 0.0990976888052 -0.772919346561
442330000 0.096588079925 -0.771388517773
442340000 0.0980513343286 -0.770591321654
442350000 0.0963705659477 -0.772501671429
442360000 0.0989896552372 -0.771092177589
442370000 0.0957739717981 -0.770780483683
442380000 0.0968905516901 -0.773736432012
442390000 0.102458746956 -0.772064964384
442400000 0.0913547992585 -0.772678144011
442410000 0.0975185961685 -0.770870712669
442420000 0.0978527445168 -0.768425897553
442430000 0.100200764989 -0.771685875387
442440000 0.100154536843 -0.772743396947
442450000 0.0991598419164 -0.76565563638
442460000 0.0964377379896 -0.771095778083
442470000 0.100303954071 -0.771819958327
442480000 0.0959215272186 -0.769382469787
442490000 0.0969955049281 -0.768636829057
442500000 0.0989256845026 -0.773448823748
442510000 0.0948835772907 -0.771580937274
442520000 0.100795217721 -0.772081902655
442530000 0.0986171436206 -0.772140795637
442540000 0.0946675280746 -0.770715699231
442550000 0.0967989518984 -0.76959288366
442560000 0.0941742546766 -0.771395537849
442570000 0.0967651070248 -0.766967621161
442580000 0.0974146662953 -0.769703010768
442590000 0.0966457545083 -0.768317516606
442600000 0.100509577014 -0.763125492462
442610000 0.100606353792 -0.759019332928
442620000 0.0961926020782 -0.763347819479
442630000 0.0963175750583 -0.767773490023
442640000 0.0939324266929 -0.7704383439
442650000 0.0964420595676 -0.769895091129
442660000 0.0949058141478 -0.770479212642
442670000 0.0933944066191 -0.770616979962
442680000 0.0935783807442 -0.77203734698
442690000 0.0929181253336 -0.770394335335
442700000 0.0941056193252 -0.769690472761
442710000 0.0935107510731 -0.769538379494
442720000 0.0918535619684 -0.769776662808
442730000 0.0967266753541 -0.770180791634
442740000 0.093927879514 -0.770549414716
442750000 0.0927385802617 -0.770289454093
442760000 0.0930332879618 -0.770298968049
442770000 0.0923677104694 -0.770451042984
442780000 0.0929513068112 -0.77019640108
442790000 0.0925922921992 -0.76969663808
442800000 0.0926812798886 -0.770012661738
442810000 0.0920217697846 -0.769649094261
442820000 0.0922892040843 -0.770111538314
442830000 0.0921082218143 -0.769458221089
442840000 0.0919865529888 -0.769659645073
442850000 0.0917504992742 -0.769601081693
442860000 0.0919147383196 -0.769627804792
442870000 0.0914130580721 -0.768106384937
442880000 0.0924364526196 -0.76966196608
442890000 0.0914052977559 -0.769091501958
442900000 0.0910903512631 -0.769410781823
442910000 0.0908768888201 -0.769334333197
442920000 0.0907271231836 -0.769064347365
442930000 0.0907373742002 -0.769485961059
442940000 0.0909282778089 -0.769568166651
442950000 0.0910972048577 -0.770622408951
442960000 0.090939111468 -0.769156430602
442970000 0.0906781639183 -0.769660182205
442980000 0.0909118989114 -0.769177221865
442990000 0.0904238132028 -0.7689540761
443000000 0.0905079549589 -0.769094686097
443010000 0.0902765609865 -0.769484481072
443020000 0.0900379290402 -0.769521264704
443030000 0.0900029962894 -0.769724807509
443040000 0.0900286775193 -0.769910182103
443050000 0.0900794978508 -0.77000332427
443060000 0.0898203378218 -0.769921330246
443070000 0.0896051519108 -0.769996498593
443080000 0.0896629212061 -0.769685009234
443090000 0.0895960439188 -0.769986256374
443100000 0.0900157747384 -0.769460144761
443110000 0.0890879989586 -0.770178498372
443120000 0.0894663872089 -0.770011886869
443130000 0.088706129157 -0.770197661974
443140000 0.089224424594 -0.76944201432
443150000 0.0887760943467 -0.768867382732
443160000 0.089156187194 -0.770024413737
443170000 0.0870254984435 -0.768280470745
443180000 0.0885852146995 -0.769775347936
443190000 0.0880053005222 -0.769229669925
443200000 0.088144015821 -0.769065531576
443210000 0.0875900369349 -0.769702151154
443220000 0.0877778491718 -0.76947961609
443230000 0.08754799992 -0.769161261804
443240000 0.0876878521024 -0.769046148232
443250000 0.0870380660389 -0.769261288593
443260000 0.0879072324129 -0.769830157448
443270000 0.086919052937 -0.770268588398
443280000 0.0866201151514 -0.769887598173
443290000 0.086137628322 -0.770274110451
443300000 0.0860499341969 -0.770257776868
443310000 0.0869185784738 -0.769680289388
443320000 0.0872968425782 -0.769538526422
443330000 0.0870499965623 -0.768709738291
443340000 0.0865961502503 -0.768775274541
443350000 0.0861313901127 -0.769787982139
443360000 0.0854860325252 -0.769800940173
443370000 0.0854190598814 -0.769432684699
443380000 0.0853811050351 -0.770321001909
443390000 0.0854792020176 -0.769691585393
443400000 0.0863606799629 -0.769969918544
443410000 0.0852026140093 -0.769417578494
443420000 0.0859314013863 -0.768604286966
443430000 0.085847367301 -0.76897120688
443440000 0.0855802799159 -0.769582868435
443450000 0.0853214592919 -0.76922454782
443460000 0.0846282196088 -0.768737540918
443470000 0.0841396744115 -0.768959408308
443480000 0.0845383432827 -0.769379215119
443490000 0.0844348512067 -0.769246206931
443500000 0.0847951089607 -0.769277114481
443510000 0.0850541576338 -0.769136169683
443520000 0.0858120065481 -0.768779163279
443530000 0.0860018548324 -0.768562383697
443540000 0.0848590039375 -0.768063695257
443550000 0.0841396886611 -0.768123476101
443560000 0.0837678377249 -0.768416623739
443570000 0.083202604988 -0.768519526635
443580000 0.0834575445129 -0.768151764398
443590000 0.0829631112906 -0.768512035227
443600000 0.0830061937519 -0.76890936929
443610000 0.0827471013858 -0.768867879784
443620000 0.0831441485225 -0.76931344945
443630000 0.0824671077315 -0.768990435737
443640000 0.0827485279626 -0.769320009965
443650000 0.082536502567 -0.769078769907
443660000 0.0826853294589 -0.76898900126
443670000 0.0829916631006 -0.768764714526
443680000 0.0830174380035 -0.76846015043
443690000 0.0825208795471 -0.768776833784
443700000 0.0819871793774 -0.768488293904
443710000 0.0822313075615 -0.76863571947
443720000 0.0823996723232 -0.768285651914
443730000 0.0829439870049 -0.768289939426
443740000 0.0819660554447 -0.768357129771
443750000 0.0816420914169 -0.768628693315
443760000 0.0810499991574 -0.76852389596
443770000 0.0807788244663 -0.768925316108
443780000 0.0813316155883 -0.76912497954
443790000 0.0810937799685 -0.768600958769
443800000 0.0808876574528 -0.768352266668
443810000 0.0809830315997 -0.768294264082
443820000 0.0809980935673 -0.767938155462
443830000 0.0808468532553 -0.768028620587
443840000 0.0806773511795 -0.768487257847
443850000 0.0805640277795 -0.768125191007
443860000 0.080298069959 -0.767793480941
443870000 0.0798432389415 -0.766983832695
443880000 0.0799256829955 -0.767945572363
443890000 0.0808462636147 -0.767348665409
443900000 0.0800409693565 -0.767913958338
443910000 0.0804173058428 -0.767952512227
443920000 0.0799758295041 -0.768417775825
443930000 0.0797052292682 -0.768250554945
443940000 0.0796806180089 -0.768539685354
443950000 0.0798322178965 -0.768942673344
443960000 0.079242278969 -0.768878848392
443970000 0.0796254461017 -0.768571137608
443980000 0.0796028294056 -0.768395649288
443990000 0.0793818379989 -0.767808115603
444000000 0.0793923004026 -0.76811352616
444010000 0.0792827566233 -0.768483360937
444020000 0.0788040886844 -0.768343375851
444030000 0.0787094540941 -0.768345947279
444040000 0.0786817577 -0.768295582864
444050000 0.0790686944862 -0.767986358027
444060000 0.0789057566116 -0.768100887223
444070000 0.0784907077111 -0.768481951148
444080000 0.0783940263437 -0.767302897598
444090000 0.0784342019679 -0.767457156628
444100000 0.0780652605594 -0.767368904951
444110000 0.0782577789187 -0.767713965843
444120000 0.0777245846968 -0.767468607051
444130000 0.0777545460396 -0.767224134393
444140000 0.0753011289456 -0.767382700788
444150000 0.0780331665776 -0.758397139047
444160000 0.0700180589782 -0.758357280336
444170000 0.0697881825183 -0.762719123935
444180000 0.0730682573797 -0.763760424301
444190000 0.0758413006434 -0.766921912525
444200000 0.0766224038074 -0.767664623871
444210000 0.0763779511232 -0.767858123232
444220000 0.0766152833157 -0.768000448017
444230000 0.0764049787105 -0.767310238774
444240000 0.0757897809969 -0.766921706262
444250000 0.0757691656179 -0.767219260036
444260000 0.0754171559867 -0.767176739923
444270000 0.0758884755057 -0.767471073255
444280000 0.0755993660987 -0.76737365495
444290000 0.0756583735399 -0.767811203036
444300000 0.0756270149598 -0.766917033981
444310000 0.0747148739112 -0.767240530622
444320000 0.0751563363853 -0.76725059609
444330000 0.0746363221777 -0.767066660951
444340000 0.0743275391677 -0.766924923035
444350000 0.074266396524 -0.76737806698
444360000 0.074965975163 -0.767197150883
444370000 0.0749216682355 -0.767405171305
444380000 0.0744282947165 -0.767262391267
444390000 0.0746273784776 -0.767037239745
444400000 0.074585758523 -0.766977553971
444410000 0.0745653922379 -0.767226801975
444420000 0.0746801076011 -0.767170126252
444430000 0.0744192716026 -0.766800306884
444440000 0.0737920949028 -0.766754420096
444450000 0.0741669057376 -0.76654944925
444460000 0.0735930921039 -0.767033460116
444470000 0.0735444851921 -0.766586585516
444480000 0.0731477572737 -0.766414931585
444490000 0.0735419133304 -0.766780755777
444500000 0.0738514550028 -0.766812187587
444510000 0.073749152067 -0.76677666087
444520000 0.0732115095197 -0.767400310205
444530000 0.0722292309022 -0.767910876299
444540000 0.0724514264596 -0.768196396298
444550000 0.0728086074082 -0.767894286088
444560000 0.0734593119655 -0.768104617654
444570000 0.0728139706459 -0.767273520524
444580000 0.0729813287016 -0.767155381344
444590000 0.0727010078118 -0.766481374688
444600000 0.0728804404939 -0.766911209379
444610000 0.0729689078543 -0.766717412473
444620000 0.0723886649109 -0.766495530276
444630000 0.0720763636073 -0.767074525291
444640000 0.0718674826997 -0.766989430537
444650000 0.0720980121779 -0.767159077085
444660000 0.071831744036 -0.767473683007
444670000 0.0716828371093 -0.766730196377
444680000 0.0720436911592 -0.766894076056
444690000 0.0718368769138 -0.766365152022
444700000 0.071852680228 -0.766727454649
444710000 0.0717181897834 -0.765823608389
444720000 0.0709227162862 -0.765938170708
444730000 0.0702675754883 -0.765807571317
444740000 0.069719743864 -0.765658628728
444750000 0.0703700672521 -0.765597043022
444760000 0.0702209962129 -0.766192216071
444770000 0.0703209914324 -0.766252226763
444780000 0.0698082706967 -0.766230508875
444790000 0.0695095020055 -0.766723358644
444800000 0.0703262727562 -0.766276784479
444810000 0.0697486363331 -0.766397508515
444820000 0.0706729390434 -0.766129762105
444830000 0.0706894482508 -0.765713902315
444840000 0.0696617004456 -0.766296201277
444850000 0.0695829914788 -0.766672300678
444860000 0.069565951679 -0.766412940164
444870000 0.0697001861399 -0.7668278643
444880000 0.0695722037314 -0.766333227122
444890000 0.0696407548219 -0.766226268428
444900000 0.0691327251009 -0.766646392537
444910000 0.0693567151371 -0.766996936061
444920000 0.0689070412168 -0.766598614644
444930000 0.068940338961 -0.766290987576
444940000 0.0684528073231 -0.765843740441
444950000 0.0681557881297 -0.765630059152
444960000 0.0681815032145 -0.765909385506
444970000 0.0676472879697 -0.765121909141
444980000 0.0680002236547 -0.765706133997
444990000 0.0676063424325 -0.765394452333
445000000 0.0669455313105 -0.766052779172
445010000 0.0676337741257 -0.766072354653
445020000 0.0675644754838 -0.765779404589
445030000 0.0673413781345 -0.765945224586
445040000 0.0671803877538 -0.765723336321
445050000 0.0675623156793 -0.765152444641
445060000 0.067126138644 -0.765428303908
445070000 0.0674423203986 -0.765424459868
445080000 0.0670002989912 -0.765462066693
445090000 0.0669820362736 -0.76575387163
445100000 0.0673218032374 -0.765636680723
445110000 0.0668986396877 -0.765673342474
445120000 0.0663967004911 -0.765601363261
445130000 0.066428512677 -0.765855627594
445140000 0.0658074253958 -0.764525541129
445150000 0.0662046603776 -0.765404655002
445160000 0.066417784322 -0.764797954912
445170000 0.067035256261 -0.764822119077
445180000 0.0666149459082 -0.76491175203
445190000 0.066078900066 -0.765059537209
445200000 0.0658535547197 -0.764960518528
445210000 0.0657936283876 -0.764821215889
445220000 0.0653064699745 -0.765238002706
445230000 0.0645993963687 -0.764746166109
445240000 0.0648971476335 -0.764936892149
445250000 0.064631207165 -0.764711550641
445260000 0.0645082604908 -0.764298830329
445270000 0.0644507569042 -0.764696748918
445280000 0.0643315593611 -0.764125038821
445290000 0.0639685581175 -0.764982739353
445300000 0.0642243847584 -0.764865186296
445310000 0.063976593185 -0.765295543607
445320000 0.0636956778838 -0.765203395648
445330000 0.063671831768 -0.765269567777
445340000 0.0636395565622 -0.765416053094
445350000 0.0639875841873 -0.765005515865
445360000 0.0639866252751 -0.76571325437
445370000 0.0641710515587 -0.764048059487
445380000 0.0638788860461 -0.765213693009
445390000 0.0635793833144 -0.765069875252
445400000 0.0635507990243 -0.765248937087
445410000 0.0632873315698 -0.765338773997
445420000 0.0631800433574 -0.76456016255
445430000 0.0629800203722 -0.764332732159
445440000 0.0631951134287 -0.764539183853
445450000 0.0628993540584 -0.764352622876
445460000 0.0625724499029 -0.764697610892
445470000 0.0627547233345 -0.764646229031
445480000 0.062134824944 -0.764669999793
445490000 0.0620482326355 -0.764831157168
445500000 0.0625762915291 -0.763812581254
445510000 0.0627796780579 -0.764866503869
445520000 0.0625678022668 -0.764207126694
445530000 0.062565605283 -0.764608781334
445540000 0.0623198870673 -0.765123512828
445550000 0.0616783079578 -0.765384449985
445560000 0.0617254279023 -0.764624660182
445570000 0.0611482616056 -0.764237464603
445580000 0.061223038262 -0.764087179024
445590000 0.0614183371553 -0.763732616826
445600000 0.0614431648094 -0.763576355523
445610000 0.0608962726671 -0.763441389542
445620000 0.0610315674724 -0.764050291822
445630000 0.0612334241131 -0.763996070388
445640000 0.0614458522578 -0.763442434885
445650000 0.0615308487959 -0.763015371035
445660000 0.0621853376449 -0.763105484733
445670000 0.0610172549426 -0.763001837595
445680000 0.0607441698949 -0.763642829385
445690000 0.0602332538744 -0.76371682189
445700000 0.0587016255751 -0.76320821314
445710000 0.0600552075289 -0.763195997421
445720000 0.0609971670027 -0.764925761398
445730000 0.0602926450691 -0.763656849571
445740000 0.0607406517615 -0.763396736792
445750000 0.060107011357 -0.762952347974
445760000 0.0597657187912 -0.762012327365
445770000 0.0592943816507 -0.762534798148
445780000 0.059033840685 -0.762759424487
445790000 0.058562733277 -0.76262584724
445800000 0.0588676427285 -0.762712360676
445810000 0.0586722550007 -0.762572007933
445820000 0.0586822446562 -0.762664775982
445830000 0.058558207192 -0.762478119506
445840000 0.059118728445 -0.762211766281
445850000 0.0588518602521 -0.76253996644
445860000 0.0585750154361 -0.761924092866
445870000 0.0580358847583 -0.762839879119
445880000 0.0579806448513 -0.762610794615
445890000 0.0575682658908 -0.762684190201
445900000 0.0575436726895 -0.763126864101
445910000 0.0577080938196 -0.762876784595
445920000 0.0573422109792 -0.762666545274
445930000 0.0572897128545 -0.762727768953
445940000 0.056626092849 -0.762842773429
445950000 0.0563690512533 -0.762715472752
445960000 0.0564254898424 -0.762499719982
445970000 0.0563119765523 -0.762218624593
445980000 0.0564279833156 -0.762137098871
445990000 0.0565145790046 -0.762639172497
446000000 0.0569602388248 -0.762484413916
446010000 0.0567824596255 -0.762551437176
446020000 0.0564037442059 -0.762437898698
446030000 0.0563775087033 -0.762379793748
446040000 0.0563043235487 -0.761606819568
446050000 0.0561605539884 -0.762104891519
446060000 0.056673090727 -0.761731016294
446070000 0.0565738487758 -0.761383193205
446080000 0.0564723173802 -0.762009668761
446090000 0.0563084370463 -0.761593422929
446100000 0.0557262495419 -0.76176333089
446110000 0.0555835808862 -0.762045333911
446120000 0.0551829056631 -0.762403620033
446130000 0.055600161633 -0.762274507676
446140000 0.0559408244008 -0.76212703156
446150000 0.0559664728327 -0.762714471843
446160000 0.0548757965802 -0.762132514959
446170000 0.0539998301285 -0.76246491113
446180000 0.0542238771851 -0.761735268897
446190000 0.0542618235846 -0.76131785977
446200000 0.0541015053603 -0.760923137665
446210000 0.0539180656013 -0.761004775795
446220000 0.0541456425624 -0.761675862042
446230000 0.0544956791882 -0.761777069401
446240000 0.0542159138008 -0.762106109021
446250000 0.0546453329785 -0.761850777018
446260000 0.0544969226834 -0.761187096625
446270000 0.0546212525551 -0.761661732154
446280000 0.0545471321398 -0.761778584555
446290000 0.0538845655823 -0.761910058726
446300000 0.0540025311533 -0.763019899376
446310000 0.0534951686683 -0.762986158127
446320000 0.0552241303709 -0.772307444685
446330000 0.0536978238477 -0.762677812114
446340000 0.0536764385791 -0.762014611271
446350000 0.0536188296631 -0.761044956246
446360000 0.0537061276387 -0.761433875752
446370000 0.0533566348301 -0.76084946679
446380000 0.0528160397847 -0.761005023415
446390000 0.0530063237048 -0.760867998921
446400000 0.0527630252866 -0.760633549865
446410000 0.0522793069596 -0.760419288755
446420000 0.0525888947103 -0.760491423433
446430000 0.0524694163573 -0.760876806064
446440000 0.0531186124657 -0.76108316879
446450000 0.0527733609899 -0.760746385224
446460000 0.0526338871665 -0.760964362279
446470000 0.0524749974585 -0.760926139209
446480000 0.0522776196631 -0.760645437047
446490000 0.0514852723953 -0.760261565666
446500000 0.0517641498104 -0.760091372752
446510000 0.0520768508691 -0.760239868019
446520000 0.0517716306254 -0.760014891298
446530000 0.0513808491052 -0.76055016433
446540000 0.0514257143494 -0.761090098701
446550000 0.0510336228236 -0.76163600228
446560000 0.0513884250136 -0.76111390666
446570000 0.0508075350373 -0.760909733023
446580000 0.0512449665344 -0.760586172349
446590000 0.0509676227333 -0.759857028056
446600000 0.0505236081835 -0.760297674555
446610000 0.050412249699 -0.759584639485
446620000 0.0504897141706 -0.759604487838
446630000 0.0507600407061 -0.760104988073
446640000 0.0510411908922 -0.75992718104
446650000 0.0503267860189 -0.760043711489
446660000 0.0499311759957 -0.759374637645
446670000 0.049547128247 -0.759438993968
446680000 0.0497264888689 -0.759551828566
446690000 0.0501891636003 -0.759751317899
446700000 0.0498372239233 -0.759145472689
446710000 0.0499224564479 -0.759240830058
446720000 0.0494363947109 -0.758979130559
446730000 0.0495328444484 -0.759370215961
446740000 0.0495450761574 -0.758568617578
446750000 0.0500271981429 -0.759672823142
446760000 0.0489612798253 -0.759719310065
446770000 0.0500747143781 -0.759966511149
446780000 0.0494905279361 -0.760210574104
446790000 0.0486970617569 -0.759470972169
446800000 0.0491745948561 -0.758753517063
446810000 0.0487417110107 -0.758704250168
446820000 0.0486991915181 -0.758954150285
446830000 0.0486445635448 -0.758844859968
446840000 0.0491608419977 -0.75886479872
446850000 0.0490929538915 -0.758425846645
446860000 0.0497905405 -0.758707985983
446870000 0.0482579285732 -0.758715693991
446880000 0.0484451271164 -0.75877466232
446890000 0.0484629716081 -0.760001741068
446900000 0.0476410256559 -0.75958523799
446910000 0.0480036594444 -0.758866975971
446920000 0.0478991617144 -0.758435447424
446930000 0.047538761315 -0.758448630288
446940000 0.0476750030466 -0.758546848729
446950000 0.0472499570746 -0.759389904653
446960000 0.0474365695351 -0.758765610885
446970000 0.0470647589219 -0.759007324132
446980000 0.0467234972989 -0.758581192646
446990000 0.0467736766616 -0.758418483141
447000000 0.0465139637238 -0.758216053125
447010000 0.0463341681602 -0.758623630438
447020000 0.0463599854784 -0.758487447006
447030000 0.0464654181719 -0.757994667793
447040000 0.0469745409016 -0.757670039781
447050000 0.046505594529 -0.758453591367
447060000 0.0462276659457 -0.759018582633
447070000 0.0462416289016 -0.759059453487
447080000 0.046332331026 -0.759385577196
447090000 0.0473337647807 -0.759358307598
447100000 0.046826827985 -0.759594798788
447110000 0.0460706138483 -0.759227785934
447120000 0.0455050617556 -0.758394290344
447130000 0.0451167295266 -0.758276373281
447140000 0.0450806671268 -0.758371399287
447150000 0.0452710804865 -0.758274145883
447160000 0.045228629146 -0.757826165374
447170000 0.0448998515778 -0.758305438521
447180000 0.0438715168332 -0.758172246538
447190000 0.0442296982391 -0.758400959801
447200000 0.0442155679549 -0.758146280049
447210000 0.0441803475732 -0.758119311195
447220000 0.0441908383833 -0.758172434496
447230000 0.0440788093201 -0.757383024284
447240000 0.0444837537882 -0.757070783743
447250000 0.0441166182434 -0.757970036472
447260000 0.0442653112464 -0.757690370432
447270000 0.0441465604837 -0.758389834179
447280000 0.0440030579237 -0.758065985303
447290000 0.0426889310007 -0.75727278212
447300000 0.0435794104672 -0.756712007904
447310000 0.0434989869544 -0.756458519069
447320000 0.0444131856741 -0.757867199454
447330000 0.0448190125916 -0.757609449567
447340000 0.0432558755586 -0.75774116407
447350000 0.0438099803436 -0.757541628183
447360000 0.0429678647101 -0.756781154736
447370000 0.0430016574773 -0.757264817187
447380000 0.0428678633269 -0.757323421331
447390000 0.04290811346 -0.758428088647
447400000 0.043933083062 -0.756649705926
447410000 0.0413835920558 -0.758103619004
447420000 0.0432216348722 -0.756866824624
447430000 0.0420110014353 -0.757728044796
447440000 0.0432574127746 -0.756499206454
447450000 0.0428068598872 -0.757286989215
447460000 0.0429580621249 -0.757121402824
447470000 0.0419923146585 -0.757628891317
447480000 0.0422651268776 -0.756223641999
447490000 0.0413481778193 -0.758878566458
447500000 0.0419751179122 -0.756356834357
447510000 0.0414379267839 -0.758327794739
447520000 0.040872894644 -0.75718986967
447530000 0.0404030108262 -0.753075636568
447540000 0.0378432642245 -0.756836649452
447550000 0.0419836996908 -0.755043521108
447560000 0.039666049047 -0.757986232813
447570000 0.0415451553806 -0.754830682579
447580000 0.0407473025244 -0.757089794588
447590000 0.0405965903728 -0.756255113927
447600000 0.0408619127178 -0.758152751229
447610000 0.0401758799567 -0.757080767116
447620000 0.0407522377103 -0.757000038274
447630000 0.0401989897669 -0.756655186015
447640000 0.0390947172435 -0.757904317851
447650000 0.0405634913772 -0.756623735942
447660000 0.039824929038 -0.756553454785
447670000 0.0404734757176 -0.756193728054
447680000 0.0400930646808 -0.756563268406
447690000 0.0403997981768 -0.756343426214
447700000 0.0391626501239 -0.756347883331
447710000 0.0397700908938 -0.75631546441
447720000 0.0397571027117 -0.756324809808
447730000 0.0395663050544 -0.756238211297
447740000 0.0390084168935 -0.75578039156
447750000 0.0386871282043 -0.75616980325
447760000 0.036227639256 -0.75536615465
447770000 0.0366750419885 -0.754783488445
447780000 0.0387645454985 -0.755331432504
447790000 0.0386077762064 -0.755249611911
447800000 0.0384821067944 -0.755579110301
447810000 0.0380379849694 -0.755468609084
447820000 0.0379372992573 -0.755740570863
447830000 0.0383667970878 -0.755999556471
447840000 0.0376215990669 -0.756289640444
447850000 0.0379062995538 -0.756218045577
447860000 0.038267945027 -0.755943610932
447870000 0.0379591646826 -0.755736952885
447880000 0.0381784207056 -0.755852766854
447890000 0.0375875029745 -0.755160087221
447900000 0.0375199665025 -0.754980434393
447910000 0.0375739354847 -0.755103101705
447920000 0.0383462158977 -0.755638166663
447930000 0.0379613610146 -0.755552198315
447940000 0.0378380068643 -0.754936076491
447950000 0.0378393727517 -0.754739110023
447960000 0.0376690644466 -0.754929101343
447970000 0.0373207185603 -0.754439081843
447980000 0.0369688711674 -0.754893407688
447990000 0.0364960758167 -0.754888665796
448000000 0.0365762118782 -0.754965827787
448010000 0.036571824302 -0.754934179476
448020000 0.0367099143626 -0.75483258236
448030000 0.0369189432664 -0.754318662617
448040000 0.0368634305179 -0.754642270734
448050000 0.0363963267469 -0.754167087426
448060000 0.0366810045016 -0.753776597503
448070000 0.0361555817798 -0.75376211242
448080000 0.0360892415556 -0.753972276899
448090000 0.0360526812094 -0.753349492833
448100000 0.0365402391132 -0.753513561389
448110000 0.0364292048386 -0.753616775437
448120000 0.0356071714531 -0.753873806664
448130000 0.0351706113322 -0.753641787912
448140000 0.0356285772202 -0.753711587674
448150000 0.0358995389741 -0.753742644972
448160000 0.0358249789599 -0.753729656788
448170000 0.0353174175574 -0.753782224456
448180000 0.0349079125022 -0.754424827761
448190000 0.034439613862 -0.754471865362
448200000 0.0340944478842 -0.754289507721
448210000 0.0340378872948 -0.754847467951
448220000 0.0340166789225 -0.754188023971
448230000 0.0341369593425 -0.753681090109
448240000 0.034322377998 -0.753320310235
448250000 0.0348472631882 -0.753687567124
448260000 0.0345214289678 -0.753548164992
448270000 0.03458243251 -0.753336439555
448280000 0.0345670554488 -0.753501702328
448290000 0.0346896150236 -0.752994575288
448300000 0.0344056936918 -0.752940728611
448310000 0.0345641002485 -0.752826074132
448320000 0.0337879131352 -0.75351062091
448330000 0.0326288028464 -0.753183255037
448340000 0.0332951705538 -0.753187230446
448350000 0.0336433467391 -0.753215459725
448360000 0.0335160796366 -0.752742686305
448370000 0.0333575787286 -0.75315981113
448380000 0.0339300264764 -0.752723050054
448390000 0.0332560306611 -0.753218245906
448400000 0.0329001967432 -0.752683565091
448410000 0.0335037876247 -0.752885399395
448420000 0.0331996468823 -0.753378994415
448430000 0.0330383806074 -0.753360602519
448440000 0.0327951878834 -0.752954194151
448450000 0.03244923152 -0.75249145191
448460000 0.032579496039 -0.752835665221
448470000 0.0324715420661 -0.752604751673
448480000 0.0321465039667 -0.752320976995
448490000 0.016905587557 -0.750558184813
448500000 0.0294159039263 -0.753600155017
448510000 0.0321089312361 -0.752155999799
448520000 0.0320474217686 -0.752016895765
448530000 0.0319230274235 -0.752495577849
448540000 0.0319535209063 -0.752248494996
448550000 0.0320475605022 -0.752411456242
448560000 0.0316645504492 -0.752396113977
448570000 0.0313843690477 -0.752208899111
448580000 0.0312017036059 -0.75218196295
448590000 0.0314794032143 -0.751512458668
448600000 0.0315779721895 -0.752212029142
448610000 0.0314248218681 -0.752373707213
448620000 0.0316671621443 -0.752336285965
448630000 0.0316190818382 -0.752127981557
448640000 0.0310506651045 -0.751603972758
448650000 0.0309430110793 -0.751894181853
448660000 0.0303381721573 -0.751440492671
448670000 0.0297975083849 -0.751540053675
448680000 0.0298363605806 -0.751178408326
448690000 0.0302223453377 -0.7510531528
448700000 0.0297694858102 -0.751174098039
448710000 0.0303520774492 -0.751438692645
448720000 0.030390427547 -0.751932087873
448730000 0.0302237741142 -0.751465016578
448740000 0.030395492997 -0.751520775979
448750000 0.0303664213824 -0.750966824352
448760000 0.0303016142981 -0.751261823171
448770000 0.0294528682744 -0.750537098027
448780000 0.029701057535 -0.750748425455
448790000 0.0292089000228 -0.750814705743
448800000 0.0292869841295 -0.750111749119
448810000 0.0297184757639 -0.751003993712
448820000 0.0295736215568 -0.751386428755
448830000 0.0289393190751 -0.751256442628
448840000 0.0288607549485 -0.750631882588
448850000 0.0285230663369 -0.750166265059
448860000 0.0288649223598 -0.750319749276
448870000 0.0290829387857 -0.750938067187
448880000 0.0286627061788 -0.751100460725
448890000 0.0288009974757 -0.750607445966
448900000 0.0292965561016 -0.750929537493
448910000 0.0289690317463 -0.750489646852
448920000 0.0284176743268 -0.749942767292
448930000 0.0286507743791 -0.749773347786
448940000 0.0290431245213 -0.749839835999
448950000 0.028146328311 -0.75025938238
448960000 0.0278917116552 -0.750217231473
448970000 0.0267120151116 -0.750749707098
448980000 0.0276663609548 -0.750398671089
448990000 0.0277530195211 -0.750587781937
449000000 0.0281169586024 -0.750619397128
449010000 0.0278526810524 -0.750191190183
449020000 0.0275827959895 -0.749733383491
449030000 0.0274081714807 -0.749790082841
449040000 0.0271591978778 -0.749736020375
449050000 0.0272456711431 -0.749272511581
449060000 0.0278582077524 -0.750212486468
449070000 0.0271614677612 -0.750462364824
449080000 0.0277258716204 -0.750812389207
449090000 0.0268790893114 -0.750401691949
449100000 0.0270869530037 -0.750289912196
449110000 0.0264687618228 -0.74984532411
449120000 0.0266194557848 -0.749507124741
449130000 0.0265072898681 -0.749940511442
449140000 0.0262037980069 -0.750124470249
449150000 0.0261723967806 -0.749595064378
449160000 0.0261243013454 -0.749729148244
449170000 0.0266250116596 -0.749955801998
449180000 0.0260474373775 -0.74947149267
449190000 0.0263955759595 -0.749506166734
449200000 0.0258128678304 -0.749472533424
449210000 0.0244523964449 -0.751679561749
449220000 0.0252353191181 -0.749555265481
449230000 0.0251479267153 -0.74922549153
449240000 0.0254343160588 -0.749052497486
449250000 0.0261225181387 -0.749226653502
449260000 0.0258469085573 -0.749134632193
449270000 0.0258616182553 -0.748935763061
449280000 0.0254350403817 -0.749092746917
449290000 0.0254886386496 -0.749465774582
449300000 0.0249624524433 -0.749387644747
449310000 0.0249638329198 -0.749341288123
449320000 0.0251751205911 -0.749195854902
449330000 0.0250188227107 -0.74924904039
449340000 0.0249535060586 -0.749150539867
449350000 0.0244646716832 -0.748910180896
449360000 0.0240506178313 -0.748922715412
449370000 0.0233166194307 -0.749369246371
449380000 0.0240041393299 -0.748904725861
449390000 0.0238176808878 -0.748564296979
449400000 0.0235349930498 -0.748587314173
449410000 0.0244396792476 -0.747895629588
449420000 0.02418884933 -0.748313540179
449430000 0.0234939184877 -0.747337333901
449440000 0.0230732147098 -0.747759673118
449450000 0.0225652913762 -0.747510851451
449460000 0.0228448884231 -0.747735826428
449470000 0.0234434842932 -0.747962701348
449480000 0.02354565661 -0.748005651543
449490000 0.0234289543122 -0.74771826165
449500000 0.023179635839 -0.747979331063
449510000 0.0230593036881 -0.74762634937
449520000 0.0230406547654 -0.747771879268
449530000 0.022600125875 -0.748254876701
449540000 0.0225140748768 -0.747752738973
449550000 0.0233604814632 -0.74682506712
449560000 0.0245677329391 -0.74590285916
449570000 0.0244194007036 -0.746636773863
449580000 0.024130534717 -0.746932682726
449590000 0.0233176017115 -0.746995290768
449600000 0.0227861148328 -0.747693883357
449610000 0.0224627238126 -0.747900956417
449620000 0.0219766904911 -0.747362549936
449630000 0.021619706729 -0.747677041288
449640000 0.0215190512181 -0.74698609397
449650000 0.0210627246677 -0.745989407969
449660000 0.0210460011953 -0.746259801502
449670000 0.0207878106563 -0.745653828429
449680000 0.0215588311212 -0.746901498433
449690000 0.0215610484609 -0.746768014155
449700000 0.0212477757802 -0.746808677932
449710000 0.0213522682852 -0.746679700224
449720000 0.0213960500315 -0.746584928777
449730000 0.0210885655964 -0.745731077999
449740000 0.0214371796336 -0.745745262746
449750000 0.0213124894268 -0.746116430489
449760000 0.0212679133679 -0.746360497192
449770000 0.020592087125 -0.74663954628
449780000 0.0205838228959 -0.746602783222
449790000 0.0212060666817 -0.746596763539
449800000 0.0212469728659 -0.746251960637
449810000 0.0203339397537 -0.746747528907
449820000 0.0207799114777 -0.746775804157
449830000 0.0199580662951 -0.746665376817
449840000 0.0203261362243 -0.746507251816
449850000 0.0203516799268 -0.74540915147
449860000 0.0204961379397 -0.74559224571
449870000 0.019830030749 -0.746416566793
449880000 0.0201229747934 -0.746346273203
449890000 0.0198702360549 -0.745806322832
449900000 0.0194023271564 -0.746102871067
449910000 0.0193712744611 -0.745785378529
449920000 0.0189980025659 -0.746164192015
449930000 0.0188675988865 -0.746005520099
449940000 0.0196710361719 -0.746214573785
449950000 0.0195672807436 -0.745755403598
449960000 0.0193493745875 -0.745332475609
449970000 0.0194201232395 -0.745368376151
449980000 0.0189812783645 -0.745436548573
449990000 0.0195276557458 -0.74530884735
450000000 0.0186797314136 -0.745342558039
