! Calibrated averaged scanner-service zoom
# Hz S RI R 50
1088000000 -0.461432103282 -0.578645680988
1088004000 -0.459692426455 -0.573006873467
1088008000 -0.459534304879 -0.5744010569
1088012000 -0.456890332239 -0.576486720124
1088016000 -0.455110613443 -0.570411638688
1088020000 -0.461248129848 -0.570658376488
1088024000 -0.459455914474 -0.576926187618
1088028000 -0.464523646142 -0.576727908186
1088032000 -0.456204556384 -0.579736959135
1088036000 -0.456776451588 -0.576302995073
1088040000 -0.456981023548 -0.575448473357
1088044000 -0.456238654875 -0.571969650877
1088048000 -0.459911810859 -0.573057551967
1088052000 -0.457603437933 -0.570226818601
1088056000 -0.455791315816 -0.571089948774
1088060000 -0.456988555127 -0.574457205408
1088064000 -0.45387822706 -0.574955277406
1088068000 -0.451763677786 -0.572688466411
1088072000 -0.455185764137 -0.568676128204
1088076000 -0.457250002672 -0.571449043058
1088080000 -0.455508280265 -0.573665123381
1088084000 -0.457326912492 -0.574635679778
1088088000 -0.457716314786 -0.575103227234
1088092000 -0.457662100974 -0.574933254793
1088096000 -0.453555638254 -0.577705469284
1088100000 -0.452008792483 -0.578887351235
1088104000 -0.45602440087 -0.579718708221
1088108000 -0.457228577993 -0.57808206266
1088112000 -0.45056181627 -0.575662904954
1088116000 -0.46140105816 -0.579979996017
1088120000 -0.454300357516 -0.578874819925
1088124000 -0.458063407464 -0.577180816064
1088128000 -0.457606067974 -0.580048968186
1088132000 -0.454751763959 -0.581652522912
1088136000 -0.45854042927 -0.577843181631
1088140000 -0.464015123025 -0.57720606831
1088144000 -0.461387248836 -0.574513905664
1088148000 -0.457430538734 -0.57744112921
1088152000 -0.455477847403 -0.573861259877
1088156000 -0.460084922342 -0.57580914181
1088160000 -0.45828515315 -0.576267054641
1088164000 -0.45983601478 -0.57293652086
1088168000 -0.454216384043 -0.572368239571
1088172000 -0.456846673126 -0.576887175978
1088176000 -0.464737696897 -0.574172546173
1088180000 -0.45940075595 -0.579964965189
1088184000 -0.460326871696 -0.576093752557
1088188000 -0.454942931696 -0.578926588848
1088192000 -0.456892764788 -0.575096565153
1088196000 -0.459915212357 -0.578594522642
1088200000 -0.458569172629 -0.576388676065
1088204000 -0.462221604039 -0.578254085948
1088208000 -0.456562041633 -0.573790954444
1088212000 -0.458265683053 -0.580349912792
1088216000 -0.45704611444 -0.580314066967
1088220000 -0.458543997788 -0.575010895793
1088224000 -0.45762822343 -0.578003788334
1088228000 -0.455808590394 -0.57515347556
1088232000 -0.452817275169 -0.575922230307
1088236000 -0.453944935696 -0.578857780912
1088240000 -0.453008593365 -0.573788772795
1088244000 -0.457252095104 -0.579504763786
1088248000 -0.458096403845 -0.581605600537
1088252000 -0.459896976315 -0.57666609046
1088256000 -0.455203700294 -0.581823943914
1088260000 -0.456632573143 -0.580031885974
1088264000 -0.459602486914 -0.578884681873
1088268000 -0.457124458394 -0.580115585959
1088272000 -0.459222351749 -0.581075941676
1088276000 -0.465762583686 -0.57876380376
1088280000 -0.458974856062 -0.584403346537
1088284000 -0.462015561138 -0.579342655409
1088288000 -0.460054782156 -0.58216348719
1088292000 -0.463533786936 -0.579578803183
1088296000 -0.455773229933 -0.579685297757
1088300000 -0.458346017449 -0.577299897004
1088304000 -0.46315418366 -0.574933101661
1088308000 -0.460872342804 -0.579189283751
1088312000 -0.4610274777 -0.574426378419
1088316000 -0.452557518101 -0.57706469562
1088320000 -0.456051841977 -0.57502478922
1088324000 -0.455741466211 -0.578808228601
1088328000 -0.45576955841 -0.578074412628
1088332000 -0.451154495418 -0.578895911372
1088336000 -0.450907726791 -0.574816879528
1088340000 -0.455629462364 -0.581956118175
1088344000 -0.454699132689 -0.578491814544
1088348000 -0.453469731421 -0.577142656791
1088352000 -0.457636597186 -0.578337218577
1088356000 -0.45502019389 -0.581659144524
1088360000 -0.457522164726 -0.578577333932
1088364000 -0.457496988442 -0.577186481199
1088368000 -0.452247212691 -0.578788584211
1088372000 -0.452278627574 -0.57920188271
1088376000 -0.455891255087 -0.579785471705
1088380000 -0.457679514556 -0.577008983695
1088384000 -0.455705730659 -0.580275174349
1088388000 -0.453782921216 -0.572122457722
1088392000 -0.458694652899 -0.577751585927
1088396000 -0.455129795595 -0.577441242063
1088400000 -0.459022885826 -0.575695690418
1088404000 -0.4569587758 -0.577130301097
1088408000 -0.4596059527 -0.580733549274
1088412000 -0.460076074353 -0.577723762178
1088416000 -0.455362564323 -0.588369309629
1088420000 -0.465202955589 -0.578506402116
1088424000 -0.467791132217 -0.574630069859
1088428000 -0.466868927376 -0.578424377503
1088432000 -0.462942151819 -0.579154805993
1088436000 -0.468278674708 -0.574177601595
1088440000 -0.461675473951 -0.575288442551
1088444000 -0.458634750552 -0.57699534133
1088448000 -0.459509973835 -0.578451415581
1088452000 -0.460498319022 -0.578825219246
1088456000 -0.459039380131 -0.574763249106
1088460000 -0.460222108595 -0.573396947294
1088464000 -0.459283924714 -0.575542811069
1088468000 -0.455363640692 -0.57885862432
1088472000 -0.462096983306 -0.573458323459
1088476000 -0.461468792596 -0.572551055557
1088480000 -0.461440465924 -0.573292046939
1088484000 -0.456390550084 -0.574945436587
1088488000 -0.45589512794 -0.576422943106
1088492000 -0.45902813202 -0.578110630708
1088496000 -0.459853352813 -0.575729744747
1088500000 -0.46336737148 -0.573379932131
1088504000 -0.460167044005 -0.575588451182
1088508000 -0.464046739857 -0.576262811415
1088512000 -0.459389644163 -0.572049753092
1088516000 -0.459899342559 -0.574660268389
1088520000 -0.460854657302 -0.577513862985
1088524000 -0.456968140865 -0.579694641135
1088528000 -0.461474697173 -0.58089393013
1088532000 -0.452403167216 -0.581632309195
1088536000 -0.457252138001 -0.585945572308
1088540000 -0.451146475089 -0.577443724038
1088544000 -0.455719523636 -0.578298705497
1088548000 -0.455615240634 -0.575908670182
1088552000 -0.459200197297 -0.578525076231
1088556000 -0.455493092225 -0.577671112468
1088560000 -0.456476702128 -0.572353218226
1088564000 -0.457292793043 -0.569920057934
1088568000 -0.461288472605 -0.573672153983
1088572000 -0.454723910177 -0.575680519799
1088576000 -0.458944119597 -0.571804242673
1088580000 -0.458475324728 -0.569763464511
1088584000 -0.451468110911 -0.57339428212
1088588000 -0.453379115095 -0.574379465919
1088592000 -0.453693663621 -0.57212965376
1088596000 -0.45215400991 -0.570359979745
1088600000 -0.451994866873 -0.570948572349
1088604000 -0.454241238412 -0.573392389711
1088608000 -0.45343012833 -0.574336435154
1088612000 -0.450588968821 -0.569347768572
1088616000 -0.453324143219 -0.5738968896
1088620000 -0.457397486451 -0.574491109753
1088624000 -0.459458333671 -0.567287662829
1088628000 -0.452083334817 -0.573299072152
1088632000 -0.45174475449 -0.570364264639
1088636000 -0.454029135237 -0.574630774341
1088640000 -0.451972935207 -0.576233855654
1088644000 -0.451998321342 -0.577613224739
1088648000 -0.45412048828 -0.574043170166
1088652000 -0.45295147862 -0.577486339033
1088656000 -0.452657803541 -0.577716590187
1088660000 -0.453317547748 -0.573823578982
1088664000 -0.452674160335 -0.582024546394
1088668000 -0.45163379767 -0.577866491838
1088672000 -0.456399112774 -0.579206106705
1088676000 -0.453617266851 -0.5786161601
1088680000 -0.457643334769 -0.578022602491
1088684000 -0.457317479865 -0.577337197432
1088688000 -0.457865542088 -0.575733368417
1088692000 -0.458318432047 -0.583110844923
1088696000 -0.457909662177 -0.576374498077
1088700000 -0.45968171057 -0.579312726218
1088704000 -0.457323138784 -0.579300946607
1088708000 -0.459365327623 -0.57973529858
1088712000 -0.460625780949 -0.579296236557
1088716000 -0.460265364816 -0.578883405106
1088720000 -0.458172575554 -0.576989175435
1088724000 -0.461688292486 -0.58261818354
1088728000 -0.460955611948 -0.580235966863
1088732000 -0.457566840537 -0.580635756833
1088736000 -0.458255718645 -0.586555133637
1088740000 -0.463390172778 -0.582077590785
1088744000 -0.455968727191 -0.582581627494
1088748000 -0.461894142977 -0.577663201101
1088752000 -0.460653507757 -0.579482932966
1088756000 -0.460193862884 -0.575528892376
1088760000 -0.462331419895 -0.574435873209
1088764000 -0.46083723196 -0.578520234734
1088768000 -0.456322013536 -0.572839704705
1088772000 -0.456656169149 -0.573205271282
1088776000 -0.458077439383 -0.572505037625
1088780000 -0.458154949637 -0.571035752539
1088784000 -0.456459854944 -0.569715415678
1088788000 -0.450869865184 -0.571096298873
1088792000 -0.458629293548 -0.566861713373
1088796000 -0.451495738518 -0.562685625007
1088800000 -0.453693126797 -0.568702817707
1088804000 -0.453455097582 -0.566284498947
1088808000 -0.448125026013 -0.572847196161
1088812000 -0.458036985629 -0.568294982522
1088816000 -0.45495836381 -0.568921730594
1088820000 -0.456586053684 -0.567142267607
1088824000 -0.452742176639 -0.571061424501
1088828000 -0.459848805054 -0.57195559847
1088832000 -0.456370521597 -0.574932948739
1088836000 -0.458213912682 -0.575725512146
1088840000 -0.456342786165 -0.577040231241
1088844000 -0.462671424398 -0.575076432995
1088848000 -0.455405705147 -0.575062872707
1088852000 -0.462262508698 -0.579418145012
1088856000 -0.458184554121 -0.57549022202
1088860000 -0.462526589902 -0.579132422576
1088864000 -0.456070290961 -0.579603001466
1088868000 -0.462582217077 -0.579940579251
1088872000 -0.460275029069 -0.581115323013
1088876000 -0.462308794269 -0.582265725021
1088880000 -0.459169005037 -0.583475061358
1088884000 -0.460287118087 -0.579810749748
1088888000 -0.459929795561 -0.577164215323
1088892000 -0.457481936973 -0.577623194993
1088896000 -0.459125659713 -0.575890783384
1088900000 -0.460537141066 -0.574150629311
1088904000 -0.461962798516 -0.574658495049
1088908000 -0.464880146803 -0.569935660821
1088912000 -0.460362328804 -0.566739655169
1088916000 -0.458676904982 -0.571564208814
1088920000 -0.46026405066 -0.5751304391
1088924000 -0.455010062962 -0.574669474546
1088928000 -0.45594722075 -0.570609318644
1088932000 -0.451015791428 -0.575586474761
1088936000 -0.448892196519 -0.580175921448
1088940000 -0.453593383578 -0.579720559656
1088944000 -0.450326996362 -0.575000164361
1088948000 -0.455139213698 -0.581118836879
1088952000 -0.452960432649 -0.571485367231
1088956000 -0.455994354668 -0.575680510708
1088960000 -0.455800457021 -0.574141443329
1088964000 -0.456633020287 -0.574484200957
1088968000 -0.454222990721 -0.57564160436
1088972000 -0.456476364065 -0.573059348907
1088976000 -0.457161207905 -0.572934401195
1088980000 -0.45490119684 -0.568358401407
1088984000 -0.452801941165 -0.577021828018
1088988000 -0.452472045711 -0.572665717704
1088992000 -0.454388404314 -0.573201906743
1088996000 -0.456962356149 -0.57238392672
1089000000 -0.455971180987 -0.576083433366
1089004000 -0.458497531625 -0.575914299071
1089008000 -0.454768152117 -0.5727388057
1089012000 -0.458805407749 -0.575309022347
1089016000 -0.4595012379 -0.574085887611
1089020000 -0.45831424733 -0.571683762064
1089024000 -0.463342106779 -0.575079381651
1089028000 -0.46044784939 -0.575907297805
1089032000 -0.458730108484 -0.579650728292
1089036000 -0.460697641179 -0.575079265987
1089040000 -0.459958136123 -0.575937175238
1089044000 -0.463603089133 -0.578333109478
1089048000 -0.46056794459 -0.582894995469
1089052000 -0.460186007639 -0.581302586696
1089056000 -0.458398962312 -0.576314393029
1089060000 -0.456980338014 -0.578125142642
1089064000 -0.460284713718 -0.577704106831
1089068000 -0.460238903125 -0.576651291097
1089072000 -0.452464798062 -0.575190820704
1089076000 -0.45936437667 -0.577395867915
1089080000 -0.456196799947 -0.573662528281
1089084000 -0.46026017055 -0.573357082442
1089088000 -0.454013761634 -0.57357976402
1089092000 -0.457856205092 -0.573056635094
1089096000 -0.455114349316 -0.570484969767
1089100000 -0.452560230479 -0.572708865649
1089104000 -0.454449066248 -0.568519922161
1089108000 -0.453228169749 -0.568781607415
1089112000 -0.453850463934 -0.571673340096
1089116000 -0.45558949438 -0.57000650032
1089120000 -0.454718360708 -0.573465318124
1089124000 -0.451893234744 -0.573901373773
1089128000 -0.456842764335 -0.572373782115
1089132000 -0.454820048455 -0.571311048093
1089136000 -0.458668968511 -0.568413874778
1089140000 -0.455795977132 -0.571246845093
1089144000 -0.457767315226 -0.571618054773
1089148000 -0.453929997549 -0.570450819042
1089152000 -0.458769773235 -0.573850067059
1089156000 -0.453877980115 -0.571146637004
1089160000 -0.461188581731 -0.570926318817
1089164000 -0.456268937066 -0.568398978383
1089168000 -0.462328744406 -0.573331472338
1089172000 -0.45818223608 -0.569778192078
1089176000 -0.459163611813 -0.569906993073
1089180000 -0.458087026927 -0.570472493528
1089184000 -0.457001002554 -0.571580372439
1089188000 -0.455942600985 -0.567818706676
1089192000 -0.459271022981 -0.563813950749
1089196000 -0.457330957683 -0.569888669126
1089200000 -0.457929198678 -0.56999471562
1089204000 -0.458405849619 -0.573471848216
1089208000 -0.457160972579 -0.574177365283
1089212000 -0.456614628712 -0.568149255749
1089216000 -0.456002496266 -0.572104348805
1089220000 -0.450202012171 -0.568721846322
1089224000 -0.451774788047 -0.571066099995
1089228000 -0.452588406418 -0.574133527237
1089232000 -0.451466131658 -0.571841308557
1089236000 -0.453075272878 -0.574158375256
1089240000 -0.450659456915 -0.570928418949
1089244000 -0.452260612471 -0.570104203779
1089248000 -0.452067867306 -0.571792882694
1089252000 -0.452211828434 -0.574801572373
1089256000 -0.451102052256 -0.566825523952
1089260000 -0.45118531989 -0.57165665573
1089264000 -0.451013467626 -0.570904360599
1089268000 -0.454881047374 -0.576323204217
1089272000 -0.456543690147 -0.567802032426
1089276000 -0.45627775272 -0.569126640115
1089280000 -0.452707570602 -0.568829739525
1089284000 -0.459146332391 -0.570484357578
1089288000 -0.458049263836 -0.56954593665
1089292000 -0.457966051209 -0.566471798308
1089296000 -0.456369264755 -0.56730288067
1089300000 -0.453907978705 -0.570391790145
1089304000 -0.45658896609 -0.570449811274
1089308000 -0.454529266348 -0.571371524088
1089312000 -0.455200784411 -0.571162777852
1089316000 -0.454701520721 -0.57474486378
1089320000 -0.454209571192 -0.573922065464
1089324000 -0.453643199052 -0.573665677043
1089328000 -0.45712797544 -0.575399877859
1089332000 -0.452171449215 -0.579166553291
1089336000 -0.454295743521 -0.576834604731
1089340000 -0.453649096085 -0.577818758989
1089344000 -0.457939833048 -0.576736885822
1089348000 -0.455802557297 -0.576881879402
1089352000 -0.454958775969 -0.572749037733
1089356000 -0.457255847321 -0.573247667432
1089360000 -0.453824392991 -0.575266802647
1089364000 -0.450931446697 -0.574081944573
1089368000 -0.451166030109 -0.573717886457
1089372000 -0.454631894792 -0.569342236637
1089376000 -0.455718675588 -0.568070160421
1089380000 -0.459244744 -0.570807524845
1089384000 -0.461682538885 -0.57098167855
1089388000 -0.457933722588 -0.569973445522
1089392000 -0.457838319128 -0.571095660391
1089396000 -0.460464769772 -0.567614315008
1089400000 -0.459585448488 -0.570026135059
1089404000 -0.459713393723 -0.568414808374
1089408000 -0.460214879137 -0.567607386402
1089412000 -0.459722235255 -0.570204763439
1089416000 -0.463765198774 -0.567470449915
1089420000 -0.459236559758 -0.566522779221
1089424000 -0.458506411136 -0.565679174081
1089428000 -0.452821492419 -0.567237985456
1089432000 -0.457968635614 -0.568559543872
1089436000 -0.455007258237 -0.571244487232
1089440000 -0.457303068355 -0.565814465456
1089444000 -0.458831125932 -0.568120907955
1089448000 -0.457855348264 -0.566339472826
1089452000 -0.461281377952 -0.569738720815
1089456000 -0.454937128508 -0.566837519929
1089460000 -0.456977943635 -0.569799577487
1089464000 -0.458882716744 -0.568736968344
1089468000 -0.457187572539 -0.571547094482
1089472000 -0.461843568095 -0.570862668054
1089476000 -0.458981115104 -0.57142724486
1089480000 -0.462313661327 -0.577303801606
1089484000 -0.462386672855 -0.58032443261
1089488000 -0.459120062637 -0.577019953215
1089492000 -0.455732300215 -0.57739247967
1089496000 -0.457054997762 -0.569933143152
1089500000 -0.453610662629 -0.577306710104
1089504000 -0.456327303754 -0.573634392615
1089508000 -0.458726015591 -0.575952928606
1089512000 -0.457419479395 -0.574289390982
1089516000 -0.455896285181 -0.569396206422
1089520000 -0.455885066208 -0.56907672486
1089524000 -0.457611257526 -0.573623156953
1089528000 -0.456511375628 -0.576293674321
1089532000 -0.455339327127 -0.573664877058
1089536000 -0.455966579071 -0.574165340935
1089540000 -0.45591450416 -0.572270801759
1089544000 -0.452666001258 -0.57550461508
1089548000 -0.458172133547 -0.573119821777
1089552000 -0.452382426611 -0.577689482955
1089556000 -0.458962048258 -0.574135517538
1089560000 -0.455902754386 -0.576634941626
1089564000 -0.45414198878 -0.575850996288
1089568000 -0.457123457328 -0.57205595118
1089572000 -0.457481144127 -0.570487522355
1089576000 -0.456147192853 -0.577469146013
1089580000 -0.460385650867 -0.575568990263
1089584000 -0.458283672921 -0.576747041244
1089588000 -0.458618476611 -0.575016255254
1089592000 -0.457889499218 -0.573932837443
1089596000 -0.45916162797 -0.575239386542
1089600000 -0.461267694631 -0.574726734658
1089604000 -0.461115917883 -0.575541117918
1089608000 -0.461966569681 -0.579512190529
1089612000 -0.461398540623 -0.573411203695
1089616000 -0.460289556379 -0.575600285527
1089620000 -0.4640114554 -0.576968682895
1089624000 -0.455824726182 -0.575328736941
1089628000 -0.457451400881 -0.577977539985
1089632000 -0.460712285181 -0.574453484775
1089636000 -0.46043757901 -0.575892967059
1089640000 -0.459523060676 -0.575448702267
1089644000 -0.462666026453 -0.575561231509
1089648000 -0.458761675602 -0.575626382038
1089652000 -0.460011521572 -0.574476596413
1089656000 -0.462285844204 -0.575075650558
1089660000 -0.461751181947 -0.574957074645
1089664000 -0.463976279216 -0.567758074696
1089668000 -0.462110403104 -0.571386632947
1089672000 -0.45993068723 -0.570508519073
1089676000 -0.461274582476 -0.569418655637
1089680000 -0.459321136596 -0.565496776005
1089684000 -0.460527186063 -0.569631789256
1089688000 -0.464517221404 -0.562980462098
1089692000 -0.457578303312 -0.569120912409
1089696000 -0.461341494176 -0.567987593527
1089700000 -0.46125134733 -0.569896512222
1089704000 -0.457001931118 -0.568652801982
1089708000 -0.464694467208 -0.570538651699
1089712000 -0.459741155399 -0.569272971186
1089716000 -0.458007404918 -0.569966295076
1089720000 -0.456720917961 -0.572770203005
1089724000 -0.458823783501 -0.569099786178
1089728000 -0.462244347405 -0.571868331393
1089732000 -0.462412674663 -0.56766938501
1089736000 -0.462877224221 -0.569810228109
1089740000 -0.462107728542 -0.565933901988
1089744000 -0.460655891356 -0.568326712381
1089748000 -0.465732260044 -0.569331690869
1089752000 -0.461726670158 -0.572766525403
1089756000 -0.463342039251 -0.571482405838
1089760000 -0.459561085902 -0.577143388397
1089764000 -0.460339929594 -0.57726398006
1089768000 -0.460804956105 -0.581870480287
1089772000 -0.457245597137 -0.579044324574
1089776000 -0.458063953291 -0.580133563319
1089780000 -0.462678768298 -0.577226566242
1089784000 -0.46042451019 -0.573248057973
1089788000 -0.456998430296 -0.574745352212
1089792000 -0.457355395703 -0.571306000259
1089796000 -0.45852550573 -0.574000930124
1089800000 -0.460054757084 -0.570326699235
1089804000 -0.459315460304 -0.572824106632
1089808000 -0.459200755802 -0.568425143534
1089812000 -0.458227390893 -0.571330988974
1089816000 -0.460913282618 -0.570705634925
1089820000 -0.46265349558 -0.57282225407
1089824000 -0.457721385778 -0.570814286705
1089828000 -0.45877543762 -0.56959592925
1089832000 -0.461122350484 -0.575032097039
1089836000 -0.457651529549 -0.568379947872
1089840000 -0.457462878583 -0.576027690734
1089844000 -0.462550875215 -0.573964523337
1089848000 -0.463713526068 -0.573385590611
1089852000 -0.464981476002 -0.574144262155
1089856000 -0.469721628293 -0.575520059976
1089860000 -0.461561057293 -0.578199143096
1089864000 -0.463834473742 -0.577970809875
1089868000 -0.463246476839 -0.575302035942
1089872000 -0.461463676589 -0.577409467966
1089876000 -0.460106054182 -0.57672991093
1089880000 -0.45612937195 -0.574480711118
1089884000 -0.457679995885 -0.575036065417
1089888000 -0.460505072417 -0.575380208186
1089892000 -0.459030507564 -0.571539709953
1089896000 -0.456628763322 -0.574867808849
1089900000 -0.465214748087 -0.570734754309
1089904000 -0.459905040297 -0.578953839637
1089908000 -0.458246273111 -0.569380305605
1089912000 -0.459432279602 -0.57410050122
1089916000 -0.462044520254 -0.575469135335
1089920000 -0.461770362244 -0.574849005926
1089924000 -0.458764475444 -0.572886529253
1089928000 -0.459331887354 -0.573668805865
1089932000 -0.45670734197 -0.571351827071
1089936000 -0.454000073882 -0.568730587708
1089940000 -0.455029625741 -0.570737077102
1089944000 -0.454527725812 -0.575842653882
1089948000 -0.455179011972 -0.574283640002
1089952000 -0.452607080277 -0.570231099448
1089956000 -0.456360703357 -0.577459142957
1089960000 -0.455138461822 -0.575692012083
1089964000 -0.454823626744 -0.575085226127
1089968000 -0.456966149587 -0.57377152823
1089972000 -0.458932948221 -0.57576745493
1089976000 -0.456255912509 -0.574103635209
1089980000 -0.45706625708 -0.571432831448
1089984000 -0.456633372648 -0.570116658015
1089988000 -0.453523991827 -0.570924320494
1089992000 -0.451208513001 -0.572997465303
1089996000 -0.454585592756 -0.568432349869
1090000000 -0.457403686415 -0.574901350105
1090004000 -0.45107605308 -0.571864978958
1090008000 -0.455264397405 -0.573924876411
1090012000 -0.454062252012 -0.575716085075
1090016000 -0.460069375756 -0.576078845197
1090020000 -0.457117523526 -0.575295266355
1090024000 -0.4531862762 -0.57203017275
1090028000 -0.458403005386 -0.573202609724
1090032000 -0.453691819395 -0.570308283488
1090036000 -0.453194422307 -0.572124004361
1090040000 -0.458712352366 -0.574717152494
1090044000 -0.455511852701 -0.575759577947
1090048000 -0.453158022181 -0.57634155312
1090052000 -0.45484374869 -0.571955891483
1090056000 -0.455128775771 -0.574066460358
1090060000 -0.455651686274 -0.57552302538
1090064000 -0.455098109703 -0.577047152324
1090068000 -0.457378074749 -0.572666906148
1090072000 -0.458183563437 -0.577176549619
1090076000 -0.460101487269 -0.574137863088
1090080000 -0.460901025785 -0.576648679813
1090084000 -0.466185468512 -0.579177490371
1090088000 -0.461941018648 -0.582657613613
1090092000 -0.462835522329 -0.57810763577
1090096000 -0.461560553037 -0.584953571962
1090100000 -0.463355496421 -0.577317449685
1090104000 -0.45935353982 -0.580101593975
1090108000 -0.459760452108 -0.580635354373
1090112000 -0.457525738102 -0.574781049243
1090116000 -0.456665627196 -0.576358405834
1090120000 -0.45693657615 -0.578595018424
1090124000 -0.457986379541 -0.574751225323
1090128000 -0.459258780024 -0.575651133511
1090132000 -0.454871297015 -0.576874534069
1090136000 -0.450972989927 -0.571982117787
1090140000 -0.457896690147 -0.572588884033
1090144000 -0.455627031358 -0.570528051934
1090148000 -0.457774392715 -0.573635009363
1090152000 -0.455484703518 -0.570318085612
1090156000 -0.456695479792 -0.576127873652
1090160000 -0.459201487959 -0.575993351303
1090164000 -0.459173147291 -0.576794921814
1090168000 -0.460671731223 -0.57417788776
1090172000 -0.460634318469 -0.574696427268
1090176000 -0.462756711333 -0.574997204258
1090180000 -0.462901578514 -0.579269558194
1090184000 -0.46343727294 -0.577306098517
1090188000 -0.465048144343 -0.577341639127
1090192000 -0.462090699559 -0.573872671072
1090196000 -0.460289924484 -0.577608250723
1090200000 -0.459016962441 -0.57505650934
1090204000 -0.459396412587 -0.577091606042
1090208000 -0.459522108878 -0.577376731643
1090212000 -0.454090282534 -0.571862161266
1090216000 -0.456656044518 -0.572793873972
1090220000 -0.455913392435 -0.573576827538
1090224000 -0.447579119832 -0.577148177336
1090228000 -0.452081883376 -0.573910944195
1090232000 -0.449752572259 -0.576656458156
1090236000 -0.453030351583 -0.569562898627
1090240000 -0.456650264409 -0.569861563415
1090244000 -0.458393660965 -0.572238239584
1090248000 -0.460849144753 -0.573862002421
1090252000 -0.459752995586 -0.569330591004
1090256000 -0.458424683243 -0.5750375629
1090260000 -0.461380631812 -0.576062290258
1090264000 -0.466505493434 -0.572895739622
1090268000 -0.45954467201 -0.572074929507
1090272000 -0.456845684988 -0.575959307943
1090276000 -0.45978872087 -0.575923252192
1090280000 -0.458337450569 -0.573320002917
1090284000 -0.455424949076 -0.5796396794
1090288000 -0.45449941714 -0.575837652352
1090292000 -0.451015866317 -0.575538190168
1090296000 -0.457528330117 -0.576502919785
1090300000 -0.463297351148 -0.579062475518
1090304000 -0.462040332081 -0.572353612775
1090308000 -0.464236965797 -0.572156119688
1090312000 -0.461366304436 -0.576705670373
1090316000 -0.46214771293 -0.575202518915
1090320000 -0.466070273669 -0.572465963868
1090324000 -0.465044116425 -0.57764865731
1090328000 -0.460074992337 -0.572642193426
1090332000 -0.461631199489 -0.571815193776
1090336000 -0.460384257437 -0.569461299769
1090340000 -0.458463911076 -0.572023908981
1090344000 -0.459000403847 -0.574039265939
1090348000 -0.457153876458 -0.573038204748
1090352000 -0.458559673519 -0.57016511726
1090356000 -0.461030623707 -0.575691654424
1090360000 -0.458876165808 -0.574692614834
1090364000 -0.455161698325 -0.574046846275
1090368000 -0.456517107091 -0.572632341111
1090372000 -0.4582799485 -0.57734620994
1090376000 -0.454221500204 -0.57538790378
1090380000 -0.457162498519 -0.577574243369
1090384000 -0.461906155026 -0.574032137318
1090388000 -0.453881513436 -0.573953219395
1090392000 -0.458290832373 -0.579252148418
1090396000 -0.460622530978 -0.578223403509
1090400000 -0.461447656791 -0.57933942596
1090404000 -0.460765995197 -0.580223470006
1090408000 -0.461357965917 -0.577093106569
1090412000 -0.463005176724 -0.579885976783
1090416000 -0.46002930286 -0.577431130921
1090420000 -0.463617560617 -0.575543497559
1090424000 -0.458596199299 -0.576084006413
1090428000 -0.457456788579 -0.571754710736
1090432000 -0.457072843679 -0.573448843831
1090436000 -0.458952101108 -0.572783324999
1090440000 -0.45892983103 -0.578142019815
1090444000 -0.462839343308 -0.570769520052
1090448000 -0.46153377223 -0.58114639671
1090452000 -0.462446894823 -0.574081261439
1090456000 -0.46204886251 -0.577456682071
1090460000 -0.461754196331 -0.575995216143
1090464000 -0.466155061345 -0.573948466874
1090468000 -0.466304476667 -0.575358383863
1090472000 -0.458287788483 -0.57706995227
1090476000 -0.463317416562 -0.574857154573
1090480000 -0.461402242159 -0.575240539273
1090484000 -0.462634071273 -0.57936597966
1090488000 -0.459089768147 -0.579604109472
1090492000 -0.461612086069 -0.57844112835
1090496000 -0.459073801477 -0.581264663018
1090500000 -0.457635019891 -0.576243631182
1090504000 -0.460350620235 -0.575028439076
1090508000 -0.461098467267 -0.575324874598
1090512000 -0.460791363308 -0.575082118613
1090516000 -0.454590598991 -0.573193278966
1090520000 -0.46237403007 -0.574516677426
1090524000 -0.459182301862 -0.574446174295
1090528000 -0.455420251542 -0.574561085434
1090532000 -0.457093167841 -0.572140422142
1090536000 -0.457714419558 -0.574242088572
1090540000 -0.462691730116 -0.574737148751
1090544000 -0.459847133514 -0.572469465725
1090548000 -0.459529926196 -0.573191388067
1090552000 -0.453216951201 -0.57133376581
1090556000 -0.459219523355 -0.568649694833
1090560000 -0.45867168289 -0.571846135837
1090564000 -0.460642740104 -0.570174205371
1090568000 -0.45691309736 -0.572542748369
1090572000 -0.4584842981 -0.5713688278
1090576000 -0.458995649743 -0.572160235885
1090580000 -0.463491324401 -0.573615918268
1090584000 -0.460210772985 -0.574031541114
1090588000 -0.463460614874 -0.573562206415
1090592000 -0.459344088301 -0.575420621213
1090596000 -0.466161011951 -0.576450624313
1090600000 -0.465402742214 -0.576281676118
1090604000 -0.462458713455 -0.575925888798
1090608000 -0.463450392357 -0.574558195927
1090612000 -0.46445400526 -0.575426702063
1090616000 -0.462183050489 -0.5761732721
1090620000 -0.459229696361 -0.577573230333
1090624000 -0.463623937921 -0.576773709631
1090628000 -0.46054429733 -0.578410990877
1090632000 -0.460244542299 -0.573380784135
1090636000 -0.461740569134 -0.574232839525
1090640000 -0.465228419765 -0.573229859424
1090644000 -0.457837747436 -0.574221969231
1090648000 -0.462894472127 -0.574790822326
1090652000 -0.467380797952 -0.571931621939
1090656000 -0.458682960513 -0.572481990363
1090660000 -0.467468494838 -0.57058331422
1090664000 -0.461283579556 -0.57105926926
1090668000 -0.462290966386 -0.5716312578
1090672000 -0.459081917567 -0.569621128648
1090676000 -0.459797388243 -0.572194939514
1090680000 -0.456438865926 -0.575877109269
1090684000 -0.456906167594 -0.574294074764
1090688000 -0.454060523739 -0.573858860166
1090692000 -0.454367842948 -0.574789702987
1090696000 -0.456756838685 -0.557289108066
1090700000 -0.460896209519 -0.574157456048
1090704000 -0.45785116961 -0.570535778229
1090708000 -0.458850815364 -0.574166824563
1090712000 -0.456953726428 -0.570526251952
1090716000 -0.463805136099 -0.571292567723
1090720000 -0.459095750759 -0.568515072121
1090724000 -0.460625133018 -0.568480067595
1090728000 -0.458224285623 -0.571199761797
1090732000 -0.455480463729 -0.571838030932
1090736000 -0.455053036489 -0.573732111746
1090740000 -0.456869100328 -0.571455325118
1090744000 -0.455268729783 -0.571160967112
1090748000 -0.454909805144 -0.571154138301
1090752000 -0.455684599304 -0.569197062296
1090756000 -0.452730595381 -0.572582543238
1090760000 -0.452739544148 -0.568269112452
1090764000 -0.455896189493 -0.571469844746
1090768000 -0.461740535705 -0.572429861626
1090772000 -0.458828774047 -0.570289327421
1090776000 -0.459446431641 -0.569922103179
1090780000 -0.460745686823 -0.575804862942
1090784000 -0.463977997986 -0.571684522433
1090788000 -0.463873663122 -0.57383119988
1090792000 -0.458677714085 -0.569791552669
1090796000 -0.462181130541 -0.574262012171
1090800000 -0.461769163188 -0.571357540492
1090804000 -0.461936839213 -0.571392063601
1090808000 -0.456876796142 -0.57090029061
1090812000 -0.458930793047 -0.571701205241
1090816000 -0.463120148065 -0.570928379252
1090820000 -0.467348245887 -0.571122989808
1090824000 -0.462475566531 -0.573958263632
1090828000 -0.463192941524 -0.574448154399
1090832000 -0.457258309709 -0.572603762543
1090836000 -0.463303691089 -0.574534835653
1090840000 -0.462619218242 -0.57466075253
1090844000 -0.458641848635 -0.574447012107
1090848000 -0.463182691179 -0.57633434346
1090852000 -0.461319820539 -0.57518171406
1090856000 -0.46434907187 -0.580385452071
1090860000 -0.462262020424 -0.579149345965
1090864000 -0.4659282018 -0.572188359915
1090868000 -0.461356362481 -0.576857214241
1090872000 -0.465744008947 -0.579576221601
1090876000 -0.470146038112 -0.574717700449
1090880000 -0.466629605122 -0.578495469748
1090884000 -0.469420118972 -0.575793717911
1090888000 -0.469528059696 -0.572371532548
1090892000 -0.469988748536 -0.575557599871
1090896000 -0.471211341838 -0.572384515081
1090900000 -0.466725941025 -0.574067325784
1090904000 -0.46801013155 -0.57050980324
1090908000 -0.464240336581 -0.571028655282
1090912000 -0.466758368961 -0.571920496841
1090916000 -0.46291389403 -0.571356067646
1090920000 -0.460409732956 -0.572195366909
1090924000 -0.461379231198 -0.573228142652
1090928000 -0.466481244132 -0.572173718121
1090932000 -0.462484940731 -0.571642634653
1090936000 -0.461736873216 -0.574019776676
1090940000 -0.465341018139 -0.570305721747
1090944000 -0.460976892132 -0.567252343556
1090948000 -0.468160786815 -0.572232189405
1090952000 -0.460608885572 -0.570332023454
1090956000 -0.461379688431 -0.570445692971
1090960000 -0.458444557971 -0.572224403524
1090964000 -0.458658320968 -0.573528058452
1090968000 -0.461344644819 -0.572141597404
1090972000 -0.458061653115 -0.575709843664
1090976000 -0.457476840272 -0.576133887849
1090980000 -0.455349986289 -0.581219573976
1090984000 -0.459376116466 -0.574874578337
1090988000 -0.456967186315 -0.571606094012
1090992000 -0.459181602704 -0.574478583239
1090996000 -0.461148347748 -0.57659696469
1091000000 -0.462205294441 -0.574127543713
1091004000 -0.45914558402 -0.572056267886
1091008000 -0.464476891545 -0.567079055846
1091012000 -0.462492502067 -0.568761398748
1091016000 -0.461425275138 -0.572422598967
1091020000 -0.463071872596 -0.574346470546
1091024000 -0.460425904506 -0.57713232428
1091028000 -0.456549395441 -0.574348674468
1091032000 -0.455093699146 -0.574912338488
1091036000 -0.455434329377 -0.576480129654
1091040000 -0.456797510814 -0.576663146689
1091044000 -0.455957678435 -0.575558542523
1091048000 -0.459064388675 -0.574733988609
1091052000 -0.460281603321 -0.579558067988
1091056000 -0.465292370061 -0.575132929812
1091060000 -0.464763685451 -0.578223235862
1091064000 -0.462606534349 -0.574483127383
1091068000 -0.461007121054 -0.577683050593
1091072000 -0.461679875182 -0.578775191873
1091076000 -0.459970291259 -0.578393304426
1091080000 -0.457646053591 -0.576111706166
1091084000 -0.460197058197 -0.579529036706
1091088000 -0.458851235647 -0.576015253304
1091092000 -0.460589591214 -0.57665605286
1091096000 -0.456902690292 -0.575002029563
1091100000 -0.458973275521 -0.579712623052
1091104000 -0.459111223932 -0.578645022455
1091108000 -0.461080241845 -0.577748124703
1091112000 -0.45600821913 -0.578280632889
1091116000 -0.461512369333 -0.576872956568
1091120000 -0.456546181202 -0.575415337876
1091124000 -0.460386170052 -0.574868496717
1091128000 -0.458608723069 -0.577569094603
1091132000 -0.458161101055 -0.574047656832
1091136000 -0.456442442459 -0.575344656016
1091140000 -0.458239811566 -0.57719091722
1091144000 -0.46144311751 -0.575642276166
1091148000 -0.463017807624 -0.571392000259
1091152000 -0.456576227448 -0.574784809177
1091156000 -0.457351928681 -0.571732459852
1091160000 -0.460156735281 -0.570574137509
1091164000 -0.463300788342 -0.571134036922
1091168000 -0.459476757727 -0.571014485088
1091172000 -0.459896315039 -0.56987368523
1091176000 -0.46446038042 -0.579788949561
1091180000 -0.460332139062 -0.576577872722
1091184000 -0.460384633418 -0.573576947376
1091188000 -0.457453009222 -0.571115365315
1091192000 -0.462029897973 -0.576702145398
1091196000 -0.461577200428 -0.573674300172
1091200000 -0.463428995249 -0.575882656584
1091204000 -0.465397544372 -0.574629829832
1091208000 -0.464234194314 -0.577862141492
1091212000 -0.464773925214 -0.569844480956
1091216000 -0.46515860932 -0.575161261972
1091220000 -0.466579961588 -0.576908998769
1091224000 -0.467328241727 -0.57213273939
1091228000 -0.460892911062 -0.570108422599
1091232000 -0.467587492116 -0.570273178862
1091236000 -0.465883303695 -0.572750193632
1091240000 -0.460808344828 -0.571480289085
1091244000 -0.46376808842 -0.570952299944
1091248000 -0.459639377923 -0.573110177954
1091252000 -0.465168790475 -0.572431296277
1091256000 -0.464005207542 -0.571798347743
1091260000 -0.468930833468 -0.571029998947
1091264000 -0.467399464904 -0.578183610667
1091268000 -0.467937958615 -0.576060775267
1091272000 -0.467087368722 -0.576377423968
1091276000 -0.467623538732 -0.573170547618
1091280000 -0.467578366759 -0.572325960671
1091284000 -0.463578445468 -0.572200619024
1091288000 -0.460239153692 -0.567199350234
1091292000 -0.46140490081 -0.570089379511
1091296000 -0.456394215759 -0.564035556409
1091300000 -0.462060876294 -0.570421253226
1091304000 -0.462335107773 -0.570067291738
1091308000 -0.463849915568 -0.577235613845
1091312000 -0.461697100992 -0.572172247168
1091316000 -0.463720930887 -0.571634195156
1091320000 -0.466600017967 -0.575328650248
1091324000 -0.463374962541 -0.57708551464
1091328000 -0.467287605355 -0.57701102996
1091332000 -0.46654475475 -0.574484987557
1091336000 -0.46712381771 -0.573141047431
1091340000 -0.467172021805 -0.57316905812
1091344000 -0.464109026887 -0.571820143447
1091348000 -0.466886840313 -0.56764105226
1091352000 -0.464435168394 -0.562270285039
1091356000 -0.465961791003 -0.566658598832
1091360000 -0.460268412502 -0.569942845931
1091364000 -0.467306603995 -0.568787167227
1091368000 -0.466207136945 -0.569304265653
1091372000 -0.462591900043 -0.569462859298
1091376000 -0.466011033218 -0.574264185727
1091380000 -0.468018528007 -0.576011662562
1091384000 -0.463299744339 -0.57754862236
1091388000 -0.469998296109 -0.574765848662
1091392000 -0.467805676495 -0.575738841587
1091396000 -0.466039544394 -0.579923533073
1091400000 -0.46775999448 -0.57674951344
1091404000 -0.468813476579 -0.576601900461
1091408000 -0.467063405099 -0.577798379077
1091412000 -0.463856937659 -0.577297814034
1091416000 -0.466785085413 -0.575115855056
1091420000 -0.471242773811 -0.57249073623
1091424000 -0.468826878945 -0.576636109024
1091428000 -0.46659303898 -0.570935614741
1091432000 -0.468335590396 -0.570410174063
1091436000 -0.465289697223 -0.572030553735
1091440000 -0.468042518658 -0.570165032698
1091444000 -0.467513814755 -0.5700558028
1091448000 -0.4667575392 -0.574944153558
1091452000 -0.468147732272 -0.571112303466
1091456000 -0.465910918232 -0.569157080681
1091460000 -0.470894941753 -0.572615511866
1091464000 -0.467104738705 -0.569473531581
1091468000 -0.469893413206 -0.572311744905
1091472000 -0.46945472957 -0.571739994255
1091476000 -0.469616885389 -0.573589625369
1091480000 -0.47230676267 -0.574046616439
1091484000 -0.472129921882 -0.573972201581
1091488000 -0.468730368987 -0.579182916059
1091492000 -0.473056793644 -0.574626345099
1091496000 -0.471328473792 -0.575682241017
1091500000 -0.469300293416 -0.572043971074
1091504000 -0.470613643982 -0.580670113859
1091508000 -0.466785547512 -0.576527355098
1091512000 -0.464400384185 -0.574260247901
1091516000 -0.464041147472 -0.575021547501
1091520000 -0.463276584951 -0.576074009924
1091524000 -0.461445714274 -0.580676440258
1091528000 -0.458461839181 -0.574034005145
1091532000 -0.458171088898 -0.576616731853
1091536000 -0.458883346737 -0.573512121303
1091540000 -0.462804886431 -0.577950669001
1091544000 -0.46558864472 -0.573778620858
1091548000 -0.460671517478 -0.576451987166
1091552000 -0.461406384147 -0.57604311224
1091556000 -0.458954874048 -0.576539141487
1091560000 -0.463097234607 -0.578411967602
1091564000 -0.462692998932 -0.577392402992
1091568000 -0.467880632318 -0.571849341985
1091572000 -0.46842430426 -0.571440954779
1091576000 -0.467263358938 -0.570975665908
1091580000 -0.476499391975 -0.571602863282
1091584000 -0.472993309018 -0.573484335969
1091588000 -0.467803586057 -0.572743228023
1091592000 -0.471082402859 -0.573610483715
1091596000 -0.467408129854 -0.572019810538
1091600000 -0.462977153465 -0.573687685117
1091604000 -0.461723805896 -0.574597430339
1091608000 -0.459645976762 -0.575649504107
1091612000 -0.456577847652 -0.57441272934
1091616000 -0.455118185214 -0.572250723553
1091620000 -0.458067448757 -0.573219803884
1091624000 -0.457064131635 -0.571978170618
1091628000 -0.457741423967 -0.570552820076
1091632000 -0.459795363446 -0.57334614558
1091636000 -0.458775367874 -0.5691437595
1091640000 -0.463502204643 -0.570527900135
1091644000 -0.464077490586 -0.560939195968
1091648000 -0.464706532157 -0.569515667876
1091652000 -0.464182821132 -0.574826236487
1091656000 -0.464087215105 -0.565981730345
1091660000 -0.464555694471 -0.57209986013
1091664000 -0.468485787953 -0.570311694184
1091668000 -0.466694464523 -0.572368648516
1091672000 -0.464914896723 -0.569701871282
1091676000 -0.469898022482 -0.571107795496
1091680000 -0.46689385954 -0.573369899767
1091684000 -0.469079959066 -0.575659248788
1091688000 -0.470270495451 -0.571626613765
1091692000 -0.465547125204 -0.569578408088
1091696000 -0.469626756759 -0.564670044979
1091700000 -0.467985837008 -0.572322512929
1091704000 -0.464311922578 -0.571435492679
1091708000 -0.468237655145 -0.569544627107
1091712000 -0.467477240309 -0.575705283605
1091716000 -0.468945537155 -0.575150789419
1091720000 -0.468952092378 -0.575224853231
1091724000 -0.465600332384 -0.573542606423
1091728000 -0.465758328211 -0.575492142445
1091732000 -0.462567256003 -0.573613981865
1091736000 -0.463108391432 -0.570930690568
1091740000 -0.466927554515 -0.571742683356
1091744000 -0.467134574804 -0.570503845988
1091748000 -0.465351906101 -0.573096251638
1091752000 -0.465219975659 -0.567490209863
1091756000 -0.467683342603 -0.567093709945
1091760000 -0.465517588628 -0.562650900613
1091764000 -0.46471703036 -0.568954050724
1091768000 -0.466894631841 -0.570852709642
1091772000 -0.458831887903 -0.569903321217
1091776000 -0.46212113717 -0.574065281015
1091780000 -0.458821576072 -0.57503569529
1091784000 -0.460549866597 -0.568276745159
1091788000 -0.462649880269 -0.576148543812
1091792000 -0.460397338564 -0.569655470754
1091796000 -0.46391739769 -0.569793000099
1091800000 -0.456557324542 -0.568026290549
1091804000 -0.462813217358 -0.566447864428
1091808000 -0.459759241226 -0.565803141848
1091812000 -0.462711932707 -0.563820286303
1091816000 -0.461708194897 -0.560777280104
1091820000 -0.466805613923 -0.566556644099
1091824000 -0.466425950027 -0.567582433428
1091828000 -0.466011578305 -0.559471047131
1091832000 -0.462156123647 -0.560181688178
1091836000 -0.469981652721 -0.567048469803
1091840000 -0.472348403756 -0.562685899697
1091844000 -0.471065144826 -0.569246618279
1091848000 -0.465032785975 -0.565416573561
1091852000 -0.46652323849 -0.565821169786
1091856000 -0.463845205899 -0.565267099358
1091860000 -0.466589721519 -0.567090154333
1091864000 -0.46330989152 -0.562209244121
1091868000 -0.463253823315 -0.56992136562
1091872000 -0.470378212907 -0.574471858923
1091876000 -0.464430371937 -0.570347212646
1091880000 -0.471580736118 -0.566983101913
1091884000 -0.469259923243 -0.573610263841
1091888000 -0.48011852158 -0.573275001635
1091892000 -0.484746980727 -0.575366185692
1091896000 -0.492509947336 -0.569287187538
1091900000 -0.486743443024 -0.581855644688
1091904000 -0.467919590441 -0.57602460207
1091908000 -0.483427581661 -0.565721965507
1091912000 -0.478607461402 -0.575493740161
1091916000 -0.48402642172 -0.576024078052
1091920000 -0.483870253191 -0.574721148909
1091924000 -0.481823479836 -0.573862615828
1091928000 -0.472845958828 -0.581041398701
1091932000 -0.469653098947 -0.574704752515
1091936000 -0.471866625682 -0.571791062807
1091940000 -0.471856247749 -0.581022734137
1091944000 -0.479742704724 -0.573181976281
1091948000 -0.442669715651 -0.579215990544
1091952000 -0.444826502371 -0.578821521084
1091956000 -0.45359178261 -0.567083453815
1091960000 -0.454022913698 -0.566527438577
1091964000 -0.460125406588 -0.5789887251
1091968000 -0.445473741684 -0.581247113457
1091972000 -0.463037432225 -0.565361299108
1091976000 -0.475791735269 -0.571730651452
1091980000 -0.470241584789 -0.57086587618
1091984000 -0.468672802863 -0.572115018852
1091988000 -0.474706510138 -0.607963555773
1091992000 -0.466510436297 -0.576903983971
1091996000 -0.465712970769 -0.577222189815
1092000000 -0.466016790633 -0.571959448285
