! Calibrated averaged scanner-service zoom
# Hz S RI R 50
156000000 0.44729248849 -0.0353352917478
156006000 0.45718269032 -0.0304967673766
156012000 0.457202711537 -0.030651110066
156018000 0.45471684973 -0.031693765088
156024000 0.451844022202 -0.0336513578971
156030000 0.452458372739 -0.0322258803432
156036000 0.452295264948 -0.0335999807525
156042000 0.452666122222 -0.0329381547395
156048000 0.453234662068 -0.0344086783216
156054000 0.453314893499 -0.0331140921823
156060000 0.45372890258 -0.0337571073031
156066000 0.453795371662 -0.0333238151725
156072000 0.453968992567 -0.0341183831262
156078000 0.454150746929 -0.0333890202695
156084000 0.454915591386 -0.033998503888
156090000 0.454501431655 -0.0342064537083
156096000 0.455008432195 -0.0341047239052
156102000 0.455558461257 -0.0340368762276
156108000 0.455859189638 -0.0342697106583
156114000 0.455855051547 -0.034618735575
156120000 0.456089203364 -0.0340230972185
156126000 0.456117134116 -0.0347334617512
156132000 0.456690371838 -0.0340984373683
156138000 0.456738929735 -0.0354371037643
156144000 0.457193252408 -0.0346180092563
156150000 0.457595222083 -0.0357665349129
156156000 0.457813576977 -0.0344976116139
156162000 0.457639799005 -0.0357164168705
156168000 0.457972972161 -0.0346988404616
156174000 0.458294665439 -0.0363626571737
156180000 0.458722484995 -0.0346692025293
156186000 0.458781098038 -0.0359358348877
156192000 0.459068623653 -0.0353170783614
156198000 0.459304989784 -0.0366648146946
156204000 0.459843019283 -0.0354833995654
156210000 0.460001016676 -0.0362644025842
156216000 0.459944782392 -0.0359046716932
156222000 0.460119883355 -0.0364809040735
156228000 0.460533119821 -0.0359772412713
156234000 0.460804390377 -0.0366535645524
156240000 0.460609872708 -0.0367189414918
156246000 0.461387195049 -0.0367218655318
156252000 0.461766504704 -0.0366822797059
156258000 0.462141285826 -0.0367907112784
156264000 0.461898717845 -0.0370951634383
156270000 0.462286620861 -0.0367403135405
156276000 0.462329952315 -0.0372813242994
156282000 0.462669937889 -0.0369318524329
156288000 0.462974597359 -0.0380818338579
156294000 0.463501834755 -0.0374363927198
156300000 0.46357302008 -0.038468491244
156306000 0.463956611815 -0.0374354924441
156312000 0.463825832333 -0.0385259647132
156318000 0.464147092763 -0.0377066908486
156324000 0.464204604988 -0.0392982901013
156330000 0.464740042231 -0.0376417574341
156336000 0.464444613305 -0.0390496508154
156342000 0.465269449232 -0.0379912857381
156348000 0.465314319229 -0.0396880054065
156354000 0.465761756563 -0.0386341034198
156360000 0.465934234585 -0.0393708749529
156366000 0.465923867032 -0.0389268607654
156372000 0.466152319061 -0.0395853804554
156378000 0.466558107689 -0.0390549658274
156384000 0.467016110442 -0.0396956126452
156390000 0.466827132769 -0.0398395124389
156396000 0.467088247967 -0.0398700499085
156402000 0.467414923281 -0.0400332181953
156408000 0.468003426525 -0.0401280630309
156414000 0.467637408454 -0.0406715354905
156420000 0.468184218797 -0.0401509434252
156426000 0.468023969332 -0.0406864421653
156432000 0.468707465009 -0.0401945706054
156438000 0.46847123198 -0.041387577143
156444000 0.469323083457 -0.0406378034698
156450000 0.469051669935 -0.041758016173
156456000 0.469864556086 -0.0405995681562
156462000 0.469467200594 -0.0416600754669
156468000 0.470043256033 -0.0408008568385
156474000 0.469976825872 -0.0424486876351
156480000 0.470607174364 -0.0410409667682
156486000 0.470438008558 -0.0422781802574
156492000 0.470805402161 -0.0415378859074
156498000 0.470866756929 -0.0429053280515
156504000 0.47154323963 -0.0419474749929
156510000 0.471525600748 -0.0426897034637
156516000 0.471571610892 -0.0423053968502
156522000 0.471812185778 -0.0429134441225
156528000 0.472167815843 -0.0424154645541
156534000 0.472625991978 -0.0433068350843
156540000 0.472212276233 -0.0432757732933
156546000 0.472854539799 -0.0433113386472
156552000 0.473103104323 -0.0435393774708
156558000 0.473674009782 -0.0437198308186
156564000 0.473197194715 -0.0441335563173
156570000 0.473767268371 -0.0436701461235
156576000 0.473765853259 -0.044149074413
156582000 0.473808365563 -0.0439340170823
156588000 0.474064314514 -0.0450623950225
156594000 0.474772357913 -0.0444463038751
156600000 0.474674578437 -0.0455067265911
156606000 0.474812728513 -0.0452019309553
156612000 0.474884112778 -0.044820355881
156618000 0.475221202017 -0.0458256788292
156624000 0.475975464952 -0.045258671406
156630000 0.476207160947 -0.0453601512984
156636000 0.475763764385 -0.0453121386875
156642000 0.476300816578 -0.0463577528283
156648000 0.476698580072 -0.0461567713805
156654000 0.477304890007 -0.0457969398111
156660000 0.476900056962 -0.0464936026362
156666000 0.476907256477 -0.0465787128632
156672000 0.477747987912 -0.0468723729924
156678000 0.47825523906 -0.046610396305
156684000 0.477297568187 -0.0469628815755
156690000 0.477773582152 -0.0471980917864
156696000 0.477788431915 -0.047651528139
156702000 0.479106312946 -0.0472688316615
156708000 0.478593770897 -0.0481760132695
156714000 0.47845366722 -0.0477284314659
156720000 0.478671067372 -0.0481957122647
156726000 0.479836730717 -0.0477702205104
156732000 0.47923463486 -0.0489880367891
156738000 0.479440964166 -0.0483859621588
156744000 0.47957879143 -0.0493440000368
156750000 0.480489526747 -0.0485423088969
156756000 0.480251743374 -0.0493160267223
156762000 0.480224274729 -0.0489560348574
156768000 0.480336813256 -0.049897546838
156774000 0.481069426013 -0.0492496338886
156780000 0.481191719163 -0.0495844547734
156786000 0.481023904568 -0.0495107507479
156792000 0.481044812801 -0.0505042138909
156798000 0.481715925052 -0.050331711273
156804000 0.482133053102 -0.0502402910666
156810000 0.481868274738 -0.0503477061502
156816000 0.481872887148 -0.0508150982839
156822000 0.482276325792 -0.051018632199
156828000 0.483130457866 -0.050983243097
156834000 0.482705950363 -0.0515965308864
156840000 0.482740525283 -0.0514126765883
156846000 0.483072792517 -0.0518941291441
156852000 0.483935707105 -0.0516735491733
156858000 0.483325607219 -0.0527720561433
156864000 0.483240376725 -0.0522434396303
156870000 0.483592218297 -0.0527857231476
156876000 0.484635196524 -0.0523290306856
156882000 0.484222221589 -0.0533409493527
156888000 0.48442923509 -0.052855113486
156894000 0.484168570345 -0.0537592952437
156900000 0.48523532514 -0.0529815523968
156906000 0.484876238736 -0.0537783186421
156912000 0.485207762574 -0.0532806733974
156918000 0.48496562536 -0.0542947243664
156924000 0.485855234291 -0.053965673318
156930000 0.48581621264 -0.0540633477144
156936000 0.485703006991 -0.0540664488263
156942000 0.485638583436 -0.0549667863733
156948000 0.486285209311 -0.0549669508769
156954000 0.486983086624 -0.0549880043247
156960000 0.486632573007 -0.0551162138333
156966000 0.486495977802 -0.0553833664738
156972000 0.486983862623 -0.0556154466288
156978000 0.487772745963 -0.0558073364641
156984000 0.487198253136 -0.0563373863773
156990000 0.487213982674 -0.056120210116
156996000 0.487570882326 -0.0567625624304
157002000 0.4883439051 -0.0564886368393
157008000 0.487815047114 -0.0574332775507
157014000 0.487769138206 -0.0566073359603
157020000 0.488015411011 -0.0572241724569
157026000 0.488756079159 -0.0575369561883
157032000 0.488293385542 -0.0581096367735
157038000 0.488604767912 -0.0575180910831
157044000 0.48863720392 -0.0583593459426
157050000 0.489528877375 -0.057917673723
157056000 0.489294741154 -0.058596343369
157062000 0.489540947086 -0.0581940059007
157068000 0.48945250686 -0.0591486412026
157074000 0.490106697613 -0.0587630252791
157080000 0.490191259534 -0.0589998383478
157086000 0.4899980677 -0.0589455891704
157092000 0.489938662213 -0.0598438825271
157098000 0.49047929627 -0.0597897279153
157104000 0.491051504838 -0.0598761532641
157110000 0.490615021247 -0.0599203850823
157116000 0.490811500071 -0.0602796131781
157122000 0.490935491214 -0.0604344267378
157128000 0.491579201142 -0.0606304325614
157134000 0.491160987797 -0.0612054796544
157140000 0.491221140439 -0.060986947481
157146000 0.491576763694 -0.0614378900899
157152000 0.492445780148 -0.0614741182984
157158000 0.491901837157 -0.0623988423912
157164000 0.492017593267 -0.0617467537817
157170000 0.492620426978 -0.0625602569097
157176000 0.493084997976 -0.0620506265283
157182000 0.493023791438 -0.063107454864
157188000 0.492695594591 -0.0623603734465
157194000 0.49235517886 -0.0632446511476
157200000 0.493515707198 -0.0628736129789
157206000 0.491895534241 -0.0636541443389
157212000 0.494153344137 -0.0632724004892
157218000 0.492740551939 -0.0640275286834
157224000 0.493791452166 -0.0637854241593
157230000 0.49378427516 -0.0641431522994
157236000 0.494350996424 -0.0640653934432
157242000 0.49399218966 -0.0650114977874
157248000 0.494254972697 -0.0647436414108
157254000 0.494164303909 -0.0650420460745
157260000 0.494709655933 -0.0650762163344
157266000 0.494934879792 -0.0657994373829
157272000 0.495065062094 -0.0657118342999
157278000 0.494894274691 -0.0656753676448
157284000 0.49513286267 -0.0660832070866
157290000 0.495731306328 -0.0662376287037
157296000 0.495618871475 -0.0663051304989
157302000 0.495788744631 -0.0665655344099
157308000 0.495779752188 -0.0669086533021
157314000 0.496261667588 -0.0668420634508
157320000 0.496094480614 -0.0670282030057
157326000 0.496255642505 -0.0669557030819
157332000 0.496014561903 -0.0676016205252
157338000 0.496762872086 -0.0673732976538
157344000 0.496693878359 -0.0681301179249
157350000 0.496818272001 -0.0679795638473
157356000 0.496481406947 -0.0685873972548
157362000 0.497388561529 -0.0683557492534
157368000 0.497290628444 -0.0692499155306
157374000 0.497112670897 -0.0688252863369
157380000 0.497106621418 -0.0688415540844
157386000 0.49786459965 -0.069252789302
157392000 0.497105329818 -0.069849463099
157398000 0.497860649021 -0.069926988641
157404000 0.497784342221 -0.0702169660532
157410000 0.49851469734 -0.0704762830628
157416000 0.498157045921 -0.0706644179872
157422000 0.498519921733 -0.0705987835146
157428000 0.498434357663 -0.0708078721714
157434000 0.498829475736 -0.0711563211345
157440000 0.498891297581 -0.0713763268299
157446000 0.498876700606 -0.0713186481777
157452000 0.498792205657 -0.0716601165412
157458000 0.498357596257 -0.0722159764203
157464000 0.49923134163 -0.072199408978
157470000 0.499456168743 -0.0722731295021
157476000 0.499319245988 -0.0723863071315
157482000 0.49931592082 -0.0729724938992
157488000 0.49993864351 -0.0726873921189
157494000 0.500005022958 -0.0735665625922
157500000 0.500063356923 -0.0733818188987
157506000 0.499924123914 -0.0738296091223
157512000 0.500571988339 -0.0738029619752
157518000 0.50042789284 -0.0745513997042
157524000 0.500219328022 -0.0741920174697
157530000 0.500396971436 -0.0744643749045
157536000 0.500806967564 -0.0745824626743
157542000 0.500567172534 -0.0751227242391
157548000 0.500712679396 -0.0752907698788
157554000 0.500819239402 -0.0754299556994
157560000 0.501274314169 -0.0756087543963
157566000 0.501131751934 -0.0759389752263
157572000 0.501242002705 -0.0760643369832
157578000 0.501630595366 -0.0760954093608
157584000 0.501386739473 -0.0765418546009
157590000 0.501866694888 -0.0765256864297
157596000 0.501573186199 -0.0768287057763
157602000 0.501939892248 -0.0772162696615
157608000 0.501699550894 -0.0775708306442
157614000 0.502327158014 -0.0781403613132
157620000 0.502375192886 -0.0778037434472
157626000 0.502709488682 -0.0777479670107
157632000 0.502296481173 -0.0781581154594
157638000 0.50312549184 -0.0781968560046
157644000 0.502695106606 -0.078798540706
157650000 0.502930748617 -0.0787860947477
157656000 0.502653920979 -0.0792272133833
157662000 0.503172441308 -0.0791451210971
157668000 0.50303927074 -0.0797899565823
157674000 0.502867396344 -0.0797251484445
157680000 0.503255570715 -0.0799213143087
157686000 0.50350010893 -0.080049864884
157692000 0.50325312269 -0.0808224334127
157698000 0.503269203809 -0.0807325913949
157704000 0.503691345213 -0.0810640100294
157710000 0.503765152479 -0.0811293232019
157716000 0.503907841729 -0.0814470579496
157722000 0.503697116977 -0.0816581203256
157728000 0.504100072999 -0.0817522172376
157734000 0.503937177344 -0.0819831003715
157740000 0.504293822134 -0.0820064616245
157746000 0.504255906809 -0.082453407029
157752000 0.504562363111 -0.0825076086773
157758000 0.504226171277 -0.0829028197805
157764000 0.504725982448 -0.0830635874605
157770000 0.504560759231 -0.0832416934551
157776000 0.505129129326 -0.0833135731101
157782000 0.504476296605 -0.0837580203368
157788000 0.505329166997 -0.083492724066
157794000 0.504752694859 -0.0843533534833
157800000 0.505208869919 -0.0843534735401
157806000 0.505169207492 -0.0845501246096
157812000 0.505455395601 -0.0848574032046
157818000 0.505131778654 -0.0850146175077
157824000 0.505944516208 -0.0851262901725
157830000 0.505485631926 -0.0855474262575
157836000 0.505560022061 -0.0856006593969
157842000 0.505897608004 -0.0854628716156
157848000 0.506171968503 -0.0859387732526
157854000 0.505881264532 -0.0863335109585
157860000 0.505670043936 -0.086382535282
157866000 0.506388767414 -0.0864417401872
157872000 0.506115053238 -0.0870472381205
157878000 0.505909087001 -0.0871516303947
157884000 0.505913576362 -0.0873053930459
157890000 0.506902895624 -0.0872521298318
157896000 0.506177842779 -0.0880170537245
157902000 0.50636905832 -0.0878505960333
157908000 0.506495561358 -0.0882799720463
157914000 0.506934496707 -0.0884980302764
157920000 0.506023997622 -0.0889489424015
157926000 0.507050569305 -0.088649784897
157932000 0.506798086716 -0.0891110137333
157938000 0.507184586041 -0.0890841016857
157944000 0.506406903609 -0.0895180014391
157950000 0.507440587408 -0.0892028804441
157956000 0.507173099373 -0.090026475529
157962000 0.507225662887 -0.0900715632656
157968000 0.506993916581 -0.0903329126562
157974000 0.507809980762 -0.0904091303039
157980000 0.507300081881 -0.0909669332312
157986000 0.507374083261 -0.0909534719964
157992000 0.50803378008 -0.0909338097662
157998000 0.507884490569 -0.0912881361297
158004000 0.507863905322 -0.0918159869882
158010000 0.507705042081 -0.091886497876
158016000 0.508390939812 -0.0918088872306
158022000 0.50787098695 -0.0924659156282
158028000 0.507924201741 -0.0925004734991
158034000 0.507884549405 -0.092512685777
158040000 0.508927074893 -0.092201282587
158046000 0.507775021952 -0.0933196476967
158052000 0.50832770719 -0.0930152091749
158058000 0.508312084629 -0.0934258404922
158064000 0.509028379097 -0.0935711025952
158070000 0.507905888471 -0.0942331559983
158076000 0.509022252186 -0.0939132527279
158082000 0.508642508659 -0.0944983533908
158088000 0.509045008183 -0.0943614614878
158094000 0.508039882238 -0.0949131977111
158100000 0.509380782022 -0.0946905969833
158106000 0.5088626342 -0.0955355621068
158112000 0.509041817724 -0.0953972784628
158118000 0.508750310741 -0.0955078125979
158124000 0.509551554642 -0.0956310223234
158130000 0.509136644116 -0.0964023358695
158136000 0.509042371553 -0.0962174652603
158142000 0.509400704501 -0.0961682069962
158148000 0.509500568776 -0.0965667651072
158154000 0.51034372285 -0.0981662921019
158160000 0.50917695053 -0.0970213512349
158166000 0.509248039148 -0.0981953305103
158172000 0.509422051124 -0.0977004993859
158178000 0.509331319117 -0.0979094955026
158184000 0.509434153481 -0.0979066139324
158190000 0.510356017633 -0.0979883672691
158196000 0.509308722929 -0.0985239890403
158202000 0.510130835456 -0.0985976352704
158208000 0.509913823633 -0.098836104488
158214000 0.510560203085 -0.0989360655874
158220000 0.509120988825 -0.0993430722643
158226000 0.510252768345 -0.0993581739661
158232000 0.510130715694 -0.0997794153466
158238000 0.510586565774 -0.0998694745615
158244000 0.50966884252 -0.1000589885
158250000 0.510795686447 -0.100207404166
158256000 0.510225205197 -0.100805612879
158262000 0.510415013888 -0.10064780426
158268000 0.510239747008 -0.100812749634
158274000 0.510996460865 -0.101181669385
158280000 0.510381295734 -0.101622809249
158286000 0.510525188057 -0.101426284008
158292000 0.5109778383 -0.101503861043
158298000 0.510960357566 -0.101932176084
158304000 0.510459502659 -0.102323810408
158310000 0.51080315125 -0.102272969573
158316000 0.511244967822 -0.10248311573
158322000 0.51063766143 -0.102760138604
158328000 0.510810075675 -0.103099142782
158334000 0.510968074738 -0.103201319214
158340000 0.511712676954 -0.103283786835
158346000 0.510467274212 -0.103512024814
158352000 0.511241826037 -0.103904068436
158358000 0.511161045288 -0.104059506153
158364000 0.511916514104 -0.10424044922
158370000 0.510241807318 -0.104412685433
158376000 0.511595293054 -0.104665312004
158382000 0.511135876225 -0.104977637596
158388000 0.512038180845 -0.105265903216
158394000 0.510750818071 -0.105022578083
158400000 0.511986808217 -0.105574017772
158406000 0.511805283358 -0.105701676777
158412000 0.511339614987 -0.106051833145
158418000 0.511610010355 -0.106387901235
158424000 0.51092393112 -0.106259289049
158430000 0.511937029597 -0.106609109594
158436000 0.512075781438 -0.107117372062
158442000 0.511780929704 -0.107159344507
158448000 0.512195872175 -0.1072883867
158454000 0.511934992026 -0.10730546262
158460000 0.511812360083 -0.107737114297
158466000 0.511698232714 -0.107863189583
158472000 0.512317495141 -0.107840758576
158478000 0.511776388253 -0.108176850904
158484000 0.512173150123 -0.108128699379
158490000 0.511751128159 -0.108674208657
158496000 0.512486582347 -0.108711993546
158502000 0.511477385672 -0.108953040725
158508000 0.512396605543 -0.109100609451
158514000 0.511656058286 -0.109610316239
158520000 0.512343180932 -0.109642096083
158526000 0.511886484493 -0.109814204771
158532000 0.512629533781 -0.109690033432
158538000 0.512009598473 -0.110317592255
158544000 0.513137686443 -0.110907120083
158550000 0.512247440536 -0.110531424066
158556000 0.512768234776 -0.110675198351
158562000 0.512133910044 -0.111134568656
158568000 0.512570240834 -0.111438711299
158574000 0.512681462822 -0.11139367659
158580000 0.512877439374 -0.111624255972
158586000 0.512460410794 -0.111885205315
158592000 0.512685258763 -0.112061017268
158598000 0.513086860615 -0.112391585274
158604000 0.512550374639 -0.112155871399
158610000 0.512459259141 -0.112699313789
158616000 0.512261110121 -0.112910190398
158622000 0.512834755306 -0.113038101346
158628000 0.512373721923 -0.113095603692
158634000 0.512835358427 -0.113283894352
158640000 0.512461269665 -0.113623831382
158646000 0.513384200412 -0.113764341449
158652000 0.512479494934 -0.11378526393
158658000 0.513120094899 -0.11416308591
158664000 0.512320000459 -0.114439607777
158670000 0.51311098079 -0.114802040989
158676000 0.512356389598 -0.114636107683
158682000 0.513458042275 -0.11479571328
158688000 0.512630888993 -0.115186328794
158694000 0.513389255185 -0.115538486141
158700000 0.512828942898 -0.115425574581
158706000 0.513342759112 -0.115733619134
158712000 0.512729982786 -0.115983148132
158718000 0.513021779009 -0.116316633602
158724000 0.51314584421 -0.116316387253
158730000 0.513191310741 -0.116439496677
158736000 0.513249571662 -0.116735111023
158742000 0.513441482751 -0.117121582913
158748000 0.513447098098 -0.11723840362
158754000 0.51324402089 -0.117208622089
158760000 0.513107879572 -0.117624865281
158766000 0.513178917745 -0.118013539356
158772000 0.514102867805 -0.118710128048
158778000 0.513149514439 -0.117943578103
158784000 0.514126796924 -0.117805129333
158790000 0.51317181799 -0.118502246682
158796000 0.51382641124 -0.11879927982
158802000 0.513020367742 -0.118465702246
158808000 0.513863843927 -0.119029647586
158814000 0.512684036571 -0.118973137035
158820000 0.513656158769 -0.119653597717
158826000 0.51355919564 -0.119162594456
158832000 0.514152698249 -0.119544797119
158838000 0.51349567439 -0.119891716873
158844000 0.513826708703 -0.120570189088
158850000 0.51354544467 -0.120177408426
158856000 0.513794534605 -0.120803574603
158862000 0.513427358687 -0.120678505454
158868000 0.513627061278 -0.121171583144
158874000 0.513816440682 -0.121098572485
158880000 0.51399414023 -0.121384366681
158886000 0.513803885337 -0.121414253048
158892000 0.513896035252 -0.121962703773
158898000 0.514164154097 -0.121975633939
158904000 0.513765652018 -0.12191345606
158910000 0.513727819387 -0.12209748131
158916000 0.513636709771 -0.122612761918
158922000 0.514092705807 -0.122740994263
158928000 0.513731437054 -0.122645814862
158934000 0.514195627516 -0.122819602017
158940000 0.51372928681 -0.123273971001
158946000 0.514251777177 -0.123581775044
158952000 0.513770138841 -0.123263476443
158958000 0.514575942598 -0.123732856502
158964000 0.513597175704 -0.123932166761
158970000 0.51402165233 -0.124452764486
158976000 0.513833809138 -0.124193998245
158982000 0.514436836894 -0.12450120474
158988000 0.513859115398 -0.124845137824
158994000 0.514316613032 -0.125276146541
159000000 0.514131973125 -0.124958594806
159006000 0.514758143689 -0.125079804341
159012000 0.514055974268 -0.125231551633
159018000 0.514025775369 -0.125795977617
159024000 0.514031684194 -0.126050764064
159030000 0.514622071816 -0.126037846955
159036000 0.514017168591 -0.125930778871
159042000 0.514257683452 -0.126661621724
159048000 0.514102350111 -0.126838659677
159054000 0.514848520828 -0.127032206547
159060000 0.514333125958 -0.126749421829
159066000 0.514671934256 -0.127463541755
159072000 0.51425922417 -0.127695676855
159078000 0.514538602407 -0.127734534572
159084000 0.514340082993 -0.127425038986
159090000 0.514867751803 -0.128205650598
159096000 0.514463635528 -0.128346886534
159102000 0.514999673338 -0.128402646031
159108000 0.514702644521 -0.128242787263
159114000 0.51462737569 -0.128631777566
159120000 0.514437487504 -0.129070768164
159126000 0.514864792397 -0.129004563534
159132000 0.514766396632 -0.128932434186
159138000 0.514336834139 -0.129162091453
159144000 0.514143657911 -0.129643687791
159150000 0.514156803075 -0.129904564819
159156000 0.515109536552 -0.129813318943
159162000 0.515160988165 -0.129839073997
159168000 0.514453442703 -0.130510972672
159174000 0.514473518164 -0.130861665619
159180000 0.515036159273 -0.13072393188
159186000 0.514467019992 -0.130777542974
159192000 0.514609453223 -0.131327938235
159198000 0.514569800697 -0.131742352391
159204000 0.51519012219 -0.131720391528
159210000 0.514686475704 -0.131480657412
159216000 0.514993210284 -0.132110274715
159222000 0.514464340338 -0.13243885819
159228000 0.514944459759 -0.132322198079
159234000 0.514678038067 -0.132184882956
159240000 0.515580690756 -0.134533800619
159246000 0.514507310715 -0.13307542795
159252000 0.512813848252 -0.132506264597
159258000 0.515003293215 -0.132956063025
159264000 0.51501089807 -0.13345499938
159270000 0.514706493944 -0.133706106695
159276000 0.514970749539 -0.133841175853
159282000 0.515106530363 -0.133563655829
159288000 0.514983787928 -0.133972767471
159294000 0.514483094558 -0.134116633786
159300000 0.515038357853 -0.134522709025
159306000 0.515477569555 -0.134308425174
159312000 0.514947773404 -0.134470522515
159318000 0.514697674162 -0.134943022191
159324000 0.514755243999 -0.13539315652
159330000 0.515306576852 -0.135283272597
159336000 0.514965278965 -0.135161256933
159342000 0.514881525027 -0.135790765152
159348000 0.514804356195 -0.136257193515
159354000 0.515264941804 -0.136103649111
159360000 0.515083222729 -0.135874987773
159366000 0.515428612643 -0.136804756888
159372000 0.514718665408 -0.136940929084
159378000 0.515012307313 -0.136979485513
159384000 0.5150684551 -0.136648208628
159390000 0.515145415481 -0.137362688017
159396000 0.514886041408 -0.13756871828
159402000 0.51532342243 -0.137668797563
159408000 0.515419148029 -0.137367926986
159414000 0.515299700059 -0.137924618281
159420000 0.514888286207 -0.138327065028
159426000 0.515196153359 -0.138366471695
159432000 0.515597957809 -0.138287251311
159438000 0.515262650857 -0.138606825068
159444000 0.514953758387 -0.13885803219
159450000 0.515296967629 -0.139371097762
159456000 0.515893528676 -0.13922265743
159462000 0.515466461419 -0.139167335778
159468000 0.514985709996 -0.139735175244
159474000 0.515195560751 -0.140052196153
159480000 0.515563696482 -0.140069261342
159486000 0.515601534391 -0.139746512725
159492000 0.515253450731 -0.140539394464
159498000 0.515107425535 -0.14079292616
159504000 0.515622017798 -0.14089000167
159510000 0.515679726532 -0.140679230593
159516000 0.515474918311 -0.141157818217
159522000 0.515185914607 -0.141599107659
159528000 0.51555706332 -0.141438056014
159534000 0.517578360838 -0.141593750418
159540000 0.515446668087 -0.141962841926
159546000 0.517975080236 -0.142695946157
159552000 0.515637129113 -0.142412854689
159558000 0.515803083383 -0.142070064558
159564000 0.515699773975 -0.142449950041
159570000 0.515194111445 -0.142810189377
159576000 0.515610501421 -0.14297277607
159582000 0.515846080935 -0.142818181942
159588000 0.515370111456 -0.142948550077
159594000 0.515306795509 -0.143308552788
159600000 0.515613722853 -0.143785679845
159606000 0.51587932009 -0.143966000588
159612000 0.516013993692 -0.143626335593
159618000 0.515885053938 -0.143896937417
159624000 0.515466340871 -0.144238415837
159630000 0.515626636949 -0.144730554832
159636000 0.515943024757 -0.14436477826
159642000 0.515655320543 -0.144579152136
159648000 0.515423422892 -0.14500544215
159654000 0.515601249863 -0.145472227336
159660000 0.516253120199 -0.145412410955
159666000 0.515999354291 -0.145521569867
159672000 0.515671015049 -0.145942532574
159678000 0.515516336167 -0.146191778203
159684000 0.516027858994 -0.146124687507
159690000 0.515881521851 -0.14604241571
159696000 0.515649578963 -0.146544674202
159702000 0.514394535099 -0.147862802379
159708000 0.515987053176 -0.147169162586
159714000 0.514814051052 -0.147200964781
159720000 0.515932872165 -0.147394161051
159726000 0.515491905029 -0.147585455913
159732000 0.515929636632 -0.14777713195
159738000 0.516172154675 -0.147623036084
159744000 0.516143723462 -0.148007083282
159750000 0.515493772199 -0.148169581254
159756000 0.516187276422 -0.148660621909
159762000 0.516355545268 -0.148085898448
159768000 0.516159479036 -0.148565370757
159774000 0.515592025856 -0.148177699157
159780000 0.515840910663 -0.149194416452
159786000 0.516281057063 -0.149024526137
159792000 0.5158051522 -0.149360176443
159798000 0.515696053272 -0.149568423743
159804000 0.515889594262 -0.150128748023
159810000 0.516397656849 -0.150205967691
159816000 0.516335403977 -0.150219275675
159822000 0.51592349886 -0.15052665995
159828000 0.51577740883 -0.150940542463
159834000 0.516226850853 -0.150786565818
159840000 0.515988736469 -0.150949203942
159846000 0.515811438667 -0.151432234984
159852000 0.515639631516 -0.151568511813
159858000 0.516289280466 -0.151991121821
159864000 0.516413738204 -0.15176632648
159870000 0.516281082649 -0.152200468841
159876000 0.51563504773 -0.152447221563
159882000 0.51637942114 -0.152594629487
159888000 0.516294776599 -0.152330352449
159894000 0.516424974656 -0.152844073528
159900000 0.515829935669 -0.152963657896
159906000 0.516266961855 -0.153449051948
159912000 0.516598039224 -0.153202368805
159918000 0.516442483096 -0.153439189825
159924000 0.51594523675 -0.153780185472
159930000 0.51593630823 -0.154163354114
159936000 0.516384701278 -0.154032047047
159942000 0.516282423248 -0.154157382047
159948000 0.515948562675 -0.154386241016
159954000 0.516113425226 -0.154939530005
159960000 0.516553097457 -0.154922263538
159966000 0.516494140472 -0.155137107325
159972000 0.516136016931 -0.155455885744
159978000 0.515882652544 -0.155717457249
159984000 0.51609394436 -0.155766574007
159990000 0.51638302646 -0.155888995104
159996000 0.515963571865 -0.156163366664
160002000 0.515619265353 -0.156558313504
160008000 0.516167956693 -0.156792492721
160014000 0.516510786805 -0.156719297292
160020000 0.516069171197 -0.157010532411
160026000 0.515882744278 -0.15715263841
160032000 0.5162546258 -0.157438653344
160038000 0.516481764756 -0.15720330896
160044000 0.516275637032 -0.157648613054
160050000 0.515925222293 -0.157675538817
160056000 0.516328804661 -0.158438870117
160062000 0.517063275954 -0.158214898909
160068000 0.516581194525 -0.158344923177
160074000 0.515923630659 -0.158689861663
160080000 0.515968102866 -0.159010988906
160086000 0.516421503875 -0.158915495897
160092000 0.516352348203 -0.159018979271
160098000 0.515881004279 -0.159330726921
160104000 0.516050972499 -0.159875185297
160110000 0.516288242364 -0.159959910427
160116000 0.516342023968 -0.159996623555
160122000 0.515882048408 -0.160241067744
160128000 0.515708646728 -0.160646167536
160134000 0.51641501937 -0.160805242273
160140000 0.516492701351 -0.160793624566
160146000 0.516032131653 -0.161193052143
160152000 0.515835372637 -0.161460790323
160158000 0.516206001008 -0.161760223412
160164000 0.516479489504 -0.161708764155
160170000 0.516255993705 -0.161872003327
160176000 0.515821742457 -0.162211655161
160182000 0.516190754243 -0.162330411276
160188000 0.516482988385 -0.162228772005
160194000 0.51582127959 -0.162760740656
160200000 0.51589245297 -0.16275158069
160206000 0.516339096146 -0.162955204507
160212000 0.516623399187 -0.163316736182
160218000 0.516120416678 -0.163175168652
160224000 0.516092158996 -0.163923811133
160230000 0.516016683576 -0.163881172685
160236000 0.51656821709 -0.164266755722
160242000 0.516171491137 -0.163842795153
160248000 0.515953708513 -0.164566356223
160254000 0.515986410993 -0.164406035887
160260000 0.516213934641 -0.164913724211
160266000 0.516586327713 -0.16481209011
160272000 0.515888871412 -0.16544282273
160278000 0.515778004454 -0.165303977345
160284000 0.515945676019 -0.165805974958
160290000 0.516169780337 -0.165559835235
160296000 0.515673341382 -0.166086237492
160302000 0.515822822569 -0.166007832728
160308000 0.515850359299 -0.166550868621
160314000 0.516365192236 -0.166504581507
160320000 0.516699349181 -0.167045449367
160326000 0.515980570979 -0.167070275957
160332000 0.515851656303 -0.167884260826
160338000 0.516450999723 -0.167322692599
160344000 0.515540798916 -0.167327358175
160350000 0.515642849859 -0.167917419754
160356000 0.515842684441 -0.167970984779
160362000 0.516253569159 -0.168311998494
160368000 0.516134921597 -0.168282358789
160374000 0.515941124214 -0.168950489177
160380000 0.516007895395 -0.16892016986
160386000 0.516348251182 -0.169293916723
160392000 0.516179929781 -0.16908887424
160398000 0.515789389666 -0.169450688092
160404000 0.515871221861 -0.16936583664
160410000 0.516051647642 -0.169919353983
160416000 0.516201989137 -0.16991396236
160422000 0.515649936834 -0.170370286669
160428000 0.515925367842 -0.170438369727
160434000 0.515957917299 -0.170796868108
160440000 0.516073921589 -0.17062132093
160446000 0.515270901755 -0.171197471264
160452000 0.515290738174 -0.17109383924
160458000 0.515491330974 -0.171669351029
160464000 0.515995046765 -0.171730024598
160470000 0.515441863293 -0.171895149965
160476000 0.515511878711 -0.172122251741
160482000 0.515566798282 -0.172560471942
160488000 0.515983716236 -0.172447243112
160494000 0.515631029062 -0.172394399732
160500000 0.515421077889 -0.172900352045
160506000 0.515392111192 -0.173138268744
160512000 0.51580278088 -0.173339648075
160518000 0.515593571612 -0.173456348418
160524000 0.515412279745 -0.17382222402
160530000 0.515644590223 -0.173916241243
160536000 0.515889731412 -0.174232856697
160542000 0.515708669154 -0.174039324619
160548000 0.515366991306 -0.174488284221
160554000 0.515618593948 -0.174546157266
160560000 0.515695471304 -0.174951157223
160566000 0.515970254349 -0.175026300654
160572000 0.515374131687 -0.1753415057
160578000 0.515638085375 -0.175584263351
160584000 0.515634824381 -0.175821386402
160590000 0.516051829305 -0.175978394216
160596000 0.515275986996 -0.176024888934
160602000 0.515402406486 -0.176094465618
160608000 0.515019589144 -0.176206316626
160614000 0.51517996275 -0.175840287439
160620000 0.514272862764 -0.175703598156
160626000 0.513989679111 -0.175700642965
160632000 0.513961671001 -0.175864296367
160638000 0.514669265896 -0.176287909017
160644000 0.514426043097 -0.176636199366
160650000 0.514653033382 -0.17750502655
160656000 0.515059606717 -0.178028379637
160662000 0.51569944658 -0.178577892488
160668000 0.515170021825 -0.178591893802
160674000 0.515452052455 -0.178928440666
160680000 0.515295697576 -0.179290002222
160686000 0.515479369201 -0.179327760657
160692000 0.515490351802 -0.179411072396
160698000 0.51501307142 -0.179674011389
160704000 0.515101436849 -0.179770681666
160710000 0.515408956541 -0.180115633617
160716000 0.515402728062 -0.180427307079
160722000 0.514874771144 -0.180575608358
160728000 0.515049043783 -0.180810999788
160734000 0.515103454936 -0.181123449839
160740000 0.515382279465 -0.181239200188
160746000 0.514735706637 -0.181377755877
160752000 0.515071043174 -0.181582365178
160758000 0.514842184675 -0.181829003587
160764000 0.515489820243 -0.182214700219
160770000 0.514900437671 -0.182379699503
160776000 0.515121128606 -0.182722392226
160782000 0.514842549243 -0.182903768441
160788000 0.51525145092 -0.183065043678
160794000 0.514632472772 -0.182940726354
160800000 0.514585213705 -0.183408251083
160806000 0.513959379039 -0.183246278811
160812000 0.514247552559 -0.183980512806
160818000 0.515480039076 -0.184396650181
160824000 0.515242109245 -0.183837434191
160830000 0.51385114475 -0.184268497109
160836000 0.51384492839 -0.185265258964
160842000 0.514341968385 -0.185761051218
160848000 0.514304924779 -0.185508081884
160854000 0.512311687659 -0.185997887108
160860000 0.51053097028 -0.186215811721
160866000 0.511261713956 -0.186889549111
160872000 0.516903139323 -0.18545250893
160878000 0.509694853867 -0.186084573403
160884000 0.51341832895 -0.186669226706
160890000 0.514202413334 -0.187038183555
160896000 0.515244642327 -0.187245398454
160902000 0.51381903463 -0.186866716341
160908000 0.513476754255 -0.186988846969
160914000 0.514039364979 -0.187558725969
160920000 0.514991952468 -0.188087079419
160926000 0.514175717201 -0.187782050716
160932000 0.513380136522 -0.187934585497
160938000 0.513675628959 -0.188757474183
160944000 0.515083174953 -0.189053494879
160950000 0.514370296621 -0.188375096665
160956000 0.513105385529 -0.188545156514
160962000 0.513616453987 -0.189208913167
160968000 0.5143974712 -0.189654130512
160974000 0.514611464026 -0.1891532667
160980000 0.513067320288 -0.189528994211
160986000 0.513197678765 -0.190376921202
160992000 0.514136998578 -0.190575713058
160998000 0.514408913867 -0.190328800192
161004000 0.512567237219 -0.190434697163
161010000 0.512911167143 -0.190791900001
161016000 0.513590767826 -0.191233538156
161022000 0.514287034702 -0.191455112142
161028000 0.512710041632 -0.191461662888
161034000 0.512781840337 -0.191841641511
161040000 0.513064328386 -0.192240460392
161046000 0.513888364382 -0.192559723268
161052000 0.512756206589 -0.192181758639
161058000 0.512442207205 -0.192196941251
161064000 0.512867425028 -0.192802957507
161070000 0.513825663968 -0.193514467589
161076000 0.513034508029 -0.19294751734
161082000 0.5123763062 -0.193062842577
161088000 0.512419425242 -0.194073874674
161094000 0.513651197342 -0.194482264542
161100000 0.513219313674 -0.19369386719
161106000 0.512029191846 -0.193813882622
161112000 0.512385317283 -0.19453326063
161118000 0.51332844647 -0.195029767776
161124000 0.513439006803 -0.194640865928
161130000 0.5119563295 -0.194789106307
161136000 0.512058243845 -0.195576083247
161142000 0.513053805448 -0.195891477403
161148000 0.5132613089 -0.195755019696
161154000 0.511673415197 -0.195646546372
161160000 0.511782793776 -0.195969363458
161166000 0.512425529679 -0.196533257272
161172000 0.513167060107 -0.196778752496
161178000 0.511845316424 -0.196595676415
161184000 0.511698614873 -0.196992264178
161190000 0.512010898075 -0.197565880663
161196000 0.512986306385 -0.19802725058
161202000 0.51179239397 -0.197404597519
161208000 0.511215172581 -0.197432311126
161214000 0.511730961649 -0.198111927008
161220000 0.512525021646 -0.198885416353
161226000 0.511871347403 -0.198270394155
161232000 0.511102211472 -0.198304566241
161238000 0.511135850981 -0.199253967282
161244000 0.512353887813 -0.199730713014
161250000 0.51188771775 -0.198968090828
161256000 0.510811328244 -0.19916497693
161262000 0.5108834706 -0.200109944399
161268000 0.512051390297 -0.200561909083
161274000 0.51216322502 -0.200128267938
161280000 0.51087152372 -0.200177602162
161286000 0.510845660318 -0.201050884432
161292000 0.511856215142 -0.201458622722
161298000 0.51215745638 -0.201272016759
161304000 0.51047226301 -0.200961562877
161310000 0.510482286114 -0.201326501243
161316000 0.511240218202 -0.201947734588
161322000 0.511703080336 -0.202296524776
161328000 0.510465463451 -0.202012082758
161334000 0.510374369158 -0.202348889741
161340000 0.510759047528 -0.203102233163
161346000 0.511617564387 -0.203485366487
161352000 0.510675252493 -0.202965728592
161358000 0.509914543378 -0.202888932178
161364000 0.510336896137 -0.203642198173
161370000 0.51120112885 -0.204397326224
161376000 0.510824504163 -0.203977743451
161382000 0.509913387368 -0.203830324167
161388000 0.510035789075 -0.204834522272
161394000 0.511072942009 -0.205347375927
161400000 0.51081927929 -0.204741132333
161406000 0.510609611007 -0.205178346737
161412000 0.510490692356 -0.205298732794
161418000 0.509444158985 -0.205308557688
161424000 0.509910695356 -0.20565853689
161430000 0.510054493211 -0.206158186616
161436000 0.510293153247 -0.206233661068
161442000 0.508845760326 -0.20593921142
161448000 0.509655576368 -0.206533790141
161454000 0.509864645745 -0.207097307653
161460000 0.510043702997 -0.207306698553
161466000 0.509673320468 -0.20718407298
161472000 0.509096164711 -0.207245432891
161478000 0.509640611796 -0.207969656191
161484000 0.509942275131 -0.208206655988
161490000 0.509597609896 -0.207998363008
161496000 0.509022310372 -0.208169264496
161502000 0.509099380034 -0.209109726779
161508000 0.509656492351 -0.209214443712
161514000 0.509342376969 -0.20883549674
161520000 0.508617412356 -0.209078892562
161526000 0.508975486754 -0.209737406263
161532000 0.509480629303 -0.209945934778
161538000 0.509191060011 -0.20989912089
161544000 0.508093793853 -0.210025265099
161550000 0.508603675377 -0.210831123454
161556000 0.509023736753 -0.21089976223
161562000 0.508834759141 -0.210936408331
161568000 0.507867078103 -0.211033087542
161574000 0.50790241048 -0.211455194146
161580000 0.508570340782 -0.211532454048
161586000 0.508558906825 -0.212001989804
161592000 0.507742044129 -0.211841035938
161598000 0.507938518981 -0.212043047703
161604000 0.508078025075 -0.21278189811
161610000 0.508224821115 -0.21287457754
161616000 0.507797853277 -0.212612209521
161622000 0.507303003721 -0.212741305739
161628000 0.507704446243 -0.213399155941
161634000 0.507741763461 -0.213627176366
161640000 0.50775933675 -0.213583954304
161646000 0.507109173237 -0.213870172255
161652000 0.507117432652 -0.214621522753
161658000 0.507745118043 -0.214543688466
161664000 0.507479133995 -0.2143420827
161670000 0.506787711274 -0.214462089379
161676000 0.507774137491 -0.215294846123
161682000 0.507348596232 -0.215485248036
161688000 0.50793298704 -0.215676518053
161694000 0.506372483664 -0.21567367723
161700000 0.506692576445 -0.216238745977
161706000 0.507097458306 -0.216389212055
161712000 0.506853358826 -0.21647306015
161718000 0.506023736479 -0.216216685124
161724000 0.50645790571 -0.217093411384
161730000 0.506513580188 -0.217174213251
161736000 0.506752054978 -0.217334946244
161742000 0.505831649757 -0.217536228328
161748000 0.506037758044 -0.217680847098
161754000 0.505801923387 -0.217783032165
161760000 0.506164602481 -0.218479247706
161766000 0.506080036402 -0.218095931912
161772000 0.505267244918 -0.218131185396
161778000 0.505315445573 -0.218648882121
161784000 0.505690245375 -0.219375195366
161790000 0.505557240301 -0.219100258042
161796000 0.504968461179 -0.219226717943
161802000 0.505185857655 -0.220158370372
161808000 0.505675515642 -0.220257313461
161814000 0.505710923451 -0.219892394038
161820000 0.504504090266 -0.219982929671
161826000 0.504908581799 -0.220717234573
161832000 0.505212708883 -0.220930509152
161838000 0.505411298046 -0.220972262661
161844000 0.504065955478 -0.221067886855
161850000 0.504367969401 -0.221674038589
161856000 0.504763017702 -0.221941240863
161862000 0.504511314669 -0.221876525576
161868000 0.503743046522 -0.221776270841
161874000 0.504286088227 -0.222233337424
161880000 0.504331596319 -0.22250684519
161886000 0.504265267766 -0.223059384647
161892000 0.503578117116 -0.222886058107
161898000 0.503690420146 -0.223151057717
161904000 0.504002738459 -0.223677593933
161910000 0.503801822978 -0.223867394115
161916000 0.503425105644 -0.22364552393
161922000 0.503091309471 -0.223620553339
161928000 0.503483331592 -0.224418183933
161934000 0.503496150137 -0.224739583878
161940000 0.503562331236 -0.224623024024
161946000 0.503199968119 -0.225043492149
161952000 0.502984651069 -0.225438667478
161958000 0.503114588189 -0.225622435836
161964000 0.50332945151 -0.22528338332
161970000 0.502526990461 -0.225305162809
161976000 0.502673388347 -0.226019528365
161982000 0.502926639373 -0.226497049091
161988000 0.502992254514 -0.226227502499
161994000 0.50181817997 -0.226344727025
162000000 0.502363986173 -0.226983247186
