! Calibrated averaged scanner-service zoom
# Hz S RI R 50
159810000 0.515824649459 -0.150347195005
159811755 0.515923592309 -0.150108675345
159813510 0.516433579113 -0.150321620396
159815265 0.51612976739 -0.149768593799
159817020 0.516046264628 -0.150526153116
159818775 0.515783085263 -0.150111328633
159820530 0.515764944334 -0.150395870461
159822285 0.516190247965 -0.150204109169
159824040 0.515894821213 -0.150693306238
159825795 0.515754042951 -0.15072048545
159827550 0.515876801527 -0.150852306523
159829305 0.51660088142 -0.150912497481
159831060 0.515765533885 -0.150797099478
159832815 0.515750968573 -0.150963675827
159834570 0.515699099352 -0.150776448706
159836325 0.516489882267 -0.151064053004
159838080 0.515858749146 -0.15058873696
159839835 0.515838489641 -0.151358690273
159841590 0.515944807989 -0.151192278991
159843345 0.516647903159 -0.151365989323
159845100 0.515921415284 -0.150673313068
159846855 0.51592009248 -0.151614753186
159848610 0.515822183228 -0.151047117412
159850365 0.516297420255 -0.151463901396
159852120 0.515889164739 -0.150499700037
159853875 0.515845738233 -0.151789254785
159855630 0.515823066579 -0.151360458305
159857385 0.516185639032 -0.151756357612
159859140 0.516100654116 -0.151147382348
159860895 0.515848362669 -0.151944553726
159862650 0.515616309943 -0.151506440351
159864405 0.515799393949 -0.151893676952
159866160 0.516134371462 -0.151456761801
159867915 0.515657734455 -0.152119189513
159869670 0.515899177456 -0.152004862243
159871425 0.51590329102 -0.152151650174
159873180 0.516600953297 -0.152117269734
159874935 0.515818617169 -0.152237903842
159876690 0.515713437058 -0.152389528794
159878445 0.51573922336 -0.152272389446
159880200 0.516459547571 -0.152404638801
159881955 0.515853022225 -0.152027326678
159883710 0.515856879461 -0.15275516136
159885465 0.516032044221 -0.152643408231
159887220 0.516566946215 -0.152706290607
159888975 0.516155822506 -0.151890311661
159890730 0.51582796473 -0.153043061094
159892485 0.515795671411 -0.152485859268
159894240 0.516365956586 -0.152940905854
159895995 0.516078189554 -0.152071332306
159897750 0.515998139543 -0.153210707738
159899505 0.5158249302 -0.152878769684
159901260 0.516430510746 -0.152933865516
159903015 0.516462237942 -0.152741034671
159904770 0.515875608417 -0.153408590678
159906525 0.515866053431 -0.152918955147
159908280 0.515812513111 -0.153311510481
159910035 0.516437058408 -0.152937140826
159911790 0.515882214753 -0.153530906027
159913545 0.515834659425 -0.153557900504
159915300 0.515906804838 -0.153757084721
159917055 0.516550722736 -0.153684196417
159918810 0.515730468423 -0.153569660694
159920565 0.515878766699 -0.153791142682
159922320 0.515704851067 -0.153678929165
159924075 0.516408479939 -0.153910753968
159925830 0.515863716961 -0.153506699185
159927585 0.515859750443 -0.1539529142
159929340 0.516022048752 -0.154139450962
159931095 0.516605062475 -0.15407207769
159932850 0.51601023597 -0.153544956037
159934605 0.515872911977 -0.154307919273
159936360 0.51562503799 -0.153984312987
159938115 0.51630691893 -0.154284211496
159939870 0.516115409383 -0.153604500735
159941625 0.515941360228 -0.154560456485
159943380 0.516013940981 -0.154380273409
159945135 0.51630611469 -0.154555640676
159946890 0.516425908859 -0.154026325842
159948645 0.515863402413 -0.154789658922
159950400 0.51571444767 -0.154401376104
159952155 0.515729798519 -0.154669052335
159953910 0.516321088137 -0.154369724805
159955665 0.515686310178 -0.154886829777
159957420 0.516065915676 -0.154894428942
159959175 0.515861115314 -0.155047804894
159960930 0.516611305997 -0.155055518867
159962685 0.515709146377 -0.155046026991
159964440 0.516032623909 -0.155116756431
159966195 0.515558194748 -0.155086143385
159967950 0.516660363129 -0.155238797465
159969705 0.515771640532 -0.15492668062
159971460 0.516115731335 -0.155578885998
159973215 0.515961224554 -0.155529530373
159974970 0.516683691722 -0.155586528395
159976725 0.515902964106 -0.154974741607
159978480 0.516099237637 -0.155768483792
159980235 0.515778090353 -0.155397300975
159981990 0.516331085147 -0.155711765237
159983745 0.516112425807 -0.154905947162
159985500 0.516029882112 -0.155993018993
159987255 0.516393208047 -0.155545208304
159989010 0.51602067917 -0.155835771087
159990765 0.515586557547 -0.156355192114
159992520 0.516020443812 -0.156197203416
159994275 0.516332211041 -0.155709247924
159996030 0.516073308459 -0.15599943098
159997785 0.515494631752 -0.156278034243
159999540 0.513667790839 -0.156813948227
160001295 0.516529611107 -0.156131153936
160003050 0.51618730563 -0.156018158775
160004805 0.515716750408 -0.156507661365
160006560 0.515685240084 -0.156771785305
160008315 0.51659150039 -0.156518023456
160010070 0.516187845097 -0.156270632823
160011825 0.515577448557 -0.156406044871
160013580 0.515457721024 -0.156687318164
160015335 0.516298780537 -0.156817029723
160017090 0.516406554027 -0.15642341777
160018845 0.515516114575 -0.156637197274
160020600 0.515557377122 -0.157229654121
160022355 0.516099353727 -0.157073961119
160024110 0.51603765322 -0.156696636724
160025865 0.515677044642 -0.156902995215
160027620 0.515338916626 -0.157189714006
160029375 0.51599071072 -0.157319505035
160031130 0.516336317996 -0.156927670066
160032885 0.51602421122 -0.157181211078
160034640 0.515508056019 -0.15757094133
160036395 0.516010653294 -0.157679261429
160038150 0.516437694941 -0.1571784535
160039905 0.516098606269 -0.15739639718
160041660 0.515593062089 -0.157647163183
160043415 0.515845880352 -0.157833487831
160045170 0.516668037801 -0.157561232181
160046925 0.516262481048 -0.157569871388
160048680 0.515520673494 -0.157813708238
160050435 0.515899227282 -0.158223495801
160052190 0.516496857574 -0.157933445452
160053945 0.516239197774 -0.157920891018
160055700 0.515568561148 -0.157844401124
160057455 0.51547185698 -0.158241968159
160059210 0.516306154671 -0.158277659055
160060965 0.516609826925 -0.158031839476
160062720 0.515504391593 -0.158172345396
160064475 0.515475636932 -0.158606283068
160066230 0.516234120438 -0.158605563156
160067985 0.51649488249 -0.158220221221
160069740 0.515630816376 -0.15842228899
160071495 0.51579183842 -0.158734971332
160073250 0.516086459846 -0.158729915304
160075005 0.516341690552 -0.158359231298
160076760 0.516009167121 -0.158625340357
160078515 0.515547108194 -0.159068401562
160080270 0.515935989821 -0.159121662955
160082025 0.516445120621 -0.158554239106
160083780 0.516022734148 -0.158890412587
160085535 0.515556484249 -0.159020137345
160087290 0.515777907258 -0.159197968003
160089045 0.516337805387 -0.158999407349
160090800 0.516157753294 -0.15888254143
160092555 0.515421065067 -0.159168707502
160094310 0.515532314056 -0.159550060721
160096065 0.516377657792 -0.159403041047
160097820 0.516202566951 -0.159267320391
160099575 0.51540231611 -0.159235312552
160101330 0.515415852155 -0.159535516827
160103085 0.516333362573 -0.159656057696
160104840 0.516308857791 -0.159367617454
160106595 0.515653246813 -0.159560446876
160108350 0.515467228623 -0.160013032256
160110105 0.515996986078 -0.159949597788
160111860 0.516413743677 -0.159644035882
160113615 0.51567817989 -0.159802150607
160115370 0.51544843763 -0.160164820643
160117125 0.516112116827 -0.160081647434
160118880 0.516424388494 -0.159850246998
160120635 0.516055202557 -0.160157431353
160122390 0.515582848391 -0.160562814136
160124145 0.515989376504 -0.160573864246
160125900 0.516396710559 -0.160128849583
160127655 0.515934496143 -0.16035018547
160129410 0.515349215101 -0.160543739531
160131165 0.515712262413 -0.160691946556
160132920 0.516436308249 -0.160616203099
160134675 0.516198543195 -0.160479726121
160136430 0.515727417651 -0.160633613096
160138185 0.515581604624 -0.161146615485
160139940 0.516624391334 -0.160957217498
160141695 0.516279821785 -0.160813931672
160143450 0.51559520005 -0.160713175169
160145205 0.515534646171 -0.161152862985
160146960 0.516248779805 -0.161210044094
160148715 0.516315072777 -0.160986048399
160150470 0.515564581939 -0.161120396233
160152225 0.51541242999 -0.161578408224
160153980 0.516107283535 -0.161421713039
160155735 0.516419011888 -0.161232423665
160157490 0.515587193229 -0.161227694521
160159245 0.515186987308 -0.161537031599
160161000 0.516088200999 -0.161678505223
160162755 0.515829272622 -0.161763222078
160164510 0.516047825566 -0.161326285403
160166265 0.516052784515 -0.161573958725
160168020 0.515540666407 -0.161753216311
160169775 0.515609737629 -0.162061799003
160171530 0.516084889734 -0.161903377394
160173285 0.516223426054 -0.16190428231
160175040 0.515602897827 -0.161887827534
160176795 0.515453369909 -0.162214413047
160178550 0.515816452875 -0.162228629214
160180305 0.516128863194 -0.162257969584
160182060 0.515773119328 -0.162119056841
160183815 0.515395278173 -0.162498486632
160185570 0.516071944083 -0.162739313266
160187325 0.516169561718 -0.162537436395
160189080 0.515994716728 -0.162533529468
160190835 0.515398244848 -0.162855815344
160192590 0.515907678514 -0.162823669993
160194345 0.516300895437 -0.16253020936
160196100 0.515962445437 -0.162656673731
160197855 0.515279484328 -0.162716044044
160199610 0.515993173592 -0.16324082464
160201365 0.516364025305 -0.162803593267
160203120 0.51630342512 -0.162806169809
160204875 0.515618066816 -0.163050723118
160206630 0.515888208593 -0.163266175179
160208385 0.516190045539 -0.162820689
160210140 0.516213342148 -0.163158739267
160211895 0.515656509115 -0.163025719252
160213650 0.515724317663 -0.163592470865
160215405 0.516254553339 -0.163265876705
160217160 0.516338498229 -0.163613829429
160218915 0.515686057765 -0.1633925207
160220670 0.515406956761 -0.163746695929
160222425 0.516068894916 -0.16357231203
160224180 0.516075533332 -0.163716370491
160225935 0.515768600413 -0.163523102994
160227690 0.515276744112 -0.163991493018
160229445 0.516118285566 -0.164173465072
160231200 0.516267230215 -0.16408782847
160232955 0.516091274575 -0.163912906581
160234710 0.515289008618 -0.16418607006
160236465 0.51598127848 -0.164243614344
160238220 0.516127874283 -0.164042028532
160239975 0.516005282921 -0.163970568959
160241730 0.515440955456 -0.164320693066
160243485 0.516068395305 -0.164681273675
160245240 0.516403156175 -0.164284324191
160246995 0.516274863604 -0.164294888341
160248750 0.515461353438 -0.164552326896
160250505 0.515732324569 -0.164725940804
160252260 0.516062882449 -0.164211062442
160254015 0.516043999609 -0.164557527987
160255770 0.515475771833 -0.164492793433
160257525 0.515518092069 -0.164943438613
160259280 0.516149622007 -0.164871154328
160261035 0.51618926772 -0.164937752875
160262790 0.515405912312 -0.164811131735
160264545 0.515298660148 -0.165187265725
160266300 0.515910284657 -0.164973581731
160268055 0.516050417586 -0.165183992913
160269810 0.515651803001 -0.164943593925
160271565 0.515219418155 -0.165382923664
160273320 0.516023331892 -0.165590846608
160275075 0.515972916545 -0.165487760984
160276830 0.515918966412 -0.165282612859
160278585 0.515191374154 -0.1655940999
160280340 0.515870361341 -0.165728372409
160282095 0.515985223408 -0.165382200525
160283850 0.515675808588 -0.165351332697
160285605 0.515159415266 -0.165758459324
160287360 0.515596555338 -0.16641412734
160289115 0.516145308297 -0.165845619133
160290870 0.516077038777 -0.16561608886
160292625 0.515331118921 -0.166009633413
160294380 0.515523318675 -0.166048894617
160296135 0.515922181223 -0.165758555156
160297890 0.515958653287 -0.165878364537
160299645 0.515286292687 -0.166008669151
160301400 0.515464412469 -0.166376178477
160303155 0.516122943972 -0.166310013607
160304910 0.516279092423 -0.16637814409
160306665 0.515512947125 -0.166262426349
160308420 0.515185312047 -0.166520573229
160310175 0.515849980696 -0.166447798575
160311930 0.516045056476 -0.166470693968
160313685 0.515687377718 -0.166430655611
160315440 0.515061968498 -0.166648032973
160317195 0.516004770471 -0.166955944628
160318950 0.51595334348 -0.166977917896
160320705 0.515990499238 -0.166631643833
160322460 0.514963224393 -0.167037498057
160324215 0.515428219089 -0.166960135196
160325970 0.515928364066 -0.166854329761
160327725 0.516093486076 -0.166866862779
160329480 0.515528178651 -0.167050330982
160331235 0.515632171816 -0.167951179933
160332990 0.515880087405 -0.167264599283
160334745 0.516051680644 -0.166967820159
160336500 0.515350748715 -0.167375295296
160338255 0.516250366072 -0.16748299851
160340010 0.515735899913 -0.167267502227
160341765 0.515473319881 -0.167597124626
160343520 0.51576893951 -0.167373496622
160345275 0.516025949514 -0.167607404172
160347030 0.515856791079 -0.16743059408
160348785 0.515626430288 -0.167967039359
160350540 0.515868398373 -0.167895244984
160352295 0.516038936639 -0.168069142101
160354050 0.516037549601 -0.167970028845
160355805 0.515523466455 -0.168069291996
160357560 0.515708486341 -0.16789793159
160359315 0.515805172747 -0.168183815261
160361070 0.516098124492 -0.16811527341
160362825 0.515505074171 -0.168428352873
160364580 0.515827941322 -0.168409604917
160366335 0.515977206318 -0.168787585489
160368090 0.51616974315 -0.16836962593
160369845 0.515644887454 -0.168517818949
160371600 0.515729540181 -0.16858175458
160373355 0.515643998548 -0.168706428888
160375110 0.516113773172 -0.168466068293
160376865 0.515617684319 -0.168565823277
160378620 0.515688091768 -0.169094544593
160380375 0.515748172111 -0.169179947552
160382130 0.516125749055 -0.168998965627
160383885 0.515673207398 -0.168862717367
160385640 0.515649576647 -0.169209452852
160387395 0.515593040941 -0.16892700126
160389150 0.51603618581 -0.169143699074
160390905 0.51587232237 -0.169075660235
160392660 0.51560387117 -0.169444557221
160394415 0.515714077854 -0.169286611574
160396170 0.515981386464 -0.169593418326
160397925 0.515952142881 -0.169498476469
160399680 0.515621548479 -0.169764611468
160401435 0.515692811182 -0.169249725808
160403190 0.515660289711 -0.169762016193
160404945 0.516200897529 -0.169546609027
160406700 0.515452569097 -0.169799136891
160408455 0.515807439543 -0.16972264958
160410210 0.515883053007 -0.170158797217
160411965 0.51610629234 -0.169858571119
160413720 0.515508248507 -0.169990782195
160415475 0.515559856637 -0.169974039208
160417230 0.515520082512 -0.170178098455
160418985 0.516072153837 -0.169931513569
160420740 0.515499575055 -0.170011080454
160422495 0.515733537415 -0.170455327018
160424250 0.515547368747 -0.170600365649
160426005 0.516111844348 -0.170354902803
160427760 0.515394642412 -0.170259099273
160429515 0.515495115768 -0.170660661794
160431270 0.515096472277 -0.170470861102
160433025 0.515942808963 -0.170602662057
160434780 0.51546840932 -0.170463596933
160436535 0.515318087878 -0.170874132256
160438290 0.515461097468 -0.170816876659
160440045 0.515682349834 -0.171136861817
160441800 0.515774179509 -0.1710140495
160443555 0.515255074772 -0.171109721573
160445310 0.515130301302 -0.17059723531
160447065 0.515493441523 -0.171091721823
160448820 0.515683982599 -0.171124965511
160450575 0.515179743571 -0.171272393815
160452330 0.515319459277 -0.171250338548
160454085 0.515475754257 -0.171668112263
160455840 0.515750938068 -0.171501762929
160457595 0.515160954987 -0.171479832064
160459350 0.515287531918 -0.171543940536
160461105 0.515158092749 -0.171646767892
160462860 0.515566473983 -0.171540187817
160464615 0.515202497072 -0.171504185049
160466370 0.515224498666 -0.172073670095
160468125 0.515229292276 -0.172107957226
160469880 0.515846990584 -0.17197723323
160471635 0.515303923985 -0.171876895975
160473390 0.515295401951 -0.172106754525
160475145 0.515204759834 -0.171992186634
160476900 0.515648308889 -0.172146218121
160478655 0.515644664184 -0.172124761668
160480410 0.515358017875 -0.172400007943
160482165 0.515534971985 -0.172308193322
160483920 0.515624512377 -0.172534160153
160485675 0.51560702483 -0.172555422789
160487430 0.515152281494 -0.172466454913
160489185 0.515298421879 -0.172270853121
160490940 0.515317707255 -0.172600065203
160492695 0.515738471958 -0.172607484276
160494450 0.515252763607 -0.172710422307
160496205 0.515429176612 -0.172772082965
160497960 0.515512732533 -0.173040178424
160499715 0.515721110033 -0.17295186965
160501470 0.515350274992 -0.172931249363
160503225 0.515249064138 -0.172920326628
160504980 0.515406876213 -0.173102945861
160506735 0.515671125202 -0.172929884086
160508490 0.515231008433 -0.172921277028
160510245 0.515177390683 -0.173580598274
160512000 0.515305795901 -0.173465031401
160513755 0.515124269752 -0.173037494545
160515510 0.514779872903 -0.173538462484
160517265 0.515572829758 -0.173611418673
160519020 0.516182005242 -0.173511943651
160520775 0.515283768059 -0.173089578439
160522530 0.514701982316 -0.173639437494
160524285 0.515395850351 -0.173828915727
160526040 0.516168222245 -0.173647426741
160527795 0.515511768154 -0.173533875245
160529550 0.514733880991 -0.173897801845
160531305 0.51554265005 -0.174161484901
160533060 0.516091136491 -0.17389388176
160534815 0.515444730474 -0.173705350319
160536570 0.514655756703 -0.174038066937
160538325 0.515136948101 -0.17412236979
160540080 0.515774410912 -0.174263848508
160541835 0.515906392186 -0.174083183389
160543590 0.514776370766 -0.174295292336
160545345 0.515159637709 -0.174514997818
160547100 0.515835292741 -0.174595187536
160548855 0.515961848927 -0.174417299548
160550610 0.513407415697 -0.173859891784
160552365 0.51501158426 -0.174654793073
160554120 0.515675777018 -0.174890211264
160555875 0.516185694999 -0.17476039678
160557630 0.515166675636 -0.174520365121
160559385 0.514945339661 -0.175024174148
160561140 0.515660124952 -0.175217387143
160562895 0.516269417258 -0.174960139966
160564650 0.515363943742 -0.174630745065
160566405 0.514767326193 -0.175156145508
160568160 0.515574307817 -0.175311823392
160569915 0.516166064183 -0.175187730748
160571670 0.515613019991 -0.175030892022
160573425 0.51489182486 -0.175549565839
160575180 0.515409300636 -0.175691416343
160576935 0.516229348582 -0.175571667999
160578690 0.515667302224 -0.175239388788
160580445 0.514702385249 -0.175572827112
160582200 0.515136533625 -0.17572891002
160583955 0.515892029289 -0.17573552925
160585710 0.516465408729 -0.175735017311
160587465 0.514661636582 -0.175898698595
160589220 0.514889156413 -0.176024441501
160590975 0.515797093282 -0.176190475023
160592730 0.515837035917 -0.17599085994
160594485 0.514797602628 -0.17591379295
160596240 0.514866280499 -0.17605844089
160597995 0.515591544867 -0.176433225914
160599750 0.516114011288 -0.176282350439
160601505 0.515239706139 -0.176150674583
160603260 0.514749672138 -0.176401958298
160605015 0.515456240722 -0.176552968679
160606770 0.51572361386 -0.176253575506
160608525 0.514899351963 -0.175703606409
160610280 0.51431580814 -0.175972392185
160612035 0.514786442593 -0.176221423102
160613790 0.515470094048 -0.175865866482
160615545 0.514743374857 -0.175612340805
160617300 0.513878327184 -0.17586084736
160619055 0.514191756434 -0.176014242576
160620810 0.514780347653 -0.1758228809
160622565 0.514348695521 -0.175430793857
160624320 0.513262454376 -0.175518153117
160626075 0.513446659159 -0.17565790695
160627830 0.514353747416 -0.175633918497
160629585 0.514190486936 -0.175380294184
160631340 0.512989147878 -0.175563538082
160633095 0.513251959177 -0.175813233851
160634850 0.514321845452 -0.176201674223
160636605 0.514439648372 -0.176106560532
160638360 0.513495235573 -0.176070386031
160640115 0.51366470605 -0.17639937217
160641870 0.514107596552 -0.176884031731
160643625 0.514563604861 -0.176383792957
160645380 0.514407427362 -0.176842516721
160647135 0.513918652351 -0.177300620749
160648890 0.514931030084 -0.177679410159
160650645 0.515628048447 -0.177499806355
160652400 0.514794528043 -0.177322259852
160654155 0.514285300523 -0.17786035703
160655910 0.515094222974 -0.178328838757
160657665 0.515881798521 -0.178257352828
160659420 0.515260921977 -0.178212138527
160661175 0.51454801965 -0.178412034603
160662930 0.514996979503 -0.178755958525
160664685 0.515786147796 -0.178609610016
160666440 0.515307005581 -0.178395364032
160668195 0.514430756575 -0.178563655981
160669950 0.514747640533 -0.178838932842
160671705 0.515745548087 -0.179006197661
160673460 0.515463210535 -0.178869994378
160675215 0.514596644656 -0.178834148698
160676970 0.514686279059 -0.179159706409
160678725 0.515463959907 -0.179246678139
160680480 0.515722047817 -0.179343935303
160682235 0.514877900828 -0.178853466855
160683990 0.514468399716 -0.179183991356
160685745 0.515430283358 -0.179456412296
160687500 0.515841241841 -0.179530489729
160689255 0.51516771127 -0.179532738633
160691010 0.515341067926 -0.179313311655
160692765 0.514865603449 -0.179727291241
160694520 0.515192276538 -0.17960265496
160696275 0.515094722412 -0.179848566616
160698030 0.51547536103 -0.179657431688
160699785 0.514692838643 -0.179821370931
160701540 0.514949423027 -0.179650166558
160703295 0.514783711412 -0.179966109915
160705050 0.515471644853 -0.180028246425
160706805 0.514872134043 -0.180171768318
160708560 0.514997615323 -0.180155777343
160710315 0.514817933763 -0.180393668075
160712070 0.515355440171 -0.180397919794
160713825 0.515022445946 -0.180185923826
160715580 0.514707409143 -0.180291911724
160717335 0.514867016154 -0.180437807715
160719090 0.515344399239 -0.180695717314
160720845 0.515234429978 -0.180495901664
160722600 0.5149041258 -0.180655237527
160724355 0.515022936477 -0.180951073385
160726110 0.515332508779 -0.180934088283
160727865 0.515368554266 -0.18072240844
160729620 0.514776128664 -0.180775957324
160731375 0.515049159402 -0.180840425664
160733130 0.515072992143 -0.180977423479
160734885 0.515383416229 -0.18094732595
160736640 0.514590977826 -0.181201421401
160738395 0.51482948472 -0.18116179511
160740150 0.514823873285 -0.181383455653
160741905 0.515230799645 -0.181294163703
160743660 0.514356462166 -0.181180555201
160745415 0.514550137549 -0.181146224118
160747170 0.514527786239 -0.181354063254
160748925 0.515294591414 -0.181632833912
160750680 0.5145502071 -0.181581368516
160752435 0.514680561577 -0.181695202752
160754190 0.514555080046 -0.181872285897
160755945 0.515245625802 -0.181940949283
160757700 0.514680073769 -0.181563064354
160759455 0.514447476681 -0.181843872702
160761210 0.514797940108 -0.181904850622
160762965 0.515183005667 -0.182225126607
160764720 0.515096753823 -0.181955886867
160766475 0.514764333587 -0.182198840361
160768230 0.514799702094 -0.182545759179
160769985 0.515283930779 -0.182620115683
160771740 0.515220019104 -0.182193498844
160773495 0.51466096991 -0.182421597867
160775250 0.514784850692 -0.182420147525
160777005 0.515028390044 -0.182714735623
160778760 0.515381294797 -0.182600405453
160780515 0.514701659162 -0.182749858322
160782270 0.514894536719 -0.182890051189
160784025 0.514799078372 -0.182893184087
160785780 0.515459067908 -0.183071128593
160787535 0.514364324894 -0.182809218663
160789290 0.514534912797 -0.18292491499
160791045 0.514556676514 -0.182934618913
160792800 0.51514238629 -0.183363912526
160794555 0.514497247434 -0.183094445709
160796310 0.514509842596 -0.183382923668
160798065 0.514337128427 -0.183485197358
160799820 0.515010308203 -0.183720304219
160801575 0.514602841735 -0.183223516489
160803330 0.514315304033 -0.183507856826
160805085 0.51442653258 -0.18354948319
160806840 0.514847027805 -0.183926001335
160808595 0.514862883755 -0.183466147571
160810350 0.514374514302 -0.183866916589
160812105 0.514342278579 -0.183877286377
160813860 0.514854381491 -0.184122488638
160815615 0.514842823366 -0.183689919359
160817370 0.514160661702 -0.183969461284
160819125 0.514306807715 -0.183851674676
160820880 0.514530881781 -0.184260198145
160822635 0.51484381351 -0.184118807656
160824390 0.514347456967 -0.184243835896
160826145 0.514276024446 -0.1844197073
160827900 0.514230793981 -0.184548381963
160829655 0.514816929433 -0.184476139405
160831410 0.514070971234 -0.184363963096
160833165 0.513793992772 -0.184340723532
160834920 0.51387836296 -0.184712314004
160836675 0.514359539658 -0.185010896894
160838430 0.513753006778 -0.184846245642
160840185 0.513777451654 -0.185298470633
160841940 0.513561437792 -0.185420096177
160843695 0.513869219704 -0.185712825277
160845450 0.513372390251 -0.185310715063
160847205 0.51293760594 -0.185686884978
160848960 0.513043879862 -0.185713718778
160850715 0.513404177458 -0.186201024881
160852470 0.513271761721 -0.185949845099
160854225 0.51261266065 -0.18627104615
160855980 0.512768781663 -0.18646465297
160857735 0.512900282482 -0.186862720488
160859490 0.512968968891 -0.186486687564
160861245 0.512496113704 -0.186631471009
160863000 0.512929749159 -0.186439857768
160864755 0.512822219627 -0.186784112309
160866510 0.513229172233 -0.186696973789
160868265 0.512989592948 -0.186609678483
160870020 0.5126323856 -0.186691112626
160871775 0.513274490935 -0.186936164609
160873530 0.509350218023 -0.187297131619
160875285 0.513546478401 -0.186825077672
160877040 0.513145479455 -0.186359343852
160878795 0.513454858963 -0.186681928994
160880550 0.514177677093 -0.186532980474
160882305 0.513988633882 -0.186554337199
160884060 0.513538478437 -0.186600932402
160885815 0.51377003407 -0.186839307504
160887570 0.514648521371 -0.186863389925
160889325 0.514371579119 -0.186563401517
160891080 0.51395153459 -0.186563596447
160892835 0.51390147235 -0.186726455198
160894590 0.51448394358 -0.186873266886
160896345 0.514528411388 -0.186815998671
160898100 0.514190583193 -0.186779732728
160899855 0.513728071798 -0.187162824964
160901610 0.514452611819 -0.187430691719
160903365 0.514382357779 -0.187153471615
160905120 0.514083956996 -0.186986721066
160906875 0.513416383788 -0.187109731229
160908630 0.514109990976 -0.18737806021
160910385 0.514408083614 -0.187443350254
160912140 0.513956776523 -0.187323225959
160913895 0.513580624587 -0.187496725169
160915650 0.514070309113 -0.187847144389
160917405 0.514480246123 -0.187802346573
160919160 0.513989737537 -0.187580647269
160920915 0.513558648726 -0.187527485548
160922670 0.513898488255 -0.187805080316
160924425 0.514519868823 -0.187037221037
160926180 0.514042928158 -0.187876380894
160927935 0.513712965594 -0.187881142886
160929690 0.513761870886 -0.188254143956
160931445 0.514499983502 -0.18827167193
160933200 0.51410819535 -0.188159032597
160934955 0.513946742807 -0.187940681657
160936710 0.513590619677 -0.188279790823
160938465 0.514006170004 -0.188652718774
160940220 0.51412869256 -0.188330395878
160941975 0.51385571035 -0.188250847456
160943730 0.51333822945 -0.188694159303
160945485 0.513979930601 -0.188956563668
160947240 0.514258719125 -0.188746939241
160948995 0.51369594459 -0.188469564781
160950750 0.513253845214 -0.188622112742
160952505 0.513850497426 -0.189009877942
160954260 0.514111266412 -0.188885052419
160956015 0.513833638959 -0.188838763437
160957770 0.513157591016 -0.189035630779
160959525 0.513908888446 -0.18947323877
160961280 0.513972536613 -0.1891856304
160963035 0.513819226489 -0.189218043629
160964790 0.513097466427 -0.188999139308
160966545 0.513534146051 -0.189249983648
160968300 0.51419158735 -0.189260286853
160970055 0.513915007082 -0.189430581775
160971810 0.513327569008 -0.189426133105
160973565 0.513557036123 -0.189813161579
160975320 0.514088754773 -0.189775785746
160977075 0.513791573865 -0.189509366812
160978830 0.513336392037 -0.189429032688
160980585 0.513439553873 -0.18966330214
160982340 0.513922300902 -0.189854570795
160984095 0.514039842389 -0.189872660667
160985850 0.513428930303 -0.189683605756
160987605 0.513214681116 -0.19020800262
160989360 0.513743786207 -0.190497870455
160991115 0.513891227361 -0.190246195173
160992870 0.513273822057 -0.189921439673
160994625 0.512731119122 -0.190111110884
160996380 0.513578524744 -0.190474701079
160998135 0.513736336523 -0.190522090514
160999890 0.513397860621 -0.190355256348
161001645 0.512845329101 -0.190601983436
161003400 0.513437917303 -0.190850697387
161005155 0.513759216211 -0.190891138793
161006910 0.513221552059 -0.190651232042
161008665 0.512924489166 -0.190602031123
161010420 0.513205272696 -0.190695669721
161012175 0.513774735566 -0.190932479819
161013930 0.513564954284 -0.190911326964
161015685 0.513071077465 -0.191085923238
161017440 0.513640683889 -0.191334816633
161019195 0.513735544093 -0.191421168699
161020950 0.513435530969 -0.191172859982
161022705 0.513062198652 -0.191159017083
161024460 0.513002003447 -0.191348183363
161026215 0.51352860908 -0.191488547546
161027970 0.513570039972 -0.191469378797
161029725 0.513203146541 -0.191358620677
161031480 0.512721238394 -0.191725407924
161033235 0.513504328802 -0.192044834172
161034990 0.513473391947 -0.192010343766
161036745 0.512975749869 -0.19158385058
161038500 0.512606920029 -0.191739518377
161040255 0.512869445552 -0.191844068483
161042010 0.513019111027 -0.191983173645
161043765 0.513344018318 -0.192246692048
161045520 0.513187100849 -0.192078613728
161047275 0.512898064568 -0.192087815116
161049030 0.513185544449 -0.192546542473
161050785 0.513394303995 -0.192438696924
161052540 0.513383693177 -0.19239357114
161054295 0.512900342581 -0.192294069357
161056050 0.512908512434 -0.192513792585
161057805 0.513146845751 -0.192606464798
161059560 0.513522271566 -0.192463012315
161061315 0.512396926969 -0.192497703079
161063070 0.513069345845 -0.193035377702
161064825 0.513016922939 -0.192956593165
161066580 0.513427328563 -0.192931116267
161068335 0.512532481812 -0.192809921853
161070090 0.512728226922 -0.192993988568
161071845 0.512720870561 -0.192891693456
161073600 0.513166900066 -0.193156655061
161075355 0.512326434902 -0.192979115534
161077110 0.512717525294 -0.193331795407
161078865 0.512723723332 -0.193362445846
161080620 0.513191113139 -0.193631747871
161082375 0.512512263611 -0.193423111518
161084130 0.512621174655 -0.193381422742
161085885 0.512674005068 -0.193369107568
161087640 0.51304434523 -0.193710049694
161089395 0.512917481933 -0.193486468469
161091150 0.512696554955 -0.193596573696
161092905 0.512784849487 -0.193981646326
161094660 0.513004818103 -0.194093879791
161096415 0.513004133553 -0.193837763641
161098170 0.512459893542 -0.193833828525
161099925 0.512770159012 -0.193949406178
161101680 0.512773105242 -0.194182581017
161103435 0.51316459583 -0.193904687709
161105190 0.512315244656 -0.194096105653
161106945 0.512664568482 -0.19453759527
161108700 0.512693327302 -0.19447689797
161110455 0.512950601269 -0.194550336484
161112210 0.512209706934 -0.194343449448
161113965 0.512458570462 -0.194645919187
161115720 0.512398147814 -0.19448235555
161117475 0.51282700431 -0.194650001974
161119230 0.511954856282 -0.194560033388
161120985 0.512518976361 -0.194826013295
161122740 0.512426902031 -0.194864424087
161124495 0.512834893896 -0.195164984296
161126250 0.512179908398 -0.194885026197
161128005 0.512352379162 -0.194967319464
161129760 0.512485085934 -0.194891229817
161131515 0.512791037297 -0.195481204553
161133270 0.512602027962 -0.194996665702
161135025 0.512448402884 -0.195242301043
161136780 0.512454985715 -0.195486740832
161138535 0.512706313443 -0.195583299688
161140290 0.512696653486 -0.195301676316
161142045 0.512202762983 -0.195489813341
161143800 0.512509783123 -0.195522991972
161145555 0.512505848143 -0.195740057301
161147310 0.512766469236 -0.195373744562
161149065 0.512004706951 -0.195655670426
161150820 0.512186479318 -0.195990011876
161152575 0.512298492225 -0.196094668896
161154330 0.512672616249 -0.196027184071
161156085 0.511811249621 -0.195949483262
161157840 0.512184585974 -0.196084670283
161159595 0.512159289899 -0.195993731904
161161350 0.51218648009 -0.196242519115
161163105 0.511976113983 -0.196042159573
161164860 0.512176241466 -0.196308001858
161166615 0.512037786934 -0.196354261578
161168370 0.512500670269 -0.196630037393
161170125 0.51201744488 -0.196499919592
161171880 0.511859059958 -0.196415729616
161173635 0.512092993969 -0.196568632655
161175390 0.512400449468 -0.196844366175
161177145 0.512447704694 -0.196634209816
161178900 0.511993933213 -0.196756853654
161180655 0.512328928622 -0.197138116061
161182410 0.512525857443 -0.197225335343
161184165 0.512433377753 -0.196939425679
161185920 0.511847259064 -0.196981645375
161187675 0.512249967229 -0.19717130303
161189430 0.511996173799 -0.197382673301
161191185 0.512560765332 -0.197159683113
161192940 0.511725972788 -0.197380567972
161194695 0.512218743628 -0.197707451705
161196450 0.512039346469 -0.197781270796
161198205 0.512430949922 -0.197551471965
161199960 0.511402502562 -0.197495326212
161201715 0.511804541173 -0.19771157254
161203470 0.51185598484 -0.197778820452
161205225 0.512268931869 -0.197807060067
161206980 0.511507762 -0.197786572448
161208735 0.511864205171 -0.198009850656
161210490 0.511780728269 -0.198192218702
161212245 0.512085984717 -0.198305280697
161214000 0.511671786322 -0.198147681144
161215755 0.511879768519 -0.19806660727
161217510 0.511710255074 -0.198323579809
161219265 0.511723361073 -0.198394449489
161221020 0.512019289604 -0.198278711621
161222775 0.511796754899 -0.198196880407
161224530 0.511654689515 -0.19869768822
161226285 0.511946784128 -0.198774126857
161228040 0.511838981406 -0.19847611861
161229795 0.511652550159 -0.198665945177
161231550 0.511520338268 -0.198767644537
161233305 0.51173243226 -0.198619099688
161235060 0.511321831139 -0.198760979398
161236815 0.511571041436 -0.198833447745
161238570 0.511622569381 -0.19900124713
161240325 0.511845367265 -0.198981398817
161242080 0.511399685053 -0.199115218082
161243835 0.511525630759 -0.199401086888
161245590 0.511413371055 -0.199138699759
161247345 0.511531482169 -0.199157479308
161249100 0.511356619842 -0.199320756261
161250855 0.511424482569 -0.199381007662
161252610 0.511574168924 -0.199319301722
161254365 0.511595556584 -0.199555951939
161256120 0.511347754995 -0.199920335618
161257875 0.511672131089 -0.199752480393
161259630 0.511552065183 -0.199549297904
161261385 0.511328381346 -0.199860988506
161263140 0.511513911456 -0.200029443929
161264895 0.511710059279 -0.199665973061
161266650 0.51149971946 -0.199811788714
161268405 0.511364342151 -0.200372542013
161270160 0.511582580107 -0.200458257455
161271915 0.511535737303 -0.200205691788
161273670 0.511292732809 -0.20034725576
161275425 0.511246895385 -0.200391261296
161277180 0.511462938818 -0.200348121249
161278935 0.511416953491 -0.200294743103
161280690 0.511376972036 -0.200736562734
161282445 0.511280291713 -0.200726268037
161284200 0.511450317628 -0.200657648265
161285955 0.511248231288 -0.200812441189
161287710 0.511379760876 -0.201042778133
161289465 0.511181103421 -0.200828673631
161291220 0.511259821967 -0.200771741615
161292975 0.511146634255 -0.200944004285
161294730 0.511291582358 -0.201027938791
161296485 0.511236008213 -0.200986304148
161298240 0.511157825722 -0.201224502753
161299995 0.510980583615 -0.201445394516
161301750 0.511408822148 -0.201446522689
161303505 0.51110866911 -0.201218841897
161305260 0.510966059979 -0.201439475245
161307015 0.511278842063 -0.201575605513
161308770 0.511258253978 -0.201322928235
161310525 0.51108650098 -0.201335137084
161312280 0.510931154037 -0.201787078337
161314035 0.511135896769 -0.201957800364
161315790 0.511165489169 -0.201684976274
161317545 0.510892862932 -0.201832529141
161319300 0.510903262825 -0.202012360817
161321055 0.511089789363 -0.201922578152
161322810 0.510957178167 -0.201909960775
161324565 0.510740192453 -0.202133087271
161326320 0.510677626539 -0.202256134234
161328075 0.510967347043 -0.202141357966
161329830 0.510687665984 -0.202367157784
161331585 0.510710661385 -0.202518687791
161333340 0.510771100658 -0.202343985536
161335095 0.510830072301 -0.20228370883
161336850 0.51062524448 -0.202602653892
161338605 0.510789858488 -0.202666184541
161340360 0.510773651075 -0.202527639814
161342115 0.510787112073 -0.202932606987
161343870 0.510555300984 -0.20308666264
161345625 0.510864719896 -0.203002135448
161347380 0.510619679371 -0.202888564683
161349135 0.510670725822 -0.203122246936
161350890 0.510664022026 -0.203193879006
161352645 0.510874778101 -0.203085763233
161354400 0.510667701574 -0.203094203606
161356155 0.51056269296 -0.203610017496
161357910 0.510827094251 -0.203559308909
161359665 0.510895494365 -0.203401976079
161361420 0.510463584158 -0.203587065229
161363175 0.510504654027 -0.20372628824
161364930 0.510640295822 -0.2034940402
161366685 0.510657664921 -0.203580311191
161368440 0.510453560542 -0.203745750588
161370195 0.510387830038 -0.203911297497
161371950 0.510667102888 -0.203909972911
161373705 0.510508232102 -0.204170556879
161375460 0.510439540065 -0.204231789107
161377215 0.510268576578 -0.204074324832
161378970 0.510410953471 -0.203873988523
161380725 0.510312299466 -0.204205625164
161382480 0.510530896436 -0.204296334347
161384235 0.510517564115 -0.204206303406
161385990 0.51034659598 -0.204405204652
161387745 0.510236834651 -0.204854411311
161389500 0.510528151178 -0.204601520225
161391255 0.510414325602 -0.204651093171
161393010 0.510752770623 -0.204718564119
161394765 0.51010349989 -0.20468508804
161396520 0.510173577281 -0.20464723265
161398275 0.509991182999 -0.204729731835
161400030 0.5106822729 -0.205057484533
161401785 0.509979028385 -0.205001012559
161403540 0.510049208365 -0.204938041251
161405295 0.509945609339 -0.205209800422
161407050 0.510517133824 -0.205507580505
161408805 0.510061587628 -0.205290836769
161410560 0.509967431838 -0.204910547918
161412315 0.509662814808 -0.205212601632
161414070 0.510368254428 -0.20558669804
161415825 0.510237169725 -0.205382156569
161417580 0.509812239759 -0.205274798071
161419335 0.509436321668 -0.20582212562
161421090 0.51022893337 -0.205879572513
161422845 0.5101772775 -0.205671633076
161424600 0.509808464252 -0.205575520948
161426355 0.509579339683 -0.205856265435
161428110 0.510181318703 -0.205899042239
161429865 0.510508433816 -0.205860804763
161431620 0.509734561288 -0.205950840108
161433375 0.509698837476 -0.206202290705
161435130 0.509982761453 -0.206200027888
161436885 0.510284238091 -0.206366437421
161438640 0.509553140729 -0.206204325513
161440395 0.509741486577 -0.20613509509
161442150 0.509795695935 -0.206315114529
161443905 0.510342483821 -0.20668865582
161445660 0.509504928774 -0.206458225154
161447415 0.509888401888 -0.206493423523
161449170 0.509370603236 -0.206709247082
161450925 0.510115228089 -0.207171009561
161452680 0.509779951646 -0.206807964285
161454435 0.509459395032 -0.206515695523
161456190 0.509269320061 -0.206814976536
161457945 0.510025522123 -0.20714566653
161459700 0.50978985689 -0.206994792765
161461455 0.509606594631 -0.206971381562
161463210 0.509197451186 -0.207415362921
161464965 0.509942542151 -0.207551946338
161466720 0.509954272416 -0.207381267053
161468475 0.509468108308 -0.207237635947
161470230 0.509256800857 -0.207507513244
161471985 0.509777114162 -0.207644068326
161473740 0.510074370236 -0.207605785521
161475495 0.509431298606 -0.20757585275
161477250 0.509187948395 -0.207980491752
161479005 0.509443269251 -0.207856209117
161480760 0.509961747288 -0.208030656234
161482515 0.509063676763 -0.207874806352
161484270 0.509339912649 -0.207935617109
161486025 0.509280198155 -0.207828005873
161487780 0.509565553115 -0.208228791254
161489535 0.509103404812 -0.208106560751
161491290 0.509190400366 -0.208144978597
161493045 0.508709141824 -0.208260585807
161494800 0.509416623977 -0.208846452065
161496555 0.509071612872 -0.208399735511
161498310 0.508906694196 -0.208104152507
161500065 0.508816516517 -0.208175667067
161501820 0.50943083348 -0.208861143366
161503575 0.509116663154 -0.208583804669
161505330 0.509005812486 -0.208489730825
161507085 0.508670942503 -0.209002758974
161508840 0.509323143875 -0.209239865879
161510595 0.509264604165 -0.208938685764
161512350 0.508864188663 -0.208791921942
161514105 0.508587359877 -0.209083296261
161515860 0.50916411717 -0.209208776679
161517615 0.50953046583 -0.209227293455
161519370 0.508858038947 -0.209199673217
161521125 0.50879059145 -0.209591435028
161522880 0.509085803104 -0.209560194342
161524635 0.509207436605 -0.20972498807
161526390 0.508509892008 -0.209479316277
161528145 0.508810258768 -0.209451670279
161529900 0.508613265565 -0.209584027923
161531655 0.509244990612 -0.209956800699
161533410 0.508649983455 -0.209908404957
161535165 0.508881743606 -0.209683068739
161536920 0.508510555707 -0.21001573141
161538675 0.508998780145 -0.210475448823
161540430 0.508576171095 -0.210127373053
161542185 0.508565842149 -0.209760642518
161543940 0.508159863647 -0.20999685727
161545695 0.50881079568 -0.210574191026
161547450 0.508731328576 -0.21024458946
161549205 0.508553943144 -0.210240619246
161550960 0.508125526546 -0.210668920846
161552715 0.508857522497 -0.210829494175
161554470 0.508722518212 -0.210653552652
161556225 0.508164174532 -0.21044641275
161557980 0.508147163307 -0.210647020363
161559735 0.508749909838 -0.210876571213
161561490 0.508921094246 -0.21072083726
161563245 0.508284293565 -0.210836743131
161565000 0.508277645747 -0.211190573287
