! Calibrated averaged scanner-service zoom
# Hz S RI R 50
470000000 0.758388798332 -0.260729136778
470010500 0.758135426431 -0.260128305995
470021000 0.758091766729 -0.260352181659
470031500 0.758251583784 -0.260308624959
470042000 0.757942378866 -0.260707069814
470052500 0.759427124535 -0.261193928317
470063000 0.75825135641 -0.261009807274
470073500 0.758920251147 -0.261039480197
470084000 0.758442974453 -0.260166625947
470094500 0.758322356225 -0.261576056354
470105000 0.758150279339 -0.259806022373
470115500 0.758637482783 -0.26000417851
470126000 0.756894406717 -0.259734396573
470136500 0.758240279149 -0.259739049438
470147000 0.755857380232 -0.259030304822
470157500 0.755658100616 -0.260519747352
470168000 0.756616439182 -0.262052643506
470178500 0.760407738972 -0.260200840132
470189000 0.757843086223 -0.262190464158
470199500 0.759287730545 -0.259958099832
470210000 0.759675928946 -0.262131328703
470220500 0.757896059686 -0.261375876891
470231000 0.759484321333 -0.261510502606
470241500 0.758568303538 -0.260581253309
470252000 0.758559126533 -0.260708717979
470262500 0.760520059572 -0.259249990176
470273000 0.760355148783 -0.261728791375
470283500 0.758160771584 -0.26165815424
470294000 0.754808595631 -0.260946505153
470304500 0.755277977778 -0.263513706288
470315000 0.757481682584 -0.261832142439
470325500 0.757607236075 -0.265863036966
470336000 0.763001761305 -0.266908585526
470346500 0.759762177496 -0.267127708655
470357000 0.757049317319 -0.262277281377
470367500 0.754546140526 -0.265617871427
470378000 0.758261060029 -0.261042717846
470388500 0.760027878871 -0.264610768237
470399000 0.762592262578 -0.264356853669
470409500 0.758027003587 -0.263583236159
470420000 0.756756435782 -0.261260154468
470430500 0.761190781051 -0.262338964085
470441000 0.760090544594 -0.259698216461
470451500 0.756839122612 -0.264154754384
470462000 0.754526707519 -0.261736507287
470472500 0.755325064571 -0.264661177231
470483000 0.75570380772 -0.262655870953
470493500 0.755033062753 -0.260653552772
470504000 0.758833792464 -0.263124296192
470514500 0.757237711807 -0.262421705494
470525000 0.754878286946 -0.267252691736
470535500 0.757810332394 -0.260931907585
470546000 0.753151625011 -0.264188433133
470556500 0.758232120151 -0.264090153425
470567000 0.758531727814 -0.25985267908
470577500 0.758895572946 -0.262837434938
470588000 0.76081610319 -0.263924902304
470598500 0.758544681972 -0.265634024962
470609000 0.7537288277 -0.26501497993
470619500 0.757639679303 -0.266597035555
470630000 0.759936069782 -0.261352614839
470640500 0.756940001113 -0.265257376006
470651000 0.753147127667 -0.264038845586
470661500 0.756890930255 -0.267280142748
470672000 0.757126578045 -0.262739703505
470682500 0.756501198588 -0.263393432958
470693000 0.758101680705 -0.263203091428
470703500 0.758095724822 -0.262887452595
470714000 0.756556798702 -0.263018431671
470724500 0.756730034365 -0.264587942744
470735000 0.755493008658 -0.265829847222
470745500 0.757093900999 -0.261855300628
470756000 0.756647905932 -0.262849146178
470766500 0.757532402579 -0.263564880389
470777000 0.75738268664 -0.263219784516
470787500 0.758762876307 -0.264697402259
470798000 0.757064911398 -0.264075301964
470808500 0.756613755618 -0.264037689332
470819000 0.758075526636 -0.264579210075
470829500 0.757029783889 -0.263411908593
470840000 0.75724424935 -0.265896654455
470850500 0.75721297478 -0.264895468699
470861000 0.75623047838 -0.264275036347
470871500 0.75719088263 -0.262547878942
470882000 0.757420714347 -0.263735073745
470892500 0.757538266808 -0.263769674381
470903000 0.757599168602 -0.264335808454
470913500 0.757241847768 -0.265081094278
470924000 0.757119024679 -0.265390217291
470934500 0.758322245612 -0.265478349798
470945000 0.757529905621 -0.265255009397
470955500 0.756604419727 -0.265430356162
470966000 0.75713741904 -0.264884996994
470976500 0.756969327953 -0.265746490045
470987000 0.756493389651 -0.265426886554
470997500 0.756962817736 -0.265750538079
471008000 0.757122893271 -0.266157580102
471018500 0.756680219795 -0.266465917627
471029000 0.756440355169 -0.266143288645
471039500 0.756193049092 -0.266394800072
471050000 0.756125330026 -0.266918052314
471060500 0.758126071772 -0.268470535841
471071000 0.758477795765 -0.268133576624
471081500 0.758766742139 -0.269268385073
471092000 0.757987632098 -0.269141699495
471102500 0.75801761055 -0.268777539089
471113000 0.758583170817 -0.26902931796
471123500 0.758736116649 -0.27004502354
471134000 0.758987197445 -0.268900435971
471144500 0.758438252544 -0.270390610104
471155000 0.758309176333 -0.269797162471
471165500 0.758380827037 -0.269517614051
471176000 0.759132976606 -0.269797871782
471186500 0.758292178244 -0.270745444749
471197000 0.757619837405 -0.270474115529
471207500 0.757581215314 -0.27062735003
471218000 0.758157118447 -0.270875177004
471228500 0.758184716871 -0.270026040544
471239000 0.761135702162 -0.273571995455
471249500 0.758546928563 -0.270675110969
471260000 0.758794777203 -0.26966957054
471270500 0.75875173422 -0.269499281831
471281000 0.758674770613 -0.269590707775
471291500 0.75812564758 -0.270487951781
471302000 0.758519085048 -0.271016167369
471312500 0.757613957763 -0.270593018326
471323000 0.757478251198 -0.271010507472
471333500 0.757363778405 -0.271499940814
471344000 0.7587172407 -0.269959499018
471354500 0.758458060984 -0.269794118986
471365000 0.759234444851 -0.2704460229
471375500 0.758319627893 -0.270855211285
471386000 0.758533130658 -0.270402279436
471396500 0.758268368451 -0.27072402142
471407000 0.758555771935 -0.271239629274
471417500 0.757674498874 -0.271682306248
471428000 0.757425111496 -0.27230613237
471438500 0.757637236165 -0.271276532354
471449000 0.756597151967 -0.27205869474
471459500 0.758258723405 -0.271969951735
471470000 0.758332839411 -0.271621893736
471480500 0.757710671649 -0.271814875604
471491000 0.758507138713 -0.271763434959
471501500 0.758304709841 -0.271626145757
471512000 0.758781146783 -0.272553367608
471522500 0.757913438354 -0.272737499882
471533000 0.75738775898 -0.272712042231
471543500 0.757877318588 -0.27308014083
471554000 0.75787966054 -0.272887733198
471564500 0.75770931732 -0.272780786309
471575000 0.75798348127 -0.273098765558
471585500 0.757230902911 -0.272635148143
471596000 0.757763053051 -0.272878514249
471606500 0.758424469648 -0.272651519463
471617000 0.758389917355 -0.273283473998
471627500 0.758963296738 -0.272630338826
471638000 0.758270359179 -0.271908751253
471648500 0.758180443139 -0.271790210765
471659000 0.758138136083 -0.272031441187
471669500 0.758128551613 -0.272320876242
471680000 0.758310737858 -0.273000469827
471690500 0.757251813482 -0.273128723695
471701000 0.757677680393 -0.273430823259
471711500 0.758286585623 -0.272813000754
471722000 0.758157861595 -0.272668720654
471732500 0.758391224084 -0.273081675627
471743000 0.758205376632 -0.273310208796
471753500 0.75856343972 -0.272818766697
471764000 0.75887383651 -0.272126909139
471774500 0.758450176923 -0.272386594305
471785000 0.758485703243 -0.272445506227
471795500 0.758496402583 -0.273366861806
471806000 0.757712455849 -0.273203162826
471816500 0.757627197047 -0.273353653462
471827000 0.757549855374 -0.273131643924
471837500 0.760546716139 -0.276042608767
471848000 0.758132735204 -0.27393314038
471858500 0.758314421952 -0.273762692188
471869000 0.757435099723 -0.273925170427
471879500 0.757676661366 -0.273242779845
471890000 0.757817983867 -0.273804697816
471900500 0.757813202784 -0.274293014042
471911000 0.758094440715 -0.274850242218
471921500 0.7596359737 -0.274874452256
471932000 0.759129073463 -0.275650036125
471942500 0.759244907406 -0.275386307878
471953000 0.757725523871 -0.275642205339
471963500 0.757396917677 -0.275518285719
471974000 0.757509186625 -0.274926535967
471984500 0.757067357814 -0.275598618208
471995000 0.75674913633 -0.274674003376
472005500 0.757139059 -0.274610882049
472016000 0.757790583333 -0.274845905889
472026500 0.757347261975 -0.274865363667
472037000 0.757178451219 -0.275392631285
472047500 0.757554829526 -0.27537055278
472058000 0.757817510595 -0.275764447107
472068500 0.758899734277 -0.275084956735
472079000 0.75796205054 -0.276221559744
472089500 0.758001213072 -0.274941944428
472100000 0.760590969038 -0.274646206008
472110500 0.756515330043 -0.275784899551
472121000 0.756286792141 -0.275287633462
472131500 0.755966686622 -0.275603069762
472142000 0.755889857885 -0.275491351006
472152500 0.755486794352 -0.274828032326
472163000 0.755101026991 -0.274675417815
472173500 0.755476167298 -0.275202336707
472184000 0.755959032065 -0.274880102256
472194500 0.755024793921 -0.276348353269
472205000 0.755974648806 -0.275936799002
472215500 0.755197291463 -0.276180951499
472226000 0.754869341412 -0.276040656055
472236500 0.755492794794 -0.276273617561
472247000 0.756274540474 -0.276413111819
472257500 0.755834479782 -0.276029929126
472268000 0.755652112711 -0.276254000357
472278500 0.756159438375 -0.27601158498
472289000 0.756698495331 -0.276498974149
472299500 0.756654355039 -0.276720087822
472310000 0.75625657202 -0.275908991095
472320500 0.755778899684 -0.27719089414
472331000 0.755497123817 -0.276853477509
472341500 0.755774055246 -0.277179517086
472352000 0.75537227082 -0.277898777332
472362500 0.755971916096 -0.277558298445
472373000 0.755537173081 -0.277372219112
472383500 0.755374289143 -0.27740596426
472394000 0.754695060659 -0.278248982138
472404500 0.754079188107 -0.277336467724
472415000 0.755208803788 -0.277621567277
472425500 0.755445172209 -0.276997634189
472436000 0.755107893443 -0.278217751908
472446500 0.755750933469 -0.278499893763
472457000 0.756429411358 -0.277898658899
472467500 0.755840313871 -0.278583110605
472478000 0.756255639908 -0.278289252928
472488500 0.755578655995 -0.27825880037
472499000 0.755940684144 -0.279025496344
472509500 0.755365426031 -0.279339099785
472520000 0.755587555186 -0.278446551307
472530500 0.75544912859 -0.279439524176
472541000 0.755163120938 -0.276625846659
472551500 0.756039923354 -0.278010598734
472562000 0.755332119713 -0.277360764811
472572500 0.755901160306 -0.277861451746
472583000 0.755737423762 -0.278631926607
472593500 0.755250735683 -0.27728738715
472604000 0.755194176252 -0.279016034514
472614500 0.755723420948 -0.279463697155
472625000 0.754911178132 -0.278733958593
472635500 0.754700099653 -0.27987474987
472646000 0.75531265089 -0.279732827589
472656500 0.755926409376 -0.27983268373
472667000 0.755632051623 -0.278914964164
472677500 0.75560145912 -0.280024364448
472688000 0.755160626049 -0.280298620713
472698500 0.754872198835 -0.280437498345
472709000 0.754848743211 -0.280235483012
472719500 0.754761465177 -0.280637354528
472730000 0.754346647055 -0.280495293844
472740500 0.755185505341 -0.280424035457
472751000 0.755390268674 -0.281169776998
472761500 0.754744094586 -0.280547909332
472772000 0.754766882603 -0.280341227997
472782500 0.754786877753 -0.280841733299
472793000 0.755154113053 -0.280700042909
472803500 0.754716927371 -0.280621208923
472814000 0.754572621097 -0.280736184345
472824500 0.754075579004 -0.280715061072
472835000 0.754387830041 -0.280494188922
472845500 0.754412015752 -0.281826604102
472856000 0.754714332023 -0.280520366274
472866500 0.754143297496 -0.280896418718
472877000 0.754004887936 -0.280662208492
472887500 0.754679995848 -0.282110716111
472898000 0.753336519186 -0.280676277922
472908500 0.754265947403 -0.281078755712
472919000 0.754117555284 -0.282032258195
472929500 0.754737046448 -0.281215249142
472940000 0.753674893113 -0.282499227325
472950500 0.753542722644 -0.281608025244
472961000 0.753363882791 -0.281822029381
472971500 0.75340728236 -0.28130467124
472982000 0.753580338024 -0.282018820984
472992500 0.753139499501 -0.282547214154
473003000 0.752890810368 -0.282969892763
473013500 0.752975011086 -0.282206661814
473024000 0.752812640859 -0.280780707072
473034500 0.75330749823 -0.281701346921
473045000 0.754138290402 -0.279820795095
473055500 0.754054094017 -0.281837140679
473066000 0.753168190837 -0.281996148899
473076500 0.752967336898 -0.281763725419
473087000 0.753246250952 -0.282194101285
473097500 0.753271889738 -0.282327539407
473108000 0.753348174143 -0.282071671953
473118500 0.753270794824 -0.283082349438
473129000 0.753879653117 -0.282713942125
473139500 0.752956417719 -0.283111123606
473150000 0.753323222621 -0.28326772989
473160500 0.747807781053 -0.280394810989
473171000 0.747697316887 -0.27972748395
473181500 0.747662504855 -0.280305907718
473192000 0.748213988219 -0.280950838159
473202500 0.749096985638 -0.280130923827
473213000 0.747636977341 -0.280317058224
473223500 0.748178951786 -0.279820706322
473234000 0.748159987903 -0.279773180019
473244500 0.748316991235 -0.280298282548
473255000 0.748013826639 -0.279593749883
473265500 0.748703319402 -0.279501796166
473276000 0.748548619954 -0.280078783283
473286500 0.748387594467 -0.279787450457
473297000 0.748304782223 -0.279157253665
473307500 0.748851030045 -0.279942775943
473318000 0.748654284679 -0.279759719449
473328500 0.748620379652 -0.280256110707
473339000 0.74839007164 -0.280549970434
473349500 0.747745397016 -0.280304703653
473360000 0.748757469139 -0.278759879104
473370500 0.748283534534 -0.278801477121
473381000 0.747719889218 -0.27931954337
473391500 0.748352417412 -0.279735134087
473402000 0.748369467477 -0.28088585494
473412500 0.747830788776 -0.280146609202
473423000 0.749078394495 -0.280533466348
473433500 0.749766229337 -0.280988959894
473444000 0.748848787598 -0.280128505314
473454500 0.749258799426 -0.280756072345
473465000 0.749959154744 -0.280096731803
473475500 0.748943570959 -0.280270279704
473486000 0.748940590666 -0.280344827398
473496500 0.748245147359 -0.279805624857
473507000 0.750023684357 -0.280214214101
473517500 0.749776896687 -0.281191668945
473528000 0.748995563381 -0.281254692231
473538500 0.748662410422 -0.2813697939
473549000 0.748935380826 -0.281297901661
473559500 0.749338049627 -0.281257914814
473570000 0.749820598747 -0.281368735638
473580500 0.749549163443 -0.280775685685
473591000 0.749877197333 -0.28202591841
473601500 0.749568848919 -0.28051146165
473612000 0.748971546578 -0.280786230252
473622500 0.749500311262 -0.2812619447
473633000 0.748912752484 -0.282012463382
473643500 0.749587646598 -0.281871345292
473654000 0.748812591793 -0.281707159334
473664500 0.74837485562 -0.281319163653
473675000 0.748614775195 -0.280478250562
473685500 0.749471522341 -0.28114491463
473696000 0.748884512298 -0.281721454559
473706500 0.748641600919 -0.281697079672
473717000 0.749277021524 -0.281819942836
473727500 0.748633055846 -0.2817126712
473738000 0.749820404976 -0.282436071391
473748500 0.750175426368 -0.282060309679
473759000 0.749783437374 -0.28095265187
473769500 0.748550241603 -0.281235921119
473780000 0.748850469928 -0.281671261797
473790500 0.749384379006 -0.281457806836
473801000 0.750382550078 -0.281578637974
473811500 0.749517774894 -0.281759577695
473822000 0.750200073383 -0.281810731126
473832500 0.748810196886 -0.281227147597
473843000 0.749677902521 -0.281910062735
473853500 0.749111718563 -0.281488008171
473864000 0.748396598437 -0.28159364472
473874500 0.749132524509 -0.282115487921
473885000 0.748810416631 -0.282043144928
473895500 0.748876724943 -0.281867343385
473906000 0.749591927619 -0.282013543792
473916500 0.749968253105 -0.282986381639
473927000 0.750949302634 -0.282792746679
473937500 0.751661960667 -0.281874929859
473948000 0.751736776311 -0.281929815874
473958500 0.750574564159 -0.281961908815
473969000 0.749962425791 -0.282447848263
473979500 0.749333549511 -0.282800848294
473990000 0.749893025422 -0.281929409368
474000500 0.749427157995 -0.281556056845
474011000 0.749315574851 -0.282200094731
474021500 0.749408007227 -0.282536161676
474032000 0.750260365208 -0.283098375987
474042500 0.749621301441 -0.282387998323
474053000 0.749291946561 -0.282530915957
474063500 0.749402902634 -0.28232778048
474074000 0.749821469354 -0.2828340024
474084500 0.749611129805 -0.282381011741
474095000 0.750677345558 -0.283016424236
474105500 0.749043372268 -0.283527769499
474116000 0.750410254003 -0.282654964363
474126500 0.749975126637 -0.281506749379
474137000 0.749976446669 -0.282519942998
474147500 0.748983534656 -0.282284913953
474158000 0.749069307722 -0.282387828527
474168500 0.750187016653 -0.283029700507
474179000 0.75065836211 -0.282646273565
474189500 0.74927636496 -0.283005438132
474200000 0.749657540926 -0.28236330165
474210500 0.749384885616 -0.282164231072
474221000 0.749544739728 -0.282669406139
474231500 0.749458817019 -0.282325199717
474242000 0.748808701999 -0.282887013725
474252500 0.749558161938 -0.283046247841
474263000 0.748830042175 -0.282863681183
474273500 0.74705263746 -0.280184218532
474284000 0.748204420743 -0.282086013388
474294500 0.748580901344 -0.28372503319
474305000 0.748688650889 -0.283669611788
474315500 0.743100094582 -0.279643182005
474326000 0.748706102398 -0.282584811189
474336500 0.749267207604 -0.284829361341
474347000 0.748963554517 -0.284092452929
474357500 0.749112935788 -0.285259825138
474368000 0.748157481174 -0.284490011722
474378500 0.747053704843 -0.283759691552
474389000 0.748512448128 -0.283277507247
474399500 0.747964160108 -0.283664630732
474410000 0.742456208321 -0.277396358102
474420500 0.749188806597 -0.286235088622
474431000 0.744121008496 -0.282567959563
474441500 0.745462706869 -0.291354554529
474452000 0.746982564443 -0.28426524991
474462500 0.747815003379 -0.281408777955
474473000 0.749957746313 -0.284099226891
474483500 0.747853467868 -0.285509881245
474494000 0.752495202482 -0.285429628389
474504500 0.748414799071 -0.281940561523
474515000 0.750562936607 -0.284688676614
474525500 0.749047768424 -0.284302662037
474536000 0.747093780614 -0.285292537381
474546500 0.744604497914 -0.281435878822
474557000 0.746943279217 -0.27711253876
474567500 0.750726275524 -0.284145771093
474578000 0.748543290137 -0.285551844106
474588500 0.74812982636 -0.284777135697
474599000 0.747913286096 -0.284515555711
474609500 0.748507846181 -0.284390297731
474620000 0.748259847096 -0.284314243489
474630500 0.749502204405 -0.284550617197
474641000 0.74850030835 -0.284830953186
474651500 0.748784400398 -0.284372566178
474662000 0.749027469864 -0.284986692839
474672500 0.74808505412 -0.285891647635
474683000 0.747921643214 -0.28427261174
474693500 0.749053248077 -0.284443248782
474704000 0.748072663 -0.285409972276
474714500 0.748571820653 -0.285384982609
474725000 0.74861986077 -0.285727016894
474735500 0.748521075795 -0.285871225412
474746000 0.749263349367 -0.285106362326
474756500 0.748420640059 -0.28553906984
474767000 0.748123347724 -0.285450131765
474777500 0.748106786111 -0.284718537
474788000 0.748577145201 -0.285098584935
474798500 0.748307866934 -0.285761129893
474809000 0.748454441315 -0.285721571619
474819500 0.747488868551 -0.286185272946
474830000 0.747422457635 -0.28653505978
474840500 0.747638498304 -0.286361684878
474851000 0.746995890525 -0.287164101204
474861500 0.747413696464 -0.286544007721
474872000 0.746894467044 -0.286793662612
474882500 0.746911653699 -0.286170764204
474893000 0.747313468355 -0.286316129666
474903500 0.747412023346 -0.286074939818
474914000 0.747017852411 -0.286745416916
474924500 0.748125952116 -0.286110338131
474935000 0.747115507016 -0.286652591358
474945500 0.747039581596 -0.286977352974
474956000 0.746947111329 -0.286250795629
474966500 0.746932077392 -0.287270217304
474977000 0.747697190865 -0.287244470025
474987500 0.749056909019 -0.286736987845
474998000 0.747246879325 -0.287329468181
475008500 0.747099483067 -0.286710690173
475019000 0.747274277913 -0.286741970893
475029500 0.746998680556 -0.28619267035
475040000 0.746944589102 -0.286322958701
475050500 0.746985444875 -0.286969052945
475061000 0.746785184818 -0.286420773733
475071500 0.747013062323 -0.286882526967
475082000 0.746472367022 -0.286584568829
475092500 0.746571444624 -0.28694095304
475103000 0.74625960896 -0.287404253033
475113500 0.746056367801 -0.287423191515
475124000 0.746354647242 -0.288046600658
475134500 0.746576974179 -0.288033792006
475145000 0.745938724167 -0.287124737541
475155500 0.746321681928 -0.28814768076
475166000 0.746849013055 -0.287826787594
475176500 0.746194362632 -0.287492190142
475187000 0.746317080229 -0.287149512931
475197500 0.745306325772 -0.288235305795
475208000 0.745919993596 -0.286612986762
475218500 0.745932457885 -0.28716899241
475229000 0.745728959457 -0.286844446263
475239500 0.746225852529 -0.289610387562
475250000 0.745333968371 -0.288592210322
475260500 0.745264274619 -0.28942542795
475271000 0.745041469241 -0.28939706067
475281500 0.744923794901 -0.288836829301
475292000 0.74482909475 -0.287887748896
475302500 0.745040586785 -0.288601901473
475313000 0.745066068762 -0.288974613152
475323500 0.745102657896 -0.288737418496
475334000 0.744738247837 -0.289845059758
475344500 0.745284886716 -0.289619049702
475355000 0.744528215847 -0.289281571238
475365500 0.744505115375 -0.289864981291
475376000 0.745487203319 -0.290203607168
475386500 0.745969973416 -0.289847333813
475397000 0.744767343034 -0.289643588451
475407500 0.745727063329 -0.289535959602
475418000 0.745363966635 -0.289574146884
475428500 0.745367048747 -0.289126983667
475439000 0.744276074589 -0.289361208317
475449500 0.74446747083 -0.290286374634
475460000 0.744771430563 -0.289575314513
475470500 0.744086886634 -0.28973872364
475481000 0.743687231025 -0.291628799354
475491500 0.744427157331 -0.290404792831
475502000 0.74462765891 -0.289961396895
475512500 0.743882086954 -0.290625708398
475523000 0.745071555421 -0.290674855246
475533500 0.744710721009 -0.291064074914
475544000 0.74487594165 -0.290172110017
475554500 0.744904261479 -0.291303680778
475565000 0.744244282441 -0.291154952234
475575500 0.744543361608 -0.291358681729
475586000 0.744081834598 -0.290624482924
475596500 0.744470202581 -0.29092249001
475607000 0.745112142008 -0.290862059735
475617500 0.744619551997 -0.290858449334
475628000 0.744810892149 -0.290656320543
475638500 0.744313293398 -0.291238176437
475649000 0.744589070219 -0.291134827486
475659500 0.744573470114 -0.291207483994
475670000 0.744152290885 -0.290285399646
475680500 0.743571503887 -0.290905193148
475691000 0.744734214071 -0.291788030779
475701500 0.744991234233 -0.292376196651
475712000 0.743902618498 -0.292404112263
475722500 0.744165536139 -0.29160085107
475733000 0.74415340105 -0.29186758444
475743500 0.743097380421 -0.292146956507
475754000 0.743677422627 -0.291697054353
475764500 0.743052063842 -0.291598450558
475775000 0.742812568753 -0.291593804514
475785500 0.743555206188 -0.290788655411
475796000 0.743920154661 -0.291490192114
475806500 0.743504184929 -0.291218800081
475817000 0.743843350485 -0.292238419926
475827500 0.744343908232 -0.292126357243
475838000 0.743966589274 -0.292319887786
475848500 0.743690147526 -0.292230309574
475859000 0.743908751338 -0.292147713974
475869500 0.743982868555 -0.292116958716
475880000 0.744090405912 -0.291830757376
475890500 0.744083550319 -0.292573695498
475901000 0.744065699026 -0.293104765514
475911500 0.743778210829 -0.292959934597
475922000 0.743651613712 -0.292377193566
475932500 0.743652592775 -0.291960424601
475943000 0.74385692656 -0.292812006485
475953500 0.742864881018 -0.293122689062
475964000 0.743281201246 -0.292957761789
475974500 0.743164231249 -0.293687330986
475985000 0.743710210164 -0.29329372804
475995500 0.743306659218 -0.293132884515
476006000 0.742865677455 -0.293202019353
476016500 0.743067406948 -0.292809828798
476027000 0.743531326281 -0.292849501527
476037500 0.744266941375 -0.292773019063
476048000 0.743854576141 -0.293420937709
476058500 0.743638204697 -0.292710398476
476069000 0.743820373771 -0.292302326627
476079500 0.743873497003 -0.292873895149
476090000 0.743166332145 -0.293152604823
476100500 0.74310189758 -0.292444690191
476111000 0.743705300778 -0.292618406772
476121500 0.743587541928 -0.292857794289
476132000 0.743169649992 -0.293552731158
476142500 0.744437229247 -0.292780923721
476153000 0.744143726349 -0.293863182251
476163500 0.744439105384 -0.293449936531
476174000 0.744329517793 -0.294193985774
476184500 0.74407188649 -0.293358268674
476195000 0.744455729562 -0.292706621602
476205500 0.744119664249 -0.293626719147
476216000 0.743952065708 -0.293383356384
476226500 0.744986330568 -0.293549398146
476237000 0.743652178876 -0.294074851063
476247500 0.745079638055 -0.29477443957
476258000 0.743637947023 -0.294057574251
476268500 0.743024564325 -0.294275731115
476279000 0.741772556957 -0.294351162919
476289500 0.743104541958 -0.295123735812
476300000 0.744261118079 -0.294579048915
476310500 0.746139634051 -0.296170335603
476321000 0.745366725798 -0.294719650119
476331500 0.745529077895 -0.296414290098
476342000 0.745262688889 -0.295036397609
476352500 0.746362742554 -0.29518618202
476363000 0.746079173027 -0.295605430102
476373500 0.746455843454 -0.29563634226
476384000 0.745977009988 -0.295862443546
476394500 0.745452713298 -0.29595275767
476405000 0.746181309891 -0.295279873545
476415500 0.746183549593 -0.295562844011
476426000 0.74656493034 -0.295674200824
476436500 0.745343449245 -0.295191006837
476447000 0.746544961945 -0.295041341002
476457500 0.746873824028 -0.29440388489
476468000 0.74607369155 -0.295401908969
476478500 0.745976263955 -0.296014532735
476489000 0.745446485139 -0.295353777219
476499500 0.745436368433 -0.29599951517
476510000 0.745696858402 -0.294767760761
476520500 0.745691430668 -0.295725731822
476531000 0.745279600929 -0.294940782065
476541500 0.745087766286 -0.295724327145
476552000 0.745514257886 -0.295732109277
476562500 0.745413067794 -0.296246779359
476573000 0.744701792226 -0.295628316262
476583500 0.74566821079 -0.295598488405
476594000 0.745386199569 -0.295755900477
476604500 0.745665946237 -0.29600636066
476615000 0.746053776438 -0.297009915307
476625500 0.743219647494 -0.296473179227
476636000 0.736404813973 -0.298610959385
476646500 0.733301583084 -0.301802939615
476657000 0.738613349162 -0.297571916082
476667500 0.737662687836 -0.305002346331
476678000 0.747288299749 -0.297364569652
476688500 0.748328915372 -0.294511830792
476699000 0.746218201636 -0.296168916374
476709500 0.74489308805 -0.296209319045
476720000 0.745558769826 -0.296051919503
476730500 0.7455291521 -0.295809132233
476741000 0.745818817531 -0.296761705377
476751500 0.744975340364 -0.296645569812
476762000 0.744949967846 -0.296014260434
476772500 0.746139286655 -0.296701125055
476783000 0.745089911337 -0.297384438536
476793500 0.745772766485 -0.29765618313
476804000 0.746449515382 -0.297383006239
476814500 0.745548186021 -0.296281037505
476825000 0.744485598946 -0.296841529872
476835500 0.744822260185 -0.298274744237
476846000 0.745575552418 -0.297598450734
476856500 0.745030310474 -0.298261872934
476867000 0.745023422883 -0.297341500124
476877500 0.74496823332 -0.296765249226
476888000 0.74522426562 -0.298461334292
476898500 0.744431170486 -0.296646048511
476909000 0.744317367612 -0.297228462045
476919500 0.745693181147 -0.297809170864
476930000 0.744833958562 -0.297479851419
476940500 0.745369680603 -0.297708601073
476951000 0.744983922226 -0.298124598005
476961500 0.744621289266 -0.298060017089
476972000 0.744603465781 -0.298639023507
476982500 0.744540611532 -0.298543190213
476993000 0.745011540678 -0.298554898244
477003500 0.745159830563 -0.297686477047
477014000 0.744717860572 -0.298848655907
477024500 0.744663575561 -0.298357414678
477035000 0.743891753719 -0.298424165205
477045500 0.743918525158 -0.298988402999
477056000 0.744336193554 -0.29834561717
477066500 0.744175197137 -0.297804230229
477077000 0.744839749945 -0.298225954262
477087500 0.74438280752 -0.299070106329
477098000 0.744462494642 -0.299650961176
477108500 0.744551392614 -0.299855596713
477119000 0.743844438907 -0.299711137747
477129500 0.744686105287 -0.29951457736
477140000 0.743882265917 -0.299447550906
477150500 0.744613971327 -0.299010073393
477161000 0.742891070727 -0.299025012039
477171500 0.743646118559 -0.299190707497
477182000 0.74334554814 -0.300417190065
477192500 0.743767423406 -0.300670740894
477203000 0.743345258918 -0.299598442873
477213500 0.743703603959 -0.300528267808
477224000 0.743709424539 -0.300124071942
477234500 0.743569536573 -0.299851252479
477245000 0.743064402605 -0.298950537896
477255500 0.742999643561 -0.300002096404
477266000 0.743429541913 -0.299534154318
477276500 0.7436576983 -0.30037176249
477287000 0.743610766415 -0.29957186037
477297500 0.743787815016 -0.299598421152
477308000 0.742788352181 -0.3001215232
477318500 0.743113507718 -0.299661372079
477329000 0.743225941606 -0.299667915747
477339500 0.742648119804 -0.300768052783
477350000 0.742637378622 -0.300498098575
477360500 0.741943326852 -0.300148783626
477371000 0.741918098824 -0.298872989389
477381500 0.74141831583 -0.300224601982
477392000 0.741881115016 -0.300821301295
477402500 0.740204873256 -0.301409119001
477413000 0.741527093706 -0.300914175322
477423500 0.741266472855 -0.299651663436
477434000 0.742145085886 -0.299399422729
477444500 0.740428470804 -0.300320146908
477455000 0.739402889537 -0.299959746491
477465500 0.740431176538 -0.300838367044
477476000 0.74101071858 -0.301182249173
477486500 0.740775549447 -0.30065588639
477497000 0.74125515044 -0.300403795201
477507500 0.742584053787 -0.300989043656
477518000 0.741250640712 -0.302980129996
477528500 0.743296514482 -0.298048185989
477539000 0.740945170657 -0.300695649464
477549500 0.740727387 -0.301767004382
477560000 0.741597761536 -0.301758242522
477570500 0.742539921243 -0.30161159092
477581000 0.742589547803 -0.299816859547
477591500 0.73922015629 -0.299599391365
477602000 0.738009523996 -0.298553677842
477612500 0.742608228298 -0.299176122436
477623000 0.740430483924 -0.301094795568
477633500 0.742249260045 -0.301971578206
477644000 0.740218904857 -0.299381989888
477654500 0.741946419254 -0.300171044114
477665000 0.740458755485 -0.300515605797
477675500 0.73732126866 -0.301294249184
477686000 0.741590997315 -0.301655128543
477696500 0.741260772859 -0.302773478721
477707000 0.741779070569 -0.300810947719
477717500 0.739960175851 -0.303170076046
477728000 0.739534894988 -0.300432079323
477738500 0.737082003599 -0.300045853655
477749000 0.739259403638 -0.298512615314
477759500 0.740500071483 -0.302374507294
477770000 0.74270209633 -0.297200447395
477780500 0.738188024065 -0.300596658439
477791000 0.740719522289 -0.299703668345
477801500 0.740697964687 -0.299498310288
477812000 0.741543579164 -0.302145730714
477822500 0.738825949741 -0.302591663695
477833000 0.738425188562 -0.301863454683
477843500 0.740265076169 -0.302712277989
477854000 0.739602450015 -0.300472675952
477864500 0.74092662861 -0.305009131048
477875000 0.739741696695 -0.303658492255
477885500 0.738442512178 -0.302973324262
477896000 0.738329972294 -0.30426821509
477906500 0.740460332165 -0.303537760057
477917000 0.739317356123 -0.302863167135
477927500 0.738876404684 -0.301972362329
477938000 0.739383509648 -0.302201328993
477948500 0.737259609746 -0.302761071242
477959000 0.73835733689 -0.302772776433
477969500 0.738293080498 -0.302551567436
477980000 0.738856546657 -0.302826978215
477990500 0.738335946315 -0.303434588792
478001000 0.739099743783 -0.30248875787
478011500 0.739567460809 -0.303149835844
478022000 0.738012345406 -0.302784322252
478032500 0.739320547565 -0.301603390576
478043000 0.739629163878 -0.303021612533
478053500 0.737787823659 -0.303911746516
478064000 0.739744190046 -0.303801005998
478074500 0.738327309681 -0.303709115788
478085000 0.742100605784 -0.303980065474
478095500 0.738764093584 -0.302807895479
478106000 0.738770523165 -0.303250554251
478116500 0.7385811851 -0.311726963902
478127000 0.739188440408 -0.304225989377
478137500 0.741267897026 -0.302952700173
478148000 0.740794115355 -0.302820520586
478158500 0.739033327629 -0.301997936063
478169000 0.737314494009 -0.296545008627
478179500 0.737216042239 -0.303860265627
478190000 0.731656625569 -0.300494633012
478200500 0.764006609955 -0.299749891869
478211000 0.732077678602 -0.303655028922
478221500 0.741030703055 -0.293673051319
478232000 0.75628982381 -0.30191191577
478242500 0.737714101972 -0.303773232221
478253000 0.745575282488 -0.314214945788
478263500 0.74372201575 -0.310250223692
478274000 0.735194821113 -0.302751081765
478284500 0.742995855945 -0.313967825404
478295000 0.72275014107 -0.313136030123
478305500 0.717274960047 -0.327490594516
478316000 0.721679391551 -0.318807692973
478326500 0.726989654687 -0.290395523475
478337000 0.735884872429 -0.302459778428
478347500 0.745062295438 -0.318092409039
478358000 0.737366393347 -0.323012802242
478368500 0.778364248898 -0.319608523034
478379000 0.71606413833 -0.308255309029
478389500 0.740134710361 -0.317822221494
478400000 0.7547489655 -0.310200742906
478410500 0.695324127325 -0.297862040385
478421000 0.756977244694 -0.288787574603
478431500 0.724796846292 -0.299222852697
478442000 0.740854259877 -0.321872782288
478452500 0.74685368669 -0.314659613846
478463000 0.733956694999 -0.299306810555
478473500 0.735195417336 -0.312637452318
478484000 0.735309326428 -0.290993105615
478494500 0.755076805319 -0.322411696041
478505000 0.733477724167 -0.301993310767
478515500 0.739041015953 -0.273851026828
478526000 0.772910575328 -0.320870823379
478536500 0.73547148939 -0.313461433296
478547000 0.73509897069 -0.311608855441
478557500 0.705941952433 -0.264526517062
478568000 0.720832185728 -0.300435577517
478578500 0.747043874895 -0.300593013254
478589000 0.734446895686 -0.321655445179
478599500 0.74943605431 -0.323187265948
478610000 0.741451674515 -0.279498002842
478620500 0.722862276912 -0.315339985363
478631000 0.736178544435 -0.310390707056
478641500 0.739513661214 -0.29771896776
478652000 0.742922652635 -0.312491741887
478662500 0.72729195596 -0.302150672536
478673000 0.730940505831 -0.318160671307
478683500 0.741905650208 -0.309996663189
478694000 0.743395108152 -0.313572451948
478704500 0.766385241655 -0.321724470601
478715000 0.730927074842 -0.298114342944
478725500 0.72700267651 -0.298139762223
478736000 0.735969731681 -0.294202179462
478746500 0.737392750948 -0.309605005371
478757000 0.7346984353 -0.305014723134
478767500 0.744063959054 -0.31417011999
478778000 0.731186000053 -0.302490445601
478788500 0.741717878298 -0.304301782026
478799000 0.747336696389 -0.31013839661
478809500 0.739820135247 -0.316818875483
478820000 0.733427386272 -0.302373566721
478830500 0.737468796074 -0.307634079961
478841000 0.736415083693 -0.302041195043
478851500 0.73699068529 -0.304150999646
478862000 0.737242964388 -0.305520048058
478872500 0.733385356799 -0.305123074348
478883000 0.737331664361 -0.306953833738
478893500 0.738928376618 -0.305846181147
478904000 0.742975379446 -0.305563805401
478914500 0.736867789413 -0.306690535665
478925000 0.733742145796 -0.307893151713
478935500 0.737718862569 -0.304175303169
478946000 0.737430711781 -0.307236210049
478956500 0.736326145015 -0.305165183554
478967000 0.735874542843 -0.304640330831
478977500 0.735123530512 -0.307505574351
478988000 0.736123458683 -0.306435817009
478998500 0.737136460269 -0.305896275162
479009000 0.735313329427 -0.305967883306
479019500 0.735896498916 -0.306073346346
479030000 0.737489969629 -0.307055823338
479040500 0.736671477287 -0.307485075956
479051000 0.735191683511 -0.305854192402
479061500 0.735722352036 -0.305606366313
479072000 0.735856447391 -0.306221927543
479082500 0.734079957538 -0.305017944085
479093000 0.73797960127 -0.306756105428
479103500 0.732914064407 -0.307347134042
479114000 0.736841373117 -0.306991249148
479124500 0.734721944388 -0.30727473534
479135000 0.735332027825 -0.307918485267
479145500 0.736902357775 -0.308227962196
479156000 0.737612829439 -0.309194542053
479166500 0.734340653644 -0.305824974979
479177000 0.735855459257 -0.308216439007
479187500 0.734193871847 -0.307781894326
479198000 0.735448070723 -0.305529425401
479208500 0.737856949113 -0.305957001524
479219000 0.736791953948 -0.309915356273
479229500 0.734321799247 -0.307473600984
479240000 0.737068528038 -0.308356131043
479250500 0.734370289917 -0.307533421838
479261000 0.73679824005 -0.308290876218
479271500 0.735046739468 -0.306807268299
479282000 0.733559067319 -0.306705130226
479292500 0.735585547076 -0.308592109654
479303000 0.733789733026 -0.307659040142
479313500 0.735885693359 -0.305916776924
479324000 0.732696214204 -0.307313855069
479334500 0.735009412909 -0.308975429921
479345000 0.734464215232 -0.306911028301
479355500 0.734563947851 -0.309065167519
479366000 0.735185278916 -0.307794222307
479376500 0.734803381918 -0.310114176314
479387000 0.734966794489 -0.308653043328
479397500 0.734685428282 -0.308668534082
479408000 0.736489337314 -0.307868712421
479418500 0.734443418597 -0.307771780024
479429000 0.734607006415 -0.30888613779
479439500 0.735864542847 -0.306192642188
479450000 0.735546954413 -0.308622165549
479460500 0.735626279323 -0.310715456696
479471000 0.735693342997 -0.310810611381
479481500 0.732875216468 -0.310966908903
479492000 0.735782487817 -0.308267998657
479502500 0.734450208961 -0.309555086956
479513000 0.734268375725 -0.308163182426
479523500 0.735354116731 -0.309584508575
479534000 0.734310903084 -0.311502855185
479544500 0.734411403492 -0.310400103583
479555000 0.734964150659 -0.309759983703
479565500 0.735472311323 -0.311287226139
479576000 0.736157051684 -0.31000322099
479586500 0.734444907589 -0.308987466126
479597000 0.73423981591 -0.309115040665
479607500 0.734137368907 -0.309309825725
479618000 0.734010946488 -0.309726672087
479628500 0.734519816965 -0.309891419093
479639000 0.735104061529 -0.310338341723
479649500 0.734723662365 -0.31016125871
479660000 0.735144310257 -0.311134140062
479670500 0.734820382848 -0.310793970553
479681000 0.734885645235 -0.310467781562
479691500 0.735236866783 -0.311242389708
479702000 0.734558126438 -0.310398016918
479712500 0.734444753374 -0.309794334143
479723000 0.733699193946 -0.311578279345
479733500 0.734896762039 -0.311940703568
479744000 0.735054066906 -0.310099117577
479754500 0.736281518587 -0.310349256618
479765000 0.735274451489 -0.310231435655
479775500 0.734954558919 -0.31073502465
479786000 0.734760080547 -0.311612540646
479796500 0.736320830825 -0.309698459002
479807000 0.735571344548 -0.311031637693
479817500 0.735377523157 -0.312091985312
479828000 0.735819029502 -0.309955471742
479838500 0.734369013818 -0.311957988886
479849000 0.73554169307 -0.311271929809
479859500 0.734528758618 -0.311264272316
479870000 0.732381125406 -0.311855149436
479880500 0.735436487908 -0.311474512606
479891000 0.735346357593 -0.311600256143
479901500 0.733809448393 -0.310582548113
479912000 0.734824919698 -0.312865358284
479922500 0.734338541441 -0.312028799973
479933000 0.734795923829 -0.31149230867
479943500 0.735207077439 -0.30977058835
479954000 0.735649506024 -0.310394500354
479964500 0.734907527999 -0.310185283514
479975000 0.733883671971 -0.309894935962
479985500 0.732741495098 -0.31012182617
479996000 0.733775171463 -0.310798945978
480006500 0.733737189052 -0.310934813587
480017000 0.733826115911 -0.310939752195
480027500 0.733720968149 -0.311834862717
480038000 0.733593736822 -0.311764293316
480048500 0.734923783706 -0.311930791253
480059000 0.733701633287 -0.311052610123
480069500 0.733835544077 -0.311789878162
480080000 0.733243747441 -0.312105937072
480090500 0.734425288915 -0.310023256844
480101000 0.735073075996 -0.31133056997
480111500 0.734026576867 -0.310981670945
480122000 0.734370873568 -0.311222794247
480132500 0.735870542947 -0.312735608327
480143000 0.735372625292 -0.31187328794
480153500 0.735228533389 -0.312415591944
480164000 0.734019638636 -0.312466097448
480174500 0.734726113031 -0.312490658966
480185000 0.733230588898 -0.312216398478
480195500 0.73287517982 -0.311946632629
480206000 0.733139911286 -0.312493699124
480216500 0.733164195696 -0.311217896237
480227000 0.73244499813 -0.312936013085
480237500 0.733380615699 -0.31171981547
480248000 0.731910548092 -0.312897243939
480258500 0.732751768953 -0.312742769453
480269000 0.733510239983 -0.312589485147
480279500 0.733971327991 -0.312251189051
480290000 0.733299981895 -0.312968073364
480300500 0.733899579709 -0.312638222099
480311000 0.733805590696 -0.311901748251
480321500 0.733318580571 -0.311595591424
480332000 0.732090002977 -0.312233666952
480342500 0.732494216454 -0.312826077045
480353000 0.732400054995 -0.312037305223
480363500 0.733387386832 -0.312487127759
480374000 0.733256610804 -0.3116451578
480384500 0.732887945244 -0.311958624567
480395000 0.731683887325 -0.311336975258
480405500 0.732876332368 -0.311053266128
480416000 0.734742277313 -0.314723724036
480426500 0.736141855379 -0.313743145286
480437000 0.733454829441 -0.312817377378
480447500 0.733865109939 -0.312710736049
480458000 0.735776896061 -0.313184442014
480468500 0.731536784776 -0.309163851962
480479000 0.73256910501 -0.311275905079
480489500 0.732952520365 -0.312697605684
480500000 0.731575332373 -0.313242750092
480510500 0.731393633393 -0.311023955439
480521000 0.733037960954 -0.314216941025
480531500 0.733445572997 -0.313780048794
480542000 0.731771933126 -0.311098130531
480552500 0.730990430076 -0.311833093484
480563000 0.731617999518 -0.312306853948
480573500 0.73289382852 -0.311324058025
480584000 0.731724410236 -0.313596689488
480594500 0.731203705399 -0.312007381035
480605000 0.731223671853 -0.314232127737
480615500 0.731439010449 -0.31258269178
480626000 0.729172441466 -0.313964432181
480636500 0.731957951425 -0.312352892569
480647000 0.731087988199 -0.312464641791
480657500 0.731327008246 -0.312273221714
480668000 0.73187543228 -0.312790921271
480678500 0.732424423582 -0.313261181096
480689000 0.731858714381 -0.313319202221
480699500 0.731981017179 -0.313111223224
480710000 0.731521351293 -0.313629286293
480720500 0.73112305689 -0.314017523452
480731000 0.730573201828 -0.31407664799
480741500 0.731492098484 -0.314363569089
480752000 0.730992692688 -0.313654959898
480762500 0.731801641308 -0.314478651296
480773000 0.731031973923 -0.314209940454
480783500 0.731376948695 -0.313657853951
480794000 0.730235154306 -0.313514274932
480804500 0.730550284727 -0.313581881751
480815000 0.730557526798 -0.313473602938
480825500 0.731118704899 -0.313947657536
480836000 0.730538395564 -0.314137665813
480846500 0.732082858933 -0.314272845474
480857000 0.730759244243 -0.314929156537
480867500 0.729200257654 -0.314610705392
480878000 0.729922690774 -0.314987667317
480888500 0.731218899931 -0.315536830458
480899000 0.730154411232 -0.313776575411
480909500 0.731109385901 -0.314499663419
480920000 0.731194691752 -0.315570180509
480930500 0.732090708182 -0.31333070739
480941000 0.729581086167 -0.315181480204
480951500 0.730173697515 -0.314890704271
480962000 0.728232652066 -0.312519486025
480972500 0.728160634066 -0.314666682584
480983000 0.729764867208 -0.316327718543
480993500 0.726023929136 -0.315076220789
481004000 0.728465322298 -0.312484843696
481014500 0.729730503108 -0.316389089108
481025000 0.730867767381 -0.316372975615
481035500 0.727099990515 -0.314676820572
481046000 0.727609802975 -0.314695608009
481056500 0.730483565643 -0.315494573695
481067000 0.732320875984 -0.316016625377
481077500 0.730440738269 -0.314650359258
481088000 0.730605302935 -0.3152815837
481098500 0.730109412243 -0.315109510725
481109000 0.728409305725 -0.318700565451
481119500 0.730352310587 -0.315765930272
481130000 0.728693417545 -0.316528394136
481140500 0.730364960204 -0.316575523421
481151000 0.729534207586 -0.314490387034
481161500 0.728571596655 -0.315910590434
481172000 0.72877925542 -0.315070150237
481182500 0.729433640401 -0.315278397679
481193000 0.729146994522 -0.315497158656
481203500 0.728966270152 -0.315820040322
481214000 0.729671863959 -0.316294590674
481224500 0.728815863144 -0.316793886915
481235000 0.728374527393 -0.317025516814
481245500 0.728614677722 -0.318125233659
481256000 0.728412484132 -0.317957912765
481266500 0.728907271275 -0.317045859135
481277000 0.729162788352 -0.316682606191
481287500 0.730051404356 -0.315863788174
481298000 0.731079465501 -0.31449984219
481308500 0.729811217967 -0.316941908916
481319000 0.729962177943 -0.316338159673
481329500 0.729219989395 -0.316806661104
481340000 0.729055897003 -0.316986196432
481350500 0.728663837724 -0.31676103168
481361000 0.727751338697 -0.316888430193
481371500 0.72808974711 -0.317134652702
481382000 0.729543691353 -0.31551509334
481392500 0.729460439153 -0.315855106107
481403000 0.72971553173 -0.317081042625
481413500 0.728566628484 -0.317055148092
481424000 0.729547604339 -0.317768460988
481434500 0.729335405791 -0.316636943433
481445000 0.729481577355 -0.317674053332
481455500 0.727780347157 -0.316583015084
481466000 0.728033543985 -0.31405997587
481476500 0.729782213966 -0.317616651734
481487000 0.729558362523 -0.315210858519
481497500 0.728792868246 -0.318820832815
481508000 0.729885445238 -0.317167303442
481518500 0.729805522578 -0.317332634463
481529000 0.729672432972 -0.317746019414
481539500 0.729558120392 -0.316092660223
481550000 0.728071925912 -0.315389563702
481560500 0.73357321924 -0.313911515722
481571000 0.731048210996 -0.316065468102
481581500 0.732758581455 -0.311980190807
481592000 0.730813446427 -0.317130985492
481602500 0.73142517235 -0.316671324231
481613000 0.732395377966 -0.314192603806
481623500 0.732775536172 -0.313876465751
481634000 0.734676373692 -0.31652396705
481644500 0.73408735164 -0.316572065757
481655000 0.731052818984 -0.314738773126
481665500 0.73032655841 -0.316093949742
481676000 0.731863434191 -0.314855243649
481686500 0.732541258185 -0.317592671635
481697000 0.733405238612 -0.319972019956
481707500 0.730889395299 -0.317561783753
481718000 0.731019452127 -0.317084766859
481728500 0.73024464746 -0.314867756728
481739000 0.72943416167 -0.314930028313
481749500 0.731406949297 -0.316363974441
481760000 0.731079038155 -0.317390410283
481770500 0.731460566561 -0.316745289741
481781000 0.732518862931 -0.315428349896
481791500 0.731950758765 -0.313577961403
481802000 0.731858172139 -0.313552951321
481812500 0.731394950753 -0.315673749952
481823000 0.731715348432 -0.316283151019
481833500 0.730998033477 -0.314099844854
481844000 0.729986543653 -0.315679208978
481854500 0.731718878061 -0.314658303384
481865000 0.731452760948 -0.315695710382
481875500 0.731482181882 -0.316982260278
481886000 0.731825159676 -0.318418848378
481896500 0.73240649682 -0.317252216818
481907000 0.730536645975 -0.317604881597
481917500 0.729435634921 -0.314864311521
481928000 0.72926280486 -0.315737716282
481938500 0.730223200345 -0.315474796074
481949000 0.730559137048 -0.319122207151
481959500 0.732284285101 -0.318242103683
481970000 0.731653519383 -0.322108799595
481980500 0.731509339403 -0.319628479662
481991000 0.731679317813 -0.317472388325
482001500 0.730542277774 -0.316351404874
482012000 0.730751588126 -0.318054747165
482022500 0.72980490764 -0.318025828811
482033000 0.7319857655 -0.317859476992
482043500 0.729784563518 -0.316572855751
482054000 0.72883514314 -0.317995127851
482064500 0.729027667911 -0.316349375693
482075000 0.730890347481 -0.317056862517
482085500 0.729216280666 -0.31730778688
482096000 0.728449253311 -0.31620492826
482106500 0.730114412401 -0.317874547152
482117000 0.7295304097 -0.315092330857
482127500 0.730145516051 -0.316743280874
482138000 0.728765594642 -0.320010533817
482148500 0.731574863245 -0.317940959232
482159000 0.731328137123 -0.317709640569
482169500 0.734781916827 -0.321309853927
482180000 0.730929560363 -0.317126892078
482190500 0.727354208672 -0.315106070614
482201000 0.727324337343 -0.320191954691
482211500 0.728976692535 -0.318379463889
482222000 0.730231539233 -0.315724869742
482232500 0.728806414027 -0.316826156416
482243000 0.729119699861 -0.3112736815
482253500 0.728939326514 -0.322746031948
482264000 0.73344271636 -0.318064601282
482274500 0.733530691439 -0.32464808846
482285000 0.726019155081 -0.321633083286
482295500 0.733017227404 -0.319544688484
482306000 0.737434464396 -0.313546740093
482316500 0.728502304832 -0.328369282551
482327000 0.735974492119 -0.314568458714
482337500 0.726230023345 -0.316788578835
482348000 0.737400642383 -0.315949659531
482358500 0.731696310238 -0.329481996742
482369000 0.740163384384 -0.300427831244
482379500 0.72540841404 -0.323234998706
482390000 0.736515715149 -0.315363211941
482400500 0.746653732056 -0.32702405028
482411000 0.721033514804 -0.304488064298
482421500 0.748690348889 -0.327631071411
482432000 0.739614150295 -0.324325722943
482442500 0.699249855393 -0.301361215994
482453000 0.729361262279 -0.316377197289
482463500 0.723460698754 -0.326592731979
482474000 0.739841524748 -0.304892226875
482484500 0.741686113656 -0.318193590078
482495000 0.719892698998 -0.314445478104
482505500 0.722971662992 -0.328086887099
482516000 0.726753277906 -0.329279952236
482526500 0.724574007504 -0.315635373579
482537000 0.690347135427 -0.302975435059
482547500 0.726040613488 -0.321417409531
482558000 0.716303255764 -0.328855549863
482568500 0.724722050387 -0.320077108755
482579000 0.740371611229 -0.318475603291
482589500 0.729494461889 -0.318278369521
482600000 0.733471261498 -0.32023110115
482610500 0.730200548343 -0.324455323755
482621000 0.719722731442 -0.319649602729
482631500 0.733956360312 -0.317693231577
482642000 0.718790450579 -0.310039264286
482652500 0.72789986207 -0.321225570609
482663000 0.723303846325 -0.311938572866
482673500 0.740717980105 -0.331280677159
482684000 0.736535295932 -0.320827201042
482694500 0.728523426135 -0.319271506743
482705000 0.725388335963 -0.316082609844
482715500 0.725681768496 -0.322317881035
482726000 0.72687979545 -0.316627481836
482736500 0.725850610096 -0.320986085621
482747000 0.718518299272 -0.324553336695
482757500 0.730601520566 -0.318594447045
482768000 0.72986399707 -0.315401887036
482778500 0.726149420538 -0.324055880894
482789000 0.726556338139 -0.318577271897
482799500 0.720212870967 -0.32730610629
482810000 0.727777241555 -0.323290859688
482820500 0.732061196022 -0.321653099764
482831000 0.72771256646 -0.317896699307
482841500 0.732108189297 -0.316974286667
482852000 0.731085240365 -0.325403830306
482862500 0.72714825895 -0.319470348073
482873000 0.727857276835 -0.318909476259
482883500 0.724450676367 -0.33316319453
482894000 0.722458753826 -0.317811205902
482904500 0.730224751459 -0.324369200815
482915000 0.726961735961 -0.318546745399
482925500 0.7279589535 -0.321079663708
482936000 0.728058706252 -0.321365131767
482946500 0.726777781804 -0.319535929663
482957000 0.72694139258 -0.32036602446
482967500 0.729341183259 -0.319298462942
482978000 0.729709806107 -0.320238484633
482988500 0.724805099973 -0.320868298436
482999000 0.727070745713 -0.318595179325
483009500 0.73087591274 -0.322854902713
483020000 0.727581691605 -0.319256901696
483030500 0.730581604892 -0.319592977271
483041000 0.727398805502 -0.321794554022
483051500 0.728360425617 -0.31987324194
483062000 0.728858798248 -0.320141958116
483072500 0.725606814101 -0.321208204056
483083000 0.726786334796 -0.321856923899
483093500 0.727299299998 -0.319012094568
483104000 0.726305807702 -0.319785267709
483114500 0.727027820211 -0.322084071348
483125000 0.727146993345 -0.321506515886
483135500 0.727433820799 -0.322074587638
483146000 0.725450429733 -0.321997363365
483156500 0.724624007609 -0.32103176627
483167000 0.724575703658 -0.32219721528
483177500 0.722968429255 -0.321592072141
483188000 0.725821050994 -0.320846289922
483198500 0.724567523516 -0.319567832755
483209000 0.726623518734 -0.322744759667
483219500 0.728628803165 -0.322714531221
483230000 0.726980132327 -0.324853744107
483240500 0.724838708318 -0.321316830179
483251000 0.726632429498 -0.318130829671
483261500 0.727821215158 -0.323263846167
483272000 0.728403283913 -0.318312025061
483282500 0.729843804021 -0.322507722032
483293000 0.726142929911 -0.319727893334
483303500 0.72533915381 -0.322564917541
483314000 0.726023731803 -0.319016746765
483324500 0.727311451165 -0.322658687145
483335000 0.727942116188 -0.320750730217
483345500 0.72571578144 -0.32100143828
483356000 0.72564934708 -0.322825691995
483366500 0.726665342895 -0.322864166527
483377000 0.727176910585 -0.326187812869
483387500 0.727650830354 -0.322893247698
483398000 0.728240163232 -0.320481650953
483408500 0.726243465206 -0.325021073271
483419000 0.725832974953 -0.32250285565
483429500 0.727029453538 -0.323711750888
483440000 0.727407499227 -0.321967095362
483450500 0.725665104053 -0.320676204855
483461000 0.725546985529 -0.323137372292
483471500 0.725364499715 -0.323084188487
483482000 0.726818797414 -0.321863387348
483492500 0.727295619481 -0.320088765822
483503000 0.725927559533 -0.321310437168
483513500 0.72439551122 -0.320574935509
483524000 0.727453656249 -0.320909239607
483534500 0.727088645952 -0.324001047322
483545000 0.726752669424 -0.32239200332
483555500 0.727064151876 -0.322271359922
483566000 0.726140438559 -0.322591048647
483576500 0.726148748218 -0.322816304143
483587000 0.726253901523 -0.323050121329
483597500 0.72547532014 -0.323165342597
483608000 0.725233686366 -0.323567045665
483618500 0.72485912534 -0.323441119263
483629000 0.726130694131 -0.323233159435
483639500 0.726588878473 -0.324084689907
483650000 0.72637655539 -0.323714374192
483660500 0.726927620622 -0.324106862612
483671000 0.725912398171 -0.324093535288
483681500 0.726117650407 -0.323271631294
483692000 0.725086504329 -0.324177786334
483702500 0.72674486534 -0.323342869385
483713000 0.725784856386 -0.323336115858
483723500 0.725867701685 -0.324285932997
483734000 0.725349548238 -0.323579686207
483744500 0.726447205641 -0.32259632194
483755000 0.725003300683 -0.324633716496
483765500 0.725926428945 -0.323395981411
483776000 0.724244597094 -0.323962592076
483786500 0.726258155086 -0.325008720252
483797000 0.725174527227 -0.32490342387
483807500 0.724118492545 -0.323263164329
483818000 0.725174304136 -0.324081283449
483828500 0.725964928098 -0.324226980695
483839000 0.724808437813 -0.323805946016
483849500 0.725093417705 -0.32291394615
483860000 0.725921040405 -0.323019157313
483870500 0.725790837543 -0.323300530898
483881000 0.726659215624 -0.323277651858
483891500 0.72435463922 -0.323126751387
483902000 0.724534877665 -0.32384612508
483912500 0.72504332626 -0.324524539331
483923000 0.724828324885 -0.325346993851
483933500 0.724431707888 -0.324489671556
483944000 0.72448949599 -0.324458820113
483954500 0.723938235976 -0.324504705094
483965000 0.723835213336 -0.325073858198
483975500 0.724655067896 -0.325313571471
483986000 0.724536552806 -0.325230641821
483996500 0.724859688751 -0.325903585075
484007000 0.724007473175 -0.325017390081
484017500 0.724448096782 -0.325624355673
484028000 0.724130049276 -0.324400284194
484038500 0.723849413647 -0.324039859607
484049000 0.724316717291 -0.324399645904
484059500 0.723305540575 -0.324461149632
484070000 0.72389205267 -0.325159538961
484080500 0.724028537542 -0.325194655139
484091000 0.724732694998 -0.324628161995
484101500 0.724374598691 -0.324875967901
484112000 0.724295755672 -0.324242782328
484122500 0.723120920577 -0.32441032906
484133000 0.72374228311 -0.324814379061
484143500 0.724171880245 -0.324155893668
484154000 0.723621034881 -0.324375181898
484164500 0.723933870829 -0.324458010196
484175000 0.723722977425 -0.325083741351
484185500 0.723685164062 -0.326272697199
484196000 0.724211680348 -0.325706597676
484206500 0.72322249793 -0.324269731743
484217000 0.724298754187 -0.3248359234
484227500 0.724782479259 -0.324378844549
484238000 0.724033481434 -0.325444782249
484248500 0.721806799058 -0.324422245116
484259000 0.723584773961 -0.325213395459
484269500 0.722810516393 -0.325376645582
484280000 0.723906099646 -0.32481924705
484290500 0.723444824339 -0.324857258199
484301000 0.72354075609 -0.32471816955
484311500 0.723701654267 -0.32538310701
484322000 0.724503910049 -0.326073547289
484332500 0.723602290921 -0.32631543739
484343000 0.724026736637 -0.326876880253
484353500 0.724231102095 -0.324917911924
484364000 0.72388958758 -0.325949552189
484374500 0.722779012673 -0.3250200099
484385000 0.724026953629 -0.3250403615
484395500 0.723411683518 -0.325155926264
484406000 0.723134829801 -0.326031718922
484416500 0.723467545714 -0.32560558951
484427000 0.722991321898 -0.325364912229
484437500 0.723766304823 -0.325500129413
484448000 0.723015517012 -0.326071941844
484458500 0.722885054521 -0.326079842797
484469000 0.722907850556 -0.326426202331
484479500 0.723141604267 -0.325645429848
484490000 0.72375484878 -0.325790276855
484500500 0.723717407735 -0.325493012952
484511000 0.723078825178 -0.325779166085
484521500 0.72299477064 -0.325956126453
484532000 0.723266890487 -0.326171846177
484542500 0.723437060389 -0.326567493353
484553000 0.723059771704 -0.326898259604
484563500 0.722969657034 -0.326458642566
484574000 0.722793194033 -0.326608241203
484584500 0.721879376629 -0.326333706985
484595000 0.721900309744 -0.327150724933
484605500 0.722271600407 -0.327788699788
484616000 0.722130547927 -0.327476891899
484626500 0.722297976919 -0.327293647345
484637000 0.722696052366 -0.326643066969
484647500 0.72291569 -0.326115040388
484658000 0.722561955661 -0.326582664016
484668500 0.722849720868 -0.326113815987
484679000 0.723759171901 -0.326645475717
484689500 0.723197403353 -0.326828436873
484700000 0.722886764008 -0.326725336646
484710500 0.723292532244 -0.326969013303
484721000 0.722805671321 -0.326660297185
484731500 0.722823588075 -0.326842981994
484742000 0.722576345187 -0.326239132567
484752500 0.722318494703 -0.327111398382
484763000 0.722160020847 -0.328331739355
484773500 0.722062176816 -0.327466410529
484784000 0.721798291971 -0.326859633687
484794500 0.721575228857 -0.326839450639
484805000 0.72269296391 -0.327247809789
484815500 0.722061286762 -0.327059772333
484826000 0.721831202708 -0.327423136224
484836500 0.722341797274 -0.326696643308
484847000 0.721954880839 -0.326723075671
484857500 0.721509787943 -0.326875698594
484868000 0.721563226744 -0.327764043198
484878500 0.720960993994 -0.32807310572
484889000 0.721290587567 -0.328239895755
484899500 0.721827222242 -0.327524192664
484910000 0.721437911666 -0.327767909219
484920500 0.72179105662 -0.32759906258
484931000 0.722002636521 -0.326941231744
484941500 0.722139152711 -0.326795663777
484952000 0.72159790779 -0.327259066455
484962500 0.721454261971 -0.327239875539
484973000 0.721254556804 -0.326834993039
484983500 0.722051911043 -0.326271431425
484994000 0.721562857879 -0.326091668228
485004500 0.721527512323 -0.327190711417
485015000 0.721450493989 -0.327896406904
485025500 0.721178456952 -0.327819765553
485036000 0.72163004684 -0.327785048347
485046500 0.721919160264 -0.328066341549
485057000 0.722017552044 -0.327858595705
485067500 0.721305293487 -0.328291052783
485078000 0.721963120903 -0.328394267193
485088500 0.720764706203 -0.329000725288
485099000 0.721049443079 -0.329084120917
485109500 0.719602262984 -0.328736796082
485120000 0.720587483628 -0.329020235399
485130500 0.721388273641 -0.328954775002
485141000 0.72107973323 -0.328999568138
485151500 0.720909024413 -0.328194432083
485162000 0.721132513268 -0.32803702145
485172500 0.721189040265 -0.328559753334
485183000 0.720773691675 -0.326802326863
485193500 0.720951478755 -0.32793288955
485204000 0.72086539587 -0.328032570117
485214500 0.721043328944 -0.327677612993
485225000 0.72093684493 -0.328750673716
485235500 0.721127696205 -0.329129323174
485246000 0.720295909523 -0.329631021931
485256500 0.721423248239 -0.329531880082
485267000 0.720443755611 -0.329750997915
485277500 0.720074731697 -0.330125596603
485288000 0.721823413528 -0.329598825336
485298500 0.721430372526 -0.329696919675
485309000 0.720700930819 -0.330022370271
485319500 0.721199081418 -0.329789428002
485330000 0.720448775429 -0.329771108139
485340500 0.720115449484 -0.329080951199
485351000 0.719917406474 -0.329781942415
485361500 0.720466937437 -0.329597455005
485372000 0.720013148934 -0.329560857524
485382500 0.719851856 -0.329493438854
485393000 0.720729001379 -0.329597729524
485403500 0.720648369408 -0.32962159454
485414000 0.719845786075 -0.329904380472
485424500 0.719372990119 -0.329776560088
485435000 0.718680661724 -0.328029852486
485445500 0.721256363213 -0.331460564359
485456000 0.720988088494 -0.32931297765
485466500 0.717318876001 -0.329350024896
485477000 0.719108657945 -0.329448907927
485487500 0.721746509499 -0.333231014121
485498000 0.722249483199 -0.331170545911
485508500 0.718174273364 -0.330649408791
485519000 0.718401474205 -0.331936972312
485529500 0.721486121309 -0.330435624308
485540000 0.718318203796 -0.332849733767
485550500 0.717340360135 -0.330261075254
485561000 0.721557104349 -0.330994132927
485571500 0.720482603657 -0.327917206249
485582000 0.715850023846 -0.330906020293
485592500 0.718904432177 -0.334498498818
485603000 0.715968915555 -0.329164669788
485613500 0.727848474928 -0.331125004366
485624000 0.719130052033 -0.328380256025
485634500 0.719868542108 -0.327496536909
485645000 0.718163224232 -0.333058950734
485655500 0.721795575776 -0.338425660855
485666000 0.724798427608 -0.328757400777
485676500 0.72274052578 -0.33081551037
485687000 0.717926025027 -0.330599293262
485697500 0.720059765717 -0.331456059399
485708000 0.720579191389 -0.334978422527
485718500 0.719827012517 -0.328973126753
485729000 0.715340550471 -0.329382798761
485739500 0.716595456393 -0.332916611013
485750000 0.721190615356 -0.330079941757
485760500 0.71779740871 -0.333059987858
485771000 0.722510851642 -0.330061549537
485781500 0.723256188087 -0.330937176031
485792000 0.719330928976 -0.332901295424
485802500 0.72121022413 -0.334118290489
485813000 0.717956786311 -0.332081123149
485823500 0.721101322614 -0.331102089126
485834000 0.721075922404 -0.330844358194
485844500 0.722298640198 -0.330703839744
485855000 0.722747467483 -0.331559950391
485865500 0.721686211254 -0.330975485769
485876000 0.720125424046 -0.333522217933
485886500 0.718880475203 -0.331513800657
485897000 0.717085962034 -0.332552524773
485907500 0.72015874626 -0.330031757166
485918000 0.719814111001 -0.330475078192
485928500 0.719372223804 -0.33029925797
485939000 0.723543590868 -0.328737848447
485949500 0.720324335546 -0.331878202482
485960000 0.718953826578 -0.331723891359
485970500 0.719193378984 -0.332010498723
485981000 0.719923136479 -0.331785499766
485991500 0.718218668259 -0.332250095697
486002000 0.720452802597 -0.330900354291
486012500 0.720640276444 -0.332553749207
486023000 0.722657367684 -0.337118235406
486033500 0.722733852965 -0.330679505076
486044000 0.717118354311 -0.339061210682
486054500 0.720214691891 -0.332679394108
486065000 0.727765234665 -0.336258308149
486075500 0.711353596022 -0.330446523638
486086000 0.719381924275 -0.32958895318
486096500 0.712358593577 -0.332775515736
486107000 0.713766725102 -0.328609731583
486117500 0.713006376445 -0.332111675559
486128000 0.712795143308 -0.33526037487
486138500 0.720065142202 -0.332242269669
486149000 0.718538824108 -0.334219750332
486159500 0.718856983264 -0.330165294639
486170000 0.716419494025 -0.338811092981
486180500 0.727607892409 -0.33091117062
486191000 0.718505080931 -0.332564654318
486201500 0.717582403254 -0.333235837282
486212000 0.707619460192 -0.343717751055
486222500 0.714695471538 -0.327359432056
486233000 0.714045435481 -0.349274442664
486243500 0.700131206455 -0.323143916992
486254000 0.716814365957 -0.339332336947
486264500 0.72507705586 -0.323394306995
486275000 0.715395629772 -0.328512984524
486285500 0.694347865388 -0.351095653764
486296000 0.707963933867 -0.348714747667
486306500 0.726973828323 -0.3318795642
486317000 0.708641537531 -0.330274767237
486327500 0.718733470265 -0.328750542135
486338000 0.739130394513 -0.347320458605
486348500 0.715219481832 -0.336861035417
486359000 0.730147643753 -0.339209315469
486369500 0.693346564883 -0.342222456863
486380000 0.697295776591 -0.325285611034
486390500 0.723052549939 -0.322214448389
486401000 0.704518377343 -0.332651769413
486411500 0.735803689993 -0.329284486952
486422000 0.706407238119 -0.339366181156
486432500 0.702089838503 -0.33420225831
486443000 0.692003435813 -0.31834260612
486453500 0.715330252972 -0.343044597228
486464000 0.70863002532 -0.330977023995
486474500 0.753238137653 -0.343782253732
486485000 0.716063264309 -0.339391845434
486495500 0.697021693797 -0.326399795035
486506000 0.731631336552 -0.329276584356
486516500 0.734076018826 -0.345316639193
486527000 0.693919485689 -0.323854698374
486537500 0.75585041208 -0.340414358898
486548000 0.707563839203 -0.328781858357
486558500 0.731817711644 -0.336994810781
486569000 0.71326469699 -0.329171276782
486579500 0.725496349548 -0.33669532024
486590000 0.718512270657 -0.323339373137
486600500 0.704540116582 -0.348873374308
486611000 0.723765101474 -0.322094996405
486621500 0.709021244975 -0.351124786092
486632000 0.727041433452 -0.342055428384
486642500 0.706057791391 -0.33510619098
486653000 0.71824749843 -0.327931322028
486663500 0.73371658011 -0.328995465882
486674000 0.702204087546 -0.331762640556
486684500 0.726198487087 -0.333907766757
486695000 0.696747937821 -0.356907771301
486705500 0.687432925342 -0.327216957599
486716000 0.739310199743 -0.329770958529
486726500 0.700685645142 -0.33197473009
486737000 0.709272988977 -0.340217612034
486747500 0.708112635582 -0.31192165938
486758000 0.705175174722 -0.326007475291
486768500 0.714078811165 -0.332449234239
486779000 0.708801861028 -0.328613460361
486789500 0.703955729596 -0.319737193105
486800000 0.71978816066 -0.334378249355
486810500 0.711650786743 -0.325319796592
486821000 0.717605362504 -0.330900395156
486831500 0.719992836361 -0.327693895976
486842000 0.718111160447 -0.334342567239
486852500 0.720566759435 -0.334939718328
486863000 0.716090832922 -0.327560210491
486873500 0.721610339222 -0.333350886556
486884000 0.712283168787 -0.333678664537
486894500 0.717867509538 -0.333779010364
486905000 0.717391717427 -0.336199438541
486915500 0.717966827842 -0.3280122809
486926000 0.717931736225 -0.336246191575
486936500 0.717044136416 -0.335207661714
486947000 0.715940050673 -0.337403297047
486957500 0.718423253463 -0.336642155997
486968000 0.715726529588 -0.334119421925
486978500 0.718419733931 -0.333357123349
486989000 0.717337019726 -0.335823485455
486999500 0.716087805691 -0.335815641678
487010000 0.715846309313 -0.336111878581
487020500 0.716004358405 -0.335432447022
487031000 0.717228411528 -0.335696449246
487041500 0.716329181971 -0.335195430168
487052000 0.715721065935 -0.335273254723
487062500 0.715594364007 -0.334978316884
487073000 0.715529902889 -0.335621945956
487083500 0.719206969376 -0.334184598283
487094000 0.713714945973 -0.338631526956
487104500 0.715861477967 -0.336132292094
487115000 0.715785795299 -0.334700329292
487125500 0.715330622044 -0.332981950425
487136000 0.714289124356 -0.336910642077
487146500 0.716978107094 -0.33589265125
487157000 0.716959050591 -0.338075900225
487167500 0.717123649682 -0.33605685877
487178000 0.714002339905 -0.337192497575
487188500 0.714179135282 -0.334910685548
487199000 0.715770316461 -0.337149650958
487209500 0.715283656953 -0.337172876505
487220000 0.713760772816 -0.33389150362
487230500 0.709978036928 -0.33750352982
487241000 0.716262246961 -0.336222252793
487251500 0.714646445327 -0.336355930018
487262000 0.717742786387 -0.336832346599
487272500 0.714166239135 -0.3348103712
487283000 0.714920210186 -0.33549337543
487293500 0.718291177172 -0.34007929191
487304000 0.712887274557 -0.334950663699
487314500 0.714145436041 -0.337624459308
487325000 0.71478442156 -0.340479137856
487335500 0.71320621975 -0.336248322419
487346000 0.716003057916 -0.335676724927
487356500 0.715392286194 -0.335843567846
487367000 0.718619382351 -0.337640981877
487377500 0.715145963545 -0.338219538214
487388000 0.71453808313 -0.335277410569
487398500 0.713249777834 -0.337568865481
487409000 0.71277206057 -0.33616007079
487419500 0.722702074687 -0.33184893752
487430000 0.718640215911 -0.335683621753
487440500 0.715688498504 -0.337610497018
487451000 0.714883272036 -0.336168309076
487461500 0.712108087798 -0.339401159293
487472000 0.7170818704 -0.334610559376
487482500 0.709244028466 -0.343034622377
487493000 0.761762772758 -0.350270612734
487503500 0.710723371025 -0.340112967806
487514000 0.710090025336 -0.334039849882
487524500 0.714745151962 -0.336827261384
487535000 0.71412620029 -0.33497009565
487545500 0.714916949607 -0.337607121812
487556000 0.71503354563 -0.337919464174
487566500 0.714438879785 -0.336926699437
487577000 0.715750108414 -0.337042398619
487587500 0.714787797615 -0.337285344017
487598000 0.715224475461 -0.337935392176
487608500 0.715559275513 -0.338003576112
487619000 0.71545640714 -0.3377743152
487629500 0.713643729072 -0.337927947781
487640000 0.714158520632 -0.338423804162
487650500 0.71408822645 -0.338520306963
487661000 0.714107038712 -0.338379788359
487671500 0.713977261873 -0.339051575917
487682000 0.714359122544 -0.338398687579
487692500 0.714533331069 -0.338861159197
487703000 0.714319956252 -0.338701347015
487713500 0.714256648564 -0.338185764522
487724000 0.714587586944 -0.338412727309
487734500 0.714313895899 -0.337978316748
487745000 0.714291195907 -0.338367777444
487755500 0.714106546618 -0.337966767658
487766000 0.714376151361 -0.338403490649
487776500 0.7147289727 -0.338731566555
487787000 0.714799892496 -0.339066152703
487797500 0.714227606976 -0.338873379564
487808000 0.714623815061 -0.339163215085
487818500 0.7136224532 -0.33934638929
487829000 0.713939151384 -0.339101213165
487839500 0.713526108461 -0.339049694297
487850000 0.713271225687 -0.338906883638
487860500 0.713077479333 -0.33991267676
487871000 0.713758204441 -0.339502935284
487881500 0.713533061561 -0.338791686589
487892000 0.714090549402 -0.338836103008
487902500 0.713761318431 -0.338869953314
487913000 0.713224009475 -0.338941313995
487923500 0.713073929647 -0.338754766338
487934000 0.714002526868 -0.338981084001
487944500 0.714136473508 -0.339850363311
487955000 0.713559690457 -0.339459124305
487965500 0.7134554444 -0.340150179167
487976000 0.712869687066 -0.338708013991
487986500 0.713750993633 -0.338474436849
487997000 0.713963373895 -0.339591027169
488007500 0.714086882958 -0.338836164918
488018000 0.713699189887 -0.338990420057
488028500 0.713000829329 -0.340628156382
488039000 0.712901135969 -0.339754173416
488049500 0.713327720233 -0.339385407932
488060000 0.713523755896 -0.339934239475
488070500 0.713456197112 -0.339367557187
488081000 0.713764679342 -0.340318321788
488091500 0.714168104503 -0.340601762673
488102000 0.713886644907 -0.340591675678
488112500 0.713574910715 -0.340186573738
488123000 0.714014035287 -0.34094252893
488133500 0.713158855572 -0.340385606883
488144000 0.713078197478 -0.34034073683
488154500 0.712740778604 -0.340807866817
488165000 0.71286120069 -0.340257856148
488175500 0.714062289187 -0.340109896373
488186000 0.713473409632 -0.340396548092
488196500 0.713475879613 -0.339843529832
488207000 0.713621225133 -0.339804826833
488217500 0.713224548331 -0.340400806004
488228000 0.713202951082 -0.341111288455
488238500 0.712614042683 -0.341530126203
488249000 0.712530243194 -0.341256547638
488259500 0.712792092895 -0.341250661006
488270000 0.712846873664 -0.340826893306
488280500 0.712400656365 -0.340507387419
488291000 0.71312039763 -0.340616728057
488301500 0.713098364549 -0.341537192988
488312000 0.712521866635 -0.342352310048
488322500 0.714104031834 -0.341162993825
488333000 0.713695111245 -0.341269660351
488343500 0.712872519551 -0.341031134992
488354000 0.713194858352 -0.34114877308
488364500 0.713172306384 -0.341223762553
488375000 0.712838482064 -0.34162166489
488385500 0.712756204185 -0.341846117578
488396000 0.712205961401 -0.341546271555
488406500 0.712015772431 -0.34139839359
488417000 0.711453575288 -0.341136616546
488427500 0.711923263856 -0.340401926867
488438000 0.712601914753 -0.341188120372
488448500 0.712282327943 -0.341772213994
488459000 0.712415773398 -0.342090741235
488469500 0.711782343943 -0.342209281142
488480000 0.711860569076 -0.341677931447
488490500 0.711424307692 -0.341863897086
488501000 0.711280999315 -0.34165391671
488511500 0.711432023385 -0.342154379424
488522000 0.711453749872 -0.341653506261
488532500 0.712044900005 -0.342423183192
488543000 0.712313351856 -0.34269316728
488553500 0.711912390613 -0.342740530902
488564000 0.712376415763 -0.342588773996
488574500 0.711403668392 -0.342501702846
488585000 0.711328491965 -0.342406115103
488595500 0.711432830776 -0.342626552342
488606000 0.71154214755 -0.342428843697
488616500 0.712388052315 -0.3423539476
488627000 0.711597193639 -0.342739915819
488637500 0.711575939912 -0.34220048019
488648000 0.7119729222 -0.342392684087
488658500 0.711901023303 -0.34250503928
488669000 0.712257663163 -0.343058761035
488679500 0.711626001036 -0.342299128138
488690000 0.711609295729 -0.342154903909
488700500 0.711044415134 -0.342092024888
488711000 0.711353961235 -0.34285999482
488721500 0.711037262124 -0.34303851131
488732000 0.711977853263 -0.34349053938
488742500 0.711354669528 -0.342623392228
488753000 0.711437130295 -0.343069332727
488763500 0.711240656028 -0.342720044409
488774000 0.710232663751 -0.343438835616
488784500 0.711474547046 -0.343713244904
488795000 0.710994011763 -0.343325458848
488805500 0.710616162051 -0.343039948176
488816000 0.710899639885 -0.34304158029
488826500 0.711188368181 -0.342704984367
488837000 0.711316903653 -0.34313089872
488847500 0.711358187484 -0.343320150223
488858000 0.711199183113 -0.343491097962
488868500 0.710169318199 -0.344042493179
488879000 0.710893021268 -0.343745119657
488889500 0.711130424287 -0.343631241945
488900000 0.711437361049 -0.343955419444
488910500 0.711420000972 -0.343912148675
488921000 0.711030139838 -0.343600997716
488931500 0.710430347191 -0.344290070988
488942000 0.711248052192 -0.343837658732
488952500 0.714097862171 -0.343794485815
488963000 0.710824556294 -0.34453203236
488973500 0.710654358357 -0.344541034798
488984000 0.710404989079 -0.344088273601
488994500 0.710574570522 -0.344558877574
489005000 0.710674311339 -0.344214121086
489015500 0.71063978214 -0.344625697219
489026000 0.710683088587 -0.344314597596
489036500 0.711015844506 -0.34390793494
489047000 0.709898575983 -0.344264626195
489057500 0.71037745386 -0.34497848967
489068000 0.710560421232 -0.344837731063
489078500 0.710695750779 -0.345233124169
489089000 0.710610064351 -0.344103464688
489099500 0.710333058671 -0.343590369885
489110000 0.710678743047 -0.344563136013
489120500 0.70998551644 -0.345006886531
489131000 0.710149211717 -0.345017568737
489141500 0.709948916321 -0.34465892293
489152000 0.709229180613 -0.345215090817
489162500 0.709373928094 -0.345424961218
489173000 0.709800211536 -0.344385447542
489183500 0.710120858881 -0.345198879441
489194000 0.710413976565 -0.345074177635
489204500 0.7102152624 -0.345454859708
489215000 0.709998770365 -0.345187000745
489225500 0.709750843264 -0.345197919314
489236000 0.710412078699 -0.345493447926
489246500 0.709894915579 -0.345290960934
489257000 0.709975792196 -0.345087859272
489267500 0.70967530562 -0.344537003251
489278000 0.710153441146 -0.344882585331
489288500 0.710361515963 -0.345359613545
489299000 0.710349102541 -0.344635535598
489309500 0.710011654437 -0.343944712634
489320000 0.709989879929 -0.344405094869
489330500 0.710366594456 -0.344113688374
489341000 0.709693418796 -0.344691538156
489351500 0.709623886804 -0.345066387804
489362000 0.709057917122 -0.345439877309
489372500 0.709250304336 -0.345733347436
489383000 0.708933254114 -0.345281566191
489393500 0.708631272371 -0.344814805546
489404000 0.708875409363 -0.345520698131
489414500 0.708603886537 -0.345752591471
489425000 0.708853226387 -0.345881662933
489435500 0.709002946946 -0.345522203023
489446000 0.707813138603 -0.345691399973
489456500 0.708054450158 -0.345494141142
489467000 0.709690326692 -0.345858261351
489477500 0.707764793293 -0.345517036828
489488000 0.709567858321 -0.346431412575
489498500 0.709692691994 -0.347001933788
489509000 0.70864033842 -0.34650249521
489519500 0.709544351399 -0.344542112114
489530000 0.709469772993 -0.346489667633
489540500 0.707483314975 -0.346214694486
489551000 0.707166354608 -0.345959466542
489561500 0.70852959845 -0.347724142327
489572000 0.708538227277 -0.345451245914
489582500 0.708576294424 -0.347162058397
489593000 0.708751927883 -0.347492099138
489603500 0.708357129126 -0.34565744744
489614000 0.709748898514 -0.345004211723
489624500 0.708266575634 -0.347006019876
489635000 0.708801864541 -0.345505896731
489645500 0.709481169685 -0.347253836204
489656000 0.714555849832 -0.344172330203
489666500 0.710775324105 -0.34637556141
489677000 0.710001611972 -0.345897658636
489687500 0.708800296306 -0.3483085076
489698000 0.705379657308 -0.348323448762
489708500 0.705872111011 -0.345415833665
489719000 0.707818409807 -0.347888832621
489729500 0.710081810382 -0.346999863431
489740000 0.70789737576 -0.347418671267
489750500 0.706625097124 -0.349541643466
489761000 0.707423251329 -0.34692763213
489771500 0.707741892532 -0.346319231984
489782000 0.709516710221 -0.347081709911
489792500 0.709793694329 -0.34661414704
489803000 0.70917957552 -0.34641254236
489813500 0.706384813197 -0.347291487275
489824000 0.70877936713 -0.348116294929
489834500 0.70759751111 -0.347722839051
489845000 0.707683578048 -0.35180416914
489855500 0.706269677253 -0.348074585318
489866000 0.708355564808 -0.35052589311
489876500 0.706803283731 -0.346327974822
489887000 0.706982549869 -0.347852290346
489897500 0.707948662206 -0.348645510701
489908000 0.706739318919 -0.346862315178
489918500 0.70646926547 -0.34703225628
489929000 0.706158757995 -0.347469773928
489939500 0.709069227136 -0.348893102241
489950000 0.70735681573 -0.346720992682
489960500 0.70845293096 -0.346062306676
489971000 0.706388177318 -0.348348695725
489981500 0.70747872265 -0.348518399583
489992000 0.706795103952 -0.34900096089
490002500 0.707334945549 -0.348700959705
490013000 0.707845075201 -0.348385679836
490023500 0.707374410627 -0.348559602356
490034000 0.708014240632 -0.348962418821
490044500 0.706800601225 -0.348894013408
490055000 0.707261136123 -0.348043330094
490065500 0.707160042683 -0.34795529492
490076000 0.706956846841 -0.348521715012
490086500 0.706776457585 -0.348259034421
490097000 0.706863965952 -0.34826484677
490107500 0.706503576902 -0.347978357515
490118000 0.706588666678 -0.348416068291
490128500 0.706922414117 -0.349634417889
490139000 0.707082043289 -0.348619873833
490149500 0.707637919409 -0.348854745427
490160000 0.707570912349 -0.348987437788
490170500 0.708900626922 -0.350526075551
490181000 0.706644148897 -0.348577307394
490191500 0.705402531107 -0.347962156084
490202000 0.706930630369 -0.348229438889
490212500 0.707007957906 -0.34859544382
490223000 0.706268806867 -0.348746164017
490233500 0.70785171241 -0.348057067681
490244000 0.706511802379 -0.349092667819
490254500 0.706798276192 -0.349409041512
490265000 0.707925973116 -0.349296453193
490275500 0.707674380489 -0.350588941522
490286000 0.706093702541 -0.351168131069
490296500 0.708111643855 -0.348370207084
490307000 0.704992191947 -0.347423713275
490317500 0.706940210218 -0.35222652425
490328000 0.704647372448 -0.348457243901
490338500 0.701698760163 -0.350087684775
490349000 0.712086947287 -0.350521142229
490359500 0.705262390229 -0.349700471512
490370000 0.698588583234 -0.346410356329
490380500 0.709387119765 -0.347699540636
490391000 0.702911377769 -0.350761714775
490401500 0.699853454591 -0.347821805637
490412000 0.703484176508 -0.353111175738
490422500 0.702440411876 -0.347392692249
490433000 0.707089405551 -0.355402000937
490443500 0.705758063372 -0.353286891644
490454000 0.709725751543 -0.355776874784
490464500 0.703615049412 -0.34519371928
490475000 0.707442928003 -0.355040838688
490485500 0.706542856127 -0.361647020842
490496000 0.708354364664 -0.341042533298
490506500 0.689658586651 -0.353493844151
490517000 0.696870401668 -0.350608462189
490527500 0.701771191705 -0.352005116226
490538000 0.721486777659 -0.322977774989
490548500 0.707687976605 -0.352908888059
490559000 0.703293683122 -0.354476936962
490569500 0.716711464621 -0.359738772156
490580000 0.708825109348 -0.3529963785
490590500 0.703305561625 -0.366338926111
490601000 0.701726810438 -0.35526765808
490611500 0.700800177006 -0.350502530182
490622000 0.705379440296 -0.353082937008
490632500 0.707111351625 -0.349915441063
490643000 0.707074040169 -0.353940359786
490653500 0.705742175403 -0.3507692467
490664000 0.705524563769 -0.352070232066
490674500 0.705155970298 -0.352106249727
490685000 0.70497399545 -0.352243206337
490695500 0.704573918684 -0.350327061384
490706000 0.704149970407 -0.351867289238
490716500 0.707245425911 -0.351153694297
490727000 0.709592992497 -0.350726857825
490737500 0.713488693328 -0.347240540283
490748000 0.70885219702 -0.350987440813
490758500 0.707133822691 -0.351451659847
490769000 0.705586005967 -0.352099300507
490779500 0.703461417759 -0.351333284889
490790000 0.704691507695 -0.351319798423
490800500 0.704596854898 -0.350791726939
490811000 0.704727495741 -0.352464295705
490821500 0.70503596787 -0.351462826945
490832000 0.703661057117 -0.352329378648
490842500 0.704484838442 -0.352110015865
490853000 0.704627008487 -0.353262712545
490863500 0.705342004621 -0.35211200354
490874000 0.705840885348 -0.352419873428
490884500 0.704938464691 -0.351524925851
490895000 0.705426265737 -0.352690705335
490905500 0.705187342202 -0.353113768158
490916000 0.705287603522 -0.352846020065
490926500 0.70535135401 -0.352026465759
490937000 0.705468650988 -0.351987778201
490947500 0.705405324973 -0.351710736911
490958000 0.704142027206 -0.352017901511
490968500 0.704571571103 -0.352128844629
490979000 0.70477763038 -0.352639065192
490989500 0.704725033038 -0.352612926285
491000000 0.705440820116 -0.352366866438
491010500 0.704001734556 -0.356441006514
491021000 0.705504537154 -0.355465106772
491031500 0.70404491534 -0.355447815345
491042000 0.704268928681 -0.35534584705
491052500 0.70463366094 -0.356429638881
491063000 0.703684830475 -0.355679874383
491073500 0.70400875295 -0.355001745587
491084000 0.705323602682 -0.355479098384
491094500 0.706408760642 -0.358545803125
491105000 0.704444336686 -0.357210125097
491115500 0.704747432223 -0.356519858925
491126000 0.706018741952 -0.355817995254
491136500 0.704871445496 -0.356948320837
491147000 0.703298441092 -0.355953328642
491157500 0.704777037696 -0.356734218148
491168000 0.704008328131 -0.355809233455
491178500 0.702974050696 -0.355166387175
491189000 0.701951094042 -0.356459214503
491199500 0.702498836841 -0.355303818522
491210000 0.702391804976 -0.355451674581
491220500 0.703729838076 -0.357480146594
491231000 0.702485289611 -0.35695988397
491241500 0.704724566319 -0.356653484942
491252000 0.704988632491 -0.356737377528
491262500 0.702945852194 -0.3557819881
491273000 0.70299149295 -0.3579170705
491283500 0.703525675509 -0.357247318179
491294000 0.703248683034 -0.356571850965
491304500 0.703357730297 -0.358232254277
491315000 0.702272067445 -0.358012097967
491325500 0.701307613809 -0.357627525033
491336000 0.703456478097 -0.355261817251
491346500 0.701906111817 -0.358464873396
491357000 0.703633438682 -0.355641763204
491367500 0.703438073498 -0.357112304555
491378000 0.70249116104 -0.358027842436
491388500 0.703592806003 -0.358209423341
491399000 0.701595143269 -0.357784057709
491409500 0.701039280405 -0.358317489622
491420000 0.702683661772 -0.358006789423
491430500 0.703580493465 -0.358811384982
491441000 0.703008482878 -0.357644878863
491451500 0.69941210448 -0.358368262155
491462000 0.701042242169 -0.357524086169
491472500 0.702140061674 -0.358173374211
491483000 0.701204798093 -0.358468154542
491493500 0.701024491347 -0.358666186346
491504000 0.701697319721 -0.358581777606
491514500 0.701585346459 -0.358852744385
491525000 0.702127923276 -0.359181713138
491535500 0.701736931076 -0.359371066885
491546000 0.70170923896 -0.358545455309
491556500 0.700674542974 -0.358242674689
491567000 0.70002563262 -0.357433961235
491577500 0.700877966873 -0.358722055571
491588000 0.701145460727 -0.358518277946
491598500 0.700743178809 -0.3584045649
491609000 0.700626189484 -0.358486045218
491619500 0.701460178301 -0.358219476335
491630000 0.701470375325 -0.357356890749
491640500 0.700757463801 -0.358719155369
491651000 0.700581580355 -0.358647466187
491661500 0.701045711374 -0.358806483131
491672000 0.700668270859 -0.358323938346
491682500 0.700770154906 -0.358518880342
491693000 0.700391191706 -0.358865309834
491703500 0.700248798486 -0.359022408607
491714000 0.699338958521 -0.358544211813
491724500 0.700421206275 -0.359004380854
491735000 0.699922255148 -0.358141432051
491745500 0.699613773003 -0.358661712381
491756000 0.699252346956 -0.358014007119
491766500 0.699947203651 -0.359180492402
491777000 0.699414575146 -0.359102417839
491787500 0.699415194906 -0.359786251523
491798000 0.699740354748 -0.358412786525
491808500 0.69996474365 -0.358967704024
491819000 0.699215285885 -0.359429158749
491829500 0.699959113382 -0.359864848041
491840000 0.699260263166 -0.359114715831
491850500 0.698510761965 -0.358731508243
491861000 0.698512705517 -0.358956025561
491871500 0.699274164615 -0.359176944474
491882000 0.698755519665 -0.358732182376
491892500 0.698992676191 -0.358751773217
491903000 0.697894352102 -0.359244207785
491913500 0.698745406566 -0.359338269889
491924000 0.698321227942 -0.359693190822
491934500 0.698070716157 -0.359246432326
491945000 0.698711660227 -0.360552383719
491955500 0.699169901869 -0.359514366504
491966000 0.699306004961 -0.359030806863
491976500 0.699245360737 -0.358843101923
491987000 0.699204408512 -0.359249094431
491997500 0.698841047446 -0.359403511819
492008000 0.698981043031 -0.359753975389
492018500 0.698199429896 -0.359592924552
492029000 0.697708308162 -0.359330185026
492039500 0.697458446044 -0.360211307597
492050000 0.697636051166 -0.359602199968
492060500 0.699337367169 -0.356947419459
492071000 0.700242459734 -0.357112950735
492081500 0.700276673914 -0.356945393419
492092000 0.700193146583 -0.357374784221
492102500 0.700173202246 -0.357330675503
492113000 0.700046083217 -0.357079253391
492123500 0.699617906975 -0.357599049522
492134000 0.699704185341 -0.357975254167
492144500 0.699375605831 -0.357504761793
492155000 0.700184365835 -0.357739853863
492165500 0.700201113367 -0.357454168243
492176000 0.700344579268 -0.357758124403
492186500 0.69978396143 -0.357787216927
492197000 0.699437482193 -0.357709143523
492207500 0.699569938586 -0.358221263077
492218000 0.698515802165 -0.357966667517
492228500 0.697903059381 -0.35871309194
492239000 0.698787537896 -0.357807418347
492249500 0.698414484539 -0.358079544046
492260000 0.698419688267 -0.357576183753
492270500 0.698520118322 -0.35829219241
492281000 0.699013876068 -0.357807911622
492291500 0.699459340577 -0.357451095459
492302000 0.698336548646 -0.358253019312
492312500 0.69957692911 -0.358464931241
492323000 0.698874271655 -0.358067445856
492333500 0.699146495511 -0.358752923978
492344000 0.699267569455 -0.359730313823
492354500 0.698496756872 -0.358756101968
492365000 0.69884677995 -0.358752650763
492375500 0.698365507055 -0.358959058243
492386000 0.699044944624 -0.359076696882
492396500 0.698921100456 -0.358466638672
492407000 0.700695604137 -0.358378528109
492417500 0.699837285577 -0.358994716482
492428000 0.699324973213 -0.358220889347
492438500 0.698399950453 -0.359346270464
492449000 0.698707021864 -0.359379452971
492459500 0.698587019989 -0.359354894758
492470000 0.699591605548 -0.35834477761
492480500 0.699432669277 -0.35914550366
492491000 0.699483229227 -0.359644319046
492501500 0.699166860152 -0.359837724722
492512000 0.699046548952 -0.359153762195
492522500 0.698703028924 -0.35892975579
492533000 0.69788871065 -0.358782320299
492543500 0.699040088761 -0.359132110636
492554000 0.698203705787 -0.360406571652
492564500 0.698796810469 -0.359256566896
492575000 0.698625749627 -0.359739434607
492585500 0.698760811579 -0.359989698992
492596000 0.699163837859 -0.359870716852
492606500 0.69792966179 -0.360416652813
492617000 0.69886091488 -0.359973044807
492627500 0.698307438129 -0.360296129892
492638000 0.698970875954 -0.360362717515
492648500 0.69862621574 -0.360245225106
492659000 0.698750046849 -0.360902380411
492669500 0.698607053386 -0.360781430024
492680000 0.698145935055 -0.361262916094
492690500 0.697826484531 -0.360457978129
492701000 0.697762638657 -0.360505821355
492711500 0.696577665222 -0.360681248045
492722000 0.697118078373 -0.360322339852
492732500 0.697995353905 -0.359836909306
492743000 0.69832211155 -0.360109017688
492753500 0.698509678187 -0.359768610256
492764000 0.698430792639 -0.360448409334
492774500 0.69825083386 -0.360551256015
492785000 0.698235808345 -0.361717086338
492795500 0.697987749998 -0.361720242125
492806000 0.698570892217 -0.362042849071
492816500 0.69858889217 -0.361319852322
492827000 0.69906465779 -0.36095381857
492837500 0.698556683468 -0.362652678904
492848000 0.696942475282 -0.361116822182
492858500 0.696908152918 -0.361187938804
492869000 0.697272466173 -0.361575285387
492879500 0.697552546057 -0.361543329116
492890000 0.696782997082 -0.362680570973
492900500 0.6972346823 -0.362141359366
492911000 0.698432078702 -0.360607664881
492921500 0.696928836063 -0.361841307248
492932000 0.696414446943 -0.360970113658
492942500 0.697357517814 -0.361559143383
492953000 0.696426719791 -0.360575323118
492963500 0.696635642013 -0.360253847206
492974000 0.696099953413 -0.362168090075
492984500 0.696064406474 -0.362195544412
492995000 0.695973939547 -0.362492391856
493005500 0.696297015447 -0.363008268322
493016000 0.69492722777 -0.363296132235
493026500 0.695944988875 -0.36342915905
493037000 0.695205304305 -0.363102847963
493047500 0.69566151033 -0.362939068447
493058000 0.695226585016 -0.36300348584
493068500 0.695972690045 -0.361502119851
493079000 0.695396096291 -0.363194733782
493089500 0.695323280138 -0.363158792783
493100000 0.69567934542 -0.362132056246
493110500 0.692834154245 -0.359590099526
493121000 0.69294867285 -0.359362972211
493131500 0.693206653339 -0.359748974352
493142000 0.692356670798 -0.359136955232
493152500 0.692368629892 -0.36026500297
493163000 0.692606769364 -0.359740800806
493173500 0.693077498834 -0.359272201098
493184000 0.692379295018 -0.359503593086
493194500 0.691452525979 -0.358381533812
493205000 0.692342891588 -0.359145441462
493215500 0.691896198741 -0.360359908784
493226000 0.691783284898 -0.359037635336
493236500 0.691603310713 -0.358737234214
493247000 0.691583337078 -0.359332642649
493257500 0.691158030881 -0.359863372952
493268000 0.690858680873 -0.359304321813
493278500 0.691835411232 -0.359523514927
493289000 0.69144322721 -0.358778955647
493299500 0.691088573794 -0.359096184736
493310000 0.692472603425 -0.359200513923
493320500 0.692142154932 -0.35875513612
493331000 0.692348981664 -0.359246440068
493341500 0.691257553433 -0.359752117148
493352000 0.691621206849 -0.359794131192
493362500 0.69106454376 -0.359232901277
493373000 0.691782121311 -0.359451444886
493383500 0.690926954272 -0.360214901732
493394000 0.691409451137 -0.359712519415
493404500 0.691373417189 -0.358516809547
493415000 0.691354790144 -0.359709455401
493425500 0.691432569001 -0.359246830278
493436000 0.691878909166 -0.357436146933
493446500 0.693204533337 -0.361384567103
493457000 0.691648547379 -0.358447783488
493467500 0.691115966889 -0.358390191103
493478000 0.690996716979 -0.358521105378
493488500 0.690739643629 -0.360002762518
493499000 0.69338710405 -0.359622567843
493509500 0.691247156816 -0.358246285359
493520000 0.691878065097 -0.359524766324
493530500 0.691265380956 -0.356371654084
493541000 0.692238582366 -0.360667540863
493551500 0.690968707784 -0.35797761708
493562000 0.69268695108 -0.364781001309
493572500 0.689847595385 -0.358045002638
493583000 0.691724003939 -0.35924618308
493593500 0.691504679761 -0.361436800612
493604000 0.690189474966 -0.363512052339
493614500 0.692462759384 -0.360196928605
493625000 0.69426248751 -0.358558811458
493635500 0.687325171022 -0.361290210208
493646000 0.688309216645 -0.357798003788
493656500 0.691962495966 -0.361774600514
493667000 0.692043630074 -0.359965149515
493677500 0.691593452082 -0.359439293876
493688000 0.690351413627 -0.362827328413
493698500 0.689765058921 -0.35987569213
493709000 0.686616627847 -0.36223131806
493719500 0.690511175294 -0.357591106967
493730000 0.687265592673 -0.360541099261
493740500 0.689473966685 -0.359558811681
493751000 0.689957179884 -0.360696562594
493761500 0.688257072859 -0.360717539535
493772000 0.688607250724 -0.359455128486
493782500 0.689315557135 -0.364055627927
493793000 0.688490970236 -0.359434312535
493803500 0.6850871849 -0.361908370186
493814000 0.690856977111 -0.360902620666
493824500 0.690203358084 -0.360073982919
493835000 0.690407968003 -0.360644583796
493845500 0.687978883744 -0.360200681281
493856000 0.688160897901 -0.360632316028
493866500 0.686430286455 -0.362853820528
493877000 0.688926008166 -0.360577994137
493887500 0.689055378479 -0.358876997205
493898000 0.689292938991 -0.359562041665
493908500 0.689324701704 -0.358163743004
493919000 0.686793697154 -0.360857512919
493929500 0.687461026081 -0.358732310609
493940000 0.686559767905 -0.361199287545
493950500 0.687758708657 -0.360428857249
493961000 0.687577689189 -0.36006707438
493971500 0.687895194788 -0.359209664327
493982000 0.688620549812 -0.358934277247
493992500 0.687903560721 -0.359861764368
494003000 0.689541089819 -0.36003180805
494013500 0.691568280722 -0.358623989889
494024000 0.684606936978 -0.360979327086
494034500 0.684388695559 -0.360444903561
494045000 0.686363785553 -0.36087498574
494055500 0.690846534121 -0.360134532218
494066000 0.689925823321 -0.356253616157
494076500 0.684233321357 -0.361897383283
494087000 0.689148846623 -0.359063807742
494097500 0.686685000745 -0.366448235115
494108000 0.687442146035 -0.357404958316
494118500 0.678814310089 -0.373193016058
494129000 0.678117225737 -0.362899527805
494139500 0.687918791783 -0.364662980173
494150000 0.680807820391 -0.359632936779
494160500 0.685679906908 -0.362032777243
494171000 0.677748027071 -0.368476060756
494181500 0.685528478054 -0.367039733051
494192000 0.682368656078 -0.365965357162
494202500 0.687030249458 -0.367671988273
494213000 0.697451152799 -0.373254982998
494223500 0.684934384011 -0.36166320714
494234000 0.685235116403 -0.36482775654
494244500 0.697822647031 -0.352975226659
494255000 0.706126519556 -0.351590598932
494265500 0.69388529318 -0.37076322543
494276000 0.698813718901 -0.368666175243
494286500 0.6890348827 -0.37306064981
494297000 0.683342230484 -0.364126247159
494307500 0.692758480273 -0.351767480582
494318000 0.688208069 -0.363635157353
494328500 0.676114075607 -0.360253003642
494339000 0.691178990552 -0.370702522508
494349500 0.670124162414 -0.348861406246
494360000 0.684075342804 -0.358077483132
494370500 0.680886244372 -0.367817374845
494381000 0.686410209118 -0.364790228669
494391500 0.672121042884 -0.366752812639
494402000 0.678115326592 -0.36293450052
494412500 0.678427409283 -0.37341949484
494423000 0.688312708669 -0.353472262863
494433500 0.689027654203 -0.368022801151
494444000 0.689960756884 -0.354882760053
494454500 0.701059270089 -0.375877143065
494465000 0.69871846583 -0.35687568949
494475500 0.685468086617 -0.366040275372
494486000 0.698583196686 -0.364620063105
494496500 0.682909419559 -0.360398473077
494507000 0.692897333066 -0.371347758915
494517500 0.681427272419 -0.356966578649
494528000 0.692049331028 -0.365903293481
494538500 0.68860840275 -0.355793541194
494549000 0.69160694178 -0.353614722231
494559500 0.705178392387 -0.360069933105
494570000 0.689746200976 -0.372791983316
494580500 0.68167934598 -0.369689752547
494591000 0.693646455271 -0.360075489709
494601500 0.666060862933 -0.373003985453
494612000 0.691882436333 -0.362379547777
494622500 0.686238518595 -0.368524627494
494633000 0.690228896331 -0.337827921356
494643500 0.673219366142 -0.364989932633
494654000 0.682422118598 -0.361597416879
494664500 0.680628827389 -0.358575501476
494675000 0.690196819462 -0.386133689995
494685500 0.685577164738 -0.344159858562
494696000 0.68756597564 -0.366984894327
494706500 0.687677091393 -0.36273252624
494717000 0.694164493576 -0.369829224824
494727500 0.699292628295 -0.37373803591
494738000 0.6816195312 -0.374473990207
494748500 0.686004809309 -0.367632467687
494759000 0.69056816408 -0.364970674387
494769500 0.685914440302 -0.364714228042
494780000 0.6870236735 -0.368198600923
494790500 0.679089834546 -0.372898404024
494801000 0.680846957294 -0.371380360301
494811500 0.692705326593 -0.366979145015
494822000 0.686170857634 -0.370068111965
494832500 0.679634844505 -0.363833623949
494843000 0.686821377649 -0.369450517438
494853500 0.681347695441 -0.369190245906
494864000 0.684808374143 -0.367220028137
494874500 0.679500278191 -0.366388015855
494885000 0.684112132266 -0.364814639102
494895500 0.685228784511 -0.362720174331
494906000 0.687728462108 -0.364252481093
494916500 0.685556539954 -0.366931078006
494927000 0.68399952219 -0.366590638026
494937500 0.685558445966 -0.363702733614
494948000 0.685806830662 -0.365030516729
494958500 0.686414555043 -0.366533118503
494969000 0.684915203009 -0.365952534473
494979500 0.684231277489 -0.367002171962
494990000 0.682228972181 -0.366825601291
495000500 0.684350200066 -0.367367863308
495011000 0.685296838049 -0.365950895252
495021500 0.684936581218 -0.364266884585
495032000 0.68549301355 -0.365551443398
495042500 0.684291152564 -0.36666689632
495053000 0.68549461349 -0.367121790084
495063500 0.683587341395 -0.366121400847
495074000 0.686625442446 -0.366509310973
495084500 0.683519652185 -0.365264109533
495095000 0.68353819847 -0.364455460918
495105500 0.684112224321 -0.366500463589
495116000 0.682822154015 -0.366308222931
495126500 0.68374800454 -0.366711251053
495137000 0.683624669658 -0.36668873901
495147500 0.68446801531 -0.364962604754
495158000 0.683397416057 -0.36716378066
495168500 0.685269471918 -0.367507212084
495179000 0.683517433112 -0.365512998972
495189500 0.683192136905 -0.367647637156
495200000 0.685694263726 -0.364642705765
495210500 0.686966308009 -0.37437339071
495221000 0.688816016635 -0.37602722561
495231500 0.686876157137 -0.375252141607
495242000 0.686748987734 -0.373317123746
495252500 0.684534213777 -0.373181409819
495263000 0.683580036256 -0.373915131316
495273500 0.683726808795 -0.373818749195
495284000 0.686661964341 -0.373848124902
495294500 0.685103819868 -0.374867231823
495305000 0.682656620755 -0.372957624797
495315500 0.68468294557 -0.373996352284
495326000 0.682575391533 -0.371678396322
495336500 0.686214703567 -0.373626814378
495347000 0.684742174313 -0.374757199181
495357500 0.683243755524 -0.373427096369
495368000 0.688334934056 -0.373283690908
495378500 0.683075776834 -0.373393573374
495389000 0.68517685521 -0.372348108229
495399500 0.685228738212 -0.373953863589
495410000 0.681648931714 -0.371600295642
495420500 0.684810290857 -0.371905665156
495431000 0.683387989725 -0.374895814795
495441500 0.683237477767 -0.370161604529
495452000 0.681569580437 -0.372088337172
495462500 0.684286752035 -0.371946987717
495473000 0.682511320331 -0.372463435183
495483500 0.683455737108 -0.372361440387
495494000 0.683641825207 -0.370274532422
495504500 0.682431705187 -0.373769158413
495515000 0.682305622378 -0.371045034549
495525500 0.68323598997 -0.369779726132
495536000 0.682189979725 -0.374868664974
495546500 0.681926870265 -0.372499609141
495557000 0.682525194011 -0.372253418348
495567500 0.682893847027 -0.371866514934
495578000 0.682558117965 -0.372030509398
495588500 0.68182451906 -0.371908875843
495599000 0.682411240676 -0.371715357648
495609500 0.682834149639 -0.371522643371
495620000 0.682684265121 -0.371267550519
495630500 0.682971796695 -0.371348844516
495641000 0.682624111258 -0.371397761273
495651500 0.682276371852 -0.371462809893
495662000 0.682614538582 -0.371676798876
495672500 0.682426070646 -0.371185830686
495683000 0.682416351094 -0.371124141222
495693500 0.682454749198 -0.371240860893
495704000 0.682038405465 -0.370834990103
495714500 0.681877282339 -0.371327961652
495725000 0.68278970409 -0.370427052708
495735500 0.682982579442 -0.371117477504
495746000 0.683010907612 -0.370807519615
495756500 0.682424992536 -0.370950471214
495767000 0.682396682656 -0.371301189124
495777500 0.682409223077 -0.370872915437
495788000 0.682481379703 -0.370773351852
495798500 0.682805840463 -0.371134824698
495809000 0.68280144304 -0.371142296634
495819500 0.68256499784 -0.37083047861
495830000 0.682362399894 -0.371013626379
495840500 0.683475967794 -0.370605524177
495851000 0.683451008625 -0.370363733485
495861500 0.683234550607 -0.370495014502
495872000 0.682502347382 -0.371303398245
495882500 0.681498411448 -0.37157227229
495893000 0.682671339554 -0.37162378271
495903500 0.681966570196 -0.371801168603
495914000 0.682072846276 -0.371816707848
495924500 0.682982321265 -0.372049115545
495935000 0.682808665641 -0.371238874562
495945500 0.682812083732 -0.371059138523
495956000 0.683369171679 -0.371132287449
495966500 0.683210439482 -0.370720911506
495977000 0.683265895065 -0.370883742877
495987500 0.683147327447 -0.371085440496
495998000 0.683258995817 -0.370370956511
496008500 0.683522441766 -0.370659538797
496019000 0.682730740765 -0.370976729548
496029500 0.682893019217 -0.371302519567
496040000 0.68295374806 -0.371596952595
496050500 0.683224234599 -0.370802100777
496061000 0.683459383353 -0.371780115865
496071500 0.682532993172 -0.371357124369
496082000 0.68201576409 -0.371441644112
496092500 0.682298292792 -0.37143187086
496103000 0.682098495945 -0.371235592525
496113500 0.682913685291 -0.370959502894
496124000 0.682712408132 -0.371555253997
496134500 0.682473855154 -0.371062332384
496145000 0.682519779707 -0.371303274751
496155500 0.682794445501 -0.371651958543
496166000 0.682755759057 -0.371930137186
496176500 0.682669818968 -0.372048313206
496187000 0.683394261325 -0.371967499899
496197500 0.683232859643 -0.372030584198
496208000 0.682537528696 -0.374121710136
496218500 0.683034197457 -0.371554672743
496229000 0.683544077153 -0.371441387871
496239500 0.683255604312 -0.371425303811
496250000 0.68309230724 -0.37191497144
496260500 0.683969677751 -0.371925442511
496271000 0.683884139592 -0.372199729382
496281500 0.683585314537 -0.372499012804
496292000 0.683136402673 -0.372450233404
496302500 0.683668388826 -0.372300407861
496313000 0.68382747695 -0.372670502695
496323500 0.683975536852 -0.372319415619
496334000 0.683748935198 -0.373274696523
496344500 0.683315755371 -0.373277643078
496355000 0.682956295994 -0.372811597405
496365500 0.682330643935 -0.372883995745
496376000 0.682168867184 -0.37273084651
496386500 0.68279493059 -0.373378410139
496397000 0.682485043267 -0.374323603961
496407500 0.682780460491 -0.37360799593
496418000 0.683018368814 -0.373476171403
496428500 0.682482728624 -0.373416589378
496439000 0.682622647076 -0.373214923798
496449500 0.682297767103 -0.373250730257
496460000 0.682421083414 -0.373489808187
496470500 0.682495572289 -0.373033207765
496481000 0.68225427763 -0.372371953709
496491500 0.682873255049 -0.373415172994
496502000 0.682976173625 -0.372935027243
496512500 0.683117070957 -0.373222792007
496523000 0.682861054726 -0.37297467356
496533500 0.683356663737 -0.372928319492
496544000 0.682181434096 -0.372691109285
496554500 0.682293458205 -0.373491818408
496565000 0.681055632577 -0.374023059883
496575500 0.681375875172 -0.373707515448
496586000 0.681845510497 -0.373119745281
496596500 0.681850352259 -0.373159716006
496607000 0.68161185215 -0.373701764506
496617500 0.682701164981 -0.373076154937
496628000 0.682096450567 -0.373594965975
496638500 0.682637858063 -0.372809910932
496649000 0.682442099737 -0.373334884707
496659500 0.682023621193 -0.372953531629
496670000 0.681664747533 -0.373193284826
496680500 0.681538898105 -0.373196079815
496691000 0.681669498101 -0.373652372895
496701500 0.68137284611 -0.3735809178
496712000 0.681247461239 -0.373364662227
496722500 0.681023642681 -0.373337372003
496733000 0.680922531069 -0.373977105173
496743500 0.681095337328 -0.373599574033
496754000 0.680690816436 -0.374541429746
496764500 0.67953482272 -0.374934635673
496775000 0.678246380195 -0.375795390142
496785500 0.678930761563 -0.37587854812
496796000 0.680014791292 -0.374520256953
496806500 0.68010803518 -0.37459659432
496817000 0.680152723609 -0.374074305218
496827500 0.680326215638 -0.373878564486
496838000 0.68125102997 -0.373836624562
496848500 0.680190244001 -0.373831163765
496859000 0.680090898932 -0.373443421378
496869500 0.679639084649 -0.373989151881
496880000 0.680305951095 -0.374547172779
496890500 0.679763022275 -0.374239433892
496901000 0.680476188198 -0.374262295635
496911500 0.680200431642 -0.374266120501
496922000 0.680339549402 -0.374346769159
496932500 0.680074821753 -0.374626323799
496943000 0.680346659743 -0.374030631233
496953500 0.680703847369 -0.374592629549
496964000 0.679670975765 -0.373882251499
496974500 0.679859873953 -0.374513772549
496985000 0.679447873377 -0.37430243755
496995500 0.680697466651 -0.373909991832
497006000 0.67992164023 -0.37444305609
497016500 0.679993308787 -0.374417186195
497027000 0.680082362944 -0.374654231178
497037500 0.680145939598 -0.37486044921
497048000 0.684519583855 -0.37208457745
497058500 0.679285265465 -0.374614332921
497069000 0.679479689186 -0.374832453269
497079500 0.679367216427 -0.37476619331
497090000 0.680126407857 -0.374916845401
497100500 0.679269682321 -0.375917572713
497111000 0.679142794936 -0.374922654645
497121500 0.679472075948 -0.375034113537
497132000 0.67935519705 -0.375203091476
497142500 0.679156378011 -0.375289994085
497153000 0.679274623734 -0.374528351514
497163500 0.678592363016 -0.375012170699
497174000 0.679504926463 -0.375371807474
497184500 0.679812767171 -0.375217963325
497195000 0.679407539516 -0.375361179218
497205500 0.678257253268 -0.375303897653
497216000 0.679486646329 -0.374810916935
497226500 0.679368025592 -0.374630753362
497237000 0.680893143026 -0.376403323794
497247500 0.679513287725 -0.374513993678
497258000 0.679263076871 -0.375222091598
497268500 0.678536840702 -0.37555259376
497279000 0.678877412145 -0.374638971058
497289500 0.678486939285 -0.375602513252
497300000 0.678866623001 -0.375269849459
497310500 0.67978260758 -0.375828800272
497321000 0.679563267358 -0.376054180622
497331500 0.679321325619 -0.375819704722
497342000 0.678913133961 -0.376120096383
497352500 0.678643054886 -0.375832352658
497363000 0.67939193761 -0.375576373042
497373500 0.680286573618 -0.375918644583
497384000 0.6798915921 -0.376519066874
497394500 0.679220204866 -0.375555916433
497405000 0.678460361793 -0.376407003409
497415500 0.67982909371 -0.37555107538
497426000 0.679357452484 -0.37634117264
497436500 0.679245773239 -0.375838094911
497447000 0.679535947545 -0.376438861354
497457500 0.678757227916 -0.376130381146
497468000 0.678968709452 -0.376460734465
497478500 0.67906635677 -0.376419740431
497489000 0.678924928 -0.376748864171
497499500 0.679164102778 -0.376518396259
497510000 0.678547232032 -0.376072129651
497520500 0.678972766434 -0.376597374614
497531000 0.678397052648 -0.376412897854
497541500 0.678874401295 -0.37642709711
497552000 0.678343075003 -0.37698724222
497562500 0.678851152674 -0.376706096727
497573000 0.678546334556 -0.377146138994
497583500 0.678022332172 -0.377317556247
497594000 0.679024282719 -0.376887367286
497604500 0.678694877084 -0.376370882296
497615000 0.678424062723 -0.376589754175
497625500 0.678724673786 -0.376855542324
497636000 0.677994964814 -0.377213436755
497646500 0.677685272765 -0.377347806136
497657000 0.67795348775 -0.377277118095
497667500 0.678000072139 -0.377690751295
497678000 0.677878482302 -0.378172102617
497688500 0.678525098204 -0.377595833168
497699000 0.677636929152 -0.378843160333
497709500 0.677839179424 -0.37779794945
497720000 0.677846386319 -0.377027327907
497730500 0.677262168637 -0.377475121382
497741000 0.677259318949 -0.377854885769
497751500 0.677290679307 -0.377307318489
497762000 0.677671321292 -0.37704226176
497772500 0.677909306266 -0.377090323018
497783000 0.677072579241 -0.37734457065
497793500 0.677356884188 -0.378440540681
497804000 0.677877349586 -0.377553191183
497814500 0.677698558994 -0.37856878963
497825000 0.678107794959 -0.378865440375
497835500 0.677475192181 -0.378400332769
497846000 0.677191294863 -0.378423441191
497856500 0.676786399571 -0.378263066233
497867000 0.676216138548 -0.378527671916
497877500 0.676597153128 -0.378452797582
497888000 0.677049263888 -0.378423311357
497898500 0.677449459977 -0.378504468159
497909000 0.676643968856 -0.378227282899
497919500 0.677163863878 -0.378168011213
497930000 0.676703190684 -0.378558545148
497940500 0.67676203141 -0.378329125902
497951000 0.676086920186 -0.378737574992
497961500 0.676115380121 -0.378527580779
497972000 0.676034306598 -0.378769887512
497982500 0.675989689835 -0.37998555323
497993000 0.675596579144 -0.378749770728
498003500 0.67638911559 -0.378624333454
498014000 0.676119108292 -0.378104392954
498024500 0.676387769057 -0.378748865723
498035000 0.67571448753 -0.379653752465
498045500 0.676475023265 -0.379536993073
498056000 0.675946503943 -0.379608470228
498066500 0.675473814355 -0.379200457445
498077000 0.675678921784 -0.379785782221
498087500 0.675190893533 -0.378930751037
498098000 0.675140287278 -0.379301340295
498108500 0.674952508214 -0.379176718095
498119000 0.675601007971 -0.379115863592
498129500 0.675249484408 -0.379613346003
498140000 0.674888349018 -0.379309327728
498150500 0.675984075448 -0.380369049586
498161000 0.675058282868 -0.379691642351
498171500 0.674622544308 -0.379966737789
498182000 0.674372679785 -0.380067852212
498192500 0.67419804975 -0.379768705061
498203000 0.674285999647 -0.3804186853
498213500 0.674191045598 -0.379945059512
498224000 0.674659286829 -0.380172622266
498234500 0.674841402153 -0.3806267972
498245000 0.675056265448 -0.380034349316
498255500 0.674668856426 -0.37990874506
498266000 0.673711011061 -0.380078093332
498276500 0.674624375266 -0.378865395165
498287000 0.675312254682 -0.376756395714
498297500 0.676272128447 -0.376991079798
498308000 0.675549545996 -0.378275148703
498318500 0.680762459298 -0.377772549852
498329000 0.677860017094 -0.386839793432
498339500 0.66732362145 -0.386409085364
498350000 0.671946469211 -0.381167299012
498360500 0.673427392069 -0.379453556016
498371000 0.673846220586 -0.379805773254
498381500 0.673783960884 -0.379379013533
498392000 0.67352523861 -0.378914421879
498402500 0.673793650709 -0.379193775711
498413000 0.673166785914 -0.379572487949
498423500 0.674039163659 -0.379917734665
498434000 0.673923121029 -0.379312072741
498444500 0.672845021437 -0.378238432047
498455000 0.674068977678 -0.381763098635
498465500 0.674825963256 -0.380919688387
498476000 0.673508028926 -0.378975511809
498486500 0.672497363063 -0.379767663471
498497000 0.672953205929 -0.381990243609
498507500 0.673596256945 -0.381914504502
498518000 0.674136848125 -0.380874282238
498528500 0.67306637375 -0.380601970606
498539000 0.674814745664 -0.380021831681
498549500 0.671272734617 -0.379489728719
498560000 0.673488766935 -0.379798491547
498570500 0.672338756361 -0.383329346267
498581000 0.675105770872 -0.380885962951
498591500 0.673522807313 -0.376789001435
498602000 0.676183083055 -0.379461257933
498612500 0.674486317263 -0.379659444249
498623000 0.672133646794 -0.383375774496
498633500 0.673344187499 -0.376128500553
498644000 0.672216125765 -0.378592554346
498654500 0.672088388086 -0.379907272514
498665000 0.670678130067 -0.37997320333
498675500 0.67072973625 -0.38033671003
498686000 0.672814533641 -0.380216957281
498696500 0.672819565296 -0.381806363098
498707000 0.671306722003 -0.381812731484
498717500 0.672988802765 -0.377914037391
498728000 0.674849633162 -0.381646013076
498738500 0.671034895779 -0.381003645719
498749000 0.673892517059 -0.379216738813
498759500 0.671386179043 -0.383021471398
498770000 0.669983316595 -0.381899040383
498780500 0.670049868795 -0.379781454072
498791000 0.670724323151 -0.380955937882
498801500 0.670941854752 -0.378972836737
498812000 0.673932011328 -0.381742326695
498822500 0.670828336369 -0.381843898712
498833000 0.672479457863 -0.380919881859
498843500 0.6712604239 -0.381033863213
498854000 0.672034738517 -0.3829608357
498864500 0.669030673335 -0.381368042256
498875000 0.67213391879 -0.383173965902
498885500 0.672456997525 -0.380549316165
498896000 0.671461917577 -0.381709482481
498906500 0.671397705618 -0.382635731461
498917000 0.671794350987 -0.381710445945
498927500 0.672611804315 -0.380862446336
498938000 0.672196472586 -0.381177335345
498948500 0.671434594271 -0.382163655096
498959000 0.671487064455 -0.381248382584
498969500 0.67160491712 -0.381416205655
498980000 0.672874981091 -0.383120875915
498990500 0.67271104109 -0.382307985962
499001000 0.672658891279 -0.381784878212
499011500 0.672151954794 -0.38241458371
499022000 0.671952273748 -0.382777337218
499032500 0.671130550849 -0.382790791031
499043000 0.671698209871 -0.381877901351
499053500 0.671384138823 -0.381784044449
499064000 0.670620065764 -0.381857202405
499074500 0.671605079176 -0.381111250341
499085000 0.672169816989 -0.382531843096
499095500 0.672038651674 -0.381187827366
499106000 0.670465276348 -0.381209113015
499116500 0.671497113364 -0.381659868065
499127000 0.670857322983 -0.381996231867
499137500 0.670424509364 -0.380375644898
499148000 0.670543958503 -0.379877694183
499158500 0.672390986641 -0.383273905384
499169000 0.670661144974 -0.383204920515
499179500 0.670213593149 -0.386861630675
499190000 0.670341376009 -0.377467616593
499200500 0.661919802025 -0.390935585929
499211000 0.671184194683 -0.381034255255
499221500 0.6718420652 -0.383827414796
499232000 0.673255924608 -0.3770468761
499242500 0.677442350454 -0.365650888773
499253000 0.669388065656 -0.383439309641
499263500 0.670774368758 -0.384230927594
499274000 0.672785573947 -0.386439697932
499284500 0.68049197522 -0.379200288498
499295000 0.670030892789 -0.374846131038
499305500 0.670977690332 -0.381770520876
499316000 0.672432496552 -0.38758149518
499326500 0.691848493482 -0.376328226051
499337000 0.668190767142 -0.381837905846
499347500 0.672115342849 -0.386391692042
499358000 0.672866982715 -0.384569054376
499368500 0.670871664968 -0.377556117264
499379000 0.681488323242 -0.367976996374
499389500 0.670695992992 -0.386482463809
499400000 0.65915856382 -0.388378365452
499410500 0.660783938127 -0.370079858403
499421000 0.660437695321 -0.389082161039
499431500 0.66168728547 -0.393136633702
499442000 0.677413562064 -0.390518179283
499452500 0.663004315409 -0.38709902951
499463000 0.675837843422 -0.385381221977
499473500 0.671224289175 -0.381178557519
499484000 0.676650093459 -0.381907906594
499494500 0.689908293288 -0.375921090692
499505000 0.671880055625 -0.384137259413
499515500 0.657068816794 -0.412260184544
499526000 0.659407259441 -0.38378512411
499536500 0.687434658772 -0.384571384993
499547000 0.678968695796 -0.386139235753
499557500 0.679475834204 -0.380759830602
499568000 0.67557475847 -0.381598043356
499578500 0.66018577233 -0.383596357847
499589000 0.667963157097 -0.38361798266
499599500 0.663979379669 -0.394568445484
499610000 0.667399177651 -0.383651822334
499620500 0.669116764254 -0.392392682925
499631000 0.670792058045 -0.383205828297
499641500 0.664580901924 -0.384801512505
499652000 0.670560208307 -0.38696356872
499662500 0.669874845485 -0.387069260572
499673000 0.668945999529 -0.383007363787
499683500 0.666678607927 -0.389837029608
499694000 0.669995606641 -0.382164399434
499704500 0.657216642267 -0.384871308396
499715000 0.669599531783 -0.386058607981
499725500 0.66750535069 -0.384091517533
499736000 0.669226446905 -0.383701649243
499746500 0.669256984847 -0.384453696686
499757000 0.668128868317 -0.38373733629
499767500 0.670863928138 -0.383452643883
499778000 0.667592326239 -0.383571374465
499788500 0.667203026219 -0.385314519201
499799000 0.667889756526 -0.385732602936
499809500 0.667230170893 -0.384508449485
499820000 0.667915289385 -0.384893563496
499830500 0.669166810458 -0.385124187093
499841000 0.669071342398 -0.38452109825
499851500 0.667702377538 -0.384683363271
499862000 0.668149344459 -0.384415078798
499872500 0.666893110729 -0.385436353628
499883000 0.666959963723 -0.38477952596
499893500 0.666731110981 -0.384525637153
499904000 0.667363124376 -0.385233231848
499914500 0.667622091163 -0.384826823685
499925000 0.66734310355 -0.384775062506
499935500 0.667659883532 -0.385209973132
499946000 0.667212025767 -0.385334369137
499956500 0.667502134344 -0.385343276021
499967000 0.66803465641 -0.385090047351
499977500 0.667013631801 -0.386005549359
499988000 0.666655669739 -0.386025340922
499998500 0.666313000266 -0.38488087907
500009000 0.667198020713 -0.386087894233
500019500 0.667323121388 -0.385973626493
500030000 0.666840439945 -0.386110736217
500040500 0.666729549259 -0.385369578112
500051000 0.66606289989 -0.385863536867
500061500 0.666717628463 -0.385854861306
500072000 0.66566568972 -0.385421694089
500082500 0.666418411983 -0.38609927795
500093000 0.664803852606 -0.385319027862
500103500 0.665999937938 -0.385358610956
500114000 0.665433591279 -0.38605287272
500124500 0.665631300034 -0.387353461032
500135000 0.665490821853 -0.386439468535
500145500 0.665316029279 -0.386623958329
500156000 0.66552410072 -0.384911566723
500166500 0.666310943517 -0.385057948278
500177000 0.666255193182 -0.387964806085
500187500 0.665403980074 -0.385955914612
500198000 0.666727103457 -0.386148861841
500208500 0.666705357373 -0.383796022478
500219000 0.663534380413 -0.386156297236
500229500 0.667132784832 -0.386516482798
500240000 0.665475187166 -0.386430021442
500250500 0.663329943718 -0.389143605454
500261000 0.664744553478 -0.385563721474
500271500 0.664891929647 -0.386718476249
500282000 0.667079804726 -0.38679635714
500292500 0.664962282914 -0.388187029668
500303000 0.665387043355 -0.387506353439
500313500 0.667276156603 -0.386844514629
500324000 0.665895585959 -0.385365579157
500334500 0.664795901663 -0.385886758867
500345000 0.665113300311 -0.387756241819
500355500 0.664557339489 -0.388015205089
500366000 0.665498824784 -0.388895780682
500376500 0.66627393528 -0.386990947405
500387000 0.665113599422 -0.387562355418
500397500 0.665058657038 -0.389190074566
500408000 0.666511801649 -0.386577495378
500418500 0.664901107698 -0.387440632906
500429000 0.664404506867 -0.388659000341
500439500 0.665406227098 -0.387875073721
500450000 0.665771128707 -0.387522161999
500460500 0.665826162518 -0.387275834641
500471000 0.662922275573 -0.38745839393
500481500 0.663689455756 -0.387958154371
500492000 0.662781747061 -0.38810326705
500502500 0.664551299537 -0.388693677849
500513000 0.664242780147 -0.38787759775
500523500 0.66425938252 -0.387637122628
500534000 0.664667087363 -0.388587351174
500544500 0.664844175084 -0.387731763076
500555000 0.664370569087 -0.388184753069
500565500 0.664095085607 -0.388872136902
500576000 0.663998350117 -0.388910707547
500586500 0.663779368537 -0.387922262134
500597000 0.663635697205 -0.387284444097
500607500 0.663075493564 -0.387383671382
500618000 0.66326565691 -0.388659595632
500628500 0.663198334757 -0.387859503087
500639000 0.663357010619 -0.387855933546
500649500 0.66337162931 -0.387809202659
500660000 0.663286938029 -0.388010610865
500670500 0.663705678929 -0.387759135109
500681000 0.663015081368 -0.387804385994
500691500 0.663055764316 -0.388004704334
500702000 0.662734079816 -0.38858801015
500712500 0.663396282307 -0.388451900779
500723000 0.663088806412 -0.389273954541
500733500 0.663058864454 -0.389087384863
500744000 0.661351944291 -0.389164542129
500754500 0.662952241052 -0.388744853308
500765000 0.662846219809 -0.388526714029
500775500 0.662855144625 -0.388796752924
500786000 0.662413577463 -0.388770029089
500796500 0.662650644778 -0.38912210837
500807000 0.662450846804 -0.388752262683
500817500 0.662402591953 -0.388502576448
500828000 0.662167695685 -0.388476098394
500838500 0.662468009388 -0.388270131024
500849000 0.661865513405 -0.389355660855
500859500 0.661821220327 -0.388839604854
500870000 0.661744860854 -0.388648153316
500880500 0.662487231537 -0.389411294588
500891000 0.661795747113 -0.389881710887
500901500 0.662517490977 -0.389868205724
500912000 0.662028756266 -0.389162966605
500922500 0.66164761777 -0.389000016034
500933000 0.661300245893 -0.389110137134
500943500 0.662088501383 -0.389095391476
500954000 0.662408314332 -0.389767591902
500964500 0.662227042702 -0.389360962486
500975000 0.661947320633 -0.389281158131
500985500 0.66212293731 -0.388964544288
500996000 0.660475923858 -0.389506016295
501006500 0.660294965965 -0.388826660946
501017000 0.660693258341 -0.388457387015
501027500 0.660763681032 -0.38948925737
501038000 0.661013613271 -0.388688099701
501048500 0.660796836542 -0.388861586168
501059000 0.661320319797 -0.388758303189
501069500 0.661840445506 -0.389997418817
501080000 0.661119951451 -0.390561943455
501090500 0.661073715523 -0.390762916034
501101000 0.661198871504 -0.389904928208
501111500 0.661599376931 -0.390193866007
501122000 0.661531591184 -0.389529716024
501132500 0.660641584405 -0.389760024811
501143000 0.661027435367 -0.390336472435
501153500 0.660571869421 -0.389874654008
501164000 0.660867667067 -0.389981079599
501174500 0.660769916978 -0.389595172652
501185000 0.660664475093 -0.389620748919
501195500 0.660951579724 -0.389309065599
501206000 0.660812355744 -0.389715693789
501216500 0.660307199416 -0.389197561173
501227000 0.660463562909 -0.38961510948
501237500 0.660551420028 -0.389588983665
501248000 0.660477850984 -0.389571693198
501258500 0.659895854902 -0.389980171497
501269000 0.659957255579 -0.389812769722
501279500 0.660195407823 -0.389867185722
501290000 0.659967571583 -0.390249817263
501300500 0.659740572574 -0.39063412577
501311000 0.659873068097 -0.391268398267
501321500 0.65972498804 -0.390726329207
501332000 0.659553230014 -0.390768070873
501342500 0.660260064643 -0.390112108171
501353000 0.659201571079 -0.390812675914
501363500 0.658758289355 -0.390215784381
501374000 0.65919699232 -0.390970272249
501384500 0.658931435785 -0.391088356051
501395000 0.658892495796 -0.390507981747
501405500 0.659578149906 -0.390981512659
501416000 0.661395313855 -0.391191790984
501426500 0.659242260905 -0.39048095639
501437000 0.659518696748 -0.39107397271
501447500 0.659390713057 -0.391287048601
501458000 0.659735679457 -0.390975940337
501468500 0.659564934821 -0.391487850129
501479000 0.659717997405 -0.391954154523
501489500 0.659795747816 -0.390654825861
501500000 0.659260202923 -0.391198781282
501510500 0.658894526907 -0.391441459817
501521000 0.658165595534 -0.391255739939
501531500 0.658894566877 -0.391534853588
501542000 0.659041956673 -0.391568429315
501552500 0.658417174602 -0.392251662628
501563000 0.659008838236 -0.392323889939
501573500 0.658824169971 -0.391770293806
501584000 0.658685563913 -0.390975826038
501594500 0.658167282746 -0.390905647672
501605000 0.658550247669 -0.391288443224
501615500 0.65878581183 -0.390778199636
501626000 0.658280009238 -0.392665386534
501636500 0.657844526958 -0.391437463444
501647000 0.657320783055 -0.391982982776
501657500 0.657401650389 -0.391894556927
501668000 0.657445564547 -0.391737653134
501678500 0.657348973917 -0.393323555894
501689000 0.656861291919 -0.394661898969
501699500 0.657659313081 -0.393402536099
501710000 0.658238381539 -0.393091114665
501720500 0.657876140251 -0.391055084632
501731000 0.658246020865 -0.391772351356
501741500 0.65780863126 -0.391811331961
501752000 0.657396708592 -0.391901164823
501762500 0.657640487605 -0.391767137979
501773000 0.65680774107 -0.391817306592
501783500 0.657050588654 -0.392488282107
501794000 0.657511166 -0.391922368892
501804500 0.657500862166 -0.392040247469
501815000 0.656914938145 -0.392125567105
501825500 0.65757264674 -0.392318015059
501836000 0.657149407922 -0.392043417322
501846500 0.656727102632 -0.392551299332
501857000 0.656688862503 -0.392302386778
501867500 0.655836382092 -0.392336762353
501878000 0.656717351265 -0.392447282996
501888500 0.656985377474 -0.3923037715
501899000 0.65691261181 -0.3926032293
501909500 0.657095821134 -0.39270853097
501920000 0.656725169404 -0.392085435128
501930500 0.656332738765 -0.391864779844
501941000 0.656234256173 -0.392639012181
501951500 0.65604475674 -0.392529522921
501962000 0.656062645109 -0.392730497647
501972500 0.655927230478 -0.392773320868
501983000 0.656412690557 -0.392232227524
501993500 0.65653800364 -0.392372444813
502004000 0.656820202952 -0.393048414891
502014500 0.656515628491 -0.393123224946
502025000 0.655695872992 -0.392021558021
502035500 0.655922593722 -0.392694269275
502046000 0.655836803024 -0.392289684984
502056500 0.655599941927 -0.393803556816
502067000 0.655238088841 -0.393438132922
502077500 0.6547676218 -0.392854573261
502088000 0.655516097497 -0.392510125028
502098500 0.654917509288 -0.39270226515
502109000 0.654762331601 -0.392779032902
502119500 0.654737119973 -0.393060145216
502130000 0.654948081698 -0.392795918047
502140500 0.654963392301 -0.392638358347
502151000 0.654809235273 -0.393295284314
502161500 0.654968137408 -0.392813638099
502172000 0.655285722439 -0.392760478267
502182500 0.655466887192 -0.392295646806
502193000 0.654833979591 -0.393072586566
502203500 0.655055540949 -0.39332838132
502214000 0.654445513969 -0.393411309515
502224500 0.654293799271 -0.393915701527
502235000 0.65482828841 -0.392868596026
502245500 0.654628370561 -0.393070664515
502256000 0.654275278504 -0.393769764465
502266500 0.654055134881 -0.393520299411
502277000 0.65468345703 -0.393620029159
502287500 0.653915348093 -0.393280012475
502298000 0.655031945474 -0.393312442746
502308500 0.654715721849 -0.393856439951
502319000 0.654570650955 -0.393678596515
502329500 0.654567836931 -0.394038125766
502340000 0.654777682636 -0.39418189547
502350500 0.654617941662 -0.394672212691
502361000 0.654809676514 -0.394805734632
502371500 0.654906984707 -0.394108782872
502382000 0.654709846082 -0.394310218939
502392500 0.654235648405 -0.394149028196
502403000 0.653969225251 -0.39404421736
502413500 0.653796641987 -0.394171662675
502424000 0.653648703626 -0.394020625216
502434500 0.653723026971 -0.393674105501
502445000 0.653546102573 -0.394374341592
502455500 0.653677074178 -0.394672697857
502466000 0.653255809602 -0.394438046238
502476500 0.653079389747 -0.394577591612
502487000 0.653602315415 -0.394080004041
502497500 0.653053559403 -0.394431625995
502508000 0.65311959982 -0.394544331759
502518500 0.652845691477 -0.394243241251
502529000 0.652792919398 -0.394441732224
502539500 0.652386100867 -0.394626140805
502550000 0.653146271665 -0.393765420067
502560500 0.653004525236 -0.394139322869
502571000 0.652984316707 -0.393237806952
502581500 0.653715528394 -0.393405707511
502592000 0.653327736602 -0.393656110089
502602500 0.652802238438 -0.394052326715
502613000 0.651857035885 -0.394477866635
502623500 0.652299417274 -0.394565346621
502634000 0.652249322867 -0.394545089535
502644500 0.652525427723 -0.395022240041
502655000 0.652743685136 -0.393779759478
502665500 0.652720146669 -0.395174730022
502676000 0.651945837988 -0.394941146001
502686500 0.652123148943 -0.395237898936
502697000 0.651025152517 -0.395284164442
502707500 0.652342923026 -0.395418587406
502718000 0.652601580914 -0.39532089662
502728500 0.652158648872 -0.394655999733
502739000 0.651305881647 -0.394521362048
502749500 0.652191856655 -0.394797852228
502760000 0.651464132892 -0.39548473685
502770500 0.651827400369 -0.394624072148
502781000 0.652107748444 -0.394885113932
502791500 0.651930993419 -0.394989757436
502802000 0.651926614433 -0.395317937575
502812500 0.651883041161 -0.395134130359
502823000 0.65201853433 -0.395773204549
502833500 0.651537962581 -0.395305774802
502844000 0.651657783627 -0.395743624057
502854500 0.651568717503 -0.395798242031
502865000 0.651281919898 -0.39560642485
502875500 0.651666101525 -0.395243605454
502886000 0.651845393225 -0.395334976348
502896500 0.651267002843 -0.395548592841
502907000 0.651698368201 -0.395381109319
502917500 0.651109561975 -0.395173192761
502928000 0.65088867669 -0.39520456562
502938500 0.652098895046 -0.39575228124
502949000 0.651046130888 -0.395842994129
502959500 0.650779633405 -0.395874211736
502970000 0.651386067522 -0.396319682833
502980500 0.651247473138 -0.396012408305
502991000 0.650735804576 -0.396454408057
503001500 0.650391727309 -0.395805663593
503012000 0.650810873183 -0.39609746754
503022500 0.650687510708 -0.396301772903
503033000 0.650454090098 -0.396225608472
503043500 0.65048417687 -0.396483250447
503054000 0.650134951582 -0.396618481644
503064500 0.650530709006 -0.396142940652
503075000 0.650561897578 -0.396724358874
503085500 0.649973685129 -0.397338510949
503096000 0.649120874722 -0.396554564588
503106500 0.649693822623 -0.39534675881
503117000 0.650157618015 -0.39613757374
503127500 0.650875685056 -0.395993701708
503138000 0.650473572003 -0.396150510859
503148500 0.648769647819 -0.394994825092
503159000 0.649161069932 -0.395618377622
503169500 0.65054509296 -0.396324670052
503180000 0.651535952008 -0.397410572981
503190500 0.648594571257 -0.395822519586
503201000 0.64886841186 -0.397126282681
503211500 0.64960935099 -0.395694759689
503222000 0.646919697173 -0.396953904598
503232500 0.648189954522 -0.395647175425
503243000 0.648965794471 -0.396299392219
503253500 0.648835026364 -0.396258997196
503264000 0.649098927437 -0.397440058281
503274500 0.648563238501 -0.396688553037
503285000 0.647568071726 -0.397134283072
503295500 0.649474438079 -0.397051260324
503306000 0.64666813006 -0.395655427724
503316500 0.648419564745 -0.395515919983
503327000 0.644537181167 -0.396535203088
503337500 0.648108459557 -0.395898317974
503348000 0.645916350405 -0.396488968983
503358500 0.649787884466 -0.397751048882
503369000 0.648670612207 -0.394340882797
503379500 0.649357287271 -0.399348951212
503390000 0.645578111651 -0.401541046602
503400500 0.648009452872 -0.394824834807
503411000 0.647142583847 -0.393937971246
503421500 0.642789795926 -0.391665102038
503432000 0.65305843868 -0.398616062345
503442500 0.646938453249 -0.396868956642
503453000 0.649113632598 -0.398006790161
503463500 0.650560323468 -0.399462365119
503474000 0.646972862975 -0.394335775762
503484500 0.645128412106 -0.40070123005
503495000 0.645960235086 -0.393266224044
503505500 0.651131406909 -0.402080138084
503516000 0.651151457723 -0.395861626866
503526500 0.64891423318 -0.40116089417
503537000 0.643472074145 -0.394922249987
503547500 0.65285902502 -0.400472958287
503558000 0.648341518443 -0.400258939364
503568500 0.648859466821 -0.396162562178
503579000 0.643809316152 -0.397152697473
503589500 0.654255748587 -0.398715486482
503600000 0.646674238902 -0.393372842215
503610500 0.649220595344 -0.395896777457
503621000 0.645367853266 -0.395843320421
503631500 0.646313337696 -0.399094387716
503642000 0.642964890586 -0.394893196212
503652500 0.644626273092 -0.400432014069
503663000 0.652535519186 -0.402712298286
503673500 0.651113782488 -0.395690175266
503684000 0.64829602694 -0.397508517347
503694500 0.650048930804 -0.399407479841
503705000 0.647158347075 -0.396384501596
503715500 0.647733288642 -0.394155698639
503726000 0.649182492433 -0.394497065425
503736500 0.645806992526 -0.391907270062
503747000 0.650212232279 -0.393790513185
503757500 0.64598317377 -0.394617422644
503768000 0.646161387817 -0.397683914478
503778500 0.643776721685 -0.397257960458
503789000 0.647266750164 -0.398545835928
503799500 0.646963758195 -0.397424390366
503810000 0.646366038827 -0.39821567255
503820500 0.646144690205 -0.400569267646
503831000 0.644124712617 -0.397332520367
503841500 0.645544844778 -0.396148821542
503852000 0.648526961251 -0.397036390971
503862500 0.64596732023 -0.398267103401
503873000 0.644382415086 -0.398115121902
503883500 0.647076235308 -0.397523709889
503894000 0.646093306798 -0.398762638532
503904500 0.646280866688 -0.400546958942
503915000 0.645953620526 -0.399552663086
503925500 0.645986837633 -0.399042577422
503936000 0.646215504491 -0.39866224618
503946500 0.645514983292 -0.398338713333
503957000 0.644664624033 -0.398171740993
503967500 0.645612647844 -0.399305335585
503978000 0.644906604774 -0.398667786211
503988500 0.64432234651 -0.398251373191
503999000 0.645539558604 -0.398687930659
504009500 0.645102756211 -0.398643873425
504020000 0.644357176326 -0.398681210641
504030500 0.644964867759 -0.399188110991
504041000 0.64440973939 -0.3988155988
504051500 0.644258851948 -0.399089351376
504062000 0.644437589161 -0.398396298345
504072500 0.644582006331 -0.399099130785
504083000 0.644466973642 -0.39859349099
504093500 0.643870541441 -0.398610991205
504104000 0.644202513043 -0.398919386219
504114500 0.64367308386 -0.399378848907
504125000 0.644310370276 -0.399067614847
504135500 0.644070059785 -0.399359490468
504146000 0.643673560417 -0.39866301557
504156500 0.64481486852 -0.398588165314
504167000 0.644214409551 -0.398906672388
504177500 0.644374315829 -0.39931735032
504188000 0.644254612304 -0.398578452589
504198500 0.643352109338 -0.398857653771
504209000 0.643635992806 -0.399468533322
504219500 0.643546909245 -0.39920746667
504230000 0.643893875095 -0.39918888268
504240500 0.643352336971 -0.398760171841
504251000 0.643032137572 -0.39846705362
504261500 0.643335291401 -0.39870884424
504272000 0.642880397607 -0.398957786184
504282500 0.642529543575 -0.398627821568
504293000 0.643377835375 -0.398391056486
504303500 0.642923173978 -0.398546053365
504314000 0.642378456403 -0.398674355799
504324500 0.642249852916 -0.398368570241
504335000 0.642146787802 -0.399036004559
504345500 0.643057237971 -0.399444691123
504356000 0.643085222028 -0.399176143926
504366500 0.643022439018 -0.398463822935
504377000 0.643227531203 -0.398004296174
504387500 0.642200199401 -0.399098214508
504398000 0.642071293594 -0.398862594906
504408500 0.642425475002 -0.398818545361
504419000 0.642404899922 -0.399512604383
504429500 0.642837010574 -0.399610661973
504440000 0.642405767692 -0.399773483697
504450500 0.642712144318 -0.399239800624
504461000 0.642573928317 -0.39899490702
504471500 0.642179081003 -0.398838942183
504482000 0.642333066377 -0.399408809167
504492500 0.641251145103 -0.399081924556
504503000 0.639190135625 -0.398849562709
504513500 0.639339921463 -0.398970517673
504524000 0.64048569493 -0.399257278045
504534500 0.641775508495 -0.399534661298
504545000 0.641822394642 -0.399964843165
504555500 0.641561131654 -0.399544624132
504566000 0.641595293215 -0.400137741583
504576500 0.641387667128 -0.399604614567
504587000 0.641304536729 -0.399811856116
504597500 0.641475092455 -0.399659178048
504608000 0.640827227438 -0.399706525227
504618500 0.641395314154 -0.399789512823
504629000 0.641593916485 -0.399677121922
504639500 0.641475545667 -0.400122132442
504650000 0.640898323852 -0.399706831414
504660500 0.640776288113 -0.39989049665
504671000 0.640863081005 -0.399028837985
504681500 0.640882702635 -0.399340036531
504692000 0.640830229012 -0.399168601717
504702500 0.640046862899 -0.398994261602
504713000 0.640397403548 -0.398580082976
504723500 0.640128358385 -0.399017703645
504734000 0.639666728715 -0.398930527898
504744500 0.639783166704 -0.399542388412
504755000 0.639534914915 -0.398979811552
504765500 0.639711460711 -0.399671887247
504776000 0.639589881155 -0.400378703658
504786500 0.639203732424 -0.399891479423
504797000 0.638764732761 -0.399906918061
504807500 0.639334719147 -0.399561132724
504818000 0.640295938634 -0.399889084911
504828500 0.640212609215 -0.399686689682
504839000 0.639515456695 -0.399678728951
504849500 0.639142659428 -0.399792002784
504860000 0.639247242304 -0.400511822969
504870500 0.639110123958 -0.400544035496
504881000 0.639581288838 -0.401001235651
504891500 0.63948468161 -0.400251596818
504902000 0.639449725802 -0.400383626645
504912500 0.639586454616 -0.399862320748
504923000 0.639482050876 -0.400555274422
504933500 0.639412768792 -0.400483032355
504944000 0.638757469624 -0.400951757749
504954500 0.638121405003 -0.400623501905
504965000 0.637896116409 -0.400614479258
504975500 0.63857120357 -0.401014294811
504986000 0.637751577431 -0.400583078095
504996500 0.638363627729 -0.400663512442
505007000 0.638085664857 -0.400672172332
505017500 0.637926552855 -0.4007813283
505028000 0.637908232967 -0.400590790451
505038500 0.63787171036 -0.400781264132
505049000 0.638259122943 -0.399805293983
505059500 0.638813697576 -0.399878544378
505070000 0.638281092102 -0.399973362638
505080500 0.638148277957 -0.399561299807
505091000 0.63815992372 -0.400411132375
505101500 0.638440670481 -0.400755173517
505112000 0.638386995558 -0.400550333884
505122500 0.63752170705 -0.401311754502
505133000 0.637068851949 -0.400511009304
505143500 0.636806677821 -0.401162610646
505154000 0.637371234743 -0.401204853805
505164500 0.637823731553 -0.399710482104
505175000 0.63755888634 -0.400314064935
505185500 0.637544701442 -0.401553110282
505196000 0.637847356626 -0.401263958421
505206500 0.636895339397 -0.400867291037
505217000 0.636783753355 -0.401220586209
505227500 0.636387000884 -0.401669183171
505238000 0.636738189887 -0.401744461394
505248500 0.636517975855 -0.400679149224
505259000 0.636374496943 -0.401234753517
505269500 0.636214440208 -0.401164720646
505280000 0.635940041175 -0.401295577755
505290500 0.636081330033 -0.400879936812
505301000 0.636307356534 -0.401333335327
505311500 0.636313174511 -0.401883567047
505322000 0.636556389245 -0.400945994796
505332500 0.6364802609 -0.400919665686
505343000 0.637173176331 -0.401287632791
505353500 0.636560848252 -0.40139384626
505364000 0.636387324881 -0.401164218087
505374500 0.636536252335 -0.401809794162
505385000 0.636406334373 -0.402080956413
505395500 0.635254577512 -0.402114945792
505406000 0.636467574206 -0.401989272307
505416500 0.636109350628 -0.401913641584
505427000 0.636450903143 -0.402248750006
505437500 0.636699914646 -0.401295660075
505448000 0.636040848628 -0.402115794929
505458500 0.636419832768 -0.401735588038
505469000 0.635828637893 -0.401954269366
505479500 0.635206039183 -0.401418452012
505490000 0.63487758862 -0.401417129916
505500500 0.63503839801 -0.401242892192
505511000 0.63499907032 -0.401368895331
505521500 0.634255004573 -0.40176245071
505532000 0.633667670924 -0.401103290258
505542500 0.633442733655 -0.401374049004
505553000 0.632938624862 -0.401615828789
505563500 0.633982043407 -0.402229864206
505574000 0.633490154826 -0.4019701197
505584500 0.633541152701 -0.402598186067
505595000 0.633690300451 -0.402018912914
505605500 0.633428431711 -0.402525515552
505616000 0.634241087935 -0.401872005478
505626500 0.634415185303 -0.402528380085
505637000 0.634008663469 -0.40223370041
505647500 0.63383922596 -0.402653156357
505658000 0.63373325499 -0.402527402065
505668500 0.633397175593 -0.402455112963
505679000 0.633813129515 -0.402245751658
505689500 0.633899598474 -0.402323697714
505700000 0.633660405753 -0.402473424817
505710500 0.634632099954 -0.402162220015
505721000 0.634268082537 -0.402535314873
505731500 0.634893704803 -0.40195561682
505742000 0.634456746875 -0.401991556994
505752500 0.634026221966 -0.402068446606
505763000 0.633554767391 -0.402478892493
505773500 0.633075758766 -0.402857445514
505784000 0.633553690516 -0.403010626282
505794500 0.633417653078 -0.402811629725
505805000 0.633845519086 -0.403467118746
505815500 0.634036607304 -0.403089159818
505826000 0.633215402987 -0.40278357235
505836500 0.63340159221 -0.402055789092
505847000 0.634031503989 -0.402437619235
505857500 0.634343497012 -0.402721806233
505868000 0.634389378306 -0.402504250683
505878500 0.633111156879 -0.402436943033
505889000 0.633458064338 -0.402386519032
505899500 0.633081740069 -0.402399522901
505910000 0.633357139838 -0.402522217411
505920500 0.632997561156 -0.403535335297
505931000 0.632852841635 -0.40252246925
505941500 0.633104421994 -0.402539873207
505952000 0.632940996126 -0.40228456866
505962500 0.632965498626 -0.401154427147
505973000 0.632999105232 -0.401478105763
505983500 0.63232134863 -0.401730922619
505994000 0.632660403743 -0.402880634767
506004500 0.632351024698 -0.402739041109
506015000 0.632126350957 -0.403305272869
506025500 0.632663714912 -0.403183247382
506036000 0.632314928234 -0.403009281844
506046500 0.632524346543 -0.403465873368
506057000 0.631779271806 -0.403263446139
506067500 0.632016158159 -0.40328163902
506078000 0.631877904723 -0.402509604952
506088500 0.631939039951 -0.402519274607
506099000 0.631425896676 -0.402347977937
506109500 0.631773471813 -0.403477992983
506120000 0.631776790685 -0.40311683605
506130500 0.632024721049 -0.403415163992
506141000 0.632150494873 -0.403341046641
506151500 0.631658405787 -0.403127373943
506162000 0.631948542392 -0.403321225628
506172500 0.631384644785 -0.403839099981
506183000 0.631650151917 -0.403158401526
506193500 0.63189140423 -0.402666541033
506204000 0.631754189814 -0.403161333095
506214500 0.63083920491 -0.402873287412
506225000 0.631306922387 -0.403036683317
506235500 0.631384107659 -0.403592070546
506246000 0.631148651315 -0.403430844327
506256500 0.631195851041 -0.403420898717
506267000 0.630660941406 -0.403367584461
506277500 0.630401305469 -0.403385339116
506288000 0.629917596672 -0.403506007717
506298500 0.630056432963 -0.403708480674
506309000 0.629645203775 -0.403902540752
506319500 0.629958575929 -0.403777584155
506330000 0.630204782922 -0.404162064949
506340500 0.630356340708 -0.403368454155
506351000 0.630849760624 -0.403540352382
506361500 0.63061490616 -0.403964816993
506372000 0.630572339991 -0.404361407136
506382500 0.630140068134 -0.404526520593
506393000 0.629633647289 -0.403489892532
506403500 0.629435865814 -0.403385242439
506414000 0.629430712305 -0.403057913955
506424500 0.629418416097 -0.403467963202
506435000 0.62909496881 -0.403439095547
506445500 0.629671343753 -0.400295482673
506456000 0.629566372152 -0.403343237253
506466500 0.629383387132 -0.403632165201
506477000 0.62919878276 -0.403573011017
506487500 0.629287051312 -0.403370253854
506498000 0.628975531873 -0.403535010819
506508500 0.628786604716 -0.403892359439
506519000 0.629458058085 -0.404927134711
506529500 0.628970636527 -0.404536468427
506540000 0.628734812423 -0.403573211305
506550500 0.628951673974 -0.404559972844
506561000 0.629504238497 -0.404381700562
506571500 0.62841872991 -0.404315508841
506582000 0.628999575098 -0.404801659646
506592500 0.628128030071 -0.404676030281
506603000 0.628241620933 -0.4044570801
506613500 0.628241552857 -0.403682915113
506624000 0.628576165602 -0.404202277989
506634500 0.628609201059 -0.404500120604
506645000 0.62792946307 -0.404657750094
506655500 0.627862226533 -0.404040320559
506666000 0.626911542012 -0.402343148322
506676500 0.627229895454 -0.404005673192
506687000 0.628009476073 -0.403848947354
506697500 0.62740323104 -0.403979067631
506708000 0.628632488606 -0.403225517773
506718500 0.627434432357 -0.404859945627
506729000 0.627740292679 -0.404481950004
506739500 0.627312963506 -0.403962208808
506750000 0.627301860334 -0.405035063607
506760500 0.627618580754 -0.403802679238
506771000 0.627113424669 -0.404234639059
506781500 0.628417284638 -0.403494499535
506792000 0.626720039999 -0.403760667087
506802500 0.627868034985 -0.404161867235
506813000 0.626618027562 -0.403210837463
506823500 0.627422003389 -0.404165425209
506834000 0.625589844924 -0.402457307701
506844500 0.625938863195 -0.403452843447
506855000 0.626384321629 -0.40386116951
506865500 0.625874322819 -0.405440607974
506876000 0.626687720704 -0.405116372497
506886500 0.626475290598 -0.404616512101
506897000 0.627036693512 -0.404671660645
506907500 0.626346599936 -0.403916984292
506918000 0.626172568371 -0.404816189703
506928500 0.626430926707 -0.40454002187
506939000 0.626062487107 -0.404923170979
506949500 0.626046192853 -0.403861007423
506960000 0.625913731891 -0.404347557534
506970500 0.625392423424 -0.404486427843
506981000 0.625744103677 -0.405235607466
506991500 0.625373767496 -0.404423918392
507002000 0.624657830257 -0.404050846357
507012500 0.624629852778 -0.404469862399
507023000 0.625125091581 -0.404149969903
507033500 0.625694874482 -0.40478653787
507044000 0.625320843672 -0.405152548033
507054500 0.627124742434 -0.405781866508
507065000 0.625796060016 -0.405010522999
507075500 0.624947952375 -0.40397767033
507086000 0.625696183267 -0.406223085221
507096500 0.626283763121 -0.404045959493
507107000 0.627675417453 -0.403942693997
507117500 0.624682502317 -0.404644609406
507128000 0.625369112657 -0.404390982844
507138500 0.624885352549 -0.404346899568
507149000 0.625380061924 -0.404322145292
507159500 0.622759124857 -0.405158845523
507170000 0.623208563153 -0.405116260859
507180500 0.622543512818 -0.404740176232
507191000 0.623624609767 -0.403873641864
507201500 0.622180540508 -0.405600450286
507212000 0.62500546752 -0.407301338169
507222500 0.622593759682 -0.405659560879
507233000 0.623785518695 -0.406135807189
507243500 0.62395200124 -0.4068200093
507254000 0.627027798171 -0.405058442038
507264500 0.625501047203 -0.404337000942
507275000 0.625652523108 -0.405764821502
507285500 0.622645781444 -0.407261138612
507296000 0.62252830437 -0.404187440524
507306500 0.625319996316 -0.407522518315
507317000 0.622981499197 -0.408076213039
507327500 0.624068216542 -0.405727397514
507338000 0.624173427983 -0.404855926063
507348500 0.622013083097 -0.409004504062
507359000 0.623125379745 -0.405396295657
507369500 0.620917085679 -0.407605755294
507380000 0.623542932059 -0.404503282778
507390500 0.621668015018 -0.404356658353
507401000 0.623376220537 -0.408591758645
507411500 0.623841637165 -0.406287523911
507422000 0.620285866514 -0.41093557136
507432500 0.621417956503 -0.402432401391
507443000 0.624146347168 -0.403296165796
507453500 0.62532616719 -0.403161350778
507464000 0.622170691392 -0.403661856303
507474500 0.623417117231 -0.405419111536
507485000 0.623476659427 -0.406148729651
507495500 0.623283950379 -0.407317976156
507506000 0.627154737662 -0.405819159555
507516500 0.621470506347 -0.407649622613
507527000 0.626764531358 -0.404643638939
507537500 0.621556979176 -0.40357998651
507548000 0.619082256625 -0.403768125428
507558500 0.624268087947 -0.40614331165
507569000 0.624042662782 -0.408471928533
507579500 0.619343389974 -0.407990899777
507590000 0.624287688473 -0.404963857122
507600500 0.625231637294 -0.404859549909
507611000 0.618774740489 -0.403321373613
507621500 0.61858165067 -0.403751355841
507632000 0.622913713107 -0.404421615865
507642500 0.623497197946 -0.405964032905
507653000 0.620451812317 -0.40758947001
507663500 0.620285735741 -0.405495047869
507674000 0.620764070145 -0.407784976034
507684500 0.618302734105 -0.405424802942
507695000 0.620896911182 -0.405599340632
507705500 0.620108740932 -0.409568807824
507716000 0.616173229068 -0.406303590309
507726500 0.619385133563 -0.408399257231
507737000 0.619975611361 -0.40689876721
507747500 0.621029760339 -0.40483491415
507758000 0.62073960959 -0.406171350268
507768500 0.620756866078 -0.403403324013
507779000 0.619594653172 -0.405230780379
507789500 0.619908193968 -0.40424760491
507800000 0.619826160627 -0.399710987782
507810500 0.621402096773 -0.405403850465
507821000 0.621963761412 -0.405423329764
507831500 0.623172455879 -0.405392451314
507842000 0.621185048707 -0.404413009131
507852500 0.620764058157 -0.406067588891
507863000 0.620653843386 -0.405753181923
507873500 0.620772832553 -0.404970032142
507884000 0.620424154425 -0.405821753172
507894500 0.62067547223 -0.40637808068
507905000 0.619826764986 -0.406701484221
507915500 0.617842944103 -0.403419419872
507926000 0.619115512328 -0.405279203599
507936500 0.62048769674 -0.405379837634
507947000 0.619766522956 -0.405821068081
507957500 0.620816140678 -0.405774532635
507968000 0.619969070381 -0.405745861375
507978500 0.619513331272 -0.405577631154
507989000 0.619409481138 -0.406400600277
507999500 0.6190341851 -0.405627404368
508010000 0.618697261214 -0.405188295467
508020500 0.618779451576 -0.404716688478
508031000 0.617661613835 -0.404958979154
508041500 0.618295902529 -0.40554380418
508052000 0.618250396353 -0.405443669732
508062500 0.618171857181 -0.405598986122
508073000 0.618641062387 -0.405374108596
508083500 0.618495546878 -0.405090750193
508094000 0.618731505679 -0.406030707802
508104500 0.618213150924 -0.405582385478
508115000 0.618302135143 -0.406161130321
508125500 0.617964031955 -0.405971865013
508136000 0.617781654609 -0.405879344349
508146500 0.617697078268 -0.405777156574
508157000 0.617850925329 -0.40541383526
508167500 0.617758539875 -0.405660713876
508178000 0.617471079887 -0.406201514605
508188500 0.617592921643 -0.406350446129
508199000 0.617248951456 -0.40639068744
508209500 0.617908082172 -0.406745214923
508220000 0.617396553643 -0.407145155842
508230500 0.61777291725 -0.406387985184
508241000 0.618345648559 -0.405757625367
508251500 0.617803218965 -0.405807999752
508262000 0.61725837128 -0.407005873288
508272500 0.616980384806 -0.405122309393
508283000 0.616817355352 -0.405561847455
508293500 0.61641791387 -0.406366533897
508304000 0.616068283991 -0.407063090682
508314500 0.616632533673 -0.406703055923
508325000 0.616263949038 -0.406993175949
508335500 0.616743815588 -0.407487179856
508346000 0.617144122726 -0.407461719596
508356500 0.617279294316 -0.407115339982
508367000 0.617886495178 -0.40767605311
508377500 0.617180561251 -0.406796369069
508388000 0.616304613642 -0.407465449115
508398500 0.616481738953 -0.406839081818
508409000 0.616269763701 -0.405941628415
508419500 0.61606159934 -0.406671694062
508430000 0.616601919865 -0.407070866764
508440500 0.617479377096 -0.406604319152
508451000 0.616567063253 -0.406675995464
508461500 0.616207789556 -0.406198738953
508472000 0.616035014014 -0.406679555425
508482500 0.616441388239 -0.40620686348
508493000 0.616105189104 -0.405685948431
508503500 0.616825771275 -0.406243476159
508514000 0.615739005654 -0.406270285556
508524500 0.616398526831 -0.406449050706
508535000 0.615720076407 -0.406800529283
508545500 0.615635930517 -0.406600942821
508556000 0.615186471429 -0.406842892076
508566500 0.615668218747 -0.406792853146
508577000 0.615664885404 -0.407286599834
508587500 0.615500275176 -0.407563640545
508598000 0.615616567962 -0.406990555855
508608500 0.615674970963 -0.406751295436
508619000 0.61594999758 -0.405948365648
508629500 0.615260162351 -0.40643853873
508640000 0.61487449475 -0.405887806789
508650500 0.614743398053 -0.406231907447
508661000 0.614990745614 -0.405775168777
508671500 0.61429635841 -0.407038357372
508682000 0.614788163747 -0.406546624047
508692500 0.61435775703 -0.406420639772
508703000 0.614949252119 -0.405978619566
508713500 0.614661075915 -0.40611552988
508724000 0.61457182898 -0.406328315017
508734500 0.614951873032 -0.405807762162
508745000 0.614234820858 -0.405666646246
508755500 0.614530156649 -0.405985396294
508766000 0.614483186877 -0.405983526208
508776500 0.614362645814 -0.405811257027
508787000 0.614430546601 -0.406038497804
508797500 0.614177356092 -0.406265429368
508808000 0.613451381764 -0.40611821941
508818500 0.613787887973 -0.406439731151
508829000 0.613498525105 -0.405709513796
508839500 0.613629656339 -0.404819469814
508850000 0.613716630303 -0.404532046845
508860500 0.614490145192 -0.40607970456
508871000 0.614461256842 -0.40683442636
508881500 0.614570483014 -0.406864652792
508892000 0.613792964676 -0.407256706136
508902500 0.613966572778 -0.406678991093
508913000 0.61349666806 -0.406905878148
508923500 0.613628403305 -0.406638069296
508934000 0.61323039294 -0.406103807825
508944500 0.613486122899 -0.406471323697
508955000 0.613019458074 -0.406381576298
508965500 0.612855746989 -0.406436677786
508976000 0.612827776167 -0.406472596822
508986500 0.612126303905 -0.405844482462
508997000 0.612169810707 -0.405830055612
509007500 0.611956437371 -0.406252125747
509018000 0.612657297619 -0.406415164426
509028500 0.61222672763 -0.406266970144
509039000 0.61181943214 -0.406479202322
509049500 0.611819100979 -0.4070345772
509060000 0.611545015548 -0.406303619538
509070500 0.611611019023 -0.406604486769
509081000 0.611855926339 -0.40698680172
509091500 0.611819323506 -0.406435347846
509102000 0.611875871368 -0.407522119145
509112500 0.611680848571 -0.407291284409
509123000 0.611931084307 -0.407455870289
509133500 0.61213046228 -0.406800231877
509144000 0.614483441145 -0.411047805465
509154500 0.611925204224 -0.407916954878
509165000 0.602618177202 -0.403512060789
509175500 0.609234809204 -0.40849211449
509186000 0.610269042694 -0.407910695476
509196500 0.611651799505 -0.407492245599
509207000 0.611857806453 -0.407839144609
509217500 0.61200247468 -0.407902169092
509228000 0.611909090675 -0.408320723766
509238500 0.611747086166 -0.408102069764
509249000 0.611434275954 -0.407818977724
509259500 0.611479698647 -0.408031737491
509270000 0.611516199192 -0.407848921467
509280500 0.611397368069 -0.408476656929
509291000 0.611522215023 -0.40810396295
509301500 0.611373898004 -0.408562109821
509312000 0.611191121233 -0.408476995108
509322500 0.611117213105 -0.408369377889
509333000 0.611620116521 -0.40799563736
509343500 0.611666200034 -0.407614327598
509354000 0.611098308555 -0.408285752663
509364500 0.610704830669 -0.407168558061
509375000 0.611092629259 -0.407493055441
509385500 0.610989657997 -0.407537745461
509396000 0.610679312763 -0.407594121074
509406500 0.611056360949 -0.407137386883
509417000 0.610440809823 -0.407641233248
509427500 0.610640342621 -0.407705758071
509438000 0.610638824832 -0.407451866003
509448500 0.610807712554 -0.408020343487
509459000 0.610554347215 -0.407673594354
509469500 0.610258272072 -0.407621656471
509480000 0.610923116899 -0.407133517518
509490500 0.610439886798 -0.407173767379
509501000 0.610266069079 -0.407323433705
509511500 0.610293290939 -0.40680287221
509522000 0.610356738649 -0.406803303895
509532500 0.609906672272 -0.406494286361
509543000 0.609788909539 -0.406718308778
509553500 0.610016528072 -0.40686110535
509564000 0.610215501492 -0.407013742268
509574500 0.609917289553 -0.407208303381
509585000 0.609957418301 -0.406097261328
509595500 0.610164910502 -0.405903037641
509606000 0.609842176035 -0.406369943503
509616500 0.609608983588 -0.406199194322
509627000 0.609845423457 -0.406783595467
509637500 0.609343442229 -0.406663360992
509648000 0.609672199976 -0.405891197847
509658500 0.609393261318 -0.406368206148
509669000 0.608991886716 -0.4060016138
509679500 0.609322023487 -0.406802042509
509690000 0.609096668382 -0.406763514763
509700500 0.609190725356 -0.406060221802
509711000 0.609573414505 -0.40661442593
509721500 0.608860664447 -0.40639726042
509732000 0.608633259358 -0.406399275113
509742500 0.608525643994 -0.406705450942
509753000 0.608560730123 -0.406402633554
509763500 0.608012274546 -0.406612287092
509774000 0.60926607345 -0.405712621822
509784500 0.608443010046 -0.405940831213
509795000 0.608306325455 -0.406095368693
509805500 0.60821917014 -0.406338812565
509816000 0.608234361208 -0.406395653096
509826500 0.608291198077 -0.406393295107
509837000 0.608342351917 -0.406822656144
509847500 0.608618230591 -0.406839775344
509858000 0.608729797626 -0.407149351488
509868500 0.608519986546 -0.406514556653
509879000 0.607759813484 -0.406559250389
509889500 0.607866334833 -0.406656719995
509900000 0.607434313525 -0.406641183807
509910500 0.608145333641 -0.406335613058
509921000 0.608346172814 -0.40673370374
509931500 0.607985245926 -0.406228464908
509942000 0.608829212911 -0.405908936525
509952500 0.608354699503 -0.406129930582
509963000 0.607791852586 -0.405820901968
509973500 0.60751071339 -0.406350376084
509984000 0.607721531782 -0.40672355182
509994500 0.607267760241 -0.406366278941
510005000 0.607530023996 -0.40660044864
510015500 0.606986814129 -0.406107744698
510026000 0.606796646133 -0.406260550612
510036500 0.607175029758 -0.405983660648
510047000 0.607265162794 -0.406170509137
510057500 0.607227242856 -0.405164132395
510068000 0.607014766671 -0.405942746779
510078500 0.607257111753 -0.405693794231
510089000 0.606695161038 -0.406159999327
510099500 0.6070078823 -0.405759938517
510110000 0.605817720343 -0.405718654879
510120500 0.606021705727 -0.405252311131
510131000 0.605329798266 -0.405766964495
510141500 0.604716362502 -0.406248789401
510152000 0.605263936521 -0.406067028818
510162500 0.605627334748 -0.406222443339
510173000 0.605532571163 -0.405993585633
510183500 0.605444561784 -0.406796153603
510194000 0.60543965483 -0.406482061677
510204500 0.60480076704 -0.406427347719
510215000 0.60474684841 -0.406489516302
510225500 0.604601807431 -0.405860444699
510236000 0.603920856139 -0.40725413308
510246500 0.604502870698 -0.406852926159
510257000 0.604764691673 -0.406848783868
510267500 0.605419074055 -0.406218516802
510278000 0.604648550813 -0.40602932899
510288500 0.604896561513 -0.405767189795
510299000 0.604815158446 -0.406103739795
510309500 0.604149890862 -0.405462396861
510320000 0.604215005878 -0.405836342446
510330500 0.603869594691 -0.40586932773
510341000 0.603710070796 -0.405663786391
510351500 0.603138938241 -0.405625757433
510362000 0.603295784107 -0.405874461932
510372500 0.603057348903 -0.406143646095
510383000 0.603397611714 -0.406325563721
510393500 0.603149810711 -0.406728235443
510404000 0.602879955457 -0.407094717329
510414500 0.602814081419 -0.406590016908
510425000 0.602716138665 -0.406713353636
510435500 0.602482950102 -0.40659660175
510446000 0.601931256077 -0.406366955456
510456500 0.601807297919 -0.406063764607
510467000 0.601945563354 -0.406087457771
510477500 0.60203084392 -0.405934509638
510488000 0.603286926947 -0.406194395399
510498500 0.602560552789 -0.406260383903
510509000 0.601694484496 -0.406680478018
510519500 0.601438754661 -0.406664144598
510530000 0.601449256711 -0.40716398655
510540500 0.601368969017 -0.406904826623
510551000 0.601285683641 -0.407399430675
510561500 0.601556366566 -0.407396152167
510572000 0.601101812354 -0.407136240135
510582500 0.601186801269 -0.407118486504
510593000 0.600799149061 -0.407270630617
510603500 0.600380986444 -0.406957760869
510614000 0.600527567328 -0.407464337738
510624500 0.601047591798 -0.407120823549
510635000 0.600820944983 -0.407456278668
510645500 0.600763504706 -0.407053536531
510656000 0.600714963372 -0.40743294981
510666500 0.60052280765 -0.407446255047
510677000 0.600909811062 -0.407380945192
510687500 0.600562941977 -0.406886645813
510698000 0.600581633266 -0.406329831462
510708500 0.600428887231 -0.407994395328
510719000 0.600744260762 -0.407718669454
510729500 0.600069956446 -0.407869929902
510740000 0.60112638124 -0.407250805354
510750500 0.600845737628 -0.407713583086
510761000 0.600324736775 -0.407802971491
510771500 0.600248333612 -0.408056350183
510782000 0.600412062394 -0.408041583398
510792500 0.599982027316 -0.407640242396
510803000 0.599675647378 -0.407989875285
510813500 0.599978797198 -0.407460642352
510824000 0.599673631321 -0.407842097882
510834500 0.600189733662 -0.407495176234
510845000 0.599959659255 -0.408093429742
510855500 0.599491810172 -0.407319112935
510866000 0.598732321829 -0.408277049508
510876500 0.599343547263 -0.408136403626
510887000 0.599462009071 -0.407521275951
510897500 0.5993607235 -0.407709688458
510908000 0.599469031639 -0.407443623426
510918500 0.599612003741 -0.407045018218
510929000 0.5989512731 -0.407404886848
510939500 0.599334578838 -0.408048903872
510950000 0.598962293593 -0.408064769229
510960500 0.60198033999 -0.406382663685
510971000 0.6015578481 -0.407531276025
510981500 0.600991591108 -0.407275527895
510992000 0.601026556904 -0.407295138992
511002500 0.601005008184 -0.407017145019
511013000 0.601316981114 -0.407667579852
511023500 0.60099495914 -0.407581404849
511034000 0.601526567464 -0.406895872753
511044500 0.601295284026 -0.407176860566
511055000 0.601505238873 -0.407879905912
511065500 0.601440382781 -0.407696110087
511076000 0.600982456626 -0.407340209472
511086500 0.600280970569 -0.407201942407
511097000 0.600271956618 -0.407346947077
511107500 0.600282341516 -0.407681152008
511118000 0.599355181163 -0.407522740578
511128500 0.600139923476 -0.40747487539
511139000 0.599914570554 -0.407666834842
511149500 0.599803880093 -0.408154495135
511160000 0.59982654126 -0.408118309817
511170500 0.600213878893 -0.408015653495
511181000 0.599796389402 -0.408381438085
511191500 0.598578876426 -0.409140369287
511202000 0.597210379881 -0.408870251325
511212500 0.597301791191 -0.408723951456
511223000 0.59769851238 -0.408636558097
511233500 0.599029352169 -0.407919822904
511244000 0.599050143031 -0.407339505503
511254500 0.599849689932 -0.407065369041
511265000 0.599892961173 -0.407300239258
511275500 0.599166651492 -0.407343420741
511286000 0.598905901014 -0.407082711054
511296500 0.598544219786 -0.407510731892
511307000 0.598496255826 -0.407587208261
511317500 0.598802914571 -0.406659221143
511328000 0.599038869577 -0.406967306779
511338500 0.598827305226 -0.407395224507
511349000 0.598875037055 -0.407282899661
511359500 0.598456348764 -0.407968934726
511370000 0.597879621692 -0.407915389271
511380500 0.597837888128 -0.408266451396
511391000 0.59752225192 -0.407734001312
511401500 0.598342854991 -0.407343274886
511412000 0.598161315507 -0.406930996466
511422500 0.598424201492 -0.40724854548
511433000 0.598282712736 -0.406965670797
511443500 0.597940087327 -0.406537926145
511454000 0.597816726793 -0.408595370656
511464500 0.597190166876 -0.408057437899
511475000 0.598633628581 -0.408146517483
511485500 0.597553235111 -0.406630503467
511496000 0.598237953747 -0.407101524729
511506500 0.596240519292 -0.406644370575
511517000 0.596601220285 -0.408869435133
511527500 0.598244903163 -0.40745083784
511538000 0.599041987942 -0.407367792025
511548500 0.597117105062 -0.407403722124
511559000 0.597614812285 -0.407224439249
511569500 0.597618513434 -0.408212854176
511580000 0.59650904846 -0.407769186848
511590500 0.598374470109 -0.407943360699
511601000 0.597651066107 -0.408599315035
511611500 0.598119868962 -0.408546743607
511622000 0.597375019755 -0.409318482125
511632500 0.596241883081 -0.408001862502
511643000 0.597013599413 -0.407409109463
511653500 0.597428256083 -0.409128029071
511664000 0.595574252992 -0.407844494532
511674500 0.598050704035 -0.408698314303
511685000 0.596546291911 -0.406016222717
511695500 0.597850129198 -0.408064576025
511706000 0.596174207875 -0.40747428112
511716500 0.596611588027 -0.407600321263
511727000 0.596284021036 -0.408029934654
511737500 0.596323726306 -0.407896571891
511748000 0.597531710002 -0.406835579375
511758500 0.596758550151 -0.406532670028
511769000 0.596535918931 -0.409067948718
511779500 0.596360954506 -0.407049204471
511790000 0.595309545145 -0.40702770801
511800500 0.595626699634 -0.408847597487
511811000 0.596133721013 -0.406607239396
511821500 0.596439086939 -0.407274054663
511832000 0.596100968396 -0.408150024748
511842500 0.596126440711 -0.407252935796
511853000 0.595432863665 -0.409627455123
511863500 0.594786758198 -0.407111256068
511874000 0.595395627006 -0.407138580478
511884500 0.595206511274 -0.40668282951
511895000 0.595460259757 -0.407479934611
511905500 0.595137049657 -0.406643393951
511916000 0.594609238633 -0.40701625897
511926500 0.594062867318 -0.406632936505
511937000 0.594002016635 -0.406476432335
511947500 0.595051213669 -0.407050801575
511958000 0.595722658626 -0.407727049383
511968500 0.595396817022 -0.407555013621
511979000 0.594203788129 -0.406974299711
511989500 0.596089877711 -0.407749812553
512000000 0.595284972792 -0.407321139814
