! Calibrated averaged scanner-service zoom
# Hz S RI R 50
470000000 0.530348713139 -0.20078160677
470010500 0.530392330617 -0.200815527797
470021000 0.530737000181 -0.200865549769
470031500 0.530744823979 -0.200978591055
470042000 0.530141406719 -0.201449500643
470052500 0.53080688497 -0.200714795743
470063000 0.53013225644 -0.201090363796
470073500 0.530811084713 -0.201121147164
470084000 0.530315904828 -0.202308076892
470094500 0.530798487351 -0.201068817877
470105000 0.531204757955 -0.201207394629
470115500 0.531072200321 -0.200795702173
470126000 0.530982414916 -0.200929498896
470136500 0.530307342978 -0.201685252573
470147000 0.531466610849 -0.200515261302
470157500 0.53187279186 -0.20018077474
470168000 0.530897384744 -0.199875580268
470178500 0.531055090229 -0.200654877475
470189000 0.532085675669 -0.201918599296
470199500 0.532048763053 -0.200994935257
470210000 0.532676230854 -0.200918461652
470220500 0.534191880775 -0.19884099378
470231000 0.530549300831 -0.19913652394
470241500 0.532460367098 -0.198845973887
470252000 0.534655382145 -0.199523509243
470262500 0.533231368872 -0.199627520697
470273000 0.534137833363 -0.199297907578
470283500 0.532805116737 -0.201364813231
470294000 0.53256509392 -0.202212061834
470304500 0.531729472106 -0.199214490151
470315000 0.535749466468 -0.1990440221
470325500 0.531088941554 -0.201004796096
470336000 0.53464981202 -0.201501556055
470346500 0.532555818295 -0.200642675112
470357000 0.534479214746 -0.200989258274
470367500 0.533841516536 -0.201922321464
470378000 0.533328161987 -0.200515054536
470388500 0.532188420845 -0.199756153025
470399000 0.532742249085 -0.200029287216
470409500 0.533245084762 -0.200465948367
470420000 0.534105016508 -0.200903143579
470430500 0.534000790356 -0.201108025203
470441000 0.535273035609 -0.200805233033
470451500 0.533897864744 -0.199016605858
470462000 0.535824647048 -0.19951324853
470472500 0.536312664892 -0.200884863352
470483000 0.534215388773 -0.202312481752
470493500 0.534067352271 -0.199119075029
470504000 0.537286181868 -0.201849045309
470514500 0.536343649444 -0.201338601133
470525000 0.536023375792 -0.202137747922
470535500 0.534929029861 -0.20165693588
470546000 0.533187068948 -0.200995269588
470556500 0.535477193239 -0.202472270935
470567000 0.536400747611 -0.201852316172
470577500 0.536219778286 -0.200272936431
470588000 0.534500417846 -0.200620160341
470598500 0.534729931429 -0.200472586864
470609000 0.534327436615 -0.2028953153
470619500 0.535230453248 -0.202047699382
470630000 0.536148431406 -0.200320119199
470640500 0.535908623262 -0.200721089397
470651000 0.537242062453 -0.201058136069
470661500 0.536518738792 -0.200207638319
470672000 0.535097743701 -0.200059961355
470682500 0.536059295941 -0.201919606727
470693000 0.536317813369 -0.200378827561
470703500 0.53513476399 -0.201497230945
470714000 0.535710196902 -0.201146981609
470724500 0.536136698767 -0.201238745672
470735000 0.535696439274 -0.201058398627
470745500 0.535832348942 -0.199410866238
470756000 0.537428807457 -0.199874881828
470766500 0.536906974132 -0.200804148142
470777000 0.537710561867 -0.201166745423
470787500 0.535932965101 -0.200766863107
470798000 0.535859086975 -0.200841934549
470808500 0.537366764596 -0.201659987266
470819000 0.537096857981 -0.20093302598
470829500 0.536870099837 -0.201576336144
470840000 0.537447423618 -0.201782670445
470850500 0.537100024501 -0.201094540635
470861000 0.5373329211 -0.199506068752
470871500 0.537584894779 -0.20131884701
470882000 0.537170909401 -0.201176190566
470892500 0.537689812286 -0.20094647986
470903000 0.538514023216 -0.201843118055
470913500 0.537977363642 -0.200920389471
470924000 0.538357457144 -0.200840759433
470934500 0.538613526575 -0.201121922585
470945000 0.538469326683 -0.201029514891
470955500 0.537780426202 -0.200842136034
470966000 0.538425905484 -0.201044138855
470976500 0.538289839432 -0.200730049803
470987000 0.539241554346 -0.201566000639
470997500 0.538453159687 -0.201793595185
471008000 0.538502742899 -0.201575229456
471018500 0.538577823285 -0.202165873112
471029000 0.538718366218 -0.201863597376
471039500 0.538480264331 -0.201612746542
471050000 0.53901193517 -0.202055148156
471060500 0.538789140571 -0.204236860271
471071000 0.537734206684 -0.20456039072
471081500 0.538962526773 -0.203952658679
471092000 0.538787307145 -0.204078104982
471102500 0.53799819188 -0.204652151364
471113000 0.539416413251 -0.203652315904
471123500 0.53977597949 -0.204142355584
471134000 0.539523736157 -0.204553368295
471144500 0.539115591888 -0.203879986731
471155000 0.538760077283 -0.204520675632
471165500 0.540177965215 -0.204382460967
471176000 0.53998808501 -0.204390703133
471186500 0.539884952799 -0.204221558662
471197000 0.539990086384 -0.204979301641
471207500 0.539811794318 -0.205562500441
471218000 0.538929391578 -0.20449177154
471228500 0.540670764136 -0.204907397212
471239000 0.535866527303 -0.203801449947
471249500 0.540232009449 -0.203103547215
471260000 0.540010366337 -0.203125171903
471270500 0.539738740498 -0.203279795564
471281000 0.539953167667 -0.204821688877
471291500 0.539337263982 -0.203441712937
471302000 0.539441728502 -0.20418815434
471312500 0.540049267754 -0.204591749431
471323000 0.539871657614 -0.203524850042
471333500 0.539616055657 -0.204962047114
471344000 0.541565341826 -0.203708154291
471354500 0.540886370818 -0.204119181193
471365000 0.540209629987 -0.203623270321
471375500 0.540568500966 -0.203749204641
471386000 0.540385738076 -0.204877878131
471396500 0.541997972465 -0.202480671752
471407000 0.541397662435 -0.204191510477
471417500 0.541002767709 -0.202248841297
471428000 0.541259952075 -0.20441161009
471438500 0.540086597583 -0.204484774973
471449000 0.541008193999 -0.204782701231
471459500 0.540739716438 -0.204162048356
471470000 0.540889583746 -0.204492899961
471480500 0.54097242773 -0.203852273209
471491000 0.541882448948 -0.204534245489
471501500 0.542039685295 -0.204127970307
471512000 0.54128401033 -0.204655795432
471522500 0.5416976793 -0.205780358897
471533000 0.542385560837 -0.204492909572
471543500 0.541429061661 -0.204922093086
471554000 0.540992421352 -0.20489799437
471564500 0.541994614809 -0.204343050985
471575000 0.541873383877 -0.204884027772
471585500 0.541653327125 -0.204781631885
471596000 0.542408784139 -0.20477294879
471606500 0.542638252181 -0.204549279457
471617000 0.543290515304 -0.204787354942
471627500 0.542676795689 -0.20426081819
471638000 0.542863824702 -0.203865915515
471648500 0.542818970987 -0.204330204595
471659000 0.542828840161 -0.203479548389
471669500 0.542975202685 -0.20347006442
471680000 0.542721214849 -0.204028933904
471690500 0.543250692991 -0.204277909961
471701000 0.543450103453 -0.205030328982
471711500 0.543634683242 -0.204161457167
471722000 0.54379832803 -0.20423032088
471732500 0.543485775924 -0.204149793447
471743000 0.543636415042 -0.204089439078
471753500 0.544328830138 -0.203363529434
471764000 0.544198572748 -0.203160019307
471774500 0.544247799538 -0.204091237861
471785000 0.543734088147 -0.204139542036
471795500 0.544152564798 -0.204572530023
471806000 0.544051085702 -0.204513775474
471816500 0.543383204067 -0.20418878476
471827000 0.543985451921 -0.204339398186
471837500 0.542945533803 -0.205138293105
471848000 0.545263634757 -0.205028999434
471858500 0.543821124218 -0.204667006676
471869000 0.544367181581 -0.20464220783
471879500 0.544693884347 -0.204467656561
471890000 0.544434529564 -0.204045476512
471900500 0.544274838757 -0.205413989862
471911000 0.544653825803 -0.205493573704
471921500 0.54617554223 -0.205160452051
471932000 0.547027714794 -0.205417309549
471942500 0.546202766671 -0.204896304974
471953000 0.546120434403 -0.20554808811
471963500 0.545183049392 -0.20552590763
471974000 0.544766738487 -0.205404789544
471984500 0.544299740809 -0.204942618146
471995000 0.544811754714 -0.205281923785
472005500 0.544821592145 -0.205250937419
472016000 0.545502457677 -0.204849905208
472026500 0.545365875364 -0.204741339514
472037000 0.545698955881 -0.205117956392
472047500 0.546303118243 -0.204893649287
472058000 0.54536709152 -0.205401503803
472068500 0.546499988972 -0.205171803754
472079000 0.546784248821 -0.205390743992
472089500 0.545894064584 -0.205143492929
472100000 0.546398929708 -0.2041373753
472110500 0.547517779521 -0.204663544843
472121000 0.547293397088 -0.205332620868
472131500 0.547482263479 -0.204472483995
472142000 0.546615107994 -0.204897007679
472152500 0.547408142239 -0.204154016112
472163000 0.546814242355 -0.203949802342
472173500 0.547184830566 -0.203888700723
472184000 0.546805205269 -0.204467628048
472194500 0.546874512897 -0.204813591677
472205000 0.547157407761 -0.204986386428
472215500 0.546897812512 -0.204705087191
472226000 0.547370439012 -0.204746410462
472236500 0.547647726093 -0.204645188585
472247000 0.547571021324 -0.204250573464
472257500 0.548047853903 -0.203602224345
472268000 0.547924664441 -0.203941480119
472278500 0.548271228132 -0.205385255928
472289000 0.548342420209 -0.204713991444
472299500 0.548379402737 -0.204130266218
472310000 0.548613215659 -0.204803501244
472320500 0.54878936245 -0.203775032226
472331000 0.548638733018 -0.204605053414
472341500 0.548550955349 -0.205174868319
472352000 0.548422348133 -0.205542867277
472362500 0.548478601957 -0.204611492332
472373000 0.548261810604 -0.204781968243
472383500 0.547945643547 -0.205555167134
472394000 0.548435084905 -0.205561292047
472404500 0.54872093383 -0.2054705999
472415000 0.549202814258 -0.204547012827
472425500 0.549936458916 -0.203776897308
472436000 0.549106044921 -0.204594960209
472446500 0.550026046121 -0.205763532237
472457000 0.550048365014 -0.204546187402
472467500 0.549899677843 -0.204812548278
472478000 0.549469565465 -0.205373523158
472488500 0.549116511033 -0.205347851673
472499000 0.550042686963 -0.204924948413
472509500 0.550501145562 -0.205724534221
472520000 0.550002363151 -0.206013218773
472530500 0.549530500837 -0.205061675993
472541000 0.549966469679 -0.20465876579
472551500 0.550341251954 -0.204137356073
472562000 0.551031129388 -0.203948948495
472572500 0.550567194473 -0.20433875323
472583000 0.550162250604 -0.203747020587
472593500 0.550802421854 -0.204598276453
472604000 0.550265890613 -0.204450362267
472614500 0.550443709993 -0.204702004908
472625000 0.550361710625 -0.204432653169
472635500 0.551454270546 -0.204615964157
472646000 0.551243942611 -0.205373617008
472656500 0.551535816912 -0.204874315718
472667000 0.552295186316 -0.205217155932
472677500 0.551801483399 -0.20481216321
472688000 0.552063602503 -0.205409957978
472698500 0.552154449485 -0.205111108178
472709000 0.551264550903 -0.205010711712
472719500 0.551827614479 -0.204765345435
472730000 0.55251108219 -0.204739161092
472740500 0.552018155817 -0.204971296625
472751000 0.551899168467 -0.205405250322
472761500 0.551924747457 -0.205326809861
472772000 0.551884438912 -0.205136072488
472782500 0.552026518328 -0.204972828978
472793000 0.552135375106 -0.205097273775
472803500 0.552443420576 -0.204490028941
472814000 0.552583244983 -0.204809005665
472824500 0.552995676823 -0.204278856952
472835000 0.552967927117 -0.205133449776
472845500 0.553092259034 -0.204780675447
472856000 0.552685980478 -0.204847625291
472866500 0.553258646597 -0.204733503286
472877000 0.55360846649 -0.204823007554
472887500 0.553593755433 -0.204946104004
472898000 0.553354590571 -0.204761919167
472908500 0.552676167595 -0.204996049666
472919000 0.552914243984 -0.204299284635
472929500 0.553892300216 -0.204800392864
472940000 0.553530228065 -0.204623141634
472950500 0.55341262565 -0.204908691566
472961000 0.553289880133 -0.204573400931
472971500 0.553430353249 -0.204988281481
472982000 0.553834718126 -0.204992571035
472992500 0.553154592652 -0.204716168562
473003000 0.553400903051 -0.205046451996
473013500 0.553825927718 -0.204615316868
473024000 0.554148548945 -0.203587821022
473034500 0.554231597414 -0.204104866743
473045000 0.554065635861 -0.204995240072
473055500 0.555015390944 -0.204043369951
473066000 0.554723979144 -0.202836039295
473076500 0.55430587767 -0.202498111484
473087000 0.554849401016 -0.204189801156
473097500 0.554549668444 -0.204063563822
473108000 0.55474349279 -0.204181088333
473118500 0.554956849961 -0.204007272211
473129000 0.555474120711 -0.204078499545
473139500 0.555591738866 -0.203708634817
473150000 0.555764666034 -0.203664242632
473160500 0.561743293084 -0.20041284643
473171000 0.562087709618 -0.200440198041
473181500 0.56192810741 -0.200166843416
473192000 0.562156737539 -0.200164853757
473202500 0.562730316235 -0.20047888073
473213000 0.563197445802 -0.200411197597
473223500 0.562811280042 -0.200376651957
473234000 0.56298022248 -0.20009132857
473244500 0.56280599473 -0.20000523122
473255000 0.563651806198 -0.200029829701
473265500 0.563473977376 -0.199260483815
473276000 0.563438500079 -0.199898356825
473286500 0.563899134601 -0.199300869751
473297000 0.563923215204 -0.200248522967
473307500 0.564954036312 -0.199782159111
473318000 0.564671215699 -0.200031950221
473328500 0.565032042105 -0.200211496563
473339000 0.564385787193 -0.200229149916
473349500 0.564707443252 -0.199796162262
473360000 0.565377310506 -0.199532530488
473370500 0.564804716007 -0.199161804368
473381000 0.564784135281 -0.199037031711
473391500 0.565476717205 -0.20003873036
473402000 0.565849715497 -0.200515560676
473412500 0.566204706332 -0.199985645246
473423000 0.567007244283 -0.199811628502
473433500 0.566760301377 -0.199961432515
473444000 0.567912631183 -0.199932984997
473454500 0.56721547834 -0.199892117588
473465000 0.567291355741 -0.19913064632
473475500 0.567141706271 -0.200100921536
473486000 0.566710770664 -0.199595778214
473496500 0.56694918196 -0.199786171707
473507000 0.567450833417 -0.199896799606
473517500 0.567946094412 -0.20069972847
473528000 0.567692917886 -0.199677971452
473538500 0.567732998196 -0.200337880562
473549000 0.567605776216 -0.200313408019
473559500 0.566225292855 -0.200918416518
473570000 0.568370914523 -0.200110606712
473580500 0.568296257963 -0.200476763128
473591000 0.568814076242 -0.200316507629
473601500 0.569380823038 -0.200124172531
473612000 0.569163907919 -0.200358304194
473622500 0.569346946934 -0.200001157319
473633000 0.569483906918 -0.201074391521
473643500 0.569745253337 -0.200507005856
473654000 0.569230893494 -0.200313693514
473664500 0.569243417444 -0.201049295228
473675000 0.569767330583 -0.200048630879
473685500 0.570188626066 -0.200430688232
473696000 0.569602802875 -0.200602700448
473706500 0.570448399107 -0.201137403696
473717000 0.570746741156 -0.200946011496
473727500 0.571547123152 -0.200617926454
473738000 0.571985379821 -0.200827739312
473748500 0.572013218379 -0.20064852379
473759000 0.571595803593 -0.200895685178
473769500 0.572179147662 -0.200990012833
473780000 0.571872713752 -0.201260504716
473790500 0.572140869022 -0.201191377468
473801000 0.573012189733 -0.200766236965
473811500 0.572840883276 -0.201737135488
473822000 0.572732241512 -0.201716938431
473832500 0.572688851742 -0.202185288239
473843000 0.572444118797 -0.202044555966
473853500 0.572329556703 -0.202299821104
473864000 0.572648096466 -0.201924827043
473874500 0.572385888114 -0.202670278147
473885000 0.573201061231 -0.202506421803
473895500 0.572846244628 -0.202230220422
473906000 0.573690766287 -0.202747188248
473916500 0.573447580263 -0.20339681203
473927000 0.574420385998 -0.203405232755
473937500 0.575173258506 -0.203002580615
473948000 0.575730200438 -0.203437384987
473958500 0.574837140777 -0.203379437122
473969000 0.574335509693 -0.203603998198
473979500 0.573149586574 -0.204092906484
473990000 0.574114142254 -0.204027059421
474000500 0.574108780642 -0.203192412431
474011000 0.574007404151 -0.20374652304
474021500 0.574340375446 -0.204527413561
474032000 0.574335162995 -0.204796759999
474042500 0.574234401338 -0.204110338295
474053000 0.573217214084 -0.204145482434
474063500 0.574270575956 -0.204187433403
474074000 0.574304511733 -0.204609485719
474084500 0.573732850753 -0.204735355348
474095000 0.574386952144 -0.205176536905
474105500 0.575003173302 -0.204645114805
474116000 0.575400481464 -0.205404704402
474126500 0.575112753876 -0.204508486502
474137000 0.575048118921 -0.204176420884
474147500 0.575631938018 -0.204484831631
474158000 0.574696323689 -0.204877697438
474168500 0.574974013682 -0.206324313692
474179000 0.574177923542 -0.205290671201
474189500 0.57499469827 -0.204754269973
474200000 0.575369530969 -0.205733984119
474210500 0.5761840499 -0.209297018028
474221000 0.576073622983 -0.208922324207
474231500 0.576632328275 -0.209481338541
474242000 0.576417368347 -0.209210266251
474252500 0.576318995106 -0.209565207628
474263000 0.576390760507 -0.209268694787
474273500 0.577056682278 -0.209610856982
474284000 0.575641971504 -0.209628704074
474294500 0.57606606561 -0.209611664085
474305000 0.576572555508 -0.21034672518
474315500 0.57508264665 -0.209886679562
474326000 0.577001057238 -0.209223687157
474336500 0.575775871206 -0.210745803325
474347000 0.579025614621 -0.211730210077
474357500 0.578643864508 -0.210764434217
474368000 0.577007937007 -0.209297337167
474378500 0.574875925095 -0.210747294572
474389000 0.576537740971 -0.20998712402
474399500 0.577022947309 -0.211856988595
474410000 0.57770131054 -0.209141434289
474420500 0.577151859855 -0.213113358303
474431000 0.572300190098 -0.203333720425
474441500 0.578878902914 -0.211317120425
474452000 0.57629560597 -0.213291896663
474462500 0.575753063246 -0.211963708888
474473000 0.578532946751 -0.208530872072
474483500 0.579926964242 -0.207908608438
474494000 0.571650161502 -0.212611312728
474504500 0.579946716016 -0.212346123971
474515000 0.576754947574 -0.210124035395
474525500 0.577360518731 -0.214066765473
474536000 0.577055367314 -0.210912858487
474546500 0.573777172392 -0.207449299797
474557000 0.578115588968 -0.20913313245
474567500 0.575436523382 -0.211263372959
474578000 0.580317443885 -0.213225820649
474588500 0.57640230426 -0.21049141719
474599000 0.579254481193 -0.212653407061
474609500 0.579269443853 -0.212146602382
474620000 0.578878888649 -0.213147792378
474630500 0.57901137285 -0.212880119567
474641000 0.578228198085 -0.210495126275
474651500 0.578597997951 -0.213254325763
474662000 0.580160039669 -0.211301133661
474672500 0.578663203464 -0.213080448584
474683000 0.578968931796 -0.209944180667
474693500 0.578838479121 -0.211401634588
474704000 0.579927796761 -0.212015265785
474714500 0.579205391736 -0.212224427618
474725000 0.579759116693 -0.211699257838
474735500 0.580082986747 -0.211994510493
474746000 0.579477567945 -0.212130368523
474756500 0.579738482785 -0.211545058216
474767000 0.579710419051 -0.211074137797
474777500 0.579834626003 -0.210905399501
474788000 0.580137107216 -0.211647194414
474798500 0.579501650123 -0.212166580657
474809000 0.579789328107 -0.212017510539
474819500 0.580261658828 -0.212644174559
474830000 0.579478996295 -0.212817988664
474840500 0.580002499885 -0.213125353811
474851000 0.579675462281 -0.212646630068
474861500 0.580305856973 -0.212708107179
474872000 0.580116815098 -0.212773776955
474882500 0.580907107311 -0.213098563141
474893000 0.580657945064 -0.212307703102
474903500 0.580184108227 -0.212794736253
474914000 0.58028530294 -0.21289654696
474924500 0.580479921337 -0.213546110146
474935000 0.580402018784 -0.213102333826
474945500 0.580503905117 -0.213469628884
474956000 0.580903474219 -0.213021537146
474966500 0.580653455904 -0.212847656566
474977000 0.580410632225 -0.214091532892
474987500 0.579600526741 -0.214396010515
474998000 0.580917533265 -0.213061667498
475008500 0.581253174933 -0.213353382229
475019000 0.581113511306 -0.21313795093
475029500 0.581613396899 -0.212401191538
475040000 0.581038261017 -0.212932243789
475050500 0.58104082635 -0.214136923771
475061000 0.581334081338 -0.213858575101
475071500 0.581516582304 -0.214490311768
475082000 0.58155917486 -0.214338335769
475092500 0.581765857801 -0.214193378406
475103000 0.58134809413 -0.21439575589
475113500 0.581461437209 -0.214476457891
475124000 0.58124335336 -0.214873191152
475134500 0.581909360048 -0.21468744375
475145000 0.581226831061 -0.214717642528
475155500 0.581529643577 -0.215033399543
475166000 0.580903799634 -0.214906395318
475176500 0.581604443323 -0.215047268352
475187000 0.581159986327 -0.215860588866
475197500 0.582023063822 -0.214856877444
475208000 0.582908642451 -0.214637809797
475218500 0.581939105987 -0.215414628279
475229000 0.582050172778 -0.215265616138
475239500 0.582058278373 -0.216383735888
475250000 0.581362796674 -0.21640476318
475260500 0.583229898494 -0.21651148903
475271000 0.58399987175 -0.216631084239
475281500 0.583860477621 -0.21633563101
475292000 0.583557282386 -0.215655430883
475302500 0.58324737581 -0.216397745134
475313000 0.584412536227 -0.216550454053
475323500 0.583623397107 -0.217006622256
475334000 0.584051023961 -0.216326699627
475344500 0.584215896377 -0.217013077476
475355000 0.584163094209 -0.216180335701
475365500 0.58420892307 -0.216264128816
475376000 0.58530889071 -0.216291391804
475386500 0.585113932784 -0.217334018727
475397000 0.585209586899 -0.217738725269
475407500 0.585251153779 -0.217288957702
475418000 0.584578139396 -0.217732636973
475428500 0.585555147598 -0.217481341124
475439000 0.584652468296 -0.217456237797
475449500 0.585033172235 -0.217467961647
475460000 0.585592167122 -0.21776932895
475470500 0.585222047248 -0.217752238669
475481000 0.585622044607 -0.217704721692
475491500 0.585987610665 -0.217961740157
475502000 0.585955709925 -0.218770587847
475512500 0.585511612473 -0.218648222366
475523000 0.58493308849 -0.217695231817
475533500 0.585519943652 -0.218832767413
475544000 0.585850676653 -0.218441273616
475554500 0.58584518446 -0.219625584779
475565000 0.585801006937 -0.218582762583
475575500 0.585799425061 -0.218812999466
475586000 0.58619314741 -0.218709042445
475596500 0.586283632386 -0.219071808694
475607000 0.58625351231 -0.218659298384
475617500 0.586927787385 -0.219000310596
475628000 0.586575418735 -0.219568788458
475638500 0.586904818691 -0.22000911212
475649000 0.58684893589 -0.218954505958
475659500 0.587565722069 -0.218537830806
475670000 0.586831475559 -0.217939419406
475680500 0.587215489186 -0.219130208356
475691000 0.587589593815 -0.219763457953
475701500 0.587488144087 -0.220183388743
475712000 0.587229115946 -0.220094677808
475722500 0.587016960408 -0.220238322331
475733000 0.586864588146 -0.220104396577
475743500 0.587085735099 -0.220087911459
475754000 0.587179378177 -0.220409424989
475764500 0.587383616505 -0.220272057507
475775000 0.586764033161 -0.219660897647
475785500 0.588026276307 -0.219894726975
475796000 0.587718746842 -0.219765524806
475806500 0.587438092189 -0.220484839575
475817000 0.588315555395 -0.220403854641
475827500 0.588215620477 -0.220496947596
475838000 0.589162426718 -0.221290752726
475848500 0.588321506139 -0.221069318667
475859000 0.588523846857 -0.22077455166
475869500 0.588995801882 -0.221089203701
475880000 0.58915966394 -0.221071891485
475890500 0.588400918848 -0.220437477933
475901000 0.58857500155 -0.220888901062
475911500 0.588944489333 -0.221094905889
475922000 0.588708804172 -0.221010138354
475932500 0.589428205791 -0.221110181595
475943000 0.588968837103 -0.220853953568
475953500 0.588481778618 -0.221166751284
475964000 0.588851340311 -0.221591025427
475974500 0.589094164702 -0.221039364025
475985000 0.589311152911 -0.221155036042
475995500 0.589229552177 -0.221167105501
476006000 0.589096914112 -0.221411244248
476016500 0.58929753808 -0.220847947095
476027000 0.589326441961 -0.221107110333
476037500 0.590038913973 -0.221372705147
476048000 0.590081943439 -0.220669081961
476058500 0.590115029229 -0.220636657463
476069000 0.590088794664 -0.220597451823
476079500 0.589839695499 -0.220420104744
476090000 0.589871558598 -0.220934545922
476100500 0.58951029363 -0.220912114337
476111000 0.590499757888 -0.220176345193
476121500 0.590379033828 -0.22116454281
476132000 0.591142251384 -0.220044680339
476142500 0.589967184427 -0.221163376188
476153000 0.590566584534 -0.220364086724
476163500 0.591534595566 -0.220754703606
476174000 0.591603445306 -0.219509744831
476184500 0.590885808298 -0.220101277388
476195000 0.591460300785 -0.22003736157
476205500 0.590764957596 -0.220007495375
476216000 0.591367124131 -0.220568079914
476226500 0.59137265308 -0.220384241005
476237000 0.59139714967 -0.220878403829
476247500 0.592696886997 -0.220314156029
476258000 0.591567369575 -0.219191362331
476268500 0.590697623938 -0.220163946387
476279000 0.589521934781 -0.220144394251
476289500 0.590521581439 -0.219732699513
476300000 0.590971736735 -0.220179802853
476310500 0.594150565343 -0.221013630438
476321000 0.594486047558 -0.22128479919
476331500 0.594273846839 -0.220532645711
476342000 0.592671217752 -0.220266767348
476352500 0.593724333201 -0.22098719197
476363000 0.594903284189 -0.220818399209
476373500 0.593476003877 -0.220172313167
476384000 0.593118211129 -0.219594067582
476394500 0.593577515544 -0.219862337363
476405000 0.593882786103 -0.220617370824
476415500 0.593709660799 -0.219887098554
476426000 0.593779171818 -0.219881949262
476436500 0.594430864104 -0.219512682542
476447000 0.594589850013 -0.219630218602
476457500 0.594836012565 -0.219678600327
476468000 0.594221696649 -0.219852906672
476478500 0.593955287839 -0.219680026018
476489000 0.593714806345 -0.220572535188
476499500 0.593010101335 -0.219736822266
476510000 0.5944050571 -0.220537203629
476520500 0.593893604545 -0.219749860864
476531000 0.594365640776 -0.219645319739
476541500 0.594002074929 -0.219650973545
476552000 0.594295155205 -0.220024234019
476562500 0.594150022927 -0.219816253837
476573000 0.594285815394 -0.220549203736
476583500 0.594629693627 -0.220103590292
476594000 0.594645494393 -0.220151244314
476604500 0.594956229829 -0.219725517566
476615000 0.595642309995 -0.21999281268
476625500 0.593209920859 -0.220547364496
476636000 0.585958983328 -0.212409127527
476646500 0.581106241183 -0.227443302423
476657000 0.589104652668 -0.223142425217
476667500 0.586853503487 -0.219952290348
476678000 0.596066948965 -0.220003805946
476688500 0.596574375558 -0.22100052657
476699000 0.596218825335 -0.220088906512
476709500 0.595543651685 -0.220613787116
476720000 0.594862046424 -0.21975813029
476730500 0.595618094173 -0.220071096403
476741000 0.595390618301 -0.219661010507
476751500 0.595232931985 -0.220428464207
476762000 0.595344093951 -0.220848250159
476772500 0.595136532191 -0.219978863422
476783000 0.595145599501 -0.220909648541
476793500 0.595203737168 -0.221196167461
476804000 0.595036869775 -0.220971588308
476814500 0.595523846791 -0.220766011433
476825000 0.594241877794 -0.220543097457
476835500 0.596145277238 -0.219733800953
476846000 0.5959976324 -0.219807326541
476856500 0.59613828094 -0.220354241796
476867000 0.596400862008 -0.219749151782
476877500 0.596084489714 -0.221423917196
476888000 0.595113649622 -0.220975681975
476898500 0.596527775871 -0.220658903202
476909000 0.595707514882 -0.219358401072
476919500 0.596662148128 -0.220640399557
476930000 0.596853131981 -0.220353912326
476940500 0.596310902115 -0.220972672846
476951000 0.595519300253 -0.220864407232
476961500 0.596231483159 -0.221127209248
476972000 0.596646156433 -0.220476645446
476982500 0.596304837257 -0.220880027046
476993000 0.596787840932 -0.2203504881
477003500 0.596518300288 -0.220345932339
477014000 0.596799709441 -0.221361958393
477024500 0.596409830568 -0.220567830175
477035000 0.596024390597 -0.221122343451
477045500 0.596237288481 -0.220794217246
477056000 0.596147401115 -0.221408574848
477066500 0.596530066156 -0.220562749983
477077000 0.596830579637 -0.220860859284
477087500 0.596473029725 -0.220749521888
477098000 0.596415108365 -0.221044316482
477108500 0.596269475842 -0.221183870282
477119000 0.597394166715 -0.221053338159
477129500 0.596631238648 -0.221330889573
477140000 0.596610828601 -0.220707960005
477150500 0.59751651871 -0.221030509285
477161000 0.596571524576 -0.220828979243
477171500 0.596560131731 -0.220849026458
477182000 0.596828378577 -0.221588051821
477192500 0.596563785177 -0.221769064844
477203000 0.595920968507 -0.222346224468
477213500 0.596299571675 -0.221722668642
477224000 0.596421327446 -0.220618235873
477234500 0.597326668825 -0.219826445645
477245000 0.596955309351 -0.22112965232
477255500 0.596168934857 -0.22065466216
477266000 0.596642305742 -0.220689247901
477276500 0.597034452063 -0.220724231472
477287000 0.596968442073 -0.22084396664
477297500 0.597420180914 -0.220622660666
477308000 0.597502735008 -0.220800578641
477318500 0.5971221164 -0.220779209458
477329000 0.597008676144 -0.221138850213
477339500 0.596500490464 -0.220170842342
477350000 0.597728386651 -0.220784767738
477360500 0.586465190216 -0.207096807383
477371000 0.586440566247 -0.207023545277
477381500 0.58629032623 -0.206664532998
477392000 0.586328507438 -0.207354048604
477402500 0.58627859508 -0.206767253084
477413000 0.586583341224 -0.206694581787
477423500 0.586520999529 -0.206869655456
477434000 0.586799623735 -0.207141312676
477444500 0.586614843252 -0.207156825299
477455000 0.585807947863 -0.208132719491
477465500 0.588060626698 -0.206465249187
477476000 0.585178303095 -0.206104480014
477486500 0.587298454118 -0.207569410361
477497000 0.585325386734 -0.207248682845
477507500 0.586563242293 -0.207865648945
477518000 0.586182830181 -0.204722069539
477528500 0.585897563637 -0.20383568572
477539000 0.588251361302 -0.206458447149
477549500 0.586858410436 -0.206325832114
477560000 0.588311592083 -0.206167527539
477570500 0.58712466016 -0.204438909512
477581000 0.585117463936 -0.206375958477
477591500 0.587585333887 -0.20610564348
477602000 0.588004429047 -0.205969887502
477612500 0.59085593604 -0.205399130846
477623000 0.588756441075 -0.205384496896
477633500 0.587294718293 -0.206739742066
477644000 0.58764630604 -0.205501588159
477654500 0.585936194842 -0.2054928467
477665000 0.586127143789 -0.20600700254
477675500 0.587418355373 -0.205049443582
477686000 0.586730875335 -0.204374506641
477696500 0.589659228691 -0.203273298986
477707000 0.587933743045 -0.205831356924
477717500 0.588557176973 -0.205780044128
477728000 0.588110222093 -0.2042489375
477738500 0.588508181 -0.207888610439
477749000 0.589337855581 -0.203927473428
477759500 0.587891873229 -0.204679139914
477770000 0.589940153414 -0.207237826233
477780500 0.58749771951 -0.208229092216
477791000 0.588724132586 -0.206748155273
477801500 0.589537043931 -0.203865655597
477812000 0.587758680146 -0.20656116182
477822500 0.587601743575 -0.206018699937
477833000 0.588601052198 -0.206668711765
477843500 0.587687180588 -0.205310497067
477854000 0.590287764161 -0.204218906827
477864500 0.586895346677 -0.205649800451
477875000 0.589031651966 -0.204871730895
477885500 0.588269219394 -0.207209914452
477896000 0.587700276083 -0.20616448357
477906500 0.586630519047 -0.205951450734
477917000 0.586508162199 -0.206711158021
477927500 0.588379723517 -0.206068199562
477938000 0.587921023822 -0.206399654714
477948500 0.588838581467 -0.205359975941
477959000 0.588751761926 -0.207174682813
477969500 0.587932310462 -0.207031014167
477980000 0.588332970329 -0.206658430672
477990500 0.590377396366 -0.206301012088
478001000 0.589700070737 -0.203407235308
478011500 0.584961389834 -0.204414607301
478022000 0.588967725624 -0.206282681255
478032500 0.588476118611 -0.206678016229
478043000 0.588684400593 -0.20777541663
478053500 0.589505199864 -0.206842027383
478064000 0.588778968837 -0.208818232536
478074500 0.58364510321 -0.205253100081
478085000 0.587672329249 -0.205774388243
478095500 0.587899660935 -0.198228608697
478106000 0.584278156344 -0.213837941385
478116500 0.587969506827 -0.206040961623
478127000 0.594380434384 -0.204065106124
478137500 0.586974021965 -0.203391589342
478148000 0.588938206706 -0.204000570986
478158500 0.586885654892 -0.216790845251
478169000 0.578982448183 -0.205998596675
478179500 0.596705161831 -0.206341349033
478190000 0.593248584504 -0.204892223783
478200500 0.596432444628 -0.200809570396
478211000 0.592334952227 -0.205695287031
478221500 0.589915259343 -0.203096873316
478232000 0.586613892696 -0.20192927441
478242500 0.58425406809 -0.199907216499
478253000 0.587240216415 -0.194505894016
478263500 0.604734337826 -0.218795278684
478274000 0.606158553411 -0.199383631344
478284500 0.594331111018 -0.207372299666
478295000 0.57931982027 -0.204558915118
478305500 0.579592880292 -0.218022255772
478316000 0.585227806304 -0.208537632871
478326500 0.581624534859 -0.212257522444
478337000 0.603707292992 -0.194263884009
478347500 0.596649174746 -0.213236759123
478358000 0.58650719486 -0.191384268946
478368500 0.590914372645 -0.209745428988
478379000 0.594289736768 -0.200153059731
478389500 0.584430262191 -0.213087803976
478400000 0.595954738205 -0.181913624975
478410500 0.602474954371 -0.21384926176
478421000 0.587377344454 -0.197540732357
478431500 0.586720317348 -0.20148531366
478442000 0.571938208618 -0.185181812087
478452500 0.603671047824 -0.191296709234
478463000 0.576284716776 -0.230163683854
478473500 0.586521798152 -0.213073656815
478484000 0.562288429423 -0.195134263888
478494500 0.602871088798 -0.208818179152
478505000 0.597788189542 -0.205558319962
478515500 0.596562718676 -0.222335635194
478526000 0.575485173275 -0.196765368424
478536500 0.587833981104 -0.236226824144
478547000 0.5927929098 -0.217135152619
478557500 0.59109794333 -0.185460190313
478568000 0.585660264042 -0.182446995656
478578500 0.564573689771 -0.186400728416
478589000 0.556685413873 -0.211289244831
478599500 0.607115112797 -0.197434396753
478610000 0.607014548941 -0.204728875574
478620500 0.608756007866 -0.198985098629
478631000 0.595886466785 -0.20950305597
478641500 0.573258841402 -0.192191865038
478652000 0.60468215024 -0.202293435061
478662500 0.600417213337 -0.210910971517
478673000 0.575322969219 -0.20777180929
478683500 0.594550145419 -0.20997512845
478694000 0.601321134991 -0.206938153822
478704500 0.586409523617 -0.199903091165
478715000 0.59540212871 -0.209276410804
478725500 0.595561989897 -0.213936218594
478736000 0.586035449633 -0.209318805578
478746500 0.593955670228 -0.208510046497
478757000 0.580181285131 -0.206587668062
478767500 0.59480827008 -0.211321025205
478778000 0.594691503998 -0.19918012866
478788500 0.5903371203 -0.207286039911
478799000 0.591818880584 -0.201499277847
478809500 0.594960862875 -0.209265095136
478820000 0.586702205372 -0.199271493852
478830500 0.590462896999 -0.203047191665
478841000 0.589985970835 -0.206043633461
478851500 0.590944676146 -0.207064452351
478862000 0.595306772046 -0.207391461693
478872500 0.592082254932 -0.204640906834
478883000 0.590759399803 -0.202999503383
478893500 0.594911436476 -0.221320986422
478904000 0.593652586851 -0.216657135636
478914500 0.598911589131 -0.207017943186
478925000 0.587581522869 -0.208748246118
478935500 0.591551273561 -0.202712480518
478946000 0.592154712335 -0.207658379259
478956500 0.593043717619 -0.211342231407
478967000 0.593861200957 -0.208298334803
478977500 0.59229272158 -0.212080754055
478988000 0.592082029103 -0.207361431682
478998500 0.592494786298 -0.207583842599
479009000 0.593151212831 -0.206723673149
479019500 0.592123373709 -0.206070213905
479030000 0.594985890331 -0.206771323909
479040500 0.592975741955 -0.207315432529
479051000 0.592076952294 -0.207064100023
479061500 0.593492406494 -0.206139376295
479072000 0.59257955337 -0.207293255857
479082500 0.59290329034 -0.207736608217
479093000 0.591387026649 -0.209314786772
479103500 0.59368234881 -0.209160020069
479114000 0.592292633264 -0.2076703471
479124500 0.591941264104 -0.208010948828
479135000 0.592611191723 -0.206245445071
479145500 0.593210270427 -0.207329698368
479156000 0.59306542939 -0.207120565738
479166500 0.593347815492 -0.208726166191
479177000 0.59242998018 -0.207741934214
479187500 0.592169198904 -0.20844597396
479198000 0.592498439478 -0.207432553977
479208500 0.59277210934 -0.207725804294
479219000 0.594768618481 -0.208268960739
479229500 0.593793677097 -0.207732800131
479240000 0.591928175112 -0.207512769484
479250500 0.593851399807 -0.208688693185
479261000 0.593952325453 -0.209143396002
479271500 0.594538437021 -0.209289876194
479282000 0.596171386648 -0.208127362664
479292500 0.5927216254 -0.206848371478
479303000 0.594900263789 -0.209493885215
479313500 0.592558538131 -0.211820671426
479324000 0.59112431434 -0.209089008766
479334500 0.592865572918 -0.208787259379
479345000 0.592912238517 -0.209367381509
479355500 0.596152468815 -0.205904492116
479366000 0.594713279648 -0.209986858521
479376500 0.594973671194 -0.208900810608
479387000 0.594010301549 -0.208904204561
479397500 0.593525670633 -0.207967419897
479408000 0.593171473384 -0.208333711311
479418500 0.594661681956 -0.207142162142
479429000 0.593945385695 -0.208287773512
479439500 0.595160074578 -0.209024217999
479450000 0.592925834648 -0.208440250328
479460500 0.593518486719 -0.210873210971
479471000 0.593547100139 -0.207985323389
479481500 0.59305574372 -0.209428690332
479492000 0.593024005435 -0.208609843183
479502500 0.593946877693 -0.208370467723
479513000 0.593249107175 -0.208535773128
479523500 0.593469241047 -0.208946427883
479534000 0.592404775387 -0.208581544939
479544500 0.5926883473 -0.21017731143
479555000 0.593612811633 -0.210059598268
479565500 0.593750671157 -0.210184547425
479576000 0.594569248856 -0.209104876226
479586500 0.5935684824 -0.209865052647
479597000 0.593751209643 -0.209621276605
479607500 0.594397241354 -0.209114704524
479618000 0.593688823913 -0.209928643093
479628500 0.594515050759 -0.209736233013
479639000 0.594869679662 -0.209860632393
479649500 0.595197598324 -0.209904909101
479660000 0.59499176408 -0.210770454267
479670500 0.59438162172 -0.210704643133
479681000 0.594762676399 -0.210303827318
479691500 0.594439452801 -0.211402501091
479702000 0.594739807682 -0.210715046015
479712500 0.594330506705 -0.210460063842
479723000 0.595181106337 -0.211321296435
479733500 0.59581512972 -0.210985557687
479744000 0.59647880862 -0.210713111228
479754500 0.596184498792 -0.210408422152
479765000 0.596365908933 -0.210718660005
479775500 0.59642133605 -0.211033090422
479786000 0.595971841326 -0.211324929597
479796500 0.596322126706 -0.210463400564
479807000 0.596439747269 -0.210303367966
479817500 0.59660388781 -0.211544084163
479828000 0.596954335478 -0.211366877998
479838500 0.597201585247 -0.21180719493
479849000 0.597107048549 -0.212386709105
479859500 0.597343766337 -0.212246070375
479870000 0.596838495556 -0.211418018033
479880500 0.597289864411 -0.211488483115
479891000 0.597251892015 -0.211671077888
479901500 0.597343769899 -0.211397965121
479912000 0.597283311693 -0.211977724015
479922500 0.596791821738 -0.212293240529
479933000 0.597978156209 -0.212499499638
479943500 0.598150766047 -0.211739341096
479954000 0.59835167751 -0.211340783536
479964500 0.598978147488 -0.21193673537
479975000 0.599125607357 -0.212537601633
479985500 0.597471084245 -0.212517283754
479996000 0.598072829175 -0.212063234044
480006500 0.597852960776 -0.212456627926
480017000 0.597131605955 -0.211746939502
480027500 0.598521842291 -0.212389623606
480038000 0.600105066595 -0.21205652751
480048500 0.599625616207 -0.213738250349
480059000 0.599039152447 -0.213832251382
480069500 0.598370805094 -0.213151376681
480080000 0.599759433962 -0.21307876978
480090500 0.599649826458 -0.212920679775
480101000 0.598935498005 -0.213196098094
480111500 0.599580093359 -0.212914517863
480122000 0.598809617247 -0.213411463304
480132500 0.599619327152 -0.213950714399
480143000 0.600373083671 -0.214515725611
480153500 0.599684387099 -0.21466525057
480164000 0.600986396504 -0.214695870193
480174500 0.599428396445 -0.214657316798
480185000 0.600001499792 -0.21486927647
480195500 0.599389126049 -0.214406743265
480206000 0.600222783714 -0.214874700859
480216500 0.600055978241 -0.214486659557
480227000 0.599917681405 -0.21630280803
480237500 0.59932150559 -0.216027846002
480248000 0.600122883991 -0.215896263999
480258500 0.599297513407 -0.214666835986
480269000 0.601501018302 -0.211892264265
480279500 0.600827152564 -0.215670386314
480290000 0.601262657722 -0.21602894801
480300500 0.601400770942 -0.216052060896
480311000 0.60003494598 -0.21573475003
480321500 0.601768241568 -0.215769368184
480332000 0.600545485626 -0.21615485949
480342500 0.60082353741 -0.216122040827
480353000 0.600977184737 -0.216328050515
480363500 0.601091999612 -0.216785213558
480374000 0.601645460512 -0.216333887675
480384500 0.6009902508 -0.216671597625
480395000 0.600870888428 -0.217225424775
480405500 0.601066850039 -0.217784281509
480416000 0.60193267788 -0.21690926812
480426500 0.601671805162 -0.216606489212
480437000 0.602330235269 -0.2177047385
480447500 0.601917456842 -0.217753585278
480458000 0.601680055632 -0.217154483634
480468500 0.601864541704 -0.218416814656
480479000 0.601436241579 -0.217807128598
480489500 0.601432220894 -0.218488701107
480500000 0.603158318771 -0.21795035463
480510500 0.592711996975 -0.223079301573
480521000 0.591113889823 -0.22311978775
480531500 0.592332661309 -0.223834919855
480542000 0.592203966013 -0.22334970876
480552500 0.592330221418 -0.223173278634
480563000 0.592295260357 -0.224532379639
480573500 0.592049155208 -0.223318155415
480584000 0.590835337518 -0.224070724464
480594500 0.590111983819 -0.223866623011
480605000 0.591311336376 -0.222000427638
480615500 0.591255349329 -0.223851643938
480626000 0.589724872196 -0.223476121954
480636500 0.591931066819 -0.223313284075
480647000 0.591780737179 -0.223814756751
480657500 0.59241032588 -0.225277088524
480668000 0.591997707414 -0.222916847761
480678500 0.592832972802 -0.224591429138
480689000 0.591794542665 -0.222669016483
480699500 0.592103889803 -0.223257484519
480710000 0.592140800415 -0.224026939391
480720500 0.592844609737 -0.223122647583
480731000 0.591616671324 -0.222899525726
480741500 0.592900008078 -0.223263993829
480752000 0.591885511558 -0.224213980891
480762500 0.593236826147 -0.223804747881
480773000 0.59213638808 -0.223785248893
480783500 0.592197735507 -0.223699110195
480794000 0.59167787749 -0.223285537531
480804500 0.591737179859 -0.223210758036
480815000 0.593237736533 -0.222921915563
480825500 0.593720211541 -0.223037005139
480836000 0.592797321803 -0.223871667803
480846500 0.592915821988 -0.223900971465
480857000 0.59295115165 -0.223558066445
480867500 0.592895501965 -0.223535938371
480878000 0.59293614318 -0.223155323491
480888500 0.59312407395 -0.223108759858
480899000 0.593098696963 -0.222982849074
480909500 0.593395498208 -0.223493103054
480920000 0.59282732196 -0.2240480471
480930500 0.593399867786 -0.223508903312
480941000 0.593309537766 -0.223769764839
480951500 0.592711403445 -0.223587128673
480962000 0.592267556847 -0.223274522704
480972500 0.591698138668 -0.22281586067
480983000 0.591868784719 -0.223478749898
480993500 0.591533458182 -0.22316211649
481004000 0.591671129317 -0.222722411604
481014500 0.593111841639 -0.2241283075
481025000 0.593406002182 -0.223949931176
481035500 0.593476927879 -0.223831094007
481046000 0.592781729077 -0.223605180801
481056500 0.593383496948 -0.224075467814
481067000 0.59309993915 -0.223157285358
481077500 0.593604395611 -0.223961424644
481088000 0.594189874114 -0.223619508564
481098500 0.594091360128 -0.224203748908
481109000 0.593794078923 -0.22319444192
481119500 0.593400377947 -0.223484118481
481130000 0.593176004987 -0.223886349115
481140500 0.594948679373 -0.224278743596
481151000 0.593419963325 -0.223321255308
481161500 0.593204257903 -0.223004445361
481172000 0.593013133347 -0.223178558518
481182500 0.593086445016 -0.222731238598
481193000 0.592964133985 -0.223054926084
481203500 0.594945524453 -0.224085110973
481214000 0.593481036716 -0.223835141611
481224500 0.593844778862 -0.2236229851
481235000 0.595375673061 -0.22481617889
481245500 0.593720161158 -0.225654177443
481256000 0.592982444571 -0.225032829755
481266500 0.591172936536 -0.223516650411
481277000 0.594013334228 -0.223439431213
481287500 0.592962698365 -0.223622773257
481298000 0.592356329135 -0.223487527572
481308500 0.593149165118 -0.224177944451
481319000 0.593688281409 -0.224407031883
481329500 0.593653889274 -0.223791497551
481340000 0.592509924107 -0.22528791913
481350500 0.592710925058 -0.224451117076
481361000 0.594266120782 -0.223669677075
481371500 0.594430952298 -0.22392598922
481382000 0.594283614463 -0.223498863382
481392500 0.594660056501 -0.224042235123
481403000 0.594628444761 -0.224282545397
481413500 0.594942887973 -0.224284003563
481424000 0.594571328269 -0.224220142558
481434500 0.595060039961 -0.223696202287
481445000 0.594270782474 -0.223926321525
481455500 0.595025929471 -0.224310914232
481466000 0.595559171222 -0.225633920967
481476500 0.594413212284 -0.224212686451
481487000 0.595129914414 -0.224588518021
481497500 0.594267991824 -0.224053343571
481508000 0.594684206967 -0.225063201138
481518500 0.594310346829 -0.224020794991
481529000 0.595034430201 -0.22494072638
481539500 0.595247841879 -0.224380673329
481550000 0.595874362825 -0.224261446319
481560500 0.596710007045 -0.226433254478
481571000 0.598027989061 -0.225086313695
481581500 0.597722169698 -0.22474368535
481592000 0.598197346285 -0.226176049916
481602500 0.596983247924 -0.226124477734
481613000 0.597088966541 -0.224707374499
481623500 0.599189390444 -0.225772738273
481634000 0.59777069076 -0.227319390033
481644500 0.5989836702 -0.225931122706
481655000 0.596837458781 -0.226573795353
481665500 0.597125601236 -0.224290785406
481676000 0.596315546462 -0.22737807077
481686500 0.598460134816 -0.226266166757
481697000 0.595610554116 -0.227521084408
481707500 0.598360210539 -0.227306576757
481718000 0.596348238732 -0.227263683855
481728500 0.597158527122 -0.22722925541
481739000 0.595750918809 -0.226399861891
481749500 0.597005780365 -0.228744328883
481760000 0.597743582428 -0.226607155038
481770500 0.599303627448 -0.227401744602
481781000 0.599056301905 -0.228042450255
481791500 0.598561089297 -0.223076171939
481802000 0.597218481962 -0.225977499163
481812500 0.597449686831 -0.225212718885
481823000 0.59820551272 -0.225914108263
481833500 0.597885986854 -0.227852471852
481844000 0.598618479119 -0.226790274071
481854500 0.597917033989 -0.229415728851
481865000 0.597559075246 -0.22864717317
481875500 0.596589063983 -0.227454629883
481886000 0.597989426619 -0.227457706734
481896500 0.596230077926 -0.227044126035
481907000 0.596199192282 -0.228098206605
481917500 0.59792542591 -0.227616291374
481928000 0.596638107332 -0.227962334082
481938500 0.596293499004 -0.227853583907
481949000 0.597598478717 -0.228724533505
481959500 0.59890640447 -0.231231139574
481970000 0.597906996153 -0.231401498277
481980500 0.599036213474 -0.229538174949
481991000 0.597329278793 -0.230046068696
482001500 0.597516860476 -0.228703157809
482012000 0.598770460306 -0.228738020469
482022500 0.597520029353 -0.228154621114
482033000 0.597533157624 -0.228315039739
482043500 0.598444372417 -0.227444187391
482054000 0.600659743651 -0.227204486276
482064500 0.597920371639 -0.227109807875
482075000 0.597381772276 -0.228823882033
482085500 0.594872595621 -0.226364703771
482096000 0.603027987879 -0.226599679587
482106500 0.59802983889 -0.229472250157
482117000 0.598223976659 -0.229709815321
482127500 0.599655347241 -0.22806159405
482138000 0.593737169396 -0.226803336241
482148500 0.592718275731 -0.225839086425
482159000 0.600102775124 -0.231479159973
482169500 0.599866305958 -0.227361566787
482180000 0.59457692074 -0.228785228277
482190500 0.597281393178 -0.230041119008
482201000 0.599468281213 -0.224227151318
482211500 0.596012411395 -0.232549824752
482222000 0.598001606373 -0.228478761349
482232500 0.597400984398 -0.224058157145
482243000 0.601766406611 -0.22613359302
482253500 0.596238539543 -0.229738891775
482264000 0.597968648828 -0.225887044625
482274500 0.599527888914 -0.23615201314
482285000 0.602484140606 -0.234350432398
482295500 0.594062698236 -0.232304678846
482306000 0.600614963136 -0.218415955974
482316500 0.604673361112 -0.23490315636
482327000 0.598572111166 -0.217960402027
482337500 0.600573174968 -0.231630985338
482348000 0.59660561159 -0.231391201358
482358500 0.59320867473 -0.234762310795
482369000 0.590859574087 -0.221700128871
482379500 0.594954064218 -0.222775354942
482390000 0.593943022782 -0.225234589562
482400500 0.587122902387 -0.240102572088
482411000 0.599105721719 -0.232484217545
482421500 0.602686390087 -0.245961836491
482432000 0.615824908844 -0.228267184466
482442500 0.626911205346 -0.250514626838
482453000 0.576786235604 -0.239679690429
482463500 0.591103832648 -0.247684826067
482474000 0.597091353893 -0.21710545637
482484500 0.579369495769 -0.221202618377
482495000 0.600056076879 -0.219539718533
482505500 0.607135819072 -0.233217444921
482516000 0.59018954816 -0.240580382801
482526500 0.599485833071 -0.214251273606
482537000 0.575896540909 -0.210656080028
482547500 0.588597429508 -0.226388088429
482558000 0.601534019594 -0.244713415393
482568500 0.58071026273 -0.225873762942
482579000 0.592941797717 -0.239036279175
482589500 0.590026191718 -0.239001349161
482600000 0.600785300988 -0.244024958191
482610500 0.602228487919 -0.230749766674
482621000 0.586745601591 -0.213260437642
482631500 0.600684123284 -0.216711887816
482642000 0.590900250088 -0.21491135552
482652500 0.601242669017 -0.237193052936
482663000 0.594975279454 -0.233713858305
482673500 0.602230769328 -0.211788247761
482684000 0.610522922591 -0.223986274976
482694500 0.606400740317 -0.234426314027
482705000 0.601027893556 -0.224759118704
482715500 0.600358423087 -0.219764276378
482726000 0.592012489512 -0.229069014769
482736500 0.601063003612 -0.229901659019
482747000 0.596632090722 -0.215200251372
482757500 0.600997874432 -0.228149257556
482768000 0.604906537154 -0.239278462629
482778500 0.599174007247 -0.222993211077
482789000 0.594937087217 -0.225417049694
482799500 0.584390191752 -0.22086920769
482810000 0.595146664791 -0.228017977297
482820500 0.602448783263 -0.228860604098
482831000 0.593384012893 -0.224647824791
482841500 0.596176485028 -0.225034814321
482852000 0.601575809404 -0.226817833274
482862500 0.600661152238 -0.228942559974
482873000 0.602408505251 -0.222922546883
482883500 0.599743632591 -0.229365373936
482894000 0.604460298566 -0.228045728763
482904500 0.601790358824 -0.228852411802
482915000 0.600450588477 -0.229107118658
482925500 0.60089659016 -0.227660103223
482936000 0.599305510914 -0.227448000388
482946500 0.600045696979 -0.228987339594
482957000 0.5977409358 -0.23016355606
482967500 0.598403162633 -0.2290848108
482978000 0.600211437673 -0.228214329626
482988500 0.601568887741 -0.229196951201
482999000 0.601000772021 -0.231267276479
483009500 0.602043702444 -0.233240944049
483020000 0.601443923518 -0.230728728917
483030500 0.598099080125 -0.230082022619
483041000 0.603893729828 -0.231019183776
483051500 0.601658218216 -0.230893281308
483062000 0.600408394384 -0.228401735774
483072500 0.602379338686 -0.231382281753
483083000 0.600345443147 -0.231302971161
483093500 0.602908939643 -0.230993082605
483104000 0.601668229081 -0.23092985463
483114500 0.601684849986 -0.23065192565
483125000 0.603309930161 -0.232799236686
483135500 0.599785497258 -0.231891014637
483146000 0.602313739679 -0.229909852064
483156500 0.60358022146 -0.230294605206
483167000 0.600324905878 -0.231346828797
483177500 0.597769775806 -0.230055834171
483188000 0.598099050495 -0.231149608406
483198500 0.603890330223 -0.230202066516
483209000 0.59987500574 -0.230728345951
483219500 0.601220055387 -0.231092309814
483230000 0.602603185246 -0.231509710234
483240500 0.600632051263 -0.22996230922
483251000 0.59995747561 -0.231139383441
483261500 0.601849005146 -0.232790837729
483272000 0.599632104523 -0.233437758371
483282500 0.600158318194 -0.231970242299
483293000 0.599983899605 -0.23051165682
483303500 0.600605478928 -0.231033923827
483314000 0.600130313172 -0.229520735802
483324500 0.598160960957 -0.233263286158
483335000 0.599028380126 -0.230487454171
483345500 0.601794690856 -0.228280123986
483356000 0.59789558964 -0.230529931064
483366500 0.601801399601 -0.232548248291
483377000 0.601456270005 -0.230474801378
483387500 0.600654431026 -0.233208288068
483398000 0.600328725942 -0.228191217394
483408500 0.600472478427 -0.230020908784
483419000 0.599908386359 -0.230489787114
483429500 0.600250593245 -0.233669000036
483440000 0.600781360604 -0.230378851907
483450500 0.604403763124 -0.231605557131
483461000 0.601065790617 -0.23228026152
483471500 0.601342802575 -0.229840485699
483482000 0.599839376912 -0.230024921774
483492500 0.602262108223 -0.231918309778
483503000 0.602378771973 -0.231836178374
483513500 0.601733783721 -0.23243610607
483524000 0.599391678535 -0.234317675833
483534500 0.602800313757 -0.232944490902
483545000 0.600874342878 -0.232307249908
483555500 0.60123750263 -0.23274861482
483566000 0.601479285009 -0.231482131706
483576500 0.601080224187 -0.233451258335
483587000 0.600601600337 -0.232257453576
483597500 0.600943936743 -0.232395143246
483608000 0.600878983843 -0.231957421743
483618500 0.600795795319 -0.23241699694
483629000 0.600459011368 -0.232524360841
483639500 0.601351763554 -0.23271314589
483650000 0.602209758462 -0.232480487255
483660500 0.601305297066 -0.227160873423
483671000 0.601568310881 -0.226548931434
483681500 0.60127368625 -0.226439537311
483692000 0.601119728767 -0.226818289171
483702500 0.60075710721 -0.226249353357
483713000 0.601425289394 -0.226734971654
483723500 0.600655053552 -0.226677426593
483734000 0.601373650968 -0.226718714433
483744500 0.601302681132 -0.227320247584
483755000 0.600605216539 -0.227067041812
483765500 0.60099454733 -0.227156519056
483776000 0.600615662044 -0.226979584461
483786500 0.601765924714 -0.227376126097
483797000 0.602143193462 -0.226875685007
483807500 0.602558986105 -0.227227924946
483818000 0.602134576043 -0.227053271241
483828500 0.601907125172 -0.22736455379
483839000 0.602752107812 -0.226623107413
483849500 0.602201270163 -0.226236666934
483860000 0.603137950075 -0.226532705495
483870500 0.603455128734 -0.226708258429
483881000 0.603534257897 -0.22745558555
483891500 0.602013995784 -0.226642868936
483902000 0.602602586795 -0.226249040342
483912500 0.601954100389 -0.226836175404
483923000 0.601570758964 -0.226681926403
483933500 0.601933811931 -0.22686769685
483944000 0.601935776077 -0.227313004875
483954500 0.603403162103 -0.228170658467
483965000 0.603098772928 -0.228023946397
483975500 0.602327967115 -0.226965573184
483986000 0.602878690673 -0.227973257975
483996500 0.602882626081 -0.227179544932
484007000 0.602774659211 -0.227596728472
484017500 0.601963804539 -0.227700595044
484028000 0.603802743966 -0.226380314125
484038500 0.602677529432 -0.226647527648
484049000 0.602818282694 -0.226848647521
484059500 0.602874122365 -0.227122709458
484070000 0.603016333011 -0.227122707833
484080500 0.603705439745 -0.227646766034
484091000 0.603675319931 -0.227165095328
484101500 0.60405905365 -0.226933097684
484112000 0.603534552631 -0.226876359931
484122500 0.603022584519 -0.227230073886
484133000 0.603563534866 -0.227130734512
484143500 0.603703084406 -0.226215869605
484154000 0.604402245926 -0.226710753746
484164500 0.604250313461 -0.226720646145
484175000 0.604346117266 -0.227667502472
484185500 0.604038222988 -0.228097283146
484196000 0.6045033639 -0.227412325676
484206500 0.604774427501 -0.227687524695
484217000 0.604469702126 -0.226922532632
484227500 0.604971712717 -0.227387189361
484238000 0.605143856097 -0.227138788762
484248500 0.605193314367 -0.227633181511
484259000 0.604997386625 -0.227316447571
484269500 0.604132071748 -0.227100156228
484280000 0.604442934744 -0.227482378794
484290500 0.605444247101 -0.227465019252
484301000 0.60510472612 -0.2272997738
484311500 0.605028954096 -0.22789178017
484322000 0.606010683287 -0.228284408684
484332500 0.604813542646 -0.228532280188
484343000 0.606772388605 -0.228247419681
484353500 0.606199904993 -0.227825883908
484364000 0.605258915615 -0.227145249693
484374500 0.605490983164 -0.227591387261
484385000 0.605476445354 -0.228443558777
484395500 0.60598234801 -0.228079512852
484406000 0.605762090436 -0.228134909765
484416500 0.605644793749 -0.228201469699
484427000 0.605758068027 -0.226953229186
484437500 0.605480059069 -0.228771305459
484448000 0.605462259473 -0.227520936107
484458500 0.605872205204 -0.227062100066
484469000 0.605070770103 -0.228061979189
484479500 0.606111505089 -0.227993261916
484490000 0.606313580647 -0.227542615873
484500500 0.607084657795 -0.227761824182
484511000 0.606572655273 -0.227920869555
484521500 0.606034280236 -0.227869475537
484532000 0.60629697002 -0.228587760542
484542500 0.605846177006 -0.228523600687
484553000 0.606364984946 -0.228408339127
484563500 0.606186012557 -0.228947049277
484574000 0.605936801178 -0.228841945752
484584500 0.605638698795 -0.228693984865
484595000 0.605836325062 -0.228884103964
484605500 0.60591083043 -0.229324201045
484616000 0.606146679589 -0.228828619323
484626500 0.606563706223 -0.229580201984
484637000 0.606331229816 -0.228854684132
484647500 0.606898714482 -0.229256287253
484658000 0.606790580996 -0.228886353018
484668500 0.606755563258 -0.22868498206
484679000 0.607289317162 -0.228471468502
484689500 0.607176510216 -0.228767401861
484700000 0.607328473951 -0.228636993963
484710500 0.604710155532 -0.229717628143
484721000 0.604767491087 -0.229864294417
484731500 0.604523763555 -0.229633946961
484742000 0.604908219734 -0.230168207862
484752500 0.604232837108 -0.229443459059
484763000 0.604316431599 -0.230110645254
484773500 0.603913739465 -0.23004582474
484784000 0.604395703545 -0.229675813553
484794500 0.604611937721 -0.230044067651
484805000 0.604605420705 -0.229781351327
484815500 0.604407814464 -0.229465929367
484826000 0.605026351535 -0.230033521721
484836500 0.604432033139 -0.229665371607
484847000 0.605446150358 -0.229811718806
484857500 0.603897399268 -0.229836676628
484868000 0.603699398206 -0.230335269695
484878500 0.604155088238 -0.230220393831
484889000 0.603619353064 -0.230464171948
484899500 0.604247087027 -0.230127148605
484910000 0.604369264949 -0.230173542012
484920500 0.604674687413 -0.229981415855
484931000 0.604169005212 -0.230122075785
484941500 0.604738697259 -0.230058442753
484952000 0.604343754381 -0.230185820353
484962500 0.60479712914 -0.229908861993
484973000 0.604051706727 -0.229845574566
484983500 0.604599564155 -0.229436793571
484994000 0.604373270777 -0.22915458328
485004500 0.604031067299 -0.23028806398
485015000 0.604090605136 -0.230252508659
485025500 0.604319761145 -0.230251057245
485036000 0.604373855005 -0.230676107778
485046500 0.605070484425 -0.230635026875
485057000 0.604856729469 -0.230999039114
485067500 0.605088846019 -0.230666814164
485078000 0.605001768901 -0.231115271532
485088500 0.60499520281 -0.231053159101
485099000 0.603595521081 -0.231237538837
485109500 0.603987199459 -0.231318540833
485120000 0.605303311444 -0.231419602289
485130500 0.605337427434 -0.231829830284
485141000 0.605185945119 -0.23115443728
485151500 0.604523527137 -0.231035102442
485162000 0.604881580326 -0.230927522458
485172500 0.604793466759 -0.231433351054
485183000 0.605334889889 -0.231387332866
485193500 0.60471242599 -0.231265121185
485204000 0.604589233343 -0.230561604297
485214500 0.605474963965 -0.230539942494
485225000 0.605043745258 -0.231255110077
485235500 0.605216715225 -0.231505586462
485246000 0.605232270227 -0.231754257432
485256500 0.605429062199 -0.231767274065
485267000 0.60554751992 -0.231405802258
485277500 0.605261921662 -0.232031462218
485288000 0.605222574967 -0.232180860135
485298500 0.606153218493 -0.232609186612
485309000 0.606152547157 -0.232273540329
485319500 0.605509281303 -0.232626828819
485330000 0.605931161426 -0.232738480208
485340500 0.605815423138 -0.232119762871
485351000 0.605549181835 -0.232228499725
485361500 0.604858159098 -0.232482470101
485372000 0.60527749015 -0.231876020122
485382500 0.605760634538 -0.23236750761
485393000 0.605303807699 -0.23149209391
485403500 0.605503052086 -0.23179727996
485414000 0.605822254397 -0.231964079175
485424500 0.604804634469 -0.232025449937
485435000 0.605068098438 -0.232478556541
485445500 0.604963891327 -0.234139179835
485456000 0.606519871912 -0.234531862038
485466500 0.609475667443 -0.231934183398
485477000 0.606534859834 -0.234776860466
485487500 0.606369180875 -0.231658088033
485498000 0.606533808419 -0.231211870657
485508500 0.602221698119 -0.232387710783
485519000 0.605166882857 -0.23064622127
485529500 0.608425507714 -0.232513187291
485540000 0.605067056717 -0.230421963224
485550500 0.607308812448 -0.230091646024
485561000 0.60198767117 -0.229914239085
485571500 0.606344044678 -0.231919254632
485582000 0.604884316811 -0.232075643414
485592500 0.604877793883 -0.236568026143
485603000 0.609307374457 -0.237696558307
485613500 0.606564826539 -0.23665682767
485624000 0.604774729434 -0.226622170027
485634500 0.611059070281 -0.232093594804
485645000 0.615817080119 -0.228031650259
485655500 0.606603308301 -0.234176411143
485666000 0.61431377159 -0.235302742068
485676500 0.607838876109 -0.234885694448
485687000 0.605251450185 -0.229377663546
485697500 0.609258511107 -0.233772057148
485708000 0.610167544447 -0.22878646839
485718500 0.60563991586 -0.232504496197
485729000 0.60662915723 -0.231304492193
485739500 0.607913695072 -0.234349055162
485750000 0.606862945738 -0.233192621262
485760500 0.607609741935 -0.232794205853
485771000 0.60713581428 -0.231435548203
485781500 0.611774542838 -0.229560792249
485792000 0.61011882811 -0.229587925965
485802500 0.611464043429 -0.235028645907
485813000 0.613961668941 -0.233972802405
485823500 0.610774823662 -0.230989356519
485834000 0.614345504445 -0.235774700612
485844500 0.613486395204 -0.231904581427
485855000 0.618621090645 -0.233022018374
485865500 0.611763755258 -0.232021208383
485876000 0.610130454599 -0.234390493224
485886500 0.615107469962 -0.230515303904
485897000 0.613185902991 -0.230461543788
485907500 0.610924796872 -0.230149948056
485918000 0.612192918045 -0.230106027308
485928500 0.610388647371 -0.230581053347
485939000 0.612498221888 -0.227546416312
485949500 0.611698315281 -0.23133229977
485960000 0.612107379914 -0.231772804746
485970500 0.613517640624 -0.232931625168
485981000 0.611313564243 -0.232146623284
485991500 0.611818488545 -0.231466283397
486002000 0.61090898013 -0.23048120339
486012500 0.610700380903 -0.229462413337
486023000 0.612366265613 -0.232261275762
486033500 0.612205803199 -0.233062336784
486044000 0.60831758795 -0.231227559111
486054500 0.613230972295 -0.230793631134
486065000 0.61289619411 -0.231849607579
486075500 0.611526617414 -0.231017209967
486086000 0.612389831759 -0.230204990939
486096500 0.612561685839 -0.229095863
486107000 0.612361865051 -0.230121050597
486117500 0.613273707144 -0.221839164717
486128000 0.611663767629 -0.23105105615
486138500 0.612950409048 -0.220006000715
486149000 0.606346831094 -0.231536770045
486159500 0.612624184859 -0.230467116358
486170000 0.611007577301 -0.23046065232
486180500 0.620320570489 -0.238370857267
486191000 0.595598524989 -0.248334096266
486201500 0.611795544503 -0.231538363948
486212000 0.616831612309 -0.23005804233
486222500 0.612127155889 -0.2303448278
486233000 0.61262531045 -0.226700600602
486243500 0.59981725333 -0.221920078544
486254000 0.622112584042 -0.228360733915
486264500 0.607434922774 -0.227427412472
486275000 0.611575282846 -0.244054737753
486285500 0.615748224238 -0.231061785539
486296000 0.623574503717 -0.221292266582
486306500 0.63823336799 -0.22734294683
486317000 0.613216753726 -0.232460859652
486327500 0.615633329506 -0.199581272271
486338000 0.61474003586 -0.231894100615
486348500 0.614530387913 -0.232762628437
486359000 0.610812005125 -0.237894435957
486369500 0.574489314254 -0.246789225429
486380000 0.618221217511 -0.234960994544
486390500 0.609577431197 -0.247127547184
486401000 0.634475100367 -0.23135476685
486411500 0.622182691404 -0.243410521945
486422000 0.590766414008 -0.217802645138
486432500 0.60680104485 -0.25018188326
486443000 0.62449957051 -0.269936203229
486453500 0.602117070575 -0.19301745584
486464000 0.690497251003 -0.216051215379
486474500 0.583552306774 -0.243252731224
486485000 0.61119997203 -0.245701386821
486495500 0.601131298502 -0.189529123198
486506000 0.593536698145 -0.222846809951
486516500 0.626548516192 -0.22070284084
486527000 0.610061497805 -0.254450359527
486537500 0.591126024866 -0.204936272953
486548000 0.605261446307 -0.209084472637
486558500 0.606371584224 -0.236825556454
486569000 0.63303359767 -0.24405321677
486579500 0.575327526685 -0.22869036595
486590000 0.629348323164 -0.224409529221
486600500 0.606069149952 -0.226708136956
486611000 0.61588950308 -0.225228404836
486621500 0.620712664718 -0.203710020681
486632000 0.597357784283 -0.215649828608
486642500 0.619786669914 -0.195060801909
486653000 0.590437184048 -0.236366623534
486663500 0.636884661248 -0.223712131478
486674000 0.593522194455 -0.222711367776
486684500 0.625048582692 -0.213384181518
486695000 0.610864463467 -0.224503661949
486705500 0.612660257297 -0.23093350379
486716000 0.622097827356 -0.23895756298
486726500 0.605767883708 -0.216735391931
486737000 0.585805599762 -0.228900253377
486747500 0.609956848948 -0.231220985177
486758000 0.60545522093 -0.22685997388
486768500 0.620321742087 -0.228633452989
486779000 0.609891829985 -0.244115426069
486789500 0.618707939938 -0.232202479948
486800000 0.603565152288 -0.216452353034
486810500 0.600788602035 -0.222294787233
486821000 0.614365433474 -0.216442043916
486831500 0.60892801835 -0.226292453496
486842000 0.611916954603 -0.230752389016
486852500 0.607297747086 -0.221519297523
486863000 0.610143303205 -0.235421657746
486873500 0.609363696583 -0.226921262876
486884000 0.608040105076 -0.227046227376
486894500 0.60728853558 -0.217925514857
486905000 0.604783872974 -0.236812780711
486915500 0.608559987091 -0.226968840859
486926000 0.611331727759 -0.233143764842
486936500 0.612969537142 -0.226617473293
486947000 0.608067746542 -0.227303885868
486957500 0.609556751817 -0.226903292244
486968000 0.610439169962 -0.228219720358
486978500 0.609884901434 -0.225602203402
486989000 0.609321926667 -0.226155916961
486999500 0.608806676486 -0.227208872545
487010000 0.610106097449 -0.228342539805
487020500 0.609444871439 -0.227279749356
487031000 0.609001759945 -0.227359594873
487041500 0.610145478682 -0.226838835657
487052000 0.60978702979 -0.228323810163
487062500 0.610694353761 -0.226303326333
487073000 0.609377395651 -0.228219685144
487083500 0.610464931314 -0.230194507011
487094000 0.61143042556 -0.225068904701
487104500 0.609348228246 -0.23001425279
487115000 0.610283464279 -0.226438226153
487125500 0.60886826061 -0.22739910007
487136000 0.608542181589 -0.225013869832
487146500 0.611548201105 -0.226985084541
487157000 0.609904043366 -0.226309400872
487167500 0.608503142982 -0.227165576884
487178000 0.613850040562 -0.231784947325
487188500 0.609566148237 -0.228921313108
487199000 0.611314774112 -0.224256058766
487209500 0.608877860701 -0.227383818631
487220000 0.613019104756 -0.2288488907
487230500 0.609171604187 -0.227697310283
487241000 0.61519451614 -0.230342009782
487251500 0.609998417322 -0.230010005851
487262000 0.61205351175 -0.233296333587
487272500 0.611150179377 -0.232720531588
487283000 0.614220423299 -0.227925807302
487293500 0.612753972261 -0.225456797683
487304000 0.616383400072 -0.229085518979
487314500 0.607863570016 -0.229439580635
487325000 0.614859547489 -0.226664546291
487335500 0.615399157125 -0.223537729156
487346000 0.616026326519 -0.22531426316
487356500 0.615906778053 -0.227992079812
487367000 0.611250323085 -0.232895412126
487377500 0.613498598275 -0.22607751819
487388000 0.612273396653 -0.231644821702
487398500 0.612733526448 -0.228694508569
487409000 0.615793107715 -0.228238577053
487419500 0.615850539918 -0.233320052951
487430000 0.614927045846 -0.229441980975
487440500 0.615246543401 -0.228511779438
487451000 0.612459992383 -0.225732294462
487461500 0.610823224488 -0.231257157653
487472000 0.612744325721 -0.227841780147
487482500 0.611063713487 -0.230650063229
487493000 0.607576737054 -0.260427589915
487503500 0.611083580795 -0.233050454513
487514000 0.611172368442 -0.229376912118
487524500 0.60903761354 -0.229552498149
487535000 0.612712795078 -0.226163340233
487545500 0.613807260783 -0.228877977838
487556000 0.614130480379 -0.229201524069
487566500 0.613955480857 -0.228484068724
487577000 0.614501437354 -0.229180986974
487587500 0.615216304977 -0.229748874524
487598000 0.61487513195 -0.230178856128
487608500 0.61504323709 -0.22954670264
487619000 0.614933996847 -0.229482165762
487629500 0.615091800002 -0.229192809176
487640000 0.614685950617 -0.229157082956
487650500 0.615639829588 -0.230321615783
487661000 0.615415693387 -0.22961360048
487671500 0.615015749842 -0.22941400524
487682000 0.616235937278 -0.230605836745
487692500 0.615874808455 -0.230525810252
487703000 0.616832944572 -0.229935269295
487713500 0.616587211923 -0.230723922724
487724000 0.616446691085 -0.229831041148
487734500 0.616003401263 -0.230234223555
487745000 0.61662221363 -0.229786566352
487755500 0.617051196894 -0.230485670708
487766000 0.617047758928 -0.231001762742
487776500 0.616851367548 -0.230575452639
487787000 0.616292759749 -0.230661050777
487797500 0.617154685408 -0.230933415676
487808000 0.617385481826 -0.230786972678
487818500 0.616690153687 -0.230986035333
487829000 0.616918269533 -0.231242190275
487839500 0.617107286264 -0.231141668479
487850000 0.616980728257 -0.231928533964
487860500 0.618676288418 -0.234512008832
487871000 0.617710493806 -0.23432833763
487881500 0.61886526863 -0.233915049778
487892000 0.618465485081 -0.233386034047
487902500 0.618837351293 -0.23343170354
487913000 0.618710478718 -0.233559437486
487923500 0.618636656462 -0.233202728144
487934000 0.619330818157 -0.233866132125
487944500 0.620308494754 -0.23343790128
487955000 0.618930859075 -0.234720451152
487965500 0.618609563517 -0.23436719145
487976000 0.618523398597 -0.233786816031
487986500 0.619237028589 -0.233661878403
487997000 0.618875269723 -0.233199063036
488007500 0.619371651586 -0.233457824223
488018000 0.619286961254 -0.235005547194
488028500 0.619683299989 -0.233313855865
488039000 0.618513535008 -0.234601418217
488049500 0.619622445629 -0.234157109856
488060000 0.619365376786 -0.234742957097
488070500 0.62005221651 -0.234150811486
488081000 0.62003542558 -0.234041194501
488091500 0.619905661789 -0.235204490858
488102000 0.620477873325 -0.235340026406
488112500 0.620234373035 -0.234605984165
488123000 0.620022348182 -0.234260046402
488133500 0.620396332575 -0.234550774738
488144000 0.619903741251 -0.234218597893
488154500 0.620423332087 -0.233749344775
488165000 0.61991643147 -0.234260078362
488175500 0.620262837472 -0.233729325154
488186000 0.619780566123 -0.233212901008
488196500 0.620191603229 -0.233455517464
488207000 0.62007634871 -0.234104800899
488217500 0.619776935311 -0.233964920823
488228000 0.620960709631 -0.234384693235
488238500 0.620827216904 -0.23472320043
488249000 0.620236124401 -0.234692520491
488259500 0.620651686689 -0.23413982395
488270000 0.62035146336 -0.2345666284
488280500 0.620040631655 -0.234051731057
488291000 0.620121423343 -0.233357418402
488301500 0.620749191693 -0.233581897627
488312000 0.621024862926 -0.233486805041
488322500 0.621339604651 -0.234896159319
488333000 0.621674845331 -0.234610655444
488343500 0.621172283552 -0.234273190876
488354000 0.621059341348 -0.234288413994
488364500 0.621455371308 -0.234756605956
488375000 0.621006038546 -0.234265316067
488385500 0.621571665301 -0.234948233846
488396000 0.621402331533 -0.23438745892
488406500 0.620884373616 -0.234093244721
488417000 0.621332865583 -0.233785684861
488427500 0.621511341268 -0.234849354647
488438000 0.621703802996 -0.233546328404
488448500 0.621612244684 -0.234568399874
488459000 0.621488197248 -0.23413497659
488469500 0.621443492843 -0.234722011086
488480000 0.620955972665 -0.234926419629
488490500 0.620837878586 -0.234807049701
488501000 0.621322674894 -0.234670721005
488511500 0.621458339852 -0.234824941552
488522000 0.621155979792 -0.235267597586
488532500 0.621941570112 -0.234942527697
488543000 0.621771729403 -0.23542101792
488553500 0.623009619919 -0.235049370088
488564000 0.622087658368 -0.235363547311
488574500 0.622328662633 -0.235118904157
488585000 0.622452549683 -0.235872609218
488595500 0.622553702704 -0.235098167505
488606000 0.622857436235 -0.235478164221
488616500 0.622427806452 -0.235284708741
488627000 0.62332369226 -0.234937846635
488637500 0.623062183008 -0.235240125476
488648000 0.623817249453 -0.235606440503
488658500 0.623642268455 -0.234746311089
488669000 0.623851595887 -0.23531307632
488679500 0.624036107549 -0.234695775346
488690000 0.624395976637 -0.234263417647
488700500 0.623369347907 -0.235177987758
488711000 0.623878094149 -0.235570951466
488721500 0.624104782832 -0.235712055635
488732000 0.623782781427 -0.235650424704
488742500 0.623699074168 -0.235348459188
488753000 0.623627469447 -0.235356893361
488763500 0.624262891514 -0.234754560231
488774000 0.624305459422 -0.235348731513
488784500 0.624172790615 -0.235120942086
488795000 0.623364660146 -0.235861460061
488805500 0.6248366149 -0.235958129463
488816000 0.62473398362 -0.23523102313
488826500 0.624439334468 -0.235235648642
488837000 0.624582291299 -0.234827056736
488847500 0.624934357202 -0.235589808617
488858000 0.625063771244 -0.235028244239
488868500 0.624391995633 -0.235749364609
488879000 0.624540855545 -0.235506210306
488889500 0.624933312173 -0.235798207676
488900000 0.625291795162 -0.235492622971
488910500 0.624083181778 -0.235016391921
488921000 0.624584219763 -0.235083311223
488931500 0.624132569023 -0.235355942808
488942000 0.624433180037 -0.235603369876
488952500 0.627004894421 -0.236670079621
488963000 0.624703039772 -0.23573241505
488973500 0.625003173121 -0.235479237135
488984000 0.62496087739 -0.236155123192
488994500 0.625125981714 -0.236063407126
489005000 0.625443626627 -0.236464227715
489015500 0.62493611257 -0.236426567238
489026000 0.625368275824 -0.23659549537
489036500 0.625582272144 -0.236875436491
489047000 0.625625860059 -0.236849822772
489057500 0.62541013039 -0.236743318971
489068000 0.62579279441 -0.237251748393
489078500 0.625981338679 -0.237197534824
489089000 0.625747520959 -0.236572239839
489099500 0.625890277595 -0.237122588315
489110000 0.625804872799 -0.237146165754
489120500 0.625874359792 -0.236607189055
489131000 0.625413924855 -0.237788667085
489141500 0.625645147165 -0.237499615259
489152000 0.625272930841 -0.237798212835
489162500 0.625815133394 -0.236981546994
489173000 0.625513433974 -0.237072779087
489183500 0.62590182155 -0.237207891554
489194000 0.625809373505 -0.237134978175
489204500 0.626135370032 -0.237996352931
489215000 0.626033477426 -0.238100562218
489225500 0.625939068986 -0.23761944726
489236000 0.62502023063 -0.237684252953
489246500 0.62595290365 -0.237948160323
489257000 0.625221235816 -0.237525005707
489267500 0.625712953008 -0.237478935036
489278000 0.625945462156 -0.236581016215
489288500 0.626359338084 -0.237718972607
489299000 0.626452883679 -0.237697995755
489309500 0.625702900943 -0.237020474479
489320000 0.626129194607 -0.236200000133
489330500 0.625880982734 -0.236885492789
489341000 0.626210626402 -0.236919865489
489351500 0.625169421034 -0.236800340465
489362000 0.625339391063 -0.237230464949
489372500 0.626192394844 -0.236129149435
489383000 0.625410024329 -0.237596834131
489393500 0.6251704912 -0.237718557846
489404000 0.626098192497 -0.237603273655
489414500 0.625839281258 -0.236971099243
489425000 0.625851182152 -0.238053641617
489435500 0.625437744231 -0.237510655399
489446000 0.62645878587 -0.240018328296
489456500 0.626952097955 -0.235011124254
489467000 0.626083678987 -0.238405190437
489477500 0.626855571007 -0.236695746939
489488000 0.626960734821 -0.236166681221
489498500 0.625696149724 -0.23650525883
489509000 0.62557115195 -0.238135928029
489519500 0.62638733407 -0.239004993734
489530000 0.625534572346 -0.237249215258
489540500 0.626463726767 -0.237511177
489551000 0.625321251907 -0.237601163192
489561500 0.62418812846 -0.237006096061
489572000 0.62819199359 -0.238223208426
489582500 0.627249247112 -0.237434641252
489593000 0.629063837689 -0.236879096987
489603500 0.628752846748 -0.236869535578
489614000 0.62631225835 -0.233692333967
489624500 0.625861540873 -0.237597285926
489635000 0.625733395474 -0.238596190637
489645500 0.627916435587 -0.23824427894
489656000 0.624778891524 -0.239160629175
489666500 0.627369943135 -0.237566505113
489677000 0.626345440248 -0.236380868678
489687500 0.627703590833 -0.236430856715
489698000 0.62666394565 -0.239834300379
489708500 0.62715683623 -0.23700190892
489719000 0.628421679891 -0.235986700115
489729500 0.62797370696 -0.240865802792
489740000 0.62937879041 -0.236667660455
489750500 0.626923285895 -0.237585024592
489761000 0.626219211403 -0.23915042983
489771500 0.633266614639 -0.239005169677
489782000 0.627487909277 -0.236813050886
489792500 0.62801613777 -0.23952482818
489803000 0.628375743118 -0.238627478282
489813500 0.627326428016 -0.240331926872
489824000 0.62887228679 -0.235768444718
489834500 0.627779008156 -0.237276116929
489845000 0.631796963101 -0.239241449186
489855500 0.62757197007 -0.240415573211
489866000 0.627254151603 -0.235728739328
489876500 0.625461490435 -0.235236453955
489887000 0.627899155529 -0.241113848685
489897500 0.628326776625 -0.236790720009
489908000 0.626930999392 -0.239081049461
489918500 0.626432092942 -0.236337314605
489929000 0.627094723836 -0.237774628532
489939500 0.629452821079 -0.234877792147
489950000 0.628845681529 -0.236496249781
489960500 0.628226976492 -0.234111208884
489971000 0.624749300519 -0.236671969217
489981500 0.626661402519 -0.236459777895
489992000 0.626731872178 -0.23678780327
490002500 0.626845488434 -0.236718297789
490013000 0.62715324589 -0.237015963818
490023500 0.626918697475 -0.237164498889
490034000 0.627654073274 -0.236785564948
490044500 0.627064994882 -0.236213074674
490055000 0.62657962038 -0.236621009997
490065500 0.626457637558 -0.236235812455
490076000 0.626481900088 -0.23646327517
490086500 0.626515565428 -0.236775991997
490097000 0.626829870125 -0.23673693565
490107500 0.626591117937 -0.237086822179
490118000 0.627059374772 -0.236688670379
490128500 0.627101973148 -0.236860126096
490139000 0.628792054368 -0.236193329008
490149500 0.6274570707 -0.23686754269
490160000 0.626860129018 -0.237701884748
490170500 0.627247145672 -0.237125686396
490181000 0.627682279614 -0.237038496769
490191500 0.6281466305 -0.236917196686
490202000 0.627854847918 -0.238452417941
490212500 0.627794570501 -0.238535840883
490223000 0.627800495813 -0.237230067239
490233500 0.627847621975 -0.236551355981
490244000 0.62787275621 -0.236741312028
490254500 0.629242539551 -0.238181138299
490265000 0.628167538781 -0.235336319113
490275500 0.628995873774 -0.240609342367
490286000 0.623369139114 -0.246063552602
490296500 0.64735069568 -0.242336015297
490307000 0.627728016574 -0.239405860275
490317500 0.628222495352 -0.237798564243
490328000 0.622747240025 -0.233746773882
490338500 0.627493757589 -0.236101826955
490349000 0.627559927694 -0.233978569809
490359500 0.630238783233 -0.236624922082
490370000 0.616157448695 -0.247025445546
490380500 0.625422881175 -0.238756814306
490391000 0.634756084283 -0.232525379501
490401500 0.632031833597 -0.235609660406
490412000 0.633224872599 -0.216030737988
490422500 0.650447773909 -0.245610059616
490433000 0.618365956848 -0.264812182941
490443500 0.624623033308 -0.239831195847
490454000 0.660463788698 -0.213466947027
490464500 0.611535546437 -0.221468854497
490475000 0.633278159668 -0.243489225791
490485500 0.62559074877 -0.236560015712
490496000 0.634857301529 -0.231761302346
490506500 0.641226450235 -0.236710326
490517000 0.628160844244 -0.251078019621
490527500 0.652141966007 -0.221735576711
490538000 0.620329869114 -0.25827817303
490548500 0.608928704132 -0.253559287664
490559000 0.628544090379 -0.25198126873
490569500 0.624732995374 -0.229974816186
490580000 0.639526982898 -0.232199635531
490590500 0.655245737182 -0.225124522397
490601000 0.633729950449 -0.27043965352
490611500 0.617426081399 -0.222555785831
490622000 0.629817933235 -0.245176875778
490632500 0.627905566384 -0.24379202573
490643000 0.631599649622 -0.242103191197
490653500 0.630234933659 -0.234814897773
490664000 0.619413483556 -0.239051006906
490674500 0.623428969231 -0.237204987723
490685000 0.629742604092 -0.240679358217
490695500 0.632009313556 -0.238154886584
490706000 0.63161032928 -0.235673345652
490716500 0.631562469661 -0.239381002775
490727000 0.633827135251 -0.237515539977
490737500 0.633822622429 -0.235781995952
490748000 0.635469916792 -0.237979147953
490758500 0.632191576176 -0.238220053162
490769000 0.629418772775 -0.239427928483
490779500 0.628978785566 -0.239478970642
490790000 0.631203741969 -0.237210358315
490800500 0.628708557908 -0.237150761069
490811000 0.627567344665 -0.239851911477
490821500 0.630140109749 -0.238653174428
490832000 0.630377686542 -0.239858782347
490842500 0.630726023225 -0.239992330635
490853000 0.631032117149 -0.239372260658
490863500 0.630055460323 -0.239520162619
490874000 0.631364340742 -0.23998587637
490884500 0.631395783238 -0.239386686094
490895000 0.631511263249 -0.238474117139
490905500 0.631519356377 -0.239594835299
490916000 0.631289178291 -0.240293254225
490926500 0.631157843934 -0.239848793786
490937000 0.631740605034 -0.239338412752
490947500 0.631560877785 -0.239420821292
490958000 0.631661991046 -0.239467269029
490968500 0.631149663537 -0.239527806102
490979000 0.630634446168 -0.239472833594
490989500 0.631886946554 -0.23833010816
491000000 0.631421248214 -0.239075983876
491010500 0.628260939437 -0.234471563641
491021000 0.630678969818 -0.234912025016
491031500 0.628912302816 -0.238225741553
491042000 0.630131606055 -0.235269652677
491052500 0.629757611312 -0.235808073608
491063000 0.627494315254 -0.236092516965
491073500 0.629580192322 -0.236638259749
491084000 0.629885609087 -0.235623762055
491094500 0.629473873963 -0.240123437111
491105000 0.625461323938 -0.234215244447
491115500 0.63057503145 -0.23760191377
491126000 0.628272893421 -0.236020333539
491136500 0.6268253418 -0.235792219573
491147000 0.628127105576 -0.236583162779
491157500 0.631272253807 -0.238193527221
491168000 0.628049419005 -0.235497263175
491178500 0.629531748121 -0.236519959574
491189000 0.629009740519 -0.236568644456
491199500 0.625943925312 -0.234458822831
491210000 0.629800691162 -0.237279328015
491220500 0.628714828318 -0.236081350236
491231000 0.628340699992 -0.235698892157
491241500 0.627259266555 -0.237483783412
491252000 0.628977723788 -0.235232209534
491262500 0.630207311734 -0.236670492817
491273000 0.629169601259 -0.235612070497
491283500 0.627988751828 -0.236104497761
491294000 0.630100430966 -0.238458145148
491304500 0.629065997265 -0.23791225501
491315000 0.629121202368 -0.234778709254
491325500 0.632284942958 -0.236355595207
491336000 0.629929302064 -0.238414195361
491346500 0.628926595211 -0.234771472092
491357000 0.627280904899 -0.236494897224
491367500 0.631259228763 -0.237195861541
491378000 0.632826597099 -0.23313168665
491388500 0.629276023142 -0.237845605575
491399000 0.628071833149 -0.234576216514
491409500 0.63054656823 -0.236940801035
491420000 0.629190130818 -0.236569167369
491430500 0.629933656391 -0.235297301857
491441000 0.629992369794 -0.234769944888
491451500 0.632377626459 -0.235150557552
491462000 0.62782959361 -0.236759560421
491472500 0.63052392787 -0.235842717005
491483000 0.629676680501 -0.237168016032
491493500 0.627269140946 -0.235825654096
491504000 0.627760046345 -0.235583452994
491514500 0.628277264559 -0.237554673099
491525000 0.628163401268 -0.237811767355
491535500 0.629035436871 -0.236604691402
491546000 0.630037542879 -0.236476883281
491556500 0.629190036988 -0.236631913747
491567000 0.628483237894 -0.236932874847
491577500 0.628248974197 -0.23624871915
491588000 0.628271679515 -0.236260649801
491598500 0.628588393252 -0.23614503396
491609000 0.628893615043 -0.236055689435
491619500 0.629345974936 -0.235790904887
491630000 0.629330464467 -0.235730094156
491640500 0.629391055038 -0.236121245432
491651000 0.629486238437 -0.236268706852
491661500 0.628659132034 -0.236211473848
491672000 0.629036521651 -0.23621468091
491682500 0.628884321052 -0.235866181591
491693000 0.629608322452 -0.236287219431
491703500 0.629252597381 -0.236143010189
491714000 0.628954998865 -0.237580341097
491724500 0.628923003518 -0.236209310313
491735000 0.628990152117 -0.235987781759
491745500 0.62954596829 -0.236694993778
491756000 0.62899928798 -0.23602067619
491766500 0.62840662486 -0.236106797821
491777000 0.628836567407 -0.237145051749
491787500 0.629466562805 -0.236311993868
491798000 0.628294495211 -0.235936944471
491808500 0.628918062557 -0.235640574221
491819000 0.628553594858 -0.235900250334
491829500 0.629337366462 -0.236710676371
491840000 0.628949827924 -0.235967215596
491850500 0.628758365375 -0.236036143562
491861000 0.628489330175 -0.23640955706
491871500 0.628654336755 -0.235711167506
491882000 0.628852617215 -0.235455315775
491892500 0.628575648647 -0.235941274638
491903000 0.628814162137 -0.236933585866
491913500 0.628153244896 -0.23670936381
491924000 0.628666468378 -0.236259910171
491934500 0.628834113273 -0.23668998886
491945000 0.629083424851 -0.23734863968
491955500 0.628971404111 -0.236537222214
491966000 0.62953342695 -0.236117101961
491976500 0.628962274106 -0.235845367401
491987000 0.629025626894 -0.236685388593
491997500 0.628801644104 -0.236910291543
492008000 0.62875630553 -0.236684363594
492018500 0.628711518308 -0.236255047302
492029000 0.628180636488 -0.237540441804
492039500 0.628777321522 -0.236637798606
492050000 0.62846422016 -0.236191018579
492060500 0.630026540354 -0.239191433353
492071000 0.630200035402 -0.239422301913
492081500 0.630722106356 -0.239498477769
492092000 0.63102182393 -0.239361580069
492102500 0.631083178162 -0.239663984922
492113000 0.631630699663 -0.239578756657
492123500 0.631557145017 -0.23950309263
492134000 0.632405622245 -0.237539518062
492144500 0.631621478661 -0.239861261265
492155000 0.631340651382 -0.23979669979
492165500 0.631303179556 -0.240526426114
492176000 0.631551127521 -0.240301999145
492186500 0.631547217056 -0.24014881032
492197000 0.632073810541 -0.240028002532
492207500 0.631411397616 -0.240424001083
492218000 0.631555361782 -0.240130296815
492228500 0.630946083585 -0.240680111849
492239000 0.630472980431 -0.240829746969
492249500 0.63105102912 -0.241132783292
492260000 0.63148441166 -0.241302625085
492270500 0.631430737546 -0.240745249758
492281000 0.631248890125 -0.240874548036
492291500 0.631240655188 -0.241162415493
492302000 0.632349145608 -0.240701503074
492312500 0.631702894211 -0.240799134744
492323000 0.632620583103 -0.240962335807
492333500 0.632287595055 -0.241497412279
492344000 0.632866510072 -0.241469684142
492354500 0.631957857828 -0.24163706323
492365000 0.632376371621 -0.241630802102
492375500 0.632051253659 -0.24215171659
492386000 0.632872950497 -0.241597046208
492396500 0.633050372335 -0.241367844261
492407000 0.633474831404 -0.241007817525
492417500 0.632462619752 -0.241862797104
492428000 0.632767748681 -0.241745260926
492438500 0.632507374773 -0.241994489267
492449000 0.632498617751 -0.241733148483
492459500 0.632213636099 -0.242296637661
492470000 0.63304796084 -0.242406510038
492480500 0.633151874745 -0.242275122843
492491000 0.632944396835 -0.242116041638
492501500 0.632698653714 -0.242495865716
492512000 0.632626750802 -0.242089277392
492522500 0.63274082155 -0.24107346045
492533000 0.632115046919 -0.240942574227
492543500 0.633229346979 -0.242298215818
492554000 0.632682750467 -0.242152635932
492564500 0.633522451306 -0.242344122765
492575000 0.633058456496 -0.242018149604
492585500 0.633849644933 -0.242370910836
492596000 0.634128449022 -0.241811884809
492606500 0.635474647335 -0.242565782595
492617000 0.632926205995 -0.243296385077
492627500 0.633998512465 -0.242747949827
492638000 0.634030628758 -0.242333615876
492648500 0.634024382685 -0.242614312894
492659000 0.633973855223 -0.242991939902
492669500 0.633398814587 -0.242784401182
492680000 0.632837914996 -0.243238591464
492690500 0.633211630593 -0.243231876106
492701000 0.633518907322 -0.243146943984
492711500 0.632792659446 -0.24310567856
492722000 0.634048854035 -0.242495598002
492732500 0.633910278714 -0.242537809508
492743000 0.634178783987 -0.241659593011
492753500 0.634434671898 -0.242001843123
492764000 0.634491833472 -0.242725934997
492774500 0.634557118804 -0.243192006636
492785000 0.634713249756 -0.243460290814
492795500 0.634587852868 -0.24326730841
492806000 0.634988797903 -0.244420505064
492816500 0.635071560268 -0.243633005593
492827000 0.635156933439 -0.24365901979
492837500 0.63554479749 -0.243065031314
492848000 0.63466772606 -0.243336622766
492858500 0.634216935414 -0.242941458893
492869000 0.634106413116 -0.242633469597
492879500 0.634291622451 -0.243219964528
492890000 0.635148444351 -0.243148395314
492900500 0.634351926491 -0.243757746517
492911000 0.634317327673 -0.24453118264
492921500 0.634247944206 -0.243761252258
492932000 0.634578694859 -0.243583980721
492942500 0.634536417038 -0.242728847373
492953000 0.633778615316 -0.242882259129
492963500 0.634192699257 -0.242943122175
492974000 0.634906993444 -0.24394602832
492984500 0.634804242901 -0.242968200445
492995000 0.634883891514 -0.24394788722
493005500 0.635597300145 -0.24422379552
493016000 0.634927102816 -0.244590700479
493026500 0.634455020416 -0.244097874415
493037000 0.634241409286 -0.244652860133
493047500 0.63494745278 -0.243978785398
493058000 0.634875877534 -0.244868809341
493068500 0.634283210293 -0.245207046636
493079000 0.636060533146 -0.243374806383
493089500 0.634898209969 -0.244566584301
493100000 0.635868896187 -0.24358416769
493110500 0.637576122983 -0.2464321069
493121000 0.63714485553 -0.246347445862
493131500 0.637929822431 -0.246493773146
493142000 0.637730934706 -0.24728658136
493152500 0.638109202566 -0.247511687511
493163000 0.638060857512 -0.246184674765
493173500 0.637048535281 -0.247140274084
493184000 0.638340632181 -0.246013087256
493194500 0.637687798411 -0.246458029858
493205000 0.637691547471 -0.246264763772
493215500 0.638427137091 -0.247159320451
493226000 0.637247459017 -0.245982658424
493236500 0.637003750662 -0.247820203814
493247000 0.637145675099 -0.247097901056
493257500 0.637379825066 -0.246975326863
493268000 0.638009450736 -0.246735146241
493278500 0.637343420641 -0.247131770073
493289000 0.637988584482 -0.246707315227
493299500 0.637769860361 -0.246340294954
493310000 0.638216770476 -0.247047099452
493320500 0.638813911491 -0.247571815935
493331000 0.63893722453 -0.247197787436
493341500 0.638448151115 -0.247020991927
493352000 0.638885330135 -0.247363801414
493362500 0.638066364293 -0.247583281877
493373000 0.638295488596 -0.247474835514
493383500 0.63834394345 -0.247672249966
493394000 0.638445062653 -0.247492066196
493404500 0.638517255817 -0.247574316859
493415000 0.639081794227 -0.247366898602
493425500 0.639333342705 -0.246850962253
493436000 0.637646644624 -0.248006499018
493446500 0.639608164088 -0.249002130768
493457000 0.637883151301 -0.247453511589
493467500 0.639585889641 -0.244222700192
493478000 0.64019332952 -0.245196512852
493488500 0.638990293398 -0.244512183826
493499000 0.639349103227 -0.250320550388
493509500 0.638885355588 -0.244396596464
493520000 0.641210931173 -0.249571381561
493530500 0.638667873018 -0.24469063523
493541000 0.63885314964 -0.246832080712
493551500 0.639375646584 -0.249040964489
493562000 0.639908541928 -0.246492688842
493572500 0.639704009203 -0.246189905042
493583000 0.640583615749 -0.249787070456
493593500 0.637995413923 -0.248196367798
493604000 0.641679633275 -0.247216607557
493614500 0.642289698883 -0.247842583847
493625000 0.644154114483 -0.249541586331
493635500 0.642004037185 -0.243679568362
493646000 0.638966219831 -0.249316517053
493656500 0.637703946739 -0.248842560327
493667000 0.636532914918 -0.24595449473
493677500 0.639097325438 -0.248512467844
493688000 0.63888093662 -0.253494963392
493698500 0.636055302511 -0.248056315383
493709000 0.638414071352 -0.238133055413
493719500 0.640077595119 -0.249470527027
493730000 0.638406730671 -0.249874366272
493740500 0.635173169246 -0.249474183028
493751000 0.646124817947 -0.250738463364
493761500 0.635169084797 -0.248007349463
493772000 0.636891685217 -0.251071428914
493782500 0.637511804542 -0.247428808023
493793000 0.637552791267 -0.247532796812
493803500 0.641104903219 -0.247475341111
493814000 0.637652304622 -0.249533348311
493824500 0.639642371889 -0.246040429948
493835000 0.642423419623 -0.247380782199
493845500 0.636032583331 -0.247919740613
493856000 0.64205376525 -0.249611798252
493866500 0.635674695404 -0.250782323473
493877000 0.641243174802 -0.245663581844
493887500 0.640353915324 -0.248874544782
493898000 0.641221326926 -0.250987479517
493908500 0.643446015281 -0.24924202617
493919000 0.637958536265 -0.248959370631
493929500 0.64157081599 -0.24806236111
493940000 0.641440970655 -0.24861555019
493950500 0.64167985549 -0.247805215289
493961000 0.638728137497 -0.247873746655
493971500 0.640875890217 -0.246559756022
493982000 0.640567291101 -0.246643349283
493992500 0.64018184934 -0.245861724616
494003000 0.641529760632 -0.24779083485
494013500 0.640886157668 -0.24717277852
494024000 0.639613437339 -0.247185249914
494034500 0.639811704462 -0.247748713583
494045000 0.64074863052 -0.249117358076
494055500 0.643992289921 -0.249390185988
494066000 0.642003072523 -0.249360405701
494076500 0.640688877602 -0.252132556648
494087000 0.645713925848 -0.245562243037
494097500 0.640961051816 -0.250854436906
494108000 0.64694440616 -0.243959455653
494118500 0.63515547531 -0.254354841566
494129000 0.63432365452 -0.244870853471
494139500 0.641561727416 -0.270139795244
494150000 0.641167177895 -0.246196315719
494160500 0.641565993686 -0.25089633025
494171000 0.643056354601 -0.252824633728
494181500 0.641552952612 -0.248629507036
494192000 0.640793653721 -0.246356043241
494202500 0.640729364191 -0.247692729235
494213000 0.640745746022 -0.245846018869
494223500 0.671507257059 -0.240394241311
494234000 0.641172340333 -0.249197935706
494244500 0.646033425315 -0.249710696287
494255000 0.647979795357 -0.245294109151
494265500 0.645798700841 -0.247424429898
494276000 0.636835156637 -0.251703818047
494286500 0.645695095566 -0.24741709155
494297000 0.640605888108 -0.250597079932
494307500 0.647792365132 -0.224611822026
494318000 0.637791192949 -0.248498146051
494328500 0.641281865822 -0.25769914298
494339000 0.673645659544 -0.222682710579
494349500 0.644626962813 -0.271197076602
494360000 0.633588900579 -0.243466150604
494370500 0.631393798659 -0.240852953441
494381000 0.641664817761 -0.258208107855
494391500 0.647939339779 -0.243492939224
494402000 0.635971848754 -0.259565453582
494412500 0.620477250963 -0.228281085194
494423000 0.642820148639 -0.270833895759
494433500 0.654277647305 -0.213086964854
494444000 0.64932272205 -0.241768148813
494454500 0.642259161095 -0.224701587224
494465000 0.60798923296 -0.280546359752
494475500 0.629902476079 -0.256100591225
494486000 0.627295014241 -0.24435309015
494496500 0.676774495142 -0.265061930876
494507000 0.636524079322 -0.258599428556
494517500 0.653014096123 -0.232323676998
494528000 0.629323791874 -0.236757874415
494538500 0.630355950326 -0.261370932703
494549000 0.645858227668 -0.221590206668
494559500 0.666025708659 -0.230235993599
494570000 0.638968632305 -0.25947803759
494580500 0.663156158126 -0.245313913169
494591000 0.639495988414 -0.235238761268
494601500 0.649105498555 -0.288627906296
494612000 0.646628894389 -0.25598818396
494622500 0.647495056395 -0.240655546869
494633000 0.637488578508 -0.250384359311
494643500 0.627161677572 -0.262994184618
494654000 0.614074007154 -0.279106424568
494664500 0.628122413512 -0.262899674802
494675000 0.625329698009 -0.237838811183
494685500 0.654240985349 -0.240922057336
494696000 0.629456000298 -0.248128002021
494706500 0.644196284952 -0.250877146632
494717000 0.630103581377 -0.249575180853
494727500 0.63359109077 -0.242801728807
494738000 0.64556007875 -0.250340994243
494748500 0.63847180587 -0.253929207504
494759000 0.650110269843 -0.248252305417
494769500 0.643435582088 -0.249102932799
494780000 0.636419736411 -0.241682956899
494790500 0.645255225108 -0.252401540574
494801000 0.641344350992 -0.251077398364
494811500 0.647319534027 -0.25393647375
494822000 0.644691366296 -0.247651281983
494832500 0.642945356268 -0.249285628186
494843000 0.646336126969 -0.249941801934
494853500 0.644473315924 -0.250109635335
494864000 0.646896601246 -0.246771419731
494874500 0.646225722549 -0.251737737367
494885000 0.634966151602 -0.24532884295
494895500 0.646644235882 -0.245469444905
494906000 0.641802817828 -0.246293388689
494916500 0.644833466704 -0.249111960306
494927000 0.646023222535 -0.250399443033
494937500 0.645020450893 -0.249508096565
494948000 0.646342641703 -0.249047841165
494958500 0.646290531942 -0.25028478922
494969000 0.645808782609 -0.249676228655
494979500 0.644841898384 -0.250817775166
494990000 0.645949914258 -0.250108218829
495000500 0.644686519792 -0.250428124595
495011000 0.644963153224 -0.249800987281
495021500 0.646563661502 -0.251361355048
495032000 0.646384951775 -0.249655479963
495042500 0.6460534788 -0.246331615719
495053000 0.647276481773 -0.250759969322
495063500 0.644863621051 -0.250638352167
495074000 0.647663272673 -0.248023091216
495084500 0.647124665216 -0.249487995902
495095000 0.646188024677 -0.251059136415
495105500 0.645583798808 -0.250976125711
495116000 0.646710891457 -0.250458032847
495126500 0.643733509518 -0.248685620847
495137000 0.647323246537 -0.24998547421
495147500 0.649391403204 -0.250678725276
495158000 0.644483069886 -0.249894182478
495168500 0.646370041718 -0.250459364216
495179000 0.644947510801 -0.251508667985
495189500 0.642661523077 -0.247117253886
495200000 0.646622554778 -0.250360810673
495210500 0.645173697865 -0.252238882521
495221000 0.641919083789 -0.258366440757
495231500 0.646205949842 -0.256277962849
495242000 0.648095150748 -0.252131255488
495252500 0.646979055142 -0.253701195082
495263000 0.64938687519 -0.256545726679
495273500 0.649172923078 -0.252051449806
495284000 0.649365219776 -0.256101188519
495294500 0.642779537875 -0.255303947337
495305000 0.646968198177 -0.252759680203
495315500 0.646020219812 -0.253605498763
495326000 0.648609447373 -0.258944192532
495336500 0.647725359817 -0.253746934449
495347000 0.646920106182 -0.256132818022
495357500 0.646880739977 -0.255461915958
495368000 0.64663714854 -0.257280733254
495378500 0.644713978767 -0.254973083447
495389000 0.648415652559 -0.257019901705
495399500 0.645704336947 -0.252763829005
495410000 0.643297274411 -0.258208470901
495420500 0.641973941081 -0.254390760093
495431000 0.6473467195 -0.251843764241
495441500 0.643571119709 -0.253141119489
495452000 0.644668292305 -0.253229613512
495462500 0.645734437117 -0.255468340073
495473000 0.645150098572 -0.255341135837
495483500 0.647781299013 -0.2526098976
495494000 0.645375912908 -0.25399841281
495504500 0.644647379174 -0.252078937422
495515000 0.648677829773 -0.25499430583
495525500 0.645011485012 -0.254800271566
495536000 0.646685816068 -0.257704818496
495546500 0.645774312073 -0.255718080007
495557000 0.646224345696 -0.254791211143
495567500 0.646813495102 -0.254984078587
495578000 0.646235208253 -0.255601773606
495588500 0.646055615605 -0.25544272208
495599000 0.646587107275 -0.255469598111
495609500 0.64671346808 -0.255115537024
495620000 0.646886689666 -0.25626888104
495630500 0.647088075313 -0.254960524619
495641000 0.646999863959 -0.255982191685
495651500 0.646837402929 -0.255338718957
495662000 0.647082005392 -0.25588845815
495672500 0.646936660821 -0.256371768528
495683000 0.64652049647 -0.255788615652
495693500 0.646629859732 -0.256156277
495704000 0.646762351449 -0.256451059588
495714500 0.647307710047 -0.256326200842
495725000 0.647411346549 -0.256386131587
495735500 0.647860377941 -0.255900395721
495746000 0.647010989162 -0.256012037587
495756500 0.64694952549 -0.256793057095
495767000 0.647356241575 -0.256946829538
495777500 0.647616140223 -0.256150427384
495788000 0.647527793877 -0.256145741684
495798500 0.64738417213 -0.256241227693
495809000 0.647767972502 -0.256597487872
495819500 0.647294064623 -0.256342691657
495830000 0.646876300966 -0.256167998221
495840500 0.647812483577 -0.256329021671
495851000 0.648158814701 -0.25646533441
495861500 0.648268300082 -0.256318865967
495872000 0.64795330383 -0.257291787006
495882500 0.647348109783 -0.258037759787
495893000 0.646174125428 -0.256854663673
495903500 0.646929619185 -0.257602524591
495914000 0.647044646683 -0.258003686104
495924500 0.647814893904 -0.258175177528
495935000 0.647406101334 -0.25743030552
495945500 0.648090173064 -0.257738272054
495956000 0.648496645844 -0.257448192151
495966500 0.648575430993 -0.257376759616
495977000 0.648086618449 -0.257351065995
495987500 0.648126744229 -0.25714164672
495998000 0.648410259261 -0.256943524566
496008500 0.648031549586 -0.25753991986
496019000 0.648049589168 -0.257408183437
496029500 0.647920147959 -0.257833579887
496040000 0.647552012822 -0.258124861477
496050500 0.647493010233 -0.258121294044
496061000 0.648014064935 -0.258171532952
496071500 0.64832974357 -0.258230445712
496082000 0.648215690152 -0.258770555313
496092500 0.647522942994 -0.258459393519
496103000 0.64744862116 -0.258154644908
496113500 0.648052571462 -0.258381501802
496124000 0.647829082635 -0.258419933368
496134500 0.648213853394 -0.25804449811
496145000 0.647883965238 -0.258633127426
496155500 0.648493371686 -0.258608673839
496166000 0.648853268555 -0.258728447838
496176500 0.648596271925 -0.25859490952
496187000 0.648258840775 -0.258496186244
496197500 0.648477830818 -0.259175498025
496208000 0.649955525872 -0.259597433922
496218500 0.64917851016 -0.25837339454
496229000 0.649106265849 -0.258785269652
496239500 0.648831088979 -0.258567366201
496250000 0.649190338471 -0.25804703052
496260500 0.648896845642 -0.259803581465
496271000 0.648456052496 -0.259687178854
496281500 0.648653509402 -0.259590092108
496292000 0.648781343093 -0.259997317345
496302500 0.648647761941 -0.260289902719
496313000 0.649060272626 -0.259604680739
496323500 0.649591019458 -0.260486732097
496334000 0.649079767076 -0.260231475321
496344500 0.649711441705 -0.259883940707
496355000 0.648740279671 -0.260090061392
496365500 0.648248509356 -0.259809441283
496376000 0.64838874826 -0.259557928017
496386500 0.648730419953 -0.260528208581
496397000 0.649183035962 -0.261361775866
496407500 0.649289413856 -0.261360431113
496418000 0.649804825117 -0.260863853632
496428500 0.649904743936 -0.260846353883
496439000 0.649472548745 -0.260380040521
496449500 0.64940738275 -0.260606306358
496460000 0.649089630271 -0.260684106982
496470500 0.649334260124 -0.259949484434
496481000 0.649727185192 -0.260243801344
496491500 0.649624075823 -0.259241631358
496502000 0.649519397585 -0.260106189875
496512500 0.649807482947 -0.260215144778
496523000 0.650398210205 -0.260620188076
496533500 0.650054715176 -0.260665588783
496544000 0.6499617158 -0.260432554512
496554500 0.649472657672 -0.26078354201
496565000 0.64933208277 -0.26129948964
496575500 0.649607051812 -0.261114850301
496586000 0.649274126546 -0.2612131551
496596500 0.649285924049 -0.260813709036
496607000 0.649998671221 -0.260572645488
496617500 0.650053044933 -0.260553374524
496628000 0.650490991701 -0.259998625705
496638500 0.650405755285 -0.260173500425
496649000 0.650561384442 -0.260923019445
496659500 0.650139636631 -0.261096203713
496670000 0.650141416235 -0.260976193022
496680500 0.650665874217 -0.261370684632
496691000 0.650216153817 -0.261807747874
496701500 0.650909322068 -0.261053840797
496712000 0.65086759857 -0.261512796688
496722500 0.65015670049 -0.261400743535
496733000 0.650297264245 -0.261507826256
496743500 0.650159283265 -0.261846815599
496754000 0.650072890655 -0.261968716563
496764500 0.649537658756 -0.262697579523
496775000 0.648763798935 -0.264470793826
496785500 0.649241227178 -0.263434181237
496796000 0.649691250494 -0.262472311941
496806500 0.649977725914 -0.261672692962
496817000 0.650021191233 -0.261607438128
496827500 0.650841177471 -0.261776148608
496838000 0.650821699376 -0.261721254051
496848500 0.650689338473 -0.261824811212
496859000 0.650542406779 -0.26148509101
496869500 0.650189085227 -0.261808942364
496880000 0.650496455145 -0.261870026607
496890500 0.650259917774 -0.262285951782
496901000 0.650770556216 -0.262061153351
496911500 0.65070112175 -0.2621789321
496922000 0.651188308843 -0.261984364503
496932500 0.651353034025 -0.261878969501
496943000 0.651468859833 -0.26237206241
496953500 0.651626812312 -0.262132280974
496964000 0.651449573551 -0.2621449824
496974500 0.651053266502 -0.262240892347
496985000 0.651349869364 -0.261492564848
496995500 0.65084304594 -0.262421228051
497006000 0.651431920844 -0.262058141699
497016500 0.651919092327 -0.262287925755
497027000 0.651650195328 -0.262448559566
497037500 0.651114440761 -0.262370356424
497048000 0.650880362804 -0.262579734305
497058500 0.651475617439 -0.262260694038
497069000 0.651685208329 -0.262581151829
497079500 0.651219761138 -0.262892302109
497090000 0.651698815483 -0.262760985326
497100500 0.651553616622 -0.262526667686
497111000 0.65229309456 -0.261896101379
497121500 0.651345846315 -0.262446303517
497132000 0.651333290314 -0.262452194862
497142500 0.651774249927 -0.262821557928
497153000 0.651119303332 -0.26230305005
497163500 0.651893115245 -0.262758531791
497174000 0.652283182113 -0.262564432007
497184500 0.652423142992 -0.262864794484
497195000 0.65196152331 -0.262289541134
497205500 0.652369209622 -0.262867260704
497216000 0.652442953141 -0.26252758853
497226500 0.652255125681 -0.261961712265
497237000 0.654375066616 -0.259331130149
497247500 0.652365908164 -0.262392772178
497258000 0.652524520603 -0.263262405305
497268500 0.652653230611 -0.262491939505
497279000 0.652516887288 -0.2628648184
497289500 0.653228700701 -0.263150006562
497300000 0.652285892402 -0.262995498171
497310500 0.654389742321 -0.260941527814
497321000 0.654336173201 -0.261391606876
497331500 0.653920835439 -0.261263522385
497342000 0.653954458492 -0.260354547327
497352500 0.654493149242 -0.260948868949
497363000 0.653794149377 -0.260314566819
497373500 0.65468823612 -0.261179249194
497384000 0.655313633926 -0.261257374089
497394500 0.654544588227 -0.260918126384
497405000 0.654153758882 -0.260231720944
497415500 0.653163689554 -0.261382515056
497426000 0.654569674497 -0.260885074599
497436500 0.654719955088 -0.261354055067
497447000 0.655417233747 -0.261395370317
497457500 0.654483021814 -0.261473736402
497468000 0.655652273964 -0.260447578026
497478500 0.655507388397 -0.261357004858
497489000 0.654941429586 -0.261506127536
497499500 0.655126031949 -0.261723356845
497510000 0.654697282271 -0.261820223141
497520500 0.654299088262 -0.261232705911
497531000 0.654500846638 -0.261084217618
497541500 0.654664641809 -0.261477126392
497552000 0.654913019016 -0.261638244533
497562500 0.654986840719 -0.261729451228
497573000 0.65503034092 -0.261095933752
497583500 0.655286143775 -0.261754012168
497594000 0.655071140741 -0.261058438476
497604500 0.655751791122 -0.261454580889
497615000 0.655199586157 -0.261180815423
497625500 0.65441877942 -0.261209423251
497636000 0.655756041722 -0.261332443277
497646500 0.655072338889 -0.261848505137
497657000 0.655815878919 -0.261886397709
497667500 0.655718798326 -0.261817277216
497678000 0.655789716704 -0.261468625075
497688500 0.655890293554 -0.262061417952
497699000 0.655849302365 -0.261868484949
497709500 0.655505543672 -0.261868481306
497720000 0.655815122345 -0.261363157089
497730500 0.65575637972 -0.260921117805
497741000 0.655948313268 -0.261237393741
497751500 0.655635902462 -0.261436678145
497762000 0.655445632738 -0.26215413936
497772500 0.655719581929 -0.2613043041
497783000 0.656247317757 -0.260847583518
497793500 0.656195236507 -0.262215813471
497804000 0.656260937778 -0.261661390025
497814500 0.656067473654 -0.262653938599
497825000 0.656617026846 -0.262187332767
497835500 0.656380429364 -0.26190970736
497846000 0.656768515135 -0.261726034391
497856500 0.656498744846 -0.261920727328
497867000 0.656193161816 -0.262278165284
497877500 0.656718298888 -0.262298896843
497888000 0.656159754082 -0.261256774668
497898500 0.656851735581 -0.261854603108
497909000 0.656362814408 -0.261187294172
497919500 0.656939717554 -0.262202535047
497930000 0.65702926534 -0.262247152771
497940500 0.65684467191 -0.261780610063
497951000 0.656978379732 -0.261514935125
497961500 0.657013321525 -0.262041971083
497972000 0.656996873953 -0.262206146222
497982500 0.656525542862 -0.262306112944
497993000 0.657817063762 -0.262235872256
498003500 0.657519206998 -0.261869785829
498014000 0.658060812886 -0.261801982057
498024500 0.658485390447 -0.262026166084
498035000 0.65765614925 -0.262372467622
498045500 0.657491461222 -0.262664462959
498056000 0.657482842775 -0.262527140941
498066500 0.657758756975 -0.263119465924
498077000 0.658292441225 -0.261817839211
498087500 0.65789721927 -0.262916253055
498098000 0.65777523034 -0.262633291543
498108500 0.657958988117 -0.263048880152
498119000 0.658269759445 -0.263235763509
498129500 0.658470104722 -0.26320290079
498140000 0.658556899772 -0.263202913047
498150500 0.658649446683 -0.262939375721
498161000 0.659104911405 -0.263181836574
498171500 0.658093746938 -0.263920355036
498182000 0.658149761615 -0.263226698991
498192500 0.657759065039 -0.263699840332
498203000 0.658226545375 -0.263709446016
498213500 0.658903482155 -0.264094551239
498224000 0.658818088292 -0.264004737418
498234500 0.658681524197 -0.264369817061
498245000 0.658695668698 -0.264478882889
498255500 0.65904072137 -0.264199776668
498266000 0.657990773203 -0.263494799612
498276500 0.658748570383 -0.26177609281
498287000 0.659895124187 -0.261588816607
498297500 0.663310117496 -0.259974716305
498308000 0.660228551882 -0.262817052789
498318500 0.65081710928 -0.255922359874
498329000 0.661663594889 -0.265596622571
498339500 0.655343765904 -0.27027290846
498350000 0.658162855295 -0.26635416782
498360500 0.657761114116 -0.262121507097
498371000 0.657227456551 -0.262829919481
498381500 0.658161139237 -0.260988336365
498392000 0.658337478079 -0.262197731994
498402500 0.658095035315 -0.261963924268
498413000 0.657223377391 -0.262115025939
498423500 0.658639426944 -0.262036500702
498434000 0.659498552159 -0.261510980502
498444500 0.656631643564 -0.259538372747
498455000 0.660539154001 -0.263190581029
498465500 0.660079144299 -0.262438435896
498476000 0.662373999683 -0.260118913574
498486500 0.656828847843 -0.260535226025
498497000 0.655619395997 -0.262720524755
498507500 0.658914275868 -0.261775983549
498518000 0.659714851728 -0.261306288629
498528500 0.658824994276 -0.263461345877
498539000 0.661358904018 -0.259613765171
498549500 0.655988128192 -0.261987636221
498560000 0.656307967719 -0.253433713099
498570500 0.656591157356 -0.262265230125
498581000 0.657098417083 -0.266531221311
498591500 0.653177596614 -0.263306156494
498602000 0.661902229998 -0.267794955243
498612500 0.663344276109 -0.261575882209
498623000 0.660434843361 -0.265780549615
498633500 0.655032659939 -0.25906811479
498644000 0.656774250209 -0.261375392615
498654500 0.660624474366 -0.264585940988
498665000 0.655865500149 -0.265078108724
498675500 0.663008054866 -0.261877873458
498686000 0.657535629559 -0.260779844283
498696500 0.659074969097 -0.26694161435
498707000 0.664062472798 -0.262366610292
498717500 0.661863429398 -0.260997026768
498728000 0.65743348432 -0.265541642074
498738500 0.662458280785 -0.260821448825
498749000 0.66527674202 -0.266013569367
498759500 0.659373593304 -0.263138399832
498770000 0.660590679042 -0.25987473104
498780500 0.657608254348 -0.266782464195
498791000 0.660070199209 -0.261912647551
498801500 0.65826085647 -0.260833956334
498812000 0.656571811064 -0.264286939584
498822500 0.664224776608 -0.260844823087
498833000 0.662395801967 -0.260555649919
498843500 0.662603376044 -0.261700255234
498854000 0.657424649221 -0.265364698993
498864500 0.662760746203 -0.262476771928
498875000 0.659240939039 -0.263778470246
498885500 0.661140666012 -0.263867397669
498896000 0.663058660348 -0.263670544669
498906500 0.662054404455 -0.263700448253
498917000 0.660422714003 -0.263895880478
498927500 0.660072446491 -0.263251748413
498938000 0.661217425837 -0.264556010634
498948500 0.660805019176 -0.263546216755
498959000 0.660286056653 -0.26422682678
498969500 0.660560699379 -0.263431905903
498980000 0.660933445298 -0.26282251255
498990500 0.661117513032 -0.263346886377
499001000 0.662600584739 -0.26453346776
499011500 0.662011837441 -0.264841877442
499022000 0.660562428619 -0.264420629777
499032500 0.661946156773 -0.263014037801
499043000 0.661200781031 -0.264551174716
499053500 0.662707492032 -0.263420817618
499064000 0.661546427202 -0.264080671829
499074500 0.659796105267 -0.263649382913
499085000 0.661305358319 -0.26389915466
499095500 0.662921054367 -0.26601521435
499106000 0.66072703345 -0.265265481133
499116500 0.660930100191 -0.263863508187
499127000 0.662562356117 -0.264468120704
499137500 0.665820789049 -0.264769437811
499148000 0.660280280585 -0.26601922218
499158500 0.66176233513 -0.265111256245
499169000 0.661175897295 -0.264040727184
499179500 0.663031950905 -0.264803070986
499190000 0.66174806392 -0.265279809304
499200500 0.661969927824 -0.264741277178
499211000 0.662068822238 -0.26409368447
499221500 0.658902410734 -0.265918103111
499232000 0.662732218686 -0.265803297692
499242500 0.662453271413 -0.266187646463
499253000 0.662152051279 -0.255040763493
499263500 0.672272676309 -0.267649795148
499274000 0.663615926994 -0.265290545422
499284500 0.659347558715 -0.26534636024
499295000 0.670571040674 -0.267888020503
499305500 0.666334826957 -0.250578586321
499316000 0.660268425499 -0.270234454988
499326500 0.656910187017 -0.266055642063
499337000 0.660996269627 -0.259152400463
499347500 0.660985816122 -0.270280742852
499358000 0.653272531459 -0.272012422615
499368500 0.66829924297 -0.264129373693
499379000 0.652250003931 -0.267652749662
499389500 0.657324294338 -0.268534294588
499400000 0.668042476471 -0.272979904862
499410500 0.655965695856 -0.263877995381
499421000 0.662194899433 -0.259794448391
499431500 0.631613796179 -0.267143999862
499442000 0.677818495307 -0.261127980981
499452500 0.710307250892 -0.278653421435
499463000 0.673927996313 -0.266729187671
499473500 0.670178487895 -0.250765302849
499484000 0.674019950916 -0.252912463602
499494500 0.66677203811 -0.26535911581
499505000 0.655672461506 -0.243946326259
499515500 0.656232998226 -0.286614926834
499526000 0.66164492919 -0.267329830631
499536500 0.666270551611 -0.249535254719
499547000 0.675274459934 -0.20336429537
499557500 0.641628190283 -0.242600267355
499568000 0.687082790071 -0.235967054256
499578500 0.649785345088 -0.259467283028
499589000 0.662027231883 -0.251537200807
499599500 0.677262172787 -0.269617420508
499610000 0.664720916444 -0.267088435173
499620500 0.673265827588 -0.271855503797
499631000 0.668260544462 -0.268503734684
499641500 0.661555049142 -0.264922734554
499652000 0.663548055518 -0.264961158715
499662500 0.655730129092 -0.257032493774
499673000 0.665787634418 -0.262774926084
499683500 0.667721932212 -0.264323629856
499694000 0.664208941566 -0.265484840884
499704500 0.658880990023 -0.264648491582
499715000 0.66840467248 -0.263937019427
499725500 0.662459945692 -0.268134742657
499736000 0.6620786931 -0.265288689757
499746500 0.658282035347 -0.269201961738
499757000 0.66575102503 -0.269454230915
499767500 0.664529048834 -0.26461185831
499778000 0.666230485548 -0.266449223524
499788500 0.664117794927 -0.265567021653
499799000 0.663540724904 -0.266405755596
499809500 0.662721140481 -0.265821907588
499820000 0.666222232687 -0.266980767433
499830500 0.664361414418 -0.265707270073
499841000 0.665447789059 -0.265640767136
499851500 0.665585674818 -0.265332824217
499862000 0.664443105577 -0.263706359222
499872500 0.66466959218 -0.266384897027
499883000 0.664679168325 -0.264769998563
499893500 0.66340560121 -0.265117463681
499904000 0.664215277848 -0.264859508094
499914500 0.66555063769 -0.265936533557
499925000 0.663938215685 -0.266707702972
499935500 0.664642760399 -0.265456789969
499946000 0.664488061708 -0.266243126876
499956500 0.664101477389 -0.266286080361
499967000 0.664643199568 -0.265120914326
499977500 0.664211474321 -0.266736908323
499988000 0.664208116265 -0.266087187733
499998500 0.664697608561 -0.26533228682
500009000 0.665414436434 -0.265570844746
500019500 0.665363518525 -0.26560536609
500030000 0.665229198995 -0.265459933522
500040500 0.664120969294 -0.265885379058
500051000 0.664563135205 -0.266054343957
500061500 0.665082888523 -0.26628747123
500072000 0.665032684147 -0.265593144527
500082500 0.667449330916 -0.266013327099
500093000 0.664363808989 -0.263875458369
500103500 0.664016437393 -0.266205221958
500114000 0.668908026293 -0.267178770709
500124500 0.664423129133 -0.266571028225
500135000 0.665235662161 -0.267311516992
500145500 0.666773431341 -0.267423841195
500156000 0.666374720417 -0.266907097881
500166500 0.665246257883 -0.267536633507
500177000 0.666349647811 -0.266844906371
500187500 0.665700197009 -0.268180710263
500198000 0.666169550792 -0.269007900838
500208500 0.664501811949 -0.266495232295
500219000 0.66684048612 -0.265832983165
500229500 0.666292167902 -0.266183841628
500240000 0.667203156111 -0.267267507883
500250500 0.663154279877 -0.265940694668
500261000 0.666293113346 -0.263937037988
500271500 0.664125390894 -0.267113977615
500282000 0.662256219789 -0.26787122792
500292500 0.66473266901 -0.26764370174
500303000 0.667068427882 -0.26760051271
500313500 0.669126259365 -0.267650678392
500324000 0.666530435712 -0.265451392065
500334500 0.664653546119 -0.264561571216
500345000 0.66465745152 -0.26683998772
500355500 0.666638032907 -0.267196935385
500366000 0.666787171707 -0.267075212911
500376500 0.665019736482 -0.265959626031
500387000 0.668347662873 -0.265342191279
500397500 0.66793001327 -0.267049939754
500408000 0.666705465053 -0.267620619424
500418500 0.666181235841 -0.266423371115
500429000 0.666608819978 -0.2661251309
500439500 0.664509054735 -0.267161945659
500450000 0.666834960209 -0.268300269972
500460500 0.66597632339 -0.269871487052
500471000 0.666307914637 -0.267805413529
500481500 0.667282423104 -0.268732085842
500492000 0.665933393614 -0.268359514825
500502500 0.667216952887 -0.270407427871
500513000 0.667716038062 -0.267926215037
500523500 0.667292337288 -0.270349474186
500534000 0.665694258275 -0.268554988964
500544500 0.668421401726 -0.269242585999
500555000 0.667332463354 -0.26893849444
500565500 0.666981865798 -0.269196765878
500576000 0.666775348155 -0.269071122137
500586500 0.667838319663 -0.268462375638
500597000 0.66722224803 -0.268497652273
500607500 0.666505994137 -0.268667754195
500618000 0.667058454008 -0.269347002206
500628500 0.66687648164 -0.267947190742
500639000 0.666558201344 -0.268098461134
500649500 0.667529708543 -0.268806176356
500660000 0.667920350012 -0.268453339843
500670500 0.667464418334 -0.269327191358
500681000 0.666762125483 -0.268086943164
500691500 0.66753313433 -0.268749826952
500702000 0.667267843359 -0.26849936851
500712500 0.667666309886 -0.269344450984
500723000 0.66770760835 -0.269903934661
500733500 0.667510380484 -0.269170475994
500744000 0.666296281338 -0.269931408986
500754500 0.666953960262 -0.269431853779
500765000 0.667493585991 -0.269211574576
500775500 0.668350671738 -0.269065418611
500786000 0.667972407875 -0.268835236586
500796500 0.667586349904 -0.269051480161
500807000 0.667624631128 -0.268875032691
500817500 0.667199145855 -0.26914812608
500828000 0.667369704188 -0.269187612511
500838500 0.666929055397 -0.269305805775
500849000 0.666756811574 -0.269680894587
500859500 0.667549293246 -0.269241563675
500870000 0.667517868374 -0.269481762113
500880500 0.667301905762 -0.26958824679
500891000 0.667523538392 -0.270643777104
500901500 0.667149133701 -0.269927038598
500912000 0.668166841711 -0.269478172017
500922500 0.66765447643 -0.269701486937
500933000 0.668138745021 -0.270156708493
500943500 0.668362186296 -0.269842711897
500954000 0.668425506881 -0.269849928778
500964500 0.668388850839 -0.269431375579
500975000 0.668631860462 -0.269304415889
500985500 0.668247242409 -0.269857555585
500996000 0.667295472561 -0.270079532056
501006500 0.667528998421 -0.269528205136
501017000 0.667779053722 -0.268885334516
501027500 0.666717286506 -0.269620484621
501038000 0.667040110754 -0.269055862694
501048500 0.668349806074 -0.269474639187
501059000 0.668429836688 -0.270540597016
501069500 0.668355225589 -0.270465270953
501080000 0.668883741133 -0.271109460274
501090500 0.668461913744 -0.270614608875
501101000 0.669259031436 -0.270550292484
501111500 0.668063643485 -0.269773826249
501122000 0.66893746529 -0.269999557686
501132500 0.668459870289 -0.269915914835
501143000 0.668227090407 -0.270430638284
501153500 0.668487874361 -0.270697958239
501164000 0.668953440988 -0.269943781864
501174500 0.669032146953 -0.270024959166
501185000 0.668657721435 -0.26965849966
501195500 0.668760746937 -0.270387529651
501206000 0.668937380767 -0.270581141138
501216500 0.668624098891 -0.27015638277
501227000 0.669028862261 -0.270663175939
501237500 0.669278036991 -0.270804095341
501248000 0.669052767199 -0.27045521774
501258500 0.669160945917 -0.270725537863
501269000 0.668852537803 -0.270311534658
501279500 0.668722885353 -0.270580522587
501290000 0.668313652449 -0.270978748005
501300500 0.669299159951 -0.270783741947
501311000 0.66876408358 -0.271850250117
501321500 0.669396707985 -0.271590907558
501332000 0.668916961762 -0.271320525967
501342500 0.670202778073 -0.271199290463
501353000 0.669012598137 -0.271008132138
501363500 0.66850038498 -0.27091256762
501374000 0.668697970879 -0.2716401387
501384500 0.6688163813 -0.271132469409
501395000 0.669516292362 -0.27181433204
501405500 0.669448750461 -0.271027206658
501416000 0.672293348939 -0.273654546656
501426500 0.669344183245 -0.272033566336
501437000 0.669578034447 -0.271938313752
501447500 0.669600484634 -0.272042268549
501458000 0.668808725591 -0.273166952775
501468500 0.669806793815 -0.272299762594
501479000 0.670242816304 -0.271270458285
501489500 0.670696948948 -0.271107715405
501500000 0.670010084173 -0.271062635418
501510500 0.669018197206 -0.271778443292
501521000 0.668781552484 -0.271357966868
501531500 0.669157468139 -0.271558502332
501542000 0.668701892138 -0.272063068126
501552500 0.668810186782 -0.271531628199
501563000 0.66924623132 -0.272022717477
501573500 0.66892305089 -0.271932297896
501584000 0.668875791705 -0.272800780821
501594500 0.668915184447 -0.271878797167
501605000 0.669615445991 -0.271160916147
501615500 0.669280040149 -0.272216857824
501626000 0.669294196057 -0.272455464237
501636500 0.669203686619 -0.272983226747
501647000 0.668389116491 -0.272989548383
501657500 0.668403684452 -0.272267431656
501668000 0.669034619812 -0.272373451674
501678500 0.669387822534 -0.273769708165
501689000 0.669730296442 -0.275154134777
501699500 0.669520750036 -0.274534684296
501710000 0.670534398859 -0.273756929928
501720500 0.670426647655 -0.271959077819
501731000 0.669697514291 -0.27270107546
501741500 0.669408962845 -0.272702786879
501752000 0.669206617529 -0.272487124
501762500 0.669641887696 -0.273261021051
501773000 0.669630049831 -0.27296130883
501783500 0.669545725552 -0.273059210505
501794000 0.669897558555 -0.272403817828
501804500 0.669341800736 -0.27265544722
501815000 0.66936793609 -0.272161586211
501825500 0.670288978165 -0.272986621941
501836000 0.670803381119 -0.273322053763
501846500 0.669579861514 -0.273338660889
501857000 0.669452379497 -0.273077987813
501867500 0.669384725149 -0.273256811871
501878000 0.66960904083 -0.2734403732
501888500 0.670256431001 -0.27339512714
501899000 0.6706873948 -0.273154223527
501909500 0.670710677524 -0.273371853271
501920000 0.670118826972 -0.273426993049
501930500 0.669787254226 -0.272555814584
501941000 0.670159898563 -0.273662653004
501951500 0.669867101629 -0.273708732344
501962000 0.670133633967 -0.27388194488
501972500 0.670652929867 -0.272852297353
501983000 0.670314024249 -0.273833393494
501993500 0.670502792215 -0.273532461068
502004000 0.670102786593 -0.273486699206
502014500 0.670976885445 -0.273815592049
502025000 0.670335504881 -0.273498911417
502035500 0.670742550539 -0.273274628462
502046000 0.67069827966 -0.273780844074
502056500 0.670507716424 -0.273690090291
502067000 0.670464922972 -0.274289486878
502077500 0.67032081894 -0.273568576522
502088000 0.669952181343 -0.273810132248
502098500 0.669980486099 -0.273660191219
502109000 0.670561468276 -0.274184851301
502119500 0.670746486876 -0.274106433002
502130000 0.669820542441 -0.274799301533
502140500 0.670011371158 -0.273942610906
502151000 0.670380120276 -0.2742325355
502161500 0.670956147849 -0.274057036954
502172000 0.670957937361 -0.27398076833
502182500 0.670799622956 -0.274143960505
502193000 0.670951217093 -0.275048906355
502203500 0.670949527021 -0.274868562211
502214000 0.67040909697 -0.27473635015
502224500 0.670497163151 -0.274517621186
502235000 0.671327065803 -0.274906926877
502245500 0.670662352121 -0.274913083445
502256000 0.671133613726 -0.274608672934
502266500 0.670638683973 -0.275417105427
502277000 0.671114702049 -0.275129632535
502287500 0.671188565735 -0.275088776756
502298000 0.672022701574 -0.27533632197
502308500 0.671790831928 -0.274795754918
502319000 0.671651267376 -0.275464878294
502329500 0.671778330652 -0.275289674856
502340000 0.672046898803 -0.275974966371
502350500 0.671921321606 -0.276266140458
502361000 0.671733288253 -0.275895248986
502371500 0.6723864984 -0.276169572286
502382000 0.671876868323 -0.275786855205
502392500 0.67171201357 -0.275625336015
502403000 0.672228034315 -0.275484669524
502413500 0.671995597156 -0.276184665739
502424000 0.67160579892 -0.275773026239
502434500 0.67160201258 -0.275004707704
502445000 0.671485546001 -0.275042242194
502455500 0.672201830601 -0.27625811997
502466000 0.671521466591 -0.276502569543
502476500 0.671498330196 -0.276515640506
502487000 0.67175806544 -0.276628727437
502497500 0.672137832464 -0.276778731843
502508000 0.671374656546 -0.276458396164
502518500 0.671356096565 -0.276080537737
502529000 0.670502690185 -0.27604512545
502539500 0.671031520653 -0.276452661811
502550000 0.671728819613 -0.276929130341
502560500 0.67190401691 -0.277578167685
502571000 0.671177210055 -0.277681124656
502581500 0.671918282579 -0.277418515281
502592000 0.671599041678 -0.277184843351
502602500 0.671762518915 -0.277127128875
502613000 0.671456106284 -0.277571023161
502623500 0.670780701228 -0.277706079742
502634000 0.670719832562 -0.278142287003
502644500 0.671040422799 -0.278847279065
502655000 0.670244162229 -0.278239501945
502665500 0.67117280965 -0.278855404255
502676000 0.672021888969 -0.27844253916
502686500 0.671517816424 -0.278481916138
502697000 0.671538142874 -0.278779779093
502707500 0.671136031574 -0.279231093731
502718000 0.671452366656 -0.278065424851
502728500 0.671896006529 -0.278349499432
502739000 0.672586286833 -0.278729747369
502749500 0.671397301428 -0.278311802074
502760000 0.67178954467 -0.278778391549
502770500 0.671689833173 -0.278716826746
502781000 0.671732505959 -0.2786551081
502791500 0.671759180781 -0.277989488836
502802000 0.671952932429 -0.278693180515
502812500 0.671464955959 -0.278406061812
502823000 0.672347960715 -0.279680106871
502833500 0.672178882302 -0.27873120217
502844000 0.671720368488 -0.278813148671
502854500 0.672880986641 -0.278613654686
502865000 0.671783055791 -0.278488163592
502875500 0.672932064357 -0.279032804076
502886000 0.671982489005 -0.278505964326
502896500 0.671782220264 -0.278644898805
502907000 0.672317184952 -0.279490395365
502917500 0.671649208705 -0.278855518711
502928000 0.67188482316 -0.278793656522
502938500 0.673140477675 -0.279864764004
502949000 0.671962830852 -0.279556698059
502959500 0.6724480251 -0.279411173123
502970000 0.671729814701 -0.279194540335
502980500 0.6728924648 -0.279704760918
502991000 0.672227879562 -0.279278395133
503001500 0.672730008125 -0.27983170581
503012000 0.67235712458 -0.27982125846
503022500 0.67268428874 -0.279814331283
503033000 0.672268508789 -0.279474473106
503043500 0.67318262679 -0.280337091023
503054000 0.672567449808 -0.280355594001
503064500 0.673199345832 -0.279700928484
503075000 0.672750794834 -0.27995678653
503085500 0.672721432545 -0.280250943737
503096000 0.67247801396 -0.279246551464
503106500 0.672655559877 -0.280564574785
503117000 0.672466923893 -0.279315543012
503127500 0.673545641208 -0.28084715187
503138000 0.672872578636 -0.279878550354
503148500 0.674599987932 -0.28162123926
503159000 0.670865349936 -0.279536887566
503169500 0.673416807964 -0.280201154686
503180000 0.672108258903 -0.280727729269
503190500 0.67331175156 -0.282357096345
503201000 0.672935237085 -0.281144533252
503211500 0.671771824932 -0.280778153273
503222000 0.673536684653 -0.280782979274
503232500 0.674555849328 -0.27926178075
503243000 0.673247317492 -0.280156308433
503253500 0.674289692041 -0.281071276834
503264000 0.670703567027 -0.282197344211
503274500 0.673079594888 -0.279924344477
503285000 0.672786105442 -0.279935525927
503295500 0.673896176518 -0.280157979964
503306000 0.673694910795 -0.283658447519
503316500 0.680049736076 -0.28104460688
503327000 0.675375789732 -0.281316899227
503337500 0.675301772872 -0.282293587135
503348000 0.671719559388 -0.284214652499
503358500 0.672859770868 -0.283035480115
503369000 0.672582607958 -0.283258290352
503379500 0.673325849216 -0.283917786439
503390000 0.676967511623 -0.278244250447
503400500 0.671856080837 -0.279642777254
503411000 0.671971191531 -0.285832824947
503421500 0.67363118943 -0.277745804823
503432000 0.675062668668 -0.280397467802
503442500 0.676421758908 -0.282895904811
503453000 0.668678157103 -0.285039758124
503463500 0.671038165515 -0.278296489012
503474000 0.673078369493 -0.28204486057
503484500 0.680465877704 -0.282928709222
503495000 0.672617695591 -0.28516141618
503505500 0.672171860433 -0.283098910196
503516000 0.672894189401 -0.28673722269
503526500 0.676402227652 -0.283465169064
503537000 0.671027183116 -0.288420445981
503547500 0.670823359049 -0.278391347199
503558000 0.667749761607 -0.275560592635
503568500 0.674109580539 -0.285778932669
503579000 0.669225356399 -0.279266486482
503589500 0.673908828702 -0.286879032349
503600000 0.661711326868 -0.28222484895
503610500 0.676830304623 -0.278444415775
503621000 0.671202752448 -0.284012463308
503631500 0.672720604064 -0.281071370281
503642000 0.670616922642 -0.281586165959
503652500 0.672965716154 -0.289034314521
503663000 0.671181217564 -0.279013462503
503673500 0.674293222511 -0.281856614509
503684000 0.675006776262 -0.286256234973
503694500 0.670374439602 -0.286966728982
503705000 0.671695839226 -0.278915292694
503715500 0.668887067673 -0.285217451446
503726000 0.673478128021 -0.281095492825
503736500 0.672575070885 -0.276864781452
503747000 0.670341927313 -0.27719562617
503757500 0.678051718285 -0.276478487946
503768000 0.675460011496 -0.283433828212
503778500 0.67445597234 -0.281453642328
503789000 0.673645987305 -0.282799918461
503799500 0.668407027985 -0.284176402515
503810000 0.670466290237 -0.282967145722
503820500 0.675143865688 -0.284732524105
503831000 0.67214720257 -0.282328510438
503841500 0.674380302085 -0.283647763211
503852000 0.675931555456 -0.284536771354
503862500 0.672313845063 -0.284198113255
503873000 0.67488489031 -0.281650522197
503883500 0.674887863432 -0.284589371492
503894000 0.677120026369 -0.283280137765
503904500 0.675264704412 -0.284356957684
503915000 0.675411095422 -0.284980107131
503925500 0.67543988506 -0.285173456415
503936000 0.674057707579 -0.284929739881
503946500 0.674405237864 -0.284800601992
503957000 0.674024859914 -0.285492050865
503967500 0.674948057759 -0.284709981812
503978000 0.674608938877 -0.284570938391
503988500 0.674506240035 -0.284111478427
503999000 0.674914549749 -0.284755009553
504009500 0.67466680375 -0.284108809979
504020000 0.674726732977 -0.285131935982
504030500 0.67450655732 -0.285204100262
504041000 0.674787161481 -0.286022227342
504051500 0.67528844005 -0.285159891706
504062000 0.674899982675 -0.285829725506
504072500 0.674091771866 -0.285325446096
504083000 0.674516074108 -0.284873533818
504093500 0.675055964439 -0.284976973897
504104000 0.674147535228 -0.28557123441
504114500 0.673894556543 -0.285955817148
504125000 0.674518900269 -0.285529345926
504135500 0.675064381504 -0.285632368021
504146000 0.674870147673 -0.28590562176
504156500 0.674524545 -0.286536466339
504167000 0.674691398531 -0.285360368562
504177500 0.675114833876 -0.285559582519
504188000 0.674860515845 -0.286036265009
504198500 0.675743531102 -0.286446146245
504209000 0.67496613011 -0.28590266156
504219500 0.674949326364 -0.285988507649
504230000 0.675346935692 -0.286260968867
504240500 0.675738449433 -0.28490340111
504251000 0.674647679887 -0.286173332674
504261500 0.674686980256 -0.286240584366
504272000 0.675243496156 -0.286467220569
504282500 0.675196709177 -0.286040511631
504293000 0.675213120178 -0.286095666447
504303500 0.674844729032 -0.286439795046
504314000 0.674320616525 -0.286912371919
504324500 0.675271590377 -0.286198221906
504335000 0.67447615607 -0.286573826215
504345500 0.674496793433 -0.286284376016
504356000 0.675442727774 -0.286261148417
504366500 0.675168343681 -0.285383869518
504377000 0.675152391875 -0.286422507674
504387500 0.67435110298 -0.287326965182
504398000 0.674454454193 -0.286690044814
504408500 0.674608146442 -0.286972339521
504419000 0.675421085696 -0.287943720114
504429500 0.675354940654 -0.286948720365
504440000 0.675552673709 -0.286361640771
504450500 0.675361766976 -0.286483306858
504461000 0.675524662371 -0.286744798171
504471500 0.675282693623 -0.286649624551
504482000 0.675554282116 -0.28768422178
504492500 0.674618120885 -0.286674524892
504503000 0.672437604066 -0.287552037571
504513500 0.672636781604 -0.287630214645
504524000 0.673787106112 -0.28742473341
504534500 0.674835024114 -0.287643741035
504545000 0.675812799005 -0.287533222627
504555500 0.675592453113 -0.28764015315
504566000 0.675620794841 -0.288080262006
504576500 0.676072752454 -0.288560005369
504587000 0.675501979231 -0.287613957926
504597500 0.675687298614 -0.28744895963
504608000 0.676375133915 -0.287627045171
504618500 0.675878910736 -0.287691246812
504629000 0.676352498124 -0.287318284021
504639500 0.675317848091 -0.288373442261
504650000 0.675847784583 -0.28886956958
504660500 0.676093876105 -0.288047546042
504671000 0.675773093491 -0.2876652806
504681500 0.676507160652 -0.2875281315
504692000 0.67633501771 -0.287538214856
504702500 0.675851817567 -0.287283508947
504713000 0.675485854991 -0.28790082361
504723500 0.675644709168 -0.287653093774
504734000 0.675590725469 -0.287998849733
504744500 0.675688261383 -0.28787459966
504755000 0.675090788491 -0.288238403725
504765500 0.675881078487 -0.288547092203
504776000 0.675251304214 -0.289087430693
504786500 0.675873282769 -0.288818547184
504797000 0.67559433017 -0.289020885119
504807500 0.675810028188 -0.288566842588
504818000 0.676630304323 -0.288600534316
504828500 0.676867820312 -0.288436028436
504839000 0.676030347036 -0.289066463003
504849500 0.675189888165 -0.288926730864
504860000 0.675451670347 -0.28936336579
504870500 0.675807227857 -0.289528858348
504881000 0.67653843083 -0.289779531438
504891500 0.675918368408 -0.289063462413
504902000 0.676478208545 -0.288967863547
504912500 0.676629409916 -0.289412808446
504923000 0.676103806891 -0.288931405478
504933500 0.676839234844 -0.28978259499
504944000 0.676003891125 -0.289891389926
504954500 0.676096007248 -0.290220740234
504965000 0.676200192818 -0.290715153202
504975500 0.675626442919 -0.290063860536
504986000 0.675848842251 -0.289844434624
504996500 0.676163072782 -0.290188414644
505007000 0.675551402305 -0.290513859927
505017500 0.675594560776 -0.290272734399
505028000 0.676278303445 -0.289546599297
505038500 0.675931718614 -0.290250388126
505049000 0.676937119882 -0.289878544847
505059500 0.676752058222 -0.289564983499
505070000 0.676180061931 -0.288628022655
505080500 0.67687409449 -0.28900852944
505091000 0.676023006554 -0.288215391224
505101500 0.676607093431 -0.289852019482
505112000 0.676191179148 -0.290172273779
505122500 0.676366212247 -0.290557247902
505133000 0.676718827983 -0.291068097633
505143500 0.675959049362 -0.291341650982
505154000 0.67654365967 -0.290886179435
505164500 0.679662014098 -0.296113524925
505175000 0.676176496479 -0.290389020092
505185500 0.676696130947 -0.290657264916
505196000 0.67724972896 -0.29069548875
505206500 0.677176711928 -0.290989279171
505217000 0.677092032446 -0.29094339682
505227500 0.677180184964 -0.291175854467
505238000 0.677119456763 -0.291564403001
505248500 0.676528038404 -0.291215743078
505259000 0.676516809891 -0.291210312573
505269500 0.676220277581 -0.290660200904
505280000 0.676222358194 -0.291403603068
505290500 0.676677676087 -0.291273967916
505301000 0.676299232346 -0.291080129505
505311500 0.676666130518 -0.291388456021
505322000 0.676732067048 -0.29143997721
505332500 0.676736611118 -0.291300740103
505343000 0.677163170107 -0.290809792231
505353500 0.677342030837 -0.29083632489
505364000 0.677325015544 -0.291594399656
505374500 0.676848499055 -0.291654116753
505385000 0.677289510858 -0.291489095185
505395500 0.677049018066 -0.291403852546
505406000 0.676967954496 -0.291784676287
505416500 0.67747262696 -0.291365373757
505427000 0.67674403582 -0.2914310554
505437500 0.677321781941 -0.291878127086
505448000 0.677549983185 -0.292027534318
505458500 0.677784718572 -0.29127187329
505469000 0.677532615511 -0.292383603056
505479500 0.676821930827 -0.29186812164
505490000 0.676527552041 -0.292129645905
505500500 0.676720255034 -0.29204764974
505511000 0.676871059388 -0.292144230621
505521500 0.676729951011 -0.292578572054
505532000 0.675384088956 -0.292010917385
505542500 0.67481934401 -0.292494404354
505553000 0.675224293451 -0.292793270399
505563500 0.676428800542 -0.293114277467
505574000 0.676968376949 -0.292989873928
505584500 0.676255710718 -0.293448353937
505595000 0.676566840458 -0.293330911751
505605500 0.675614021893 -0.292861176771
505616000 0.676787305146 -0.293173543262
505626500 0.677334377059 -0.292880231898
505637000 0.677472471874 -0.293135740529
505647500 0.67709913337 -0.293479498783
505658000 0.676580547622 -0.293703486795
505668500 0.677158648676 -0.293801114427
505679000 0.677148618315 -0.293800571907
505689500 0.676941867713 -0.293337642079
505700000 0.677441084939 -0.292933509358
505710500 0.677289936859 -0.293858799236
505721000 0.678225300887 -0.293787725639
505731500 0.677825381293 -0.294181353088
505742000 0.678034552489 -0.293878837933
505752500 0.677730748241 -0.294189372424
505763000 0.676999162135 -0.294268058525
505773500 0.677155088191 -0.295218915444
505784000 0.677129928115 -0.295144204809
505794500 0.67739332556 -0.295631594716
505805000 0.677246450601 -0.295069689648
505815500 0.676801097919 -0.295058487375
505826000 0.676998132471 -0.294297502177
505836500 0.677711746576 -0.294884556812
505847000 0.677704725933 -0.294600552386
505857500 0.678500272963 -0.295376429346
505868000 0.678389756804 -0.295124616888
505878500 0.677916067728 -0.294484421149
505889000 0.677397403467 -0.294247878794
505899500 0.677668605783 -0.294565132837
505910000 0.678091947282 -0.295314356742
505920500 0.677562482855 -0.295739937245
505931000 0.678442849651 -0.295466782669
505941500 0.678144918548 -0.295301443489
505952000 0.678317790949 -0.294178128428
505962500 0.678262730415 -0.294823462573
505973000 0.677777684565 -0.294522092668
505983500 0.677645007511 -0.294883200603
505994000 0.678184523029 -0.29508970826
506004500 0.677871026619 -0.295943155586
506015000 0.677471091395 -0.29482124665
506025500 0.677821499965 -0.295996857005
506036000 0.679482971565 -0.295748551857
506046500 0.678915809372 -0.296364683335
506057000 0.67631963745 -0.295221196496
506067500 0.678143607382 -0.295870197926
506078000 0.677513690315 -0.296161749472
506088500 0.679288984707 -0.295245631485
506099000 0.677171670213 -0.295580502455
506109500 0.677233137761 -0.296019163
506120000 0.677177946896 -0.297554486728
506130500 0.677352872001 -0.295569592454
506141000 0.677174922124 -0.295853144715
506151500 0.678297493968 -0.296449852414
506162000 0.678831881704 -0.296125740878
506172500 0.677147399788 -0.296415247289
506183000 0.680034951219 -0.297987472611
506193500 0.676836096338 -0.2960992567
506204000 0.678011067839 -0.29633781779
506214500 0.67732240453 -0.296912707871
506225000 0.678478179643 -0.296773367011
506235500 0.677192378138 -0.296777381854
506246000 0.677359519135 -0.29627333903
506256500 0.679235312155 -0.29670063735
506267000 0.67858058456 -0.296832597526
506277500 0.678565506821 -0.296896421451
506288000 0.676732908986 -0.295832759287
506298500 0.677951171531 -0.297700546737
506309000 0.678084720944 -0.298309241852
506319500 0.677493465131 -0.297965673737
506330000 0.678712275974 -0.29807976983
506340500 0.678408883222 -0.297467031205
506351000 0.678863014866 -0.297429717907
506361500 0.678001664281 -0.297181428142
506372000 0.679043800995 -0.297947308552
506382500 0.678610373627 -0.298319501233
506393000 0.678073618397 -0.298629563717
506403500 0.678156308145 -0.297350875054
506414000 0.677642466353 -0.297758891507
506424500 0.67799049424 -0.297850052481
506435000 0.677645694392 -0.297576761559
506445500 0.673679966683 -0.296859685611
506456000 0.679381659456 -0.29795677207
506466500 0.678774534978 -0.297751490011
506477000 0.677663513307 -0.297556418603
506487500 0.679652794764 -0.296979199115
506498000 0.678454148608 -0.298019209797
506508500 0.678226917751 -0.29799803879
506519000 0.677741716154 -0.29847771757
506529500 0.678631505832 -0.298084740718
506540000 0.680104799701 -0.297857429089
506550500 0.679857930075 -0.299224122726
506561000 0.678641966348 -0.298975526778
506571500 0.679796990222 -0.298839024773
506582000 0.676861663788 -0.299926660389
506592500 0.679626529828 -0.298413919133
506603000 0.67784629228 -0.298976547781
506613500 0.677549286605 -0.301667145458
506624000 0.677860106495 -0.298677885348
506634500 0.679170301601 -0.298971838726
506645000 0.677507097277 -0.297334999366
506655500 0.679663518791 -0.300644850872
506666000 0.677908467396 -0.297195561646
506676500 0.678230017218 -0.299924265558
506687000 0.679643353639 -0.300594189677
506697500 0.679994707151 -0.29710972415
506708000 0.676957154284 -0.29823375155
506718500 0.680201691055 -0.297882773106
506729000 0.677327720242 -0.296635447746
506739500 0.679338658826 -0.298534058151
506750000 0.682128069597 -0.296178024884
506760500 0.680461966366 -0.2987731234
506771000 0.68278407093 -0.299709677292
506781500 0.679904096368 -0.300132625041
506792000 0.679023442637 -0.298811068179
506802500 0.678345646857 -0.298376428878
506813000 0.679133528988 -0.299365581202
506823500 0.67916774975 -0.299714387538
506834000 0.67813465235 -0.296889381035
506844500 0.678330342272 -0.30024543442
506855000 0.678485584047 -0.299997405565
506865500 0.679150744478 -0.299578240716
506876000 0.679041444244 -0.300825284418
506886500 0.678800780367 -0.299032528589
506897000 0.678901890981 -0.299532891736
506907500 0.678138289825 -0.299790853829
506918000 0.679705333617 -0.300260428393
506928500 0.679284379204 -0.299980864991
506939000 0.678622396194 -0.29980585691
506949500 0.679273259245 -0.300122772073
506960000 0.680148077284 -0.300940794256
506970500 0.680000721361 -0.298978781804
506981000 0.679147195899 -0.300591214994
506991500 0.679137248926 -0.300846909503
507002000 0.678667813222 -0.303908018983
507012500 0.679310845486 -0.297708188906
507023000 0.67916183688 -0.300648419109
507033500 0.679660227897 -0.301417392277
507044000 0.679041206974 -0.301177778568
507054500 0.678940060747 -0.302508391114
507065000 0.677857644925 -0.301865737345
507075500 0.68063897812 -0.300866144926
507086000 0.679483174924 -0.301867229864
507096500 0.681225989115 -0.300147335098
507107000 0.683468590124 -0.298123654646
507117500 0.679731216555 -0.302675565265
507128000 0.679822003164 -0.301332456128
507138500 0.680406105966 -0.298081312131
507149000 0.681631053064 -0.303505953047
507159500 0.677612596892 -0.301239472476
507170000 0.682627050375 -0.29531406035
507180500 0.682779707081 -0.298623821469
507191000 0.682689068681 -0.299702305709
507201500 0.67944183557 -0.303511378638
507212000 0.678173781928 -0.299969560242
507222500 0.67327474199 -0.295045163509
507233000 0.679258697679 -0.301695809033
507243500 0.679753631651 -0.298996697922
507254000 0.6805516779 -0.300911179737
507264500 0.686819026325 -0.303971410536
507275000 0.674663582993 -0.283870626156
507285500 0.685625546371 -0.294268893904
507296000 0.680462790967 -0.300989215971
507306500 0.68239057399 -0.303957658512
507317000 0.678817776991 -0.299839505879
507327500 0.687117661832 -0.300142171215
507338000 0.680125991997 -0.314401621977
507348500 0.682895254669 -0.302384212888
507359000 0.68703206464 -0.290217384919
507369500 0.676430160196 -0.295889236276
507380000 0.674373866298 -0.29572591699
507390500 0.680395446049 -0.303966426431
507401000 0.676685245845 -0.294721546715
507411500 0.679027758017 -0.308069397962
507422000 0.680850274654 -0.309230491916
507432500 0.682679393074 -0.303861496373
507443000 0.673520937058 -0.302884738296
507453500 0.676564211663 -0.300221558546
507464000 0.678004237525 -0.295285492169
507474500 0.676431090406 -0.299018267014
507485000 0.683835011634 -0.302552299253
507495500 0.676622743245 -0.294600602665
507506000 0.674119196995 -0.29604005497
507516500 0.680494303864 -0.304114941998
507527000 0.685254158943 -0.295352870694
507537500 0.680336378672 -0.305378001332
507548000 0.684957790304 -0.307515042197
507558500 0.67679641205 -0.297362566292
507569000 0.693127134365 -0.289921043972
507579500 0.686100276015 -0.312836255803
507590000 0.682180290672 -0.311187575036
507600500 0.676042593742 -0.31310446021
507611000 0.674256034341 -0.297723261998
507621500 0.676473116309 -0.301000539356
507632000 0.682480519045 -0.29639535679
507642500 0.682039358979 -0.297057439933
507653000 0.688702786362 -0.304098184772
507663500 0.676182725417 -0.319368769202
507674000 0.68622156183 -0.304030906198
507684500 0.683869053808 -0.309407029975
507695000 0.678331820987 -0.309777585371
507705500 0.67848154753 -0.298686994631
507716000 0.678747406864 -0.308544654705
507726500 0.676125431547 -0.307029701827
507737000 0.678762339041 -0.316639916822
507747500 0.677320754181 -0.304129604694
507758000 0.682095984673 -0.306518635243
507768500 0.681689699009 -0.306324360511
507779000 0.681690374172 -0.308287679416
507789500 0.677414290528 -0.296970732071
507800000 0.677317464828 -0.305337835357
507810500 0.678867520166 -0.307766105281
507821000 0.677083952332 -0.303615371599
507831500 0.67655814244 -0.303224031151
507842000 0.681179839542 -0.30599891984
507852500 0.679585084091 -0.306788696487
507863000 0.680657814683 -0.304775027616
507873500 0.680216541126 -0.304295328649
507884000 0.68003079175 -0.305518129606
507894500 0.683057041339 -0.305295793613
507905000 0.682823485475 -0.303844035952
507915500 0.682566556407 -0.306004659461
507926000 0.681608122668 -0.306299973717
507936500 0.680738302569 -0.30555455117
507947000 0.68170823175 -0.307083372874
507957500 0.68179882821 -0.30629918743
507968000 0.68367797738 -0.306878733699
507978500 0.681404199454 -0.306221972265
507989000 0.680906305361 -0.305912511084
507999500 0.679935301656 -0.305936179743
508010000 0.681480856989 -0.304248267402
508020500 0.679766067823 -0.305700304265
508031000 0.680011051906 -0.305809844046
508041500 0.680967234104 -0.305435296466
508052000 0.680211659201 -0.304994802754
508062500 0.680278979426 -0.304549273081
508073000 0.682036345859 -0.305418958919
508083500 0.68036471114 -0.305774876495
508094000 0.679342943035 -0.306376698208
508104500 0.679603880403 -0.305134910294
508115000 0.678657539124 -0.306160739256
508125500 0.680197454299 -0.30580977758
508136000 0.680330695893 -0.306085570238
508146500 0.681473116069 -0.305922458715
508157000 0.681113795026 -0.305339939067
508167500 0.679574471453 -0.306378762767
508178000 0.679975721624 -0.305831883253
508188500 0.679548613154 -0.306851270414
508199000 0.681460878237 -0.305649983533
508209500 0.679410906277 -0.306900474886
508220000 0.680903843736 -0.307375199991
508230500 0.681525063876 -0.305902141974
508241000 0.679855720424 -0.307763416006
508251500 0.680726646268 -0.304699648892
508262000 0.680336519937 -0.306897633584
508272500 0.679393835784 -0.306405036943
508283000 0.680058196122 -0.308380295721
508293500 0.681182153643 -0.307530590663
508304000 0.681412737572 -0.306473553447
508314500 0.680803536622 -0.307966849839
508325000 0.680395024827 -0.308475337336
508335500 0.680662177326 -0.307415195856
508346000 0.681631655241 -0.307967975455
508356500 0.680923739598 -0.307595025304
508367000 0.683068592462 -0.307793560933
508377500 0.681626749207 -0.30855381023
508388000 0.681419542378 -0.306742909902
508398500 0.680624296971 -0.307964704367
508409000 0.68070507053 -0.307567597539
508419500 0.680231390577 -0.307775380668
508430000 0.680532529871 -0.307484809438
508440500 0.680537728132 -0.307530489407
508451000 0.681719056113 -0.308162788815
508461500 0.680888055884 -0.308087245477
508472000 0.681387992135 -0.308447199302
508482500 0.680892369761 -0.307540510814
508493000 0.680785516591 -0.308105084261
508503500 0.680251941607 -0.307632003564
508514000 0.680099970182 -0.308514246433
508524500 0.680893536851 -0.308166597103
508535000 0.680067377061 -0.308086594352
508545500 0.681148201006 -0.308978998991
508556000 0.681147896184 -0.309077863179
508566500 0.6809804157 -0.308752214062
508577000 0.680988096616 -0.30836821048
508587500 0.681535315244 -0.309074667201
508598000 0.681314799357 -0.308940041881
508608500 0.681276972329 -0.308580569691
508619000 0.681089146919 -0.308604040641
508629500 0.680807340961 -0.308398277635
508640000 0.680832267652 -0.308435983366
508650500 0.680830959825 -0.308397412423
508661000 0.680924279508 -0.308445419012
508671500 0.680872168113 -0.309091633716
508682000 0.680662022757 -0.309095727348
508692500 0.680922198628 -0.308756085985
508703000 0.68068123993 -0.309087119829
508713500 0.68064702776 -0.308652783582
508724000 0.68183165024 -0.308818217217
508734500 0.681674143037 -0.308885955146
508745000 0.681556026057 -0.308624551133
508755500 0.681395317391 -0.309494755673
508766000 0.681644335824 -0.308938171791
508776500 0.681293041413 -0.309054205425
508787000 0.681096721733 -0.309317868955
508797500 0.681444741086 -0.309085200393
508808000 0.681118894684 -0.30945990121
508818500 0.681347607664 -0.309620429164
508829000 0.680779429668 -0.30899662934
508839500 0.680735834944 -0.309069079755
508850000 0.680795135093 -0.308254295921
508860500 0.681688740779 -0.308615987511
508871000 0.682080855412 -0.309215073994
508881500 0.681717175941 -0.309551659078
508892000 0.681805264506 -0.309860695036
508902500 0.682071594286 -0.309197166036
508913000 0.681245880544 -0.309684580961
508923500 0.681628053345 -0.309784513915
508934000 0.681867892529 -0.30903444996
508944500 0.681432936462 -0.309318163414
508955000 0.681380662778 -0.309141453143
508965500 0.6815373275 -0.309387201851
508976000 0.681381976902 -0.309436625659
508986500 0.680911009856 -0.309016954109
508997000 0.68167847917 -0.308822838815
509007500 0.681380612517 -0.309234058922
509018000 0.681555074938 -0.30912913971
509028500 0.681307199036 -0.309416155459
509039000 0.681640680028 -0.309488193003
509049500 0.680940996576 -0.309155567352
509060000 0.681098807066 -0.30924910334
509070500 0.681471034376 -0.309685227142
509081000 0.681712077557 -0.30953169233
509091500 0.681930461112 -0.309788500537
509102000 0.681678846913 -0.310495278235
509112500 0.68145925551 -0.310641527654
509123000 0.68185793351 -0.310088303318
509133500 0.681408828101 -0.309973198948
509144000 0.687005192874 -0.317969056299
509154500 0.680674085434 -0.311685309431
509165000 0.674329640874 -0.30636610983
509175500 0.679735572371 -0.312267481148
509186000 0.68118461989 -0.311572034162
509196500 0.681915776478 -0.310825606946
509207000 0.682274749265 -0.311161713125
509217500 0.682207325142 -0.311687057099
509228000 0.682138151416 -0.310858367274
509238500 0.682004860332 -0.31118374814
509249000 0.681227977873 -0.310685153544
509259500 0.681537321541 -0.311184146005
509270000 0.682419094377 -0.311515228845
509280500 0.682502933237 -0.311691579109
509291000 0.681855309131 -0.311455694254
509301500 0.681796016716 -0.311586288625
509312000 0.681956920152 -0.311931220234
509322500 0.682406212038 -0.311755566737
509333000 0.681924223251 -0.311535811645
509343500 0.681722184969 -0.310830766997
509354000 0.68197695407 -0.311459540696
509364500 0.681812942597 -0.31178918782
509375000 0.681245249882 -0.311563033905
509385500 0.68177021269 -0.311810864499
509396000 0.681697623543 -0.311636997822
509406500 0.682070859542 -0.311712093381
509417000 0.681653801762 -0.311551368042
509427500 0.681591525147 -0.311377660941
509438000 0.681385899002 -0.311887843065
509448500 0.681965987209 -0.312097830988
509459000 0.682065552161 -0.312138415372
509469500 0.682133738919 -0.312400802159
509480000 0.682122587525 -0.311813466807
509490500 0.682364368252 -0.311779445072
509501000 0.68194741081 -0.31196026268
509511500 0.681758236973 -0.312139106239
509522000 0.681704275731 -0.312090570741
509532500 0.682095333745 -0.312013073948
509543000 0.681935558807 -0.311907062168
509553500 0.68132474989 -0.311950255681
509564000 0.681725044317 -0.31218981561
509574500 0.68149475352 -0.31235841648
509585000 0.681814979174 -0.311047700209
509595500 0.681828557469 -0.311117182551
509606000 0.681946929766 -0.311470162407
509616500 0.682331316856 -0.312473904901
509627000 0.682019820222 -0.312773382329
509637500 0.682572357283 -0.31245905018
509648000 0.682021094368 -0.31210733602
509658500 0.681823526553 -0.312304334211
509669000 0.682311645653 -0.312664143374
509679500 0.681882578011 -0.31239504148
509690000 0.682175721904 -0.312875152498
509700500 0.682156720279 -0.313020528216
509711000 0.682586341008 -0.312243206943
509721500 0.682056181495 -0.31233673159
509732000 0.681788306663 -0.312444740386
509742500 0.681455445925 -0.313185028404
509753000 0.68210999307 -0.312640564846
509763500 0.682182409364 -0.312890639882
509774000 0.682410956741 -0.312227812817
509784500 0.682311500472 -0.313019500262
509795000 0.682701070957 -0.312916800699
509805500 0.682381788222 -0.313005978429
509816000 0.682164533514 -0.313209420357
509826500 0.682439128555 -0.312753166282
509837000 0.682755476992 -0.313159911479
509847500 0.68349315513 -0.313666382694
509858000 0.683297481002 -0.313912326978
509868500 0.683244628793 -0.313165052292
509879000 0.682497255741 -0.313924851142
509889500 0.682410209122 -0.313681990436
509900000 0.68238597161 -0.313458780123
509910500 0.681912915465 -0.313972442438
509921000 0.6822371105 -0.313899145314
509931500 0.682534230921 -0.313350822201
509942000 0.683346315868 -0.313770456508
509952500 0.68221443499 -0.31359344313
509963000 0.682183082583 -0.314056741126
509973500 0.681829414109 -0.313630956115
509984000 0.682138594714 -0.314063304594
509994500 0.682199133029 -0.314408546645
510005000 0.682329490239 -0.314550214201
510015500 0.682462603646 -0.31427654759
510026000 0.68280669451 -0.313826499676
510036500 0.682439827179 -0.314390288715
510047000 0.682135665936 -0.313944641667
510057500 0.682773648843 -0.314152271604
510068000 0.683023287826 -0.314054677986
510078500 0.682128630175 -0.314148665155
510089000 0.682171667384 -0.313562556423
510099500 0.682443116333 -0.314224265407
510110000 0.68200467845 -0.314654090941
510120500 0.681779331895 -0.314458227556
510131000 0.682024811374 -0.314255014567
510141500 0.680988614532 -0.313691058626
510152000 0.681935350384 -0.314525691753
510162500 0.681877834416 -0.31511621468
510173000 0.682258395493 -0.31452973486
510183500 0.681954367044 -0.314534626725
510194000 0.682054538334 -0.315250100197
510204500 0.681985168843 -0.315185297193
510215000 0.68195960547 -0.315597381852
510225500 0.681132869046 -0.315275322648
510236000 0.682261295725 -0.315228690054
510246500 0.682271035256 -0.315761320926
510257000 0.682640984871 -0.316077212287
510267500 0.682647740569 -0.315495725526
510278000 0.682867391409 -0.316016284841
510288500 0.683029793333 -0.315418734434
510299000 0.68248361341 -0.315420737651
510309500 0.682654184014 -0.315422636835
510320000 0.682248572189 -0.314698563208
510330500 0.682254513558 -0.314910167675
510341000 0.682211759399 -0.315721348076
510351500 0.681804942555 -0.315139035442
510362000 0.682069245412 -0.315590829182
510372500 0.681619587056 -0.31562028135
510383000 0.681672213157 -0.316072962194
510393500 0.682001343774 -0.316162664874
510404000 0.682166337836 -0.316383033314
510414500 0.682277395318 -0.315845658857
510425000 0.68198282668 -0.316130294003
510435500 0.681600542738 -0.316430609096
510446000 0.681553403556 -0.315858365517
510456500 0.68190339723 -0.315477600744
510467000 0.682294269332 -0.315258185261
510477500 0.68243808887 -0.315539441567
510488000 0.682698349066 -0.316097372804
510498500 0.682132511929 -0.315797151276
510509000 0.682463655478 -0.316082834293
510519500 0.681760741679 -0.316653533841
510530000 0.681972325667 -0.316227562008
510540500 0.681967255296 -0.31706653224
510551000 0.682509801733 -0.317218487072
510561500 0.682428988935 -0.316965300145
510572000 0.682478666292 -0.317223646169
510582500 0.682338521451 -0.317361608743
510593000 0.682478811884 -0.316701204614
510603500 0.682014459188 -0.31715924159
510614000 0.682342832009 -0.3175261383
510624500 0.682384327563 -0.317462693404
510635000 0.682357585 -0.317229042246
510645500 0.68270279807 -0.317355361093
510656000 0.681948587521 -0.317465067607
510666500 0.682609337009 -0.317991525197
510677000 0.682675578103 -0.317412638494
510687500 0.68261747906 -0.31749591885
510698000 0.682330464232 -0.317451291157
510708500 0.682636992324 -0.317598510037
510719000 0.682804290992 -0.317207312429
510729500 0.68294954176 -0.317113660393
510740000 0.683242292678 -0.317074939771
510750500 0.683259542632 -0.317688105818
510761000 0.682990249445 -0.318146626
510771500 0.682792489129 -0.318158679201
510782000 0.683244164577 -0.318143275148
510792500 0.682496505866 -0.31795078175
510803000 0.682726856216 -0.31582617773
510813500 0.682481174213 -0.317730311183
510824000 0.682576052777 -0.318061969042
510834500 0.683421323443 -0.31812046349
510845000 0.682075057691 -0.318057400388
510855500 0.682170121563 -0.318430729655
510866000 0.682378882847 -0.317950568972
510876500 0.682442802835 -0.318373969395
510887000 0.682521602023 -0.318259320826
510897500 0.682634832445 -0.318128026663
510908000 0.682601957057 -0.317632628958
510918500 0.681949791121 -0.317980712255
510929000 0.682003776363 -0.317994743903
510939500 0.682423832369 -0.318504052409
510950000 0.682707731913 -0.31817251571
510960500 0.682609130489 -0.319205545626
510971000 0.682232699477 -0.318315090301
510981500 0.682352243701 -0.318048776787
510992000 0.682105137491 -0.318470442785
511002500 0.682226867343 -0.318426363491
511013000 0.682184668838 -0.318515662958
511023500 0.682586518291 -0.318296981611
511034000 0.68251776131 -0.317823041472
511044500 0.683255415911 -0.318659710076
511055000 0.683116345082 -0.31918398914
511065500 0.683237432411 -0.319518189573
511076000 0.682916329783 -0.318908693672
511086500 0.682247076106 -0.318729082572
511097000 0.681958577968 -0.318958599537
511107500 0.681841942119 -0.320110803117
511118000 0.682310069216 -0.319221442534
511128500 0.682547076381 -0.319792092139
511139000 0.682266532593 -0.319778231304
511149500 0.682733872159 -0.319678601367
511160000 0.682470349273 -0.319578514214
511170500 0.683394677752 -0.319897365117
511181000 0.682958434173 -0.320379620928
511191500 0.681937400068 -0.320995956025
511202000 0.680540921144 -0.321477337785
511212500 0.680390093897 -0.321502532061
511223000 0.680960662748 -0.320579836906
511233500 0.68204808869 -0.319804335983
511244000 0.68248585746 -0.319987121812
511254500 0.682547504399 -0.319390266966
511265000 0.68314425093 -0.319339480694
511275500 0.682393488903 -0.319345428126
511286000 0.682231588209 -0.319816776944
511296500 0.682133814307 -0.319291264193
511307000 0.682451213278 -0.31969069722
511317500 0.682660310171 -0.319177539226
511328000 0.68244192948 -0.319493888117
511338500 0.683001388563 -0.319338811434
511349000 0.682811479301 -0.319876707248
511359500 0.682590153919 -0.320082969363
511370000 0.681969057184 -0.320504561887
511380500 0.682107464599 -0.320420403067
511391000 0.682433336395 -0.320270435924
511401500 0.682159798815 -0.320090166126
511412000 0.682941511239 -0.319991176489
511422500 0.682143683626 -0.319529725469
511433000 0.68412621659 -0.321299436691
511443500 0.683474326552 -0.319806772495
511454000 0.683384576852 -0.321679817949
511464500 0.681790936652 -0.323441612923
511475000 0.680454517326 -0.3215551725
511485500 0.685258481358 -0.32205142515
511496000 0.681907163289 -0.32074232649
511506500 0.680245785804 -0.317438362245
511517000 0.683262722865 -0.32147874012
511527500 0.679818156455 -0.32056256479
511538000 0.684851338831 -0.322709895172
511548500 0.686380638604 -0.318113475932
511559000 0.682084445427 -0.321231263751
511569500 0.682954128569 -0.320245164459
511580000 0.683278511286 -0.321556372019
511590500 0.684640392763 -0.323427050319
511601000 0.682931686541 -0.317898901294
511611500 0.67814873802 -0.318719531527
511622000 0.685512371625 -0.324578092243
511632500 0.683565636306 -0.323106039501
511643000 0.686006351307 -0.324786841946
511653500 0.682418267705 -0.323811781394
511664000 0.683411513134 -0.317007510268
511674500 0.683608537301 -0.325029001366
511685000 0.685433783003 -0.321228568456
511695500 0.682619886043 -0.321392320003
511706000 0.683154636684 -0.320882474251
511716500 0.680967798383 -0.322849125117
511727000 0.681115072935 -0.323879883965
511737500 0.6828146837 -0.322849950562
511748000 0.682654383415 -0.322966423389
511758500 0.682952643894 -0.325161991551
511769000 0.680491356403 -0.320453352594
511779500 0.682432537001 -0.323790059974
511790000 0.683630685308 -0.319820739735
511800500 0.683949470652 -0.322462271168
511811000 0.681504891141 -0.322258538761
511821500 0.678953413776 -0.324579820985
511832000 0.681735405458 -0.320388556853
511842500 0.68185996241 -0.321136516606
511853000 0.682600304268 -0.320755984946
511863500 0.680498982612 -0.32581426349
511874000 0.683924290064 -0.322934095381
511884500 0.680332439723 -0.321494280175
511895000 0.683926938378 -0.32004496364
511905500 0.684024567855 -0.32407579745
511916000 0.682004614792 -0.321915190289
511926500 0.682587914943 -0.321592918432
511937000 0.682957534427 -0.322383284523
511947500 0.683288170278 -0.32246406743
511958000 0.68208680379 -0.323154676598
511968500 0.682108233457 -0.322893508123
511979000 0.684758480614 -0.324387204236
511989500 0.683696864094 -0.322386799106
512000000 0.681894423164 -0.324962825856
