! Calibrated averaged scanner-service zoom
# Hz S RI R 50
935000000 0.0638921126855 -0.918550399992
935006000 0.0622027512289 -0.916784260567
935012000 0.0628317843809 -0.915009518897
935018000 0.062378244001 -0.916410862919
935024000 0.0619998547967 -0.916487973225
935030000 0.0572810293405 -0.916792162832
935036000 0.0569730168952 -0.91589567952
935042000 0.0542304775405 -0.916052777915
935048000 0.0552955204925 -0.914353784758
935054000 0.0564252559622 -0.91542538587
935060000 0.054327001767 -0.915895262479
935066000 0.0583422906937 -0.915350631534
935072000 0.0556160727164 -0.912837218741
935078000 0.0563516248779 -0.913268842247
935084000 0.0572969699842 -0.910181432654
935090000 0.0566330355018 -0.910877218737
935096000 0.0598159599276 -0.912530908303
935102000 0.0565509294299 -0.912416415554
935108000 0.0602793994635 -0.914016622238
935114000 0.0589145634152 -0.916419987584
935120000 0.0577695797983 -0.920037315101
935126000 0.0591786257426 -0.921188911589
935132000 0.0573670428724 -0.922485530109
935138000 0.0597025735694 -0.919699889514
935144000 0.0575533431252 -0.91833120001
935150000 0.0604965000727 -0.918473722049
935156000 0.0596503537776 -0.915471440492
935162000 0.0619282488932 -0.91514339357
935168000 0.0604259840182 -0.918659621247
935174000 0.0598809572685 -0.915477447226
935180000 0.06058913524 -0.91644494003
935186000 0.058618736165 -0.916981767632
935192000 0.0602053452295 -0.919690858811
935198000 0.0577826033035 -0.917145190123
935204000 0.0592737137988 -0.916304167841
935210000 0.0566060079394 -0.914669981535
935216000 0.0563131577825 -0.91612945392
935222000 0.055576950716 -0.919121804399
935228000 0.0588888578082 -0.914245062985
935234000 0.0564821118393 -0.913246433456
935240000 0.0549787095339 -0.913099211206
935246000 0.0573368506507 -0.915312292752
935252000 0.054773638568 -0.914615102137
935258000 0.0525803091406 -0.91710241805
935264000 0.0514544635514 -0.917401123951
935270000 0.0494170933937 -0.920118518197
935276000 0.0527202371537 -0.920768195945
935282000 0.0542100436116 -0.919299004101
935288000 0.0597686644744 -0.922981189383
935294000 0.0615447784989 -0.920944224749
935300000 0.0616151603581 -0.921265846305
935306000 0.062886760525 -0.919424938439
935312000 0.0619469807109 -0.919462338721
935318000 0.0596657077629 -0.918423353891
935324000 0.0572990316928 -0.915733518814
935330000 0.0603028771034 -0.914922149451
935336000 0.0597697455377 -0.917716822228
935342000 0.0610203695503 -0.915435994719
935348000 0.0588354255094 -0.915774277335
935354000 0.0605307627921 -0.915580963384
935360000 0.0599581355666 -0.91630529599
935366000 0.0596860068781 -0.916587135686
935372000 0.058308178315 -0.916635947293
935378000 0.0605204090847 -0.914888096179
935384000 0.0585055794832 -0.916121099389
935390000 0.0579296104019 -0.915528676024
935396000 0.059998336342 -0.918303457262
935402000 0.0623209456415 -0.919641309914
935408000 0.0639404762863 -0.922471867808
935414000 0.062375430151 -0.921661785795
935420000 0.064897188016 -0.9219315731
935426000 0.0647963517408 -0.920688333855
935432000 0.062440312908 -0.919260316513
935438000 0.0633838697694 -0.917795839117
935444000 0.0644178813205 -0.91637439273
935450000 0.0611641627024 -0.915338848526
935456000 0.06182844311 -0.914940875339
935462000 0.062128281638 -0.914832537819
935468000 0.0615914589313 -0.912570591157
935474000 0.0603921573054 -0.911575341319
935480000 0.0610549246424 -0.912738833652
935486000 0.0604771895285 -0.917424365752
935492000 0.0620203128598 -0.914723141467
935498000 0.0621006514676 -0.913869744541
935504000 0.0625875459831 -0.914110953629
935510000 0.0611812316761 -0.914362306053
935516000 0.0615559520865 -0.913139619348
935522000 0.0575518436208 -0.917381768459
935528000 0.0589149398279 -0.916296378415
935534000 0.059890803828 -0.915464650589
935540000 0.0600352855889 -0.915986412279
935546000 0.0581902095351 -0.915192279262
935552000 0.0578317101322 -0.916187430372
935558000 0.0563290241513 -0.914437191084
935564000 0.0570272373565 -0.915293145239
935570000 0.0583617324504 -0.917495500684
935576000 0.0578481489856 -0.916902213829
935582000 0.0593016674992 -0.917542943256
935588000 0.0583095890107 -0.917219506946
935594000 0.0570927776345 -0.918118750187
935600000 0.0552213746746 -0.918842785084
935606000 0.0569678898696 -0.919334255202
935612000 0.0567107729694 -0.919946735228
935618000 0.0578716776833 -0.91918073981
935624000 0.0561532764673 -0.917547270703
935630000 0.0564759668343 -0.918372045193
935636000 0.0557865940336 -0.916546101111
935642000 0.0546021311122 -0.915178684792
935648000 0.05550305783 -0.915039702587
935654000 0.0582400922853 -0.912222447518
935660000 0.0590039642395 -0.914845461839
935666000 0.0587698965522 -0.911400058228
935672000 0.0611689771819 -0.913732043783
935678000 0.059595603964 -0.914709869173
935684000 0.0597450274917 -0.917007823691
935690000 0.0603218206659 -0.91710757519
935696000 0.0587392412298 -0.917492978422
935702000 0.0596929910977 -0.918726220769
935708000 0.0583844404909 -0.92006746282
935714000 0.0587631829425 -0.918523521486
935720000 0.0600873785205 -0.915855193777
935726000 0.059108214377 -0.916344362247
935732000 0.0562762186469 -0.91297256861
935738000 0.0567710398714 -0.917520906013
935744000 0.0548680879925 -0.913078681556
935750000 0.0563034002886 -0.914892113357
935756000 0.0538001522043 -0.914484738672
935762000 0.0563805712851 -0.915007536817
935768000 0.055684484981 -0.916122054552
935774000 0.0552518907623 -0.916785946471
935780000 0.0558363457594 -0.918138492872
935786000 0.0550438399809 -0.921886223886
935792000 0.0555214618006 -0.919474868935
935798000 0.0553960010153 -0.920406579715
935804000 0.0554791046402 -0.920326454986
935810000 0.0585859292807 -0.916318529258
935816000 0.0572775459369 -0.918087614573
935822000 0.0611623702747 -0.917148067956
935828000 0.057751754794 -0.919385834424
935834000 0.0622211858304 -0.918160336405
935840000 0.0610420582464 -0.918480580968
935846000 0.0646307440417 -0.918852145371
935852000 0.0600907013519 -0.920453749815
935858000 0.0590085222314 -0.917271800002
935864000 0.056063495806 -0.916343942554
935870000 0.0572425838161 -0.916372056664
935876000 0.0537510016928 -0.915011144426
935882000 0.0549664871887 -0.917714493098
935888000 0.0531480408692 -0.917285786906
935894000 0.0516180581694 -0.917087133589
935900000 0.0514181413514 -0.918699213618
935906000 0.0531239779323 -0.917720316386
935912000 0.0566288212027 -0.917334138051
935918000 0.0550990608425 -0.913653503035
935924000 0.0570626382611 -0.913353988079
935930000 0.0592629625787 -0.912913742151
935936000 0.0588439180385 -0.911360508407
935942000 0.0588485852374 -0.914404719654
935948000 0.0592410872604 -0.91459735662
935954000 0.0598322425943 -0.91558716158
935960000 0.05919060223 -0.916318386363
935966000 0.0592958470831 -0.914573217499
935972000 0.0570787701024 -0.913591447716
935978000 0.055516748 -0.910284387503
935984000 0.0571229798741 -0.910118545195
935990000 0.0565090454634 -0.908358425842
935996000 0.0589472676075 -0.909351495839
936002000 0.0587524786714 -0.911390441361
936008000 0.057601006326 -0.91615220287
936014000 0.0581773005822 -0.918541055999
936020000 0.0576655081078 -0.917989894877
936026000 0.0593617566685 -0.918051516699
936032000 0.0559717413248 -0.920604818999
936038000 0.0553477311677 -0.91846244866
936044000 0.0531512769644 -0.919209817982
936050000 0.0544577642524 -0.918314186808
936056000 0.0551686976037 -0.918258344456
936062000 0.0564388623099 -0.918768493372
936068000 0.0573699558392 -0.919859651165
936074000 0.0572462739495 -0.918359051455
936080000 0.055830218133 -0.918111505033
936086000 0.0565117983988 -0.914366628381
936092000 0.0577228511022 -0.915680150822
936098000 0.0571471458382 -0.913941842362
936104000 0.0565082702163 -0.915928297321
936110000 0.0561916772138 -0.912717161575
936116000 0.0572924179013 -0.914120981395
936122000 0.0581762518574 -0.912334541922
936128000 0.0596529049166 -0.910804427392
936134000 0.0562840322643 -0.911351699062
936140000 0.0594722390347 -0.910216203242
936146000 0.0606315147232 -0.911165797926
936152000 0.0606560005994 -0.912261941111
936158000 0.0638573204235 -0.912050904795
936164000 0.0597550416529 -0.913879335262
936170000 0.0596481164534 -0.914293248851
936176000 0.0608642688364 -0.912115922506
936182000 0.0593381034838 -0.911203619266
936188000 0.0606336227932 -0.914037457587
936194000 0.0586889518161 -0.913740596467
936200000 0.0578558742417 -0.916247675733
936206000 0.0567513518227 -0.915549228309
936212000 0.0581137983668 -0.917696398673
936218000 0.0604368573444 -0.922602915919
936224000 0.059225896173 -0.918967194671
936230000 0.0564243056984 -0.919550957919
936236000 0.059648398993 -0.918807431179
936242000 0.0592384485484 -0.917070467085
936248000 0.060080480898 -0.916787286717
936254000 0.0579411037454 -0.916767404751
936260000 0.0563677689 -0.918173583384
936266000 0.0564504874044 -0.916895459676
936272000 0.0562855141933 -0.918492492698
936278000 0.0564952783864 -0.917838010995
936284000 0.0564101141864 -0.918346738125
936290000 0.0547079940173 -0.917984513297
936296000 0.0551391432017 -0.917009514025
936302000 0.0537856133993 -0.918084884872
936308000 0.054006114729 -0.91719865632
936314000 0.053907548303 -0.918467530926
936320000 0.0543460405921 -0.918495764521
936326000 0.052387769926 -0.919370600599
936332000 0.0497499332189 -0.917295372932
936338000 0.0523231048199 -0.91975733917
936344000 0.0529279687981 -0.918655943912
936350000 0.0545673185192 -0.917075831156
936356000 0.0556664248036 -0.918845540981
936362000 0.0571382492062 -0.916725284769
936368000 0.0570813796164 -0.917820468174
936374000 0.0579290050583 -0.916558186351
936380000 0.0612526868878 -0.919775137002
936386000 0.0623797046341 -0.920628476333
936392000 0.0604020564229 -0.918780799962
936398000 0.0591288415288 -0.917540123492
936404000 0.0583165098615 -0.916820520754
936410000 0.057120144866 -0.914406718094
936416000 0.0556695064285 -0.913754617164
936422000 0.0526441735363 -0.912775436495
936428000 0.054397893409 -0.913970222073
936434000 0.0552668532921 -0.913689557703
936440000 0.0567449452311 -0.91640083854
936446000 0.0563744683538 -0.914193548945
936452000 0.0567688013246 -0.91664863972
936458000 0.0558216852691 -0.915915240729
936464000 0.0542508253213 -0.915260152444
936470000 0.0547104567224 -0.91637983571
936476000 0.0526171294837 -0.915166313392
936482000 0.0529656068182 -0.917486766262
936488000 0.056046872627 -0.915772314871
936494000 0.0542914719076 -0.914995221768
936500000 0.0529855250365 -0.915917080704
936506000 0.0552483580759 -0.914018091844
936512000 0.0554666790494 -0.91607593293
936518000 0.0558683814077 -0.913898886606
936524000 0.054477163134 -0.914214895302
936530000 0.0564844048912 -0.915029281789
936536000 0.0588968916456 -0.914321188866
936542000 0.0551814732566 -0.914482804692
936548000 0.0552601904525 -0.913238864947
936554000 0.0558876285469 -0.914154585748
936560000 0.0568690556151 -0.91576529406
936566000 0.0548960309025 -0.911949830798
936572000 0.0555996302654 -0.914611632533
936578000 0.0543906495033 -0.914997379091
936584000 0.0549860043083 -0.914617293482
936590000 0.054534564157 -0.914774293923
936596000 0.0551853441101 -0.915575906836
936602000 0.0558706976249 -0.914878540869
936608000 0.0577079293907 -0.914401452069
936614000 0.0571124413849 -0.913745780892
936620000 0.0576195552114 -0.911083997642
936626000 0.0588402212798 -0.915340164426
936632000 0.0589551474315 -0.915056608852
936638000 0.0595473118704 -0.916397931529
936644000 0.0550833765334 -0.918747195333
936650000 0.0577979490724 -0.917681466889
936656000 0.0574145416552 -0.918087792488
936662000 0.0602368791603 -0.919617431473
936668000 0.0589043369081 -0.91940673796
936674000 0.058963654543 -0.921104550927
936680000 0.0614392656746 -0.921551624821
936686000 0.0587253602251 -0.920019007774
936692000 0.0585356885175 -0.920532643765
936698000 0.0587198103069 -0.918282431735
936704000 0.0564390969043 -0.918743193408
936710000 0.0573688709089 -0.919582461124
936716000 0.0563438752681 -0.91823047048
936722000 0.0539334260075 -0.91613215089
936728000 0.0530068639954 -0.914652584445
936734000 0.0523560123303 -0.918083318557
936740000 0.0520973733202 -0.91682667358
936746000 0.0515542324665 -0.914079458165
936752000 0.0548691361913 -0.914365564874
936758000 0.0568964568193 -0.915543424544
936764000 0.0558287414624 -0.911911865061
936770000 0.0566570615546 -0.915312191748
936776000 0.054996408203 -0.91567693204
936782000 0.0553053714263 -0.918314354821
936788000 0.0542988543457 -0.9211981355
936794000 0.0541499347839 -0.920619717262
936800000 0.0560741443521 -0.921120358481
936806000 0.0554040544626 -0.920215205564
936812000 0.0560902516171 -0.918728059256
936818000 0.0540958959809 -0.916723035775
936824000 0.0557064415327 -0.916684966774
936830000 0.0574723795021 -0.916935263918
936836000 0.0577372734784 -0.916943496615
936842000 0.0555429929887 -0.917900131606
936848000 0.0551068103327 -0.917894548282
936854000 0.0562391566837 -0.91855477116
936860000 0.0570425238474 -0.917442517224
936866000 0.0553284588551 -0.917554431583
936872000 0.0535274574494 -0.915658986806
936878000 0.0552069576747 -0.914468615889
936884000 0.055506623553 -0.916335084137
936890000 0.057617881863 -0.914963779152
936896000 0.0601024785952 -0.916750307875
936902000 0.0592038654615 -0.915957886473
936908000 0.0639685450912 -0.915198195149
936914000 0.0639655425498 -0.914834569607
936920000 0.0620847009865 -0.91364040612
936926000 0.0602094648688 -0.914271789688
936932000 0.0583196766306 -0.91587551587
936938000 0.0567218062741 -0.914220369522
936944000 0.056355597074 -0.916536753765
936950000 0.0547634651602 -0.913983645426
936956000 0.0522269912686 -0.91486552468
936962000 0.0512022408564 -0.914381957993
936968000 0.0505142820461 -0.916110018274
936974000 0.0535573159441 -0.916101256536
936980000 0.0540477676054 -0.915310798154
936986000 0.0552775072532 -0.917278440301
936992000 0.0564050470417 -0.917892436478
936998000 0.0577419030979 -0.919486373169
937004000 0.0552863676305 -0.920758865476
937010000 0.0547914008953 -0.919786170253
937016000 0.0565516898786 -0.923592516251
937022000 0.0507755883324 -0.92071483759
937028000 0.0518749182026 -0.919086309045
937034000 0.0533998435151 -0.918155087984
937040000 0.0559271699727 -0.915769634525
937046000 0.0583391080454 -0.912979267695
937052000 0.0569798849091 -0.911380693403
937058000 0.0587245268521 -0.911422485008
937064000 0.0547027700006 -0.912951969431
937070000 0.0564013177246 -0.914961533928
937076000 0.0571232019352 -0.915013217063
937082000 0.0569029760209 -0.91592119229
937088000 0.0567529430088 -0.914990182616
937094000 0.0559072873989 -0.91507542872
937100000 0.0527712020167 -0.914401838918
937106000 0.0537421130359 -0.914863996503
937112000 0.0516276553259 -0.914691605813
937118000 0.0508321186279 -0.913254234109
937124000 0.0552885464736 -0.913859953754
937130000 0.0565513949535 -0.912356412765
937136000 0.0580366875294 -0.910394677623
937142000 0.0591493233351 -0.911678359398
937148000 0.0591154363233 -0.913575676487
937154000 0.0560266823095 -0.914579714067
937160000 0.0549207618722 -0.915761392055
937166000 0.0542249260377 -0.918576370062
937172000 0.0545376117718 -0.918014202588
937178000 0.0559905617032 -0.92022936216
937184000 0.0567681755065 -0.917814265702
937190000 0.0584289371725 -0.919645724648
937196000 0.057465275755 -0.919549914865
937202000 0.0570272598422 -0.919539146876
937208000 0.0584210675943 -0.917172622684
937214000 0.0589145407258 -0.912990395546
937220000 0.0600489506796 -0.911702307475
937226000 0.0575104351169 -0.909543460723
937232000 0.0560882399607 -0.911112923152
937238000 0.0581935918124 -0.910361003616
937244000 0.0561225073283 -0.91223575533
937250000 0.054751458111 -0.911790192558
937256000 0.0546930305647 -0.911103579587
937262000 0.056034837234 -0.910465511455
937268000 0.0556463721688 -0.912908362859
937274000 0.0557123500931 -0.911706159007
937280000 0.0559770984284 -0.912179828973
937286000 0.0568256479817 -0.913292441918
937292000 0.0573560064775 -0.912678706491
937298000 0.0569690540188 -0.910779075581
937304000 0.0582810705641 -0.913641116413
937310000 0.0578761347678 -0.912593330472
937316000 0.056837904822 -0.915395976589
937322000 0.0566585605477 -0.914152394132
937328000 0.056793581769 -0.915673309597
937334000 0.0525596845434 -0.914313370566
937340000 0.0535201786012 -0.915003887456
937346000 0.0520940437892 -0.916603110462
937352000 0.0543326424846 -0.917696751341
937358000 0.0554019197102 -0.915751860819
937364000 0.0594186934057 -0.91524164195
937370000 0.0578153688327 -0.917732760911
937376000 0.0578011869968 -0.915720054045
937382000 0.0583048043607 -0.914244209052
937388000 0.0591512901072 -0.911736075986
937394000 0.0563981400962 -0.910822153338
937400000 0.0575095449406 -0.910762186123
937406000 0.0566014087489 -0.91054563741
937412000 0.0591047979427 -0.911692696629
937418000 0.05696699142 -0.913183827465
937424000 0.0563275850892 -0.912162833695
937430000 0.0570920662663 -0.914237331389
937436000 0.0587137942609 -0.914747162613
937442000 0.0582145878553 -0.914572557258
937448000 0.0597062004257 -0.913881253922
937454000 0.0612622854676 -0.914513735644
937460000 0.0588333745736 -0.914389329214
937466000 0.0578751379519 -0.913833121112
937472000 0.059212060399 -0.912998775396
937478000 0.0558510861376 -0.914412897641
937484000 0.0561663025651 -0.914736392065
937490000 0.0547768581596 -0.915939327597
937496000 0.0557313424633 -0.915031786887
937502000 0.0540050602405 -0.914485196145
937508000 0.0558190037454 -0.913257746255
937514000 0.0539279940064 -0.914723063242
937520000 0.056086404629 -0.9121000303
937526000 0.0551116026998 -0.911366665125
937532000 0.0573689106029 -0.912590042451
937538000 0.0579222225184 -0.913060187356
937544000 0.0603467415646 -0.913805901807
937550000 0.0581177340977 -0.913068274016
937556000 0.058192864812 -0.913214602457
937562000 0.0556124046552 -0.915518969061
937568000 0.0573608008711 -0.914120860601
937574000 0.0520793485505 -0.914149818101
937580000 0.0512521721738 -0.914202595346
937586000 0.0496071068545 -0.915621505434
937592000 0.0452841989439 -0.915813232929
937598000 0.0446832570565 -0.913910254321
937604000 0.0457668138134 -0.91546930265
937610000 0.0469295662315 -0.91627937555
937616000 0.049704765019 -0.916653182716
937622000 0.0521405982333 -0.918416584235
937628000 0.0521432280164 -0.917715984123
937634000 0.0518160964159 -0.916931938759
937640000 0.0513934278261 -0.916364447627
937646000 0.0511955143871 -0.916143670591
937652000 0.0513614695463 -0.913084877691
937658000 0.0509702469132 -0.913335189404
937664000 0.0540390473755 -0.914441575268
937670000 0.0544919216702 -0.913667288917
937676000 0.0578791000768 -0.914730953653
937682000 0.0580853651273 -0.916548312844
937688000 0.061073209414 -0.914672227138
937694000 0.0577765355325 -0.914861748864
937700000 0.0569142093021 -0.915107974646
937706000 0.0571413587199 -0.916460493142
937712000 0.0557134052354 -0.915728426259
937718000 0.0539399958796 -0.915028084441
937724000 0.0552916034038 -0.917542800407
937730000 0.0554806632216 -0.917710543798
937736000 0.0548399981737 -0.919941089281
937742000 0.0559242386302 -0.920427168209
937748000 0.0578351705516 -0.921430888172
937754000 0.0553182973175 -0.920527025916
937760000 0.0571782832715 -0.919530158088
937766000 0.0568809293352 -0.921031470983
937772000 0.0580139369627 -0.92081962684
937778000 0.057152642611 -0.916943601137
937784000 0.0566505304254 -0.915548322484
937790000 0.0580080705927 -0.917194539286
937796000 0.0581812331049 -0.913608869711
937802000 0.058255913978 -0.909629733415
937808000 0.0550691387691 -0.911442287033
937814000 0.0554578630885 -0.91144393568
937820000 0.0550283399846 -0.912633350656
937826000 0.054086418187 -0.914689861505
937832000 0.0547863532369 -0.91473784207
937838000 0.0548089782069 -0.915065010274
937844000 0.0542781806086 -0.914545749505
937850000 0.0541325990953 -0.916139224663
937856000 0.05694662336 -0.916956707448
937862000 0.0569907194292 -0.917911512543
937868000 0.0552477601861 -0.919182327697
937874000 0.0558125494368 -0.919291839994
937880000 0.0555689575078 -0.9196838245
937886000 0.0546555347901 -0.920042006097
937892000 0.0549662549526 -0.920431824963
937898000 0.0545574763907 -0.916121460176
937904000 0.0539874551377 -0.913357333218
937910000 0.0539918003372 -0.911810033369
937916000 0.052931554591 -0.910827881306
937922000 0.05174671039 -0.911280194472
937928000 0.050608931589 -0.909245216779
937934000 0.0497932844351 -0.911573103095
937940000 0.048061873854 -0.911597265621
937946000 0.0489427425883 -0.912350701447
937952000 0.0509075021033 -0.915701478482
937958000 0.0509601307217 -0.915447939424
937964000 0.0523708860658 -0.917372603735
937970000 0.0546246002234 -0.919486780205
937976000 0.0541231253786 -0.917753853018
937982000 0.0549043444132 -0.919065019641
937988000 0.0534899590038 -0.919174777134
937994000 0.0546453311268 -0.921019522225
938000000 0.0541422057291 -0.919532088733
938006000 0.0539985053218 -0.921188550299
938012000 0.0551690534287 -0.919337127136
938018000 0.0563515652839 -0.917587778036
938024000 0.0538790279563 -0.916731519952
938030000 0.0556482250189 -0.916443738701
938036000 0.0543204232101 -0.916608319913
938042000 0.0536791275916 -0.916588491364
938048000 0.0544787471232 -0.916094662128
938054000 0.0559603482995 -0.916463099084
938060000 0.0558061633631 -0.91569733298
938066000 0.0550546740624 -0.914777531096
938072000 0.0545902674793 -0.913274641017
938078000 0.0531165924464 -0.916684852903
938084000 0.0523678090351 -0.915381427138
938090000 0.053689567227 -0.916268891663
938096000 0.0538631524555 -0.91555351315
938102000 0.0557264033876 -0.913868382937
938108000 0.0558386299501 -0.911897125663
938114000 0.0555164676288 -0.913257755808
938120000 0.0552290515441 -0.91131488946
938126000 0.0556724074255 -0.914175141395
938132000 0.0564937393211 -0.916369355369
938138000 0.0535274241364 -0.914373481187
938144000 0.0549111150889 -0.91505292309
938150000 0.0557925045758 -0.914195134683
938156000 0.0549289932906 -0.914848939845
938162000 0.0548643469705 -0.912820922659
938168000 0.0545812295977 -0.915822097892
938174000 0.0538410089526 -0.916170219316
938180000 0.05558883931 -0.917175569913
938186000 0.0549062167043 -0.914475338925
938192000 0.0556812784872 -0.914661370911
938198000 0.0566784749413 -0.913223532942
938204000 0.0581981527367 -0.912771820323
938210000 0.0553875651339 -0.913461834925
938216000 0.0564386656979 -0.91419906638
938222000 0.0556082716661 -0.912866813148
938228000 0.0551881828504 -0.912759273032
938234000 0.0546008071771 -0.91617261805
938240000 0.0557475484954 -0.91326601791
938246000 0.053817797839 -0.915448275701
938252000 0.0568253215909 -0.916916297128
938258000 0.057029242064 -0.920128254379
938264000 0.0566267861475 -0.919241295934
938270000 0.0585205613706 -0.920933569825
938276000 0.0568983080172 -0.919062101133
938282000 0.0557319536675 -0.919838112434
938288000 0.0554216815334 -0.919153793431
938294000 0.0561444314129 -0.918906144974
938300000 0.0553447004911 -0.91692245864
938306000 0.0542887718246 -0.916209985588
938312000 0.0550979368456 -0.913965417165
938318000 0.052399471796 -0.911934516722
938324000 0.0534929699282 -0.913507154093
938330000 0.0545121586319 -0.914526978208
938336000 0.0554583431676 -0.912868679877
938342000 0.0574056617025 -0.916099441583
938348000 0.0570083572392 -0.917420383258
938354000 0.0557163794008 -0.912583577198
938360000 0.0547631667199 -0.912472454395
938366000 0.0524257101585 -0.914372098141
938372000 0.0525069343754 -0.912399031591
938378000 0.0516071496666 -0.911867972101
938384000 0.0528700072113 -0.915385107131
938390000 0.0541752330231 -0.915235810067
938396000 0.0538104663456 -0.917201257806
938402000 0.0563687092149 -0.919562113822
938408000 0.0562884735614 -0.915651937161
938414000 0.0559788838571 -0.915044977022
938420000 0.0569658790501 -0.91143798624
938426000 0.0560434925423 -0.910882100463
938432000 0.0583301565648 -0.908597282403
938438000 0.0573965311081 -0.908599269104
938444000 0.0531077790304 -0.909888288073
938450000 0.0539047519564 -0.909910917216
938456000 0.0530795816315 -0.911597475942
938462000 0.052791556927 -0.912445419325
938468000 0.0547851809897 -0.911144432017
938474000 0.0547837509698 -0.912480140724
938480000 0.05700610715 -0.915079896806
938486000 0.0560237007547 -0.914461793861
938492000 0.0568260507256 -0.915789565247
938498000 0.0554310828147 -0.916334265981
938504000 0.0520343772237 -0.916417303962
938510000 0.0482243928927 -0.918639530995
938516000 0.0503629383235 -0.917919891346
938522000 0.0484233277683 -0.918466741523
938528000 0.0471230017816 -0.918418030958
938534000 0.0497104074358 -0.918996163502
938540000 0.0484275955185 -0.918533666151
938546000 0.0498868604965 -0.918856629172
938552000 0.0512415466859 -0.918736726432
938558000 0.05157911149 -0.916870511676
938564000 0.0531261860491 -0.915267724055
938570000 0.0544358569304 -0.914977110378
938576000 0.0551824900207 -0.916199973431
938582000 0.0537901059661 -0.916385335764
938588000 0.0569081796189 -0.916118381093
938594000 0.0551749148763 -0.916529719511
938600000 0.0558924405634 -0.916100995712
938606000 0.0543504257604 -0.918090956258
938612000 0.0526728047053 -0.918166042726
938618000 0.0529039337184 -0.916903095659
938624000 0.0521491808924 -0.919392761958
938630000 0.0531077178763 -0.917811741422
938636000 0.0524443765012 -0.918077372137
938642000 0.0540927275888 -0.917697019861
938648000 0.0579963350746 -0.917006063072
938654000 0.0569200638592 -0.915000802164
938660000 0.0595282155989 -0.913861511822
938666000 0.0578964431237 -0.915620484094
938672000 0.0564186408013 -0.91443161077
938678000 0.0581576397305 -0.917240813805
938684000 0.0578445976048 -0.904291783687
938690000 0.0561922540614 -0.917484357913
938696000 0.0546302250981 -0.916632114023
938702000 0.0526175083866 -0.915289717499
938708000 0.0499093833382 -0.914953259519
938714000 0.0473746475544 -0.918313628671
938720000 0.0467248170113 -0.916269572198
938726000 0.0483505778907 -0.913891418889
938732000 0.0485878059361 -0.915645288262
938738000 0.0505370430863 -0.917592338041
938744000 0.0532963309394 -0.916630189748
938750000 0.0555398677653 -0.918253655223
938756000 0.0560817510564 -0.916550377749
938762000 0.0540957901341 -0.916537538128
938768000 0.0557195624587 -0.915301820114
938774000 0.0514821338394 -0.916192562687
938780000 0.0556519790966 -0.915756561609
938786000 0.0565551273855 -0.915634169786
938792000 0.0560811065695 -0.912388230283
938798000 0.0552327544081 -0.912872604759
938804000 0.0588007134311 -0.912241835448
938810000 0.059120605027 -0.911817688298
938816000 0.0582648832175 -0.914042438875
938822000 0.0573733904266 -0.91456434784
938828000 0.0553981271584 -0.915736297135
938834000 0.0534307310181 -0.91947519026
938840000 0.0525142762013 -0.918385384455
938846000 0.0545262811267 -0.915688487396
938852000 0.0524263819062 -0.913895664682
938858000 0.0529148500192 -0.915122058378
938864000 0.0520389290347 -0.912485925205
938870000 0.0528882058771 -0.912120431443
938876000 0.0496969564453 -0.914783910073
938882000 0.052316864458 -0.914739343171
938888000 0.0494707757017 -0.917959311757
938894000 0.0466151923828 -0.918352503584
938900000 0.0473360481375 -0.914688018112
938906000 0.0491615848873 -0.913630557735
938912000 0.0489164117732 -0.908235002351
938918000 0.0476997281539 -0.908677563466
938924000 0.0484828258293 -0.905991349045
938930000 0.0471382590919 -0.909773967268
938936000 0.0487952416811 -0.9127638404
938942000 0.0456656822056 -0.913607083795
938948000 0.0476613785553 -0.914294287213
938954000 0.046789081595 -0.918770556955
938960000 0.0493048696131 -0.914271780278
938966000 0.0506631790031 -0.915483108672
938972000 0.052320191145 -0.913798725483
938978000 0.056218638549 -0.911118074047
938984000 0.0535646371502 -0.914014067128
938990000 0.0522511745244 -0.915946699198
938996000 0.0525569965253 -0.91723678779
939002000 0.0492262122788 -0.917046269497
939008000 0.0489234931511 -0.917772722816
939014000 0.0517531274227 -0.916964013654
939020000 0.0538075132837 -0.913358237472
939026000 0.0542867004068 -0.91249353864
939032000 0.0567160937084 -0.915767321277
939038000 0.0580998934313 -0.916139061641
939044000 0.0576260076383 -0.91537932836
939050000 0.0551289189754 -0.914384154981
939056000 0.0554804047278 -0.915615583021
939062000 0.0532625584918 -0.915015369832
939068000 0.0578342640979 -0.915547693035
939074000 0.054773979058 -0.917699263242
939080000 0.0566276659322 -0.91701830411
939086000 0.0549298686791 -0.921114672787
939092000 0.0539331192605 -0.919634568237
939098000 0.0521876428809 -0.919785548265
939104000 0.0549294975132 -0.917155777643
939110000 0.0526359827513 -0.915463144768
939116000 0.0514083987946 -0.911614802449
939122000 0.0527563307975 -0.911595843193
939128000 0.0511402109754 -0.910387265968
939134000 0.0537693796809 -0.912246417986
939140000 0.0480859204874 -0.913372693215
939146000 0.0495386530358 -0.912285079492
939152000 0.0469414194981 -0.911167986559
939158000 0.0519951757309 -0.913736489442
939164000 0.0531798774927 -0.913066389867
939170000 0.0513561937059 -0.913592502997
939176000 0.0519039976758 -0.914453059239
939182000 0.0564356446772 -0.91510761403
939188000 0.0505936248928 -0.914502561377
939194000 0.0487675236857 -0.915530729129
939200000 0.0512302594977 -0.914026736811
939206000 0.0488377248611 -0.912833045683
939212000 0.0509736507445 -0.914531278153
939218000 0.0510708732111 -0.910426454897
939224000 0.0531564593255 -0.909317981833
939230000 0.0521984365296 -0.903629203154
939236000 0.0555931418276 -0.900066884424
939242000 0.0527665448681 -0.9034698805
939248000 0.0532064171986 -0.907132689808
939254000 0.0524801450881 -0.909849561448
939260000 0.0535435045903 -0.910294259625
939266000 0.0504127388964 -0.917681484797
939272000 0.0531729705114 -0.913701047958
939278000 0.0488568305973 -0.915437484602
939284000 0.0503373612437 -0.913393274865
939290000 0.0523464291294 -0.914219101198
939296000 0.050799922252 -0.913058865877
939302000 0.0504476780605 -0.915092793586
939308000 0.0495851467429 -0.918707997071
939314000 0.0477516595602 -0.920321209046
939320000 0.0484462136623 -0.924286433029
939326000 0.0468782132595 -0.921372680082
939332000 0.0516187679083 -0.919227959525
939338000 0.0500742809542 -0.919577159859
939344000 0.0557829772733 -0.91767877801
939350000 0.0547710411381 -0.917558783919
939356000 0.0576714461024 -0.916227941578
939362000 0.0539092259791 -0.914700152772
939368000 0.0531066749827 -0.918951792525
939374000 0.0547507226247 -0.916451216969
939380000 0.0526143145258 -0.917732553548
939386000 0.0523912593915 -0.916879143449
939392000 0.0533049225575 -0.916695101581
939398000 0.0522061238255 -0.916848460239
939404000 0.0542130031434 -0.916848841829
939410000 0.0545608335534 -0.915557590305
939416000 0.0526491714741 -0.915768986023
939422000 0.0558786443716 -0.914718534319
939428000 0.0548840321704 -0.915489072576
939434000 0.0554183921078 -0.915905653782
939440000 0.0574471104284 -0.917047565408
939446000 0.055186403005 -0.915842530523
939452000 0.0544809928337 -0.914548546482
939458000 0.0538879327734 -0.915810720454
939464000 0.0546935396994 -0.916746930313
939470000 0.051325085784 -0.915170921615
939476000 0.0522536985126 -0.914696490584
939482000 0.0538444402137 -0.915048996438
939488000 0.0529158630555 -0.9135686794
939494000 0.0555680402195 -0.913091431202
939500000 0.0527174132882 -0.912592219349
939506000 0.0525796498323 -0.913641280013
939512000 0.0532448173458 -0.914673523186
939518000 0.0521152958923 -0.915220736168
939524000 0.0528512999712 -0.915027644786
939530000 0.0514424341357 -0.915465903649
939536000 0.0503067631377 -0.913237374929
939542000 0.0490679356107 -0.914556868309
939548000 0.0475634573535 -0.912813909558
939554000 0.0466464516887 -0.914242559657
939560000 0.047588591155 -0.914738349503
939566000 0.0488761970192 -0.913646634095
939572000 0.0527652924578 -0.91382401711
939578000 0.0535656186406 -0.915971792301
939584000 0.052461046039 -0.91648968504
939590000 0.0548664798377 -0.914816866238
939596000 0.0540533918208 -0.91420503448
939602000 0.0516106728404 -0.913219726833
939608000 0.0526186910955 -0.913310971385
939614000 0.0511093796665 -0.9108392359
939620000 0.0522629634185 -0.912092320524
939626000 0.0508421318925 -0.909509638504
939632000 0.0503045513864 -0.907306478319
939638000 0.0507493130791 -0.907153187913
939644000 0.0509987607956 -0.906492402505
939650000 0.0516100566449 -0.908021385356
939656000 0.0543098945203 -0.908384653893
939662000 0.0541126844208 -0.909679217186
939668000 0.0568326033707 -0.908289910632
939674000 0.0562563355925 -0.915476720249
939680000 0.0525770131368 -0.915181935867
939686000 0.0521393695009 -0.917247463462
939692000 0.0506268328131 -0.919836823415
939698000 0.0500366180951 -0.919375177106
939704000 0.0472862974284 -0.916431833322
939710000 0.0522753809396 -0.917901777674
939716000 0.0514249275283 -0.913086528327
939722000 0.0520563430994 -0.911278903902
939728000 0.0535909075639 -0.910470700831
939734000 0.0500337522641 -0.911785143016
939740000 0.0500252486105 -0.913864859848
939746000 0.0486784028236 -0.915916786928
939752000 0.0465445413302 -0.917849469802
939758000 0.049064530595 -0.917811198207
939764000 0.0459783102798 -0.917745220071
939770000 0.0460660613723 -0.91651840655
939776000 0.0486171327773 -0.918527092533
939782000 0.0465796191367 -0.917916705609
939788000 0.0498949579631 -0.918886271231
939794000 0.0519151361068 -0.917464753144
939800000 0.0507259058796 -0.919714428077
939806000 0.055593785741 -0.916729812042
939812000 0.0566551288764 -0.916447018589
939818000 0.0566300992708 -0.914867469297
939824000 0.0557323598177 -0.915620927119
939830000 0.0537097317564 -0.916480484449
939836000 0.053554155997 -0.916742647285
939842000 0.0542204331005 -0.911814861001
939848000 0.0545304278352 -0.914617850236
939854000 0.051991718126 -0.913836865657
939860000 0.0528897951197 -0.91513810367
939866000 0.0497509594933 -0.918062859052
939872000 0.0484931406078 -0.919378644204
939878000 0.0492708521263 -0.918314781546
939884000 0.0496073705787 -0.918717521431
939890000 0.0486328434621 -0.919916507282
939896000 0.0494649406938 -0.921463649259
939902000 0.0496441026803 -0.918106327484
939908000 0.0496042529984 -0.918650366173
939914000 0.0492142779773 -0.916294629069
939920000 0.0506929845985 -0.914802245295
939926000 0.0500722540803 -0.912644708467
939932000 0.0513101861127 -0.915217629809
939938000 0.0535777716983 -0.917005958628
939944000 0.0541615188681 -0.917208256352
939950000 0.0556417282075 -0.915810725109
939956000 0.0601100051939 -0.918360666536
939962000 0.0580642478789 -0.91680094654
939968000 0.0558936567807 -0.914704781347
939974000 0.055113179034 -0.915722795515
939980000 0.0527797673784 -0.913257548954
939986000 0.0520700499763 -0.913394553056
939992000 0.0532675690132 -0.913529065457
939998000 0.0552726038319 -0.911376235577
940004000 0.0593497909606 -0.911208165003
940010000 0.0601089053519 -0.910429541941
940016000 0.0599865988588 -0.913029399497
940022000 0.0562265939098 -0.913443839911
940028000 0.0536668981193 -0.912358940675
940034000 0.0531228989168 -0.913882720995
940040000 0.050714883929 -0.916296482299
940046000 0.0492415645355 -0.915562030005
940052000 0.0493815068839 -0.914089917493
940058000 0.0506617671361 -0.916407869006
940064000 0.0507167706232 -0.918238674661
940070000 0.0516575133086 -0.917078712171
940076000 0.0514302547612 -0.919185939138
940082000 0.0469460072835 -0.916056208526
940088000 0.0487601547051 -0.915038955645
940094000 0.0470902080825 -0.914257522771
940100000 0.0472516290382 -0.911830818044
940106000 0.0494541867936 -0.91155136175
940112000 0.0498486430819 -0.914046218905
940118000 0.0505650510207 -0.912435425873
940124000 0.0497959269331 -0.9132080882
940130000 0.0528103764957 -0.915699525414
940136000 0.0533716983011 -0.912432965686
940142000 0.0510457284494 -0.912340229437
940148000 0.0517773017458 -0.911091424477
940154000 0.0505218045294 -0.911509688098
940160000 0.0538663687205 -0.910281558923
940166000 0.0531757683546 -0.910886527329
940172000 0.0528583372529 -0.910582448791
940178000 0.0522219818831 -0.910729414226
940184000 0.0527207850898 -0.910909188866
940190000 0.0548833380808 -0.912441087078
940196000 0.052345828239 -0.91129731315
940202000 0.0531180723404 -0.912153829359
940208000 0.0488182144775 -0.911658420493
940214000 0.0488500003119 -0.912193116589
940220000 0.0423035497399 -0.910423550375
940226000 0.0475927557045 -0.914513510916
940232000 0.0485968455211 -0.912468336426
940238000 0.0471707312162 -0.91445860104
940244000 0.0475122223169 -0.916862368816
940250000 0.0468335982415 -0.919546037761
940256000 0.0454678043358 -0.919579577653
940262000 0.046067321037 -0.922147553394
940268000 0.0452126838759 -0.924765909636
940274000 0.0460676289804 -0.921968952796
940280000 0.0473868074772 -0.923015104691
940286000 0.0446234361172 -0.921020624586
940292000 0.0478840411442 -0.920913561941
940298000 0.0468828939762 -0.917266302482
940304000 0.045885163715 -0.916891766197
940310000 0.0494488550854 -0.915642084092
940316000 0.0501546921083 -0.918741717082
940322000 0.0501529186706 -0.913583073246
940328000 0.0598532267709 -0.923961186767
940334000 0.056212512423 -0.917074987862
940340000 0.0529522243003 -0.915512660087
940346000 0.0523472406685 -0.916701048539
940352000 0.0504541509092 -0.916285560595
940358000 0.0471525235559 -0.911306765799
940364000 0.047024426236 -0.913591844268
940370000 0.0487524599868 -0.91220407409
940376000 0.0493155056114 -0.914858841307
940382000 0.0493483022529 -0.918885544982
940388000 0.0521400871336 -0.917654117046
940394000 0.0531376443137 -0.916938916965
940400000 0.0514532495026 -0.917469049272
940406000 0.0535476245039 -0.920030006148
940412000 0.0557540315556 -0.918748099246
940418000 0.0547489014397 -0.918696276564
940424000 0.0514369747396 -0.915541097041
940430000 0.0517812952373 -0.916206232357
940436000 0.0495667001331 -0.914686783313
940442000 0.0473861435973 -0.91440808703
940448000 0.047602509965 -0.913422504124
940454000 0.0478130850125 -0.912899929608
940460000 0.0500520675539 -0.914811539007
940466000 0.0502344035033 -0.914810262847
940472000 0.0513299905917 -0.91453572474
940478000 0.0507953402279 -0.916538824642
940484000 0.0466672572887 -0.915324009716
940490000 0.0444867913642 -0.918096819941
940496000 0.0432504815721 -0.915538844501
940502000 0.0423233907521 -0.914567375263
940508000 0.0409841980352 -0.913986539436
940514000 0.0453351399036 -0.913510199256
940520000 0.0435999407195 -0.914145189388
940526000 0.0431503974999 -0.912799358811
940532000 0.0444223478941 -0.912687317276
940538000 0.0457125217127 -0.913295913153
940544000 0.0460053908955 -0.913518659753
940550000 0.0478066802039 -0.914396716413
940556000 0.0468591391736 -0.915959130138
940562000 0.0496068091547 -0.917013844608
940568000 0.0485418999511 -0.917530807932
940574000 0.0500800739823 -0.918036433284
940580000 0.0488183204945 -0.91546139485
940586000 0.0465290257827 -0.914769780471
940592000 0.0474824348909 -0.915158101537
940598000 0.0470473908065 -0.915830527084
940604000 0.0481164007535 -0.915176959065
940610000 0.0491678402039 -0.917109329068
940616000 0.0501928931735 -0.918262494612
940622000 0.0484832021533 -0.919586051817
940628000 0.0497454933236 -0.919408185128
940634000 0.0508453340466 -0.918316325533
940640000 0.0492531292429 -0.917284622784
940646000 0.0472143657758 -0.917131140361
940652000 0.0515542861849 -0.91699387137
940658000 0.0548165424767 -0.912587610883
940664000 0.0574446377036 -0.904151917186
940670000 0.058650092859 -0.910568204459
940676000 0.061647523814 -0.906803454227
940682000 0.058628360925 -0.907778708773
940688000 0.0597522791911 -0.911988909235
940694000 0.0547274681044 -0.913131352439
940700000 0.052799692596 -0.917532332853
940706000 0.0523868282629 -0.91882353726
940712000 0.053746247173 -0.920496098945
940718000 0.0525848416275 -0.92002813942
940724000 0.0550518575917 -0.921785554538
940730000 0.0556685969776 -0.922256092109
940736000 0.0535666900499 -0.91975219548
940742000 0.0528166743472 -0.919543033895
940748000 0.053854875622 -0.91882855663
940754000 0.0513500534645 -0.915821744958
940760000 0.0521898691241 -0.915898052185
940766000 0.0509882681546 -0.917736986113
940772000 0.0493164921153 -0.913467388368
940778000 0.0512139718194 -0.913461671821
940784000 0.0506993178811 -0.911247785955
940790000 0.0486913179292 -0.912347779423
940796000 0.0480121077592 -0.912572329472
940802000 0.0493736396667 -0.91232739461
940808000 0.0474737621592 -0.914883912744
940814000 0.0480430737876 -0.914917376948
940820000 0.0456475223573 -0.914107658202
940826000 0.0468631538664 -0.916041244457
940832000 0.0482794301253 -0.916707259087
940838000 0.0497664694002 -0.915094793401
940844000 0.0492268273413 -0.918785201312
940850000 0.0493259752701 -0.917129170751
940856000 0.0481377236349 -0.915237393166
940862000 0.0484902581233 -0.913466562579
940868000 0.0478582215578 -0.911092318862
940874000 0.0458151524108 -0.909729870396
940880000 0.0443395583959 -0.909176805579
940886000 0.0464689121182 -0.907515691299
940892000 0.047428298805 -0.911095814669
940898000 0.0499737877051 -0.913891592257
940904000 0.0503830609087 -0.917091973975
940910000 0.0515267160137 -0.915972063116
940916000 0.0522270451366 -0.915402873386
940922000 0.0536171190908 -0.917122006202
940928000 0.0535539216255 -0.917217313159
940934000 0.0543281956243 -0.918131503194
940940000 0.0509309320846 -0.918169158418
940946000 0.0512274927235 -0.918129949043
940952000 0.0518464233698 -0.91625016311
940958000 0.0519742960339 -0.914702536337
940964000 0.0493833967167 -0.912922681823
940970000 0.0506330771833 -0.909149616229
940976000 0.0470890327179 -0.911076683944
940982000 0.0492539463941 -0.911489485006
940988000 0.0471802294578 -0.909926960987
940994000 0.0453139913693 -0.909094051499
941000000 0.0420803222132 -0.909902593275
