! Calibrated averaged scanner-service zoom
# Hz S RI R 50
88000000 0.892419804858 -0.276459843641
88010000 0.892406522012 -0.276593228415
88020000 0.892480646572 -0.276752656034
88030000 0.892623103079 -0.276805148047
88040000 0.892693079834 -0.276964074374
88050000 0.892715422524 -0.277104959904
88060000 0.892685672652 -0.277279562895
88070000 0.892784954338 -0.27732542923
88080000 0.892935453681 -0.277388886011
88090000 0.893028593618 -0.277512873907
88100000 0.893094463007 -0.27764926946
88110000 0.893090798523 -0.277830281663
88120000 0.893181642137 -0.277855305683
88130000 0.893316262515 -0.277977040575
88140000 0.893400998651 -0.278174253094
88150000 0.893409642184 -0.278302577425
88160000 0.893427722503 -0.278408345944
88170000 0.893480741434 -0.278418446245
88180000 0.893608215434 -0.278494156755
88190000 0.893695988593 -0.278640377468
88200000 0.893712642695 -0.278859905185
88210000 0.893726378363 -0.27903925766
88220000 0.893823986085 -0.279053695975
88230000 0.893891982988 -0.279205050731
88240000 0.893985340302 -0.279313330183
88250000 0.894038048014 -0.279538775542
88260000 0.894108615551 -0.279654247042
88270000 0.89418300509 -0.279669124273
88280000 0.89423968942 -0.279746827334
88290000 0.894407251058 -0.279817899892
88300000 0.894349141505 -0.280012356194
88310000 0.894428147685 -0.280103267475
88320000 0.894493888706 -0.280243753641
88330000 0.894548781604 -0.280405743787
88340000 0.894606310847 -0.280466029549
88350000 0.894613327209 -0.280637217676
88360000 0.894702624184 -0.280764068519
88370000 0.894785708913 -0.280898770493
88380000 0.894864479815 -0.281001613425
88390000 0.8948203885 -0.281091042063
88400000 0.894896798275 -0.281218729184
88410000 0.895061678681 -0.281323327146
88420000 0.895108441258 -0.28157570789
88430000 0.89516960343 -0.281638483605
88440000 0.895176377777 -0.281722046721
88450000 0.895287389099 -0.281926848196
88460000 0.895253449145 -0.281955477274
88470000 0.89535472845 -0.281978539175
88480000 0.895411107438 -0.282254308297
88490000 0.895257860588 -0.282243712712
88500000 0.895562598148 -0.28238305896
88510000 0.895612812279 -0.282628824388
88520000 0.895650003645 -0.282745458345
88530000 0.895647093062 -0.28285389179
88540000 0.895697151911 -0.283016280051
88550000 0.895749382119 -0.283012600416
88560000 0.895839496213 -0.28308598062
88570000 0.895952380588 -0.283213926386
88580000 0.895981365932 -0.283318511465
88590000 0.895990968672 -0.283556230154
88600000 0.896076798585 -0.283599181458
88610000 0.896135075363 -0.283795432029
88620000 0.896192412808 -0.283814212537
88630000 0.896196678657 -0.283971666817
88640000 0.896289645221 -0.284136044816
88650000 0.896384502603 -0.284271664068
88660000 0.896392850332 -0.284320327572
88670000 0.896415266047 -0.284409836866
88680000 0.896432082283 -0.284593314374
88690000 0.896545259168 -0.284670526239
88700000 0.896605493076 -0.284810915887
88710000 0.89669276453 -0.284999795963
88720000 0.896670535794 -0.285086305619
88730000 0.89666857191 -0.28529198718
88740000 0.896753206238 -0.285299616214
88750000 0.896871190416 -0.285407264984
88760000 0.896953121753 -0.285526538269
88770000 0.896982000961 -0.285688282117
88780000 0.896943204163 -0.285855008857
88790000 0.897049739022 -0.285927875386
88800000 0.897142849125 -0.286061361245
88810000 0.897189026676 -0.286150839987
88820000 0.89721101308 -0.2863429662
88830000 0.897239650685 -0.286516365061
88840000 0.897297999577 -0.286607950673
88850000 0.897303912791 -0.286697274579
88860000 0.897353930294 -0.286779959116
88870000 0.897286933234 -0.286981210244
88880000 0.8974222142 -0.287136941604
88890000 0.897564022995 -0.287258930662
88900000 0.897583412381 -0.28745726461
88910000 0.897606357425 -0.287524712815
88920000 0.897543256085 -0.287665989998
88930000 0.897627924949 -0.287742561309
88940000 0.897717697588 -0.287869123428
88950000 0.897757788724 -0.288020757689
88960000 0.897768876822 -0.288098964789
88970000 0.897704384563 -0.288278457929
88980000 0.897880171826 -0.288388365498
88990000 0.897957178709 -0.288574866654
89000000 0.897993204559 -0.288733606242
89010000 0.898373698437 -0.288715139622
89020000 0.898327162309 -0.288820349821
89030000 0.898432583509 -0.288896108233
89040000 0.898540563813 -0.289036408072
89050000 0.898597109045 -0.289132653725
89060000 0.898573004948 -0.289310715509
89070000 0.898567276308 -0.289456424993
89080000 0.898585842314 -0.289553106863
89090000 0.898715325154 -0.289610224902
89100000 0.898725821624 -0.289751907515
89110000 0.898653105133 -0.28985907112
89120000 0.898760273239 -0.290081349817
89130000 0.898843964394 -0.29025939839
89140000 0.898936664715 -0.290389023451
89150000 0.898915470517 -0.290462606739
89160000 0.898851540928 -0.290636198276
89170000 0.898970896591 -0.290719102313
89180000 0.899066551302 -0.290855127482
89190000 0.899157912633 -0.290975351758
89200000 0.89902554764 -0.291081792158
89210000 0.898952452168 -0.29118315053
89220000 0.899100036826 -0.291252693331
89230000 0.899170416226 -0.291469477956
89240000 0.899235562839 -0.291571156548
89250000 0.899151463835 -0.291726250864
89260000 0.899157226487 -0.291899947441
89270000 0.899248065459 -0.291961539435
89280000 0.899358183583 -0.292113203512
89290000 0.899359988471 -0.292305089278
89300000 0.899257832821 -0.292429291208
89310000 0.899309427455 -0.292574257562
89320000 0.899397245098 -0.292657412414
89330000 0.899521399398 -0.29280193439
89340000 0.89954838035 -0.292931483462
89350000 0.899462374241 -0.29313097257
89360000 0.899469273724 -0.293264729674
89370000 0.899583064378 -0.293355813929
89380000 0.899643486258 -0.293427781745
89390000 0.899689564015 -0.293540272759
89400000 0.899615242491 -0.293693835959
89410000 0.89972990715 -0.293845327381
89420000 0.899724875493 -0.294027090723
89430000 0.899765664654 -0.294097747283
89440000 0.899662459131 -0.29420919493
89450000 0.899712760954 -0.294383724179
89460000 0.899805190867 -0.294472253321
89470000 0.899910109759 -0.294678982146
89480000 0.899910063736 -0.294745485031
89490000 0.899780212165 -0.294806783903
89500000 0.899828766267 -0.29501596434
89510000 0.90005871672 -0.295156999488
89520000 0.900082677871 -0.295279803794
89530000 0.900060200853 -0.295401231323
89540000 0.899938889953 -0.295617516124
89550000 0.899926021463 -0.29567831467
89560000 0.89999417909 -0.295827876691
89570000 0.900146167842 -0.295941990195
89580000 0.900108996425 -0.29608284843
89590000 0.900054941433 -0.296255924986
89600000 0.900096383106 -0.296394195529
89610000 0.900103614569 -0.296534470843
89620000 0.900199817589 -0.296631286132
89630000 0.900167926244 -0.296724981419
89640000 0.900169464892 -0.296903642103
89650000 0.900187099439 -0.296992946757
89660000 0.900264535289 -0.29718345409
89670000 0.900288842558 -0.297289775375
89680000 0.900208436824 -0.297361661624
89690000 0.900207553763 -0.297483605278
89700000 0.900263768366 -0.297668409836
89710000 0.900337139626 -0.297864303159
89720000 0.900317095898 -0.297960654518
89730000 0.900219484998 -0.298157439275
89740000 0.900286716381 -0.29827094445
89750000 0.900353278132 -0.29841112162
89760000 0.900494790506 -0.298614125151
89770000 0.900442302551 -0.298740695769
89780000 0.900325787957 -0.29885173214
89790000 0.900432674179 -0.298979247944
89800000 0.900453929914 -0.299128976544
89810000 0.90058859398 -0.299234674254
89820000 0.900522118318 -0.299389281203
89830000 0.900479753797 -0.299493966433
89840000 0.900451206528 -0.299585058355
89850000 0.900544748128 -0.299733557014
89860000 0.900614158442 -0.299923474604
89870000 0.900471078827 -0.300050274192
89880000 0.900453510983 -0.300181260499
89890000 0.900508088579 -0.300290168541
89900000 0.900570159259 -0.300433370143
89910000 0.900689465692 -0.300561223365
89920000 0.90051076019 -0.300729630916
89930000 0.900540260723 -0.300858186102
89940000 0.900545712849 -0.300973803279
89950000 0.90063194754 -0.301145041543
89960000 0.900647991429 -0.301287745645
89970000 0.900580885352 -0.301395958182
89980000 0.900585465078 -0.301592855159
89990000 0.900586374872 -0.301763122668
90000000 0.900692843008 -0.301887328744
90010000 0.900550256333 -0.301922893643
90020000 0.900816898956 -0.302053594052
90030000 0.900664690276 -0.302151107201
90040000 0.900634528439 -0.302294338634
90050000 0.900640518128 -0.302355895076
90060000 0.900642777993 -0.302583857956
90070000 0.90077751229 -0.302658133802
90080000 0.900650275699 -0.302793282768
90090000 0.900686958287 -0.303018911134
90100000 0.900579704785 -0.303071908374
90110000 0.900723272406 -0.303306664386
90120000 0.900798965397 -0.303392303922
90130000 0.900673918068 -0.303444194184
90140000 0.900746116018 -0.303614138415
90150000 0.900610693144 -0.30373187591
90160000 0.900805537205 -0.304014066598
90170000 0.900680030035 -0.304084065699
90180000 0.900676209469 -0.304190766419
90190000 0.900695599475 -0.304299592721
90200000 0.900598058372 -0.304459254135
90210000 0.900801627587 -0.304638962208
90220000 0.90066247063 -0.304723368813
90230000 0.900606601266 -0.304841182351
90240000 0.900620210052 -0.30490604342
90250000 0.900587259254 -0.305181994836
90260000 0.900731081973 -0.305336560152
90270000 0.900628135997 -0.305426048981
90280000 0.900655124861 -0.305595716361
90290000 0.900610514627 -0.305626577534
90300000 0.900688827198 -0.305907885045
90310000 0.900794165811 -0.306039119225
90320000 0.900625495775 -0.306130908131
90330000 0.900672680019 -0.306314963617
90340000 0.900598508584 -0.306351176818
90350000 0.90080025856 -0.306654915967
90360000 0.900733614254 -0.306774382515
90370000 0.9006310746 -0.306895581388
90380000 0.900656854934 -0.307020791242
90390000 0.900484624416 -0.307094969638
90400000 0.900761899199 -0.30733064611
90410000 0.900655772105 -0.307454958654
90420000 0.900563162221 -0.307539769686
90430000 0.900611395574 -0.307603633655
90440000 0.900483874713 -0.307862770283
90450000 0.900730234557 -0.308029709227
90460000 0.900583733139 -0.308102225102
90470000 0.900530054098 -0.308283880042
90480000 0.900438464907 -0.308225159242
90490000 0.900513660026 -0.308515880732
90500000 0.90059786897 -0.308665148752
90510000 0.900415377889 -0.308730036305
90520000 0.90050821073 -0.308932613433
90530000 0.900414467172 -0.308927206861
90540000 0.900596510784 -0.3092621748
90550000 0.900545718129 -0.309423360065
90560000 0.90038100048 -0.309502704742
90570000 0.900352709565 -0.309667168096
90580000 0.900278082392 -0.309664421212
90590000 0.900514424445 -0.309960692126
90600000 0.900400096389 -0.310119435509
90610000 0.900301155445 -0.310149107507
90620000 0.900335371393 -0.310183423471
90630000 0.900192426512 -0.310352826372
90640000 0.900434989771 -0.310612868424
90650000 0.900281951809 -0.310730555001
90660000 0.900200559771 -0.310886899158
90670000 0.900142819218 -0.310823247866
90680000 0.900137451741 -0.311063441009
90690000 0.900269147789 -0.311276303389
90700000 0.900096804161 -0.311385836233
90710000 0.900094104543 -0.311628260852
90720000 0.900043687531 -0.311527661485
90730000 0.900136901115 -0.311879634378
90740000 0.900146638244 -0.312056239691
90750000 0.900038829379 -0.312115421993
90760000 0.900061259944 -0.312324612538
90770000 0.899929485763 -0.312250386036
90780000 0.900130614237 -0.312549387417
90790000 0.900051695752 -0.312637570237
90800000 0.899937995281 -0.312676905623
90810000 0.900012376273 -0.312852805019
90820000 0.899787420027 -0.312962481683
90830000 0.89996371998 -0.313256435466
90840000 0.899782714797 -0.313314445795
90850000 0.899847874687 -0.313453718844
90860000 0.89981674392 -0.313411659348
90870000 0.89973716086 -0.313630155568
90880000 0.89985160444 -0.313816396727
90890000 0.899611083031 -0.313849275333
90900000 0.899638538156 -0.314082217329
90910000 0.899617418405 -0.31402381086
90920000 0.899620328906 -0.314423721143
90930000 0.899649028821 -0.314578317527
90940000 0.899464850442 -0.314622521525
90950000 0.899527034837 -0.314825585342
90960000 0.899470548115 -0.314709366462
90970000 0.899586386844 -0.31506688484
90980000 0.899462040209 -0.315190726911
90990000 0.899360938939 -0.315193049363
91000000 0.899362276359 -0.315368254449
91010000 0.899370565236 -0.315551375885
91020000 0.899278963792 -0.315743882473
91030000 0.899160292276 -0.315582779414
91040000 0.899205677007 -0.315714032566
91050000 0.899302804558 -0.315971843823
91060000 0.899191563366 -0.31612621974
91070000 0.899129402002 -0.316266281767
91080000 0.899055694569 -0.316136075907
91090000 0.899100083186 -0.316465078674
91100000 0.899150149438 -0.316677173947
91110000 0.8989894904 -0.316875204494
91120000 0.898908393584 -0.316859457946
91130000 0.898896500101 -0.316756951989
91140000 0.899033702612 -0.317155922769
91150000 0.898965007439 -0.317328707818
91160000 0.898790954262 -0.317491411941
91170000 0.898726641457 -0.317417180872
91180000 0.898692018302 -0.317404027607
91190000 0.898857157617 -0.317775429766
91200000 0.898649791866 -0.317938559185
91210000 0.898545976275 -0.318077501724
91220000 0.898496257408 -0.317928441142
91230000 0.898517180608 -0.318068170841
91240000 0.898647635477 -0.318432721251
91250000 0.898425017149 -0.318573460083
91260000 0.898373747789 -0.31871360412
91270000 0.898383843421 -0.31851483313
91280000 0.898440368689 -0.318775995512
91290000 0.898549639633 -0.319016948506
91300000 0.898245961576 -0.31916093149
91310000 0.898222919243 -0.319173837895
91320000 0.898163478083 -0.319065065483
91330000 0.898254505711 -0.319416727131
91340000 0.898236430355 -0.319632559009
91350000 0.898017800503 -0.319779193857
91360000 0.898002992071 -0.319762240373
91370000 0.898015257892 -0.319689172072
91380000 0.898094381316 -0.320076891661
91390000 0.897991502159 -0.320169519408
91400000 0.897879854631 -0.320299992537
91410000 0.897912544745 -0.320182953054
91420000 0.897863365605 -0.320288782649
91430000 0.897946034163 -0.32065412778
91440000 0.897724018082 -0.320777655455
91450000 0.897670277726 -0.320893231142
91460000 0.897687194729 -0.320704871488
91470000 0.897658431545 -0.320988977556
91480000 0.897678940904 -0.321211444703
91490000 0.897471215885 -0.3212540714
91500000 0.897514018836 -0.321304957168
91510000 0.897541069806 -0.321123457195
91520000 0.897562637985 -0.321520149201
91530000 0.897456032798 -0.32173275082
91540000 0.897200694061 -0.321770988376
91550000 0.897224377018 -0.32174862735
91560000 0.897269268882 -0.321713194971
91570000 0.89732703402 -0.322139752504
91580000 0.897191833301 -0.322253821557
91590000 0.897042592058 -0.322396313607
91600000 0.8971096807 -0.322273855723
91610000 0.897086013139 -0.322351048485
91620000 0.897166592201 -0.322687615217
91630000 0.896981323078 -0.322738899062
91640000 0.896909613734 -0.322867252312
91650000 0.896969273999 -0.322728148176
91660000 0.896945817568 -0.322942880127
91670000 0.896996601528 -0.323150455754
91680000 0.896733083704 -0.323155437836
91690000 0.896715496881 -0.323232507636
91700000 0.896794452659 -0.323105005539
91710000 0.896780883952 -0.323458522399
91720000 0.896755502766 -0.323661760449
91730000 0.896513029391 -0.32369459342
91740000 0.89656548112 -0.323768056824
91750000 0.896589089381 -0.323724003992
91760000 0.896622729931 -0.324159259532
91770000 0.896512563567 -0.324176936999
91780000 0.896432405444 -0.324221602766
91790000 0.89651079296 -0.324107239954
91800000 0.896492620132 -0.324187998382
91810000 0.89650402248 -0.324600017201
91820000 0.89631700302 -0.324584267716
91830000 0.896188471624 -0.32470728214
91840000 0.896312627924 -0.324611847913
91850000 0.896340505875 -0.324797286442
91860000 0.896290874959 -0.325124498291
91870000 0.896150478652 -0.325042599052
91880000 0.896099969958 -0.325143797752
91890000 0.896194038226 -0.325000194329
91900000 0.896201745744 -0.325365510989
91910000 0.89615374897 -0.32560112684
91920000 0.895960207694 -0.325625853723
91930000 0.895971189931 -0.325665591513
91940000 0.896047183823 -0.325564919682
91950000 0.89601011381 -0.325982557633
91960000 0.896011905017 -0.325989697786
91970000 0.895907320276 -0.326032659836
91980000 0.896000154362 -0.325993504272
91990000 0.895954246344 -0.326074567478
92000000 0.895930428072 -0.326536219619
92010000 0.895864704398 -0.326461921176
92020000 0.895840673128 -0.326433605879
92030000 0.895784368205 -0.326826587931
92040000 0.895820610932 -0.32674239359
92050000 0.895686122378 -0.326908658636
92060000 0.895741229486 -0.326966070446
92070000 0.895700762443 -0.326958917139
92080000 0.895675534933 -0.327298759033
92090000 0.895639328416 -0.327234478703
92100000 0.895556620627 -0.327423464788
92110000 0.895657357605 -0.327319624982
92120000 0.895604698832 -0.327538654768
92130000 0.895637697651 -0.32766903092
92140000 0.895598893513 -0.327652528389
92150000 0.895549306036 -0.327920263423
92160000 0.89552025903 -0.327830699178
92170000 0.895492426177 -0.328050556038
92180000 0.895513498132 -0.328142342763
92190000 0.895365426708 -0.328226633468
92200000 0.895476058215 -0.328386732085
92210000 0.895410282627 -0.328382795509
92220000 0.895326419735 -0.328723602552
92230000 0.895441150523 -0.328679270839
92240000 0.895323915041 -0.328819533201
92250000 0.895343516632 -0.328952546059
92260000 0.895330190809 -0.328927325511
92270000 0.895280224724 -0.329247259687
92280000 0.89530139527 -0.329140224793
92290000 0.8952347988 -0.329356320966
92300000 0.895333815027 -0.329342730925
92310000 0.895237517361 -0.32957140812
92320000 0.895215315439 -0.329808656065
92330000 0.89512743636 -0.329689994109
92340000 0.895162183456 -0.329955796361
92350000 0.895182646087 -0.3298658567
92360000 0.895189088172 -0.330088534295
92370000 0.895189877306 -0.330217207922
92380000 0.895065681594 -0.330216185638
92390000 0.895158381909 -0.330385867106
92400000 0.895210560584 -0.330311495139
92410000 0.895047433936 -0.330680403158
92420000 0.895068230129 -0.330492649542
92430000 0.895076846426 -0.330697232574
92440000 0.894961150853 -0.330872123411
92450000 0.89507476811 -0.330760531402
92460000 0.894867309979 -0.33119520286
92470000 0.89497376768 -0.331295264695
92480000 0.894842763274 -0.331399882323
92490000 0.894936456783 -0.331505824152
92500000 0.894717258759 -0.331418908992
92510000 0.894889573204 -0.331824326142
92520000 0.894933914813 -0.33177198117
92530000 0.894748670355 -0.332074910056
92540000 0.894857027481 -0.332068952574
92550000 0.894755669143 -0.332110980154
92560000 0.894836726537 -0.332261902598
92570000 0.894740843529 -0.332320888945
92580000 0.894767364117 -0.332551442191
92590000 0.894824472197 -0.332423032432
92600000 0.894594059602 -0.332757001638
92610000 0.89471654017 -0.332802242138
92620000 0.894618489387 -0.332893526024
92630000 0.894641451296 -0.333083400367
92640000 0.894636251012 -0.333061594693
92650000 0.894519818797 -0.333427529459
92660000 0.894560121689 -0.333368899371
92670000 0.894435773346 -0.333560895138
92680000 0.894570492466 -0.333582310666
92690000 0.894450189725 -0.333665521716
92700000 0.894393100315 -0.333993142357
92710000 0.894499361715 -0.333853117681
92720000 0.894317635795 -0.334140255689
92730000 0.894393375141 -0.334095543268
92740000 0.894388553577 -0.334323694482
92750000 0.894366087982 -0.334600133615
92760000 0.894285338268 -0.334555020234
92770000 0.894295299719 -0.334849097513
92780000 0.894382022214 -0.334698592566
92790000 0.894173674503 -0.335016868794
92800000 0.894335508496 -0.335122576565
92810000 0.894251859602 -0.335225010826
92820000 0.894216481641 -0.335370303548
92830000 0.894296650604 -0.33529368583
92840000 0.894191580591 -0.335631135986
92850000 0.894257825373 -0.335690190112
92860000 0.894008025051 -0.335878488411
92870000 0.894080779698 -0.335969258731
92880000 0.894001175917 -0.335963760229
92890000 0.893912560804 -0.336315829089
92900000 0.894076970745 -0.336238064147
92910000 0.893913186472 -0.336550663739
92920000 0.8939248331 -0.336546734673
92930000 0.893879855539 -0.336608889452
92940000 0.893818150767 -0.336864955248
92950000 0.893817569075 -0.336812239119
92960000 0.893743298856 -0.337112606109
92970000 0.893900543104 -0.337021644998
92980000 0.893631079858 -0.337269857101
92990000 0.893773467365 -0.337403217228
93000000 0.893725862637 -0.337501032193
93010000 0.893683921075 -0.337680033912
93020000 0.893551269452 -0.337873854818
93030000 0.893618208003 -0.337832710162
93040000 0.89344921921 -0.338088393947
93050000 0.893426831318 -0.338288613942
93060000 0.893500587603 -0.338277206853
93070000 0.893521332193 -0.338452551554
93080000 0.893443585755 -0.338398890845
93090000 0.893270401963 -0.338702972892
93100000 0.893345309245 -0.33881077586
93110000 0.893227945859 -0.338832788794
93120000 0.893249718606 -0.339015800609
93130000 0.893283200229 -0.339084703083
93140000 0.893088630014 -0.339392197143
93150000 0.893270032229 -0.339374765964
93160000 0.893112765968 -0.339556630229
93170000 0.893204972985 -0.339582024293
93180000 0.893066104571 -0.339747255721
93190000 0.892911660752 -0.340049358666
93200000 0.893041270836 -0.339806499402
93210000 0.89294155474 -0.340073333779
93220000 0.893049006282 -0.340206231177
93230000 0.892841343125 -0.340466097267
93240000 0.892540095335 -0.34077258551
93250000 0.892902669004 -0.34119451052
93260000 0.892550812026 -0.340529968357
93270000 0.89228122696 -0.340145100243
93280000 0.892757199659 -0.341244973361
93290000 0.892355456321 -0.341611331227
93300000 0.89262843264 -0.341767631144
93310000 0.892922670481 -0.341572969606
93320000 0.892860476118 -0.341290356643
93330000 0.892161832562 -0.342068918907
93340000 0.892513644204 -0.341829098163
93350000 0.892464113395 -0.341700180856
93360000 0.892434295148 -0.341801894161
93370000 0.892156101601 -0.342195244403
93380000 0.892054829974 -0.342481293144
93390000 0.892256967971 -0.342392914257
93400000 0.892080124157 -0.342616077598
93410000 0.892207275677 -0.342630950096
93420000 0.892073663332 -0.342810066446
93430000 0.891941330086 -0.343081270797
93440000 0.892112326178 -0.343010692303
93450000 0.892010199773 -0.343210624854
93460000 0.891997044971 -0.343162835796
93470000 0.891731090213 -0.343381748194
93480000 0.891728943907 -0.343605988465
93490000 0.891724844388 -0.343610687196
93500000 0.891695103793 -0.343791340207
93510000 0.89180336126 -0.343841376593
93520000 0.891537728214 -0.344148019904
93530000 0.891685372583 -0.344151768315
93540000 0.891538371648 -0.344217609856
93550000 0.891592694077 -0.344326546813
93560000 0.891452262252 -0.344450603309
93570000 0.891256423883 -0.34477481096
93580000 0.891348414353 -0.344757207807
93590000 0.891191478596 -0.344873630458
93600000 0.891295159961 -0.344918518317
93610000 0.891195450298 -0.345091933271
93620000 0.891028986883 -0.345393808838
93630000 0.891163952948 -0.345359126759
93640000 0.891112940797 -0.345505341767
93650000 0.891212259877 -0.345473835947
93660000 0.890898878099 -0.345737206919
93670000 0.890816706358 -0.345984165915
93680000 0.890819169249 -0.345918187689
93690000 0.890693414608 -0.346105949781
93700000 0.89081731163 -0.346133219254
93710000 0.890569930341 -0.346418771362
93720000 0.890694669315 -0.346521211567
93730000 0.890570206982 -0.346561157539
93740000 0.890639490759 -0.346673138246
93750000 0.890543715314 -0.346721872933
93760000 0.890308233831 -0.346995297795
93770000 0.890425391282 -0.347073143567
93780000 0.89023083882 -0.34717357235
93790000 0.890337382335 -0.347292157959
93800000 0.890278031334 -0.347394473624
93810000 0.890059722993 -0.347670391864
93820000 0.890258002607 -0.347672301055
93830000 0.890187140256 -0.347871259178
93840000 0.890267649981 -0.347850544028
93850000 0.889948128591 -0.348024309947
93860000 0.889815963351 -0.348261777025
93870000 0.889903207842 -0.348217186822
93880000 0.88980793723 -0.348345149455
93890000 0.889923324843 -0.348424753618
93900000 0.889560025487 -0.348671835684
93910000 0.889553669316 -0.348826952401
93920000 0.889566185893 -0.348851143993
93930000 0.889614964187 -0.349036995776
93940000 0.889528751262 -0.349098302382
93950000 0.889238616221 -0.349307767845
93960000 0.889369398956 -0.349314386585
93970000 0.889204018481 -0.349388862296
93980000 0.889337980672 -0.349530044549
93990000 0.889278508938 -0.349692175779
94000000 0.888934585421 -0.349911816311
94010000 0.888980626362 -0.350366257768
94020000 0.888806987298 -0.350457268461
94030000 0.88859238186 -0.350615557448
94040000 0.888434247746 -0.350823794881
94050000 0.888792193254 -0.350806172078
94060000 0.888593547018 -0.350981740926
94070000 0.888631322234 -0.3510856793
94080000 0.888275158746 -0.351233709217
94090000 0.8883447752 -0.351393792227
94100000 0.888641391391 -0.351278874431
94110000 0.888307361356 -0.351451270718
94120000 0.888149181621 -0.351622541761
94130000 0.887893016748 -0.351763879775
94140000 0.888025017906 -0.351906988381
94150000 0.888198329795 -0.351908953941
94160000 0.888024010036 -0.352161695432
94170000 0.887835462259 -0.352333597446
94180000 0.887640093681 -0.352394059131
94190000 0.887865407853 -0.35246960844
94200000 0.88788047835 -0.352548987929
94210000 0.887705938054 -0.352771142749
94220000 0.887446015662 -0.352909400449
94230000 0.887302910754 -0.353010999424
94240000 0.887746159426 -0.352992142835
94250000 0.887591853388 -0.353126908138
94260000 0.887560221205 -0.353326973326
94270000 0.887219717623 -0.35345164258
94280000 0.887136570775 -0.353563740484
94290000 0.887539396796 -0.353577015914
94300000 0.887274792475 -0.353754981677
94310000 0.887120702095 -0.353881205712
94320000 0.886830705892 -0.354017279504
94330000 0.886923649871 -0.354193256622
94340000 0.887134847587 -0.354130347232
94350000 0.88699584397 -0.354381553478
94360000 0.886808355698 -0.354449552279
94370000 0.886608105639 -0.35453513513
94380000 0.886743204326 -0.354658928877
94390000 0.886817345876 -0.35470645278
94400000 0.886621610348 -0.3548840489
94410000 0.886384404718 -0.35494863628
94420000 0.886207481312 -0.355117050941
94430000 0.886574305282 -0.355247956667
94440000 0.886428649716 -0.355291088353
94450000 0.88633673639 -0.355496541704
94460000 0.886066051872 -0.355527104686
94470000 0.885934397697 -0.355614916057
94480000 0.886418847152 -0.355749961936
94490000 0.886131159392 -0.355908008915
94500000 0.885978267453 -0.355933853467
94510000 0.885644432147 -0.356021147443
94520000 0.885732711683 -0.356196986275
94530000 0.886083416478 -0.356256750117
94540000 0.886231222361 -0.356417080801
94550000 0.885595453073 -0.356501195544
94560000 0.885347453238 -0.356677144289
94570000 0.885471647415 -0.356783875183
94580000 0.885634729882 -0.356880095418
94590000 0.885446838439 -0.357054514762
94600000 0.885189348641 -0.357088450084
94610000 0.884995292854 -0.357218587025
94620000 0.885384586118 -0.357379943466
94630000 0.885253453547 -0.357419378244
94640000 0.88517603257 -0.357595200804
94650000 0.884868104817 -0.357609589402
94660000 0.884717888571 -0.357733903327
94670000 0.885151793134 -0.357869776113
94680000 0.884926686905 -0.357963300257
94690000 0.884731079414 -0.358045188281
94700000 0.884445380865 -0.358167876118
94710000 0.884472648589 -0.358341984004
94720000 0.884844270796 -0.358457253647
94730000 0.884596177093 -0.358589296205
94740000 0.884353015779 -0.358613555238
94750000 0.884140529553 -0.35868540653
94760000 0.884246324394 -0.358871812429
94770000 0.884443820584 -0.358987530547
94780000 0.884220763353 -0.359161740521
94790000 0.883957828885 -0.359109256181
94800000 0.883811294007 -0.359186125552
94810000 0.884164379607 -0.359450998506
94820000 0.88411003102 -0.359490497213
94830000 0.883951603651 -0.359686904274
94840000 0.883686111637 -0.359671696323
94850000 0.883528145807 -0.359776982735
94860000 0.883932285116 -0.359971695277
94870000 0.883769818522 -0.360096133066
94880000 0.883602905869 -0.360123186302
94890000 0.883291614986 -0.360137210057
94900000 0.883203844901 -0.360319347585
94910000 0.883594001758 -0.360528255179
94920000 0.883396792634 -0.360607261974
94930000 0.883205641624 -0.360661186925
94940000 0.882911955133 -0.360638317972
94950000 0.883004086774 -0.360815521881
94960000 0.883227079427 -0.360964523569
94970000 0.882989214254 -0.361062510204
94980000 0.882791332567 -0.361094222367
94990000 0.882524071593 -0.361157401937
95000000 0.88280357662 -0.361495820587
95010000 0.882573683043 -0.361611199853
95020000 0.882591676637 -0.361619051367
95030000 0.882388319939 -0.361754153275
95040000 0.882375358442 -0.361768409153
95050000 0.882029163242 -0.36186220245
95060000 0.882203131248 -0.361998439759
95070000 0.882195528933 -0.36213578652
95080000 0.882111047168 -0.362286592911
95090000 0.881984753428 -0.362257619363
95100000 0.881866895845 -0.362456329757
95110000 0.882032874494 -0.362656083584
95120000 0.88183662418 -0.362606725638
95130000 0.881753491763 -0.36276809154
95140000 0.88155498615 -0.362687368336
95150000 0.881599737104 -0.36291582722
95160000 0.881784288234 -0.363131167256
95170000 0.881495978218 -0.363166665037
95180000 0.881510341516 -0.36335067311
95190000 0.881169048138 -0.363236298242
95200000 0.88134879695 -0.363489858185
95210000 0.881391468938 -0.363530677335
95220000 0.881139427756 -0.3636136823
95230000 0.881143801272 -0.363671476289
95240000 0.880790107149 -0.363723897299
95250000 0.880925113581 -0.36387564238
95260000 0.880944053933 -0.364056938209
95270000 0.880866041016 -0.364240304544
95280000 0.880832300765 -0.364285499259
95290000 0.880578005322 -0.364350574511
95300000 0.880766926405 -0.364524866854
95310000 0.880585876228 -0.364497494277
95320000 0.880550457081 -0.364657919063
95330000 0.880316673391 -0.364635754869
95340000 0.880296018528 -0.364857654561
95350000 0.880436817777 -0.365043819755
95360000 0.880180066314 -0.365084839538
95370000 0.880257070177 -0.36525725216
95380000 0.879991314114 -0.365168527685
95390000 0.880099141406 -0.3654908019
95400000 0.880156377292 -0.365600862457
95410000 0.87986442262 -0.36564621368
95420000 0.879875999154 -0.365690936743
95430000 0.879523589134 -0.365661797864
95440000 0.879728968669 -0.365893337468
95450000 0.879713256514 -0.366066516348
95460000 0.879571126698 -0.366215842857
95470000 0.879573767603 -0.366231859955
95480000 0.879371274016 -0.366197818291
95490000 0.879474788997 -0.366421761394
95500000 0.879374005712 -0.366451045578
95510000 0.879261231835 -0.366606351824
95520000 0.879131511766 -0.366566065685
95530000 0.879021856366 -0.366814163394
95540000 0.879157894842 -0.366957874392
95550000 0.878975054419 -0.366968036836
95560000 0.87901622713 -0.36718363924
95570000 0.878754772378 -0.367118298762
95580000 0.878815309028 -0.367420135467
95590000 0.878982652235 -0.367552891065
95600000 0.878613299758 -0.367438864274
95610000 0.878667168298 -0.367460596707
95620000 0.878410913206 -0.367577067726
95630000 0.878692357266 -0.367823059333
95640000 0.878602304963 -0.367862535677
95650000 0.878305895704 -0.368273073626
95660000 0.878251778981 -0.367932630959
95670000 0.878203369472 -0.367967764651
95680000 0.87830060556 -0.368144439191
95690000 0.878339286891 -0.368128082972
95700000 0.878389822899 -0.368461383301
95710000 0.877934863594 -0.3684076829
95720000 0.877833075589 -0.368569483942
95730000 0.878010811586 -0.368747918643
95740000 0.877650298866 -0.368740029719
95750000 0.878011707028 -0.368989381382
95760000 0.877576854426 -0.369020351956
95770000 0.877489165556 -0.369318669165
95780000 0.877648658528 -0.369462652114
95790000 0.877416479109 -0.369424412329
95800000 0.877404640689 -0.36952121899
95810000 0.877107346215 -0.369417206947
95820000 0.877168109929 -0.36966387049
95830000 0.877193747091 -0.369858633478
95840000 0.877023131345 -0.369963084188
95850000 0.877072444723 -0.370068998934
95860000 0.876843834134 -0.369962013528
95870000 0.876956185155 -0.370207362581
95880000 0.876881230122 -0.370283054402
95890000 0.876734389304 -0.370428425558
95900000 0.876762575216 -0.370250356873
95910000 0.876746714715 -0.370077302656
95920000 0.876857212631 -0.37038949985
95930000 0.87662840407 -0.370462258639
95940000 0.876518899626 -0.370953419364
95950000 0.876541969477 -0.370518007982
95960000 0.8763861779 -0.370851708017
95970000 0.876597045114 -0.371009343355
95980000 0.87640044848 -0.370870237474
95990000 0.876417216315 -0.371038003175
96000000 0.87612795724 -0.370915388883
96010000 0.87620896853 -0.37130215844
96020000 0.875981979945 -0.371434331501
96030000 0.876038697684 -0.371467895536
96040000 0.875783923505 -0.371402626323
96050000 0.876052842404 -0.371896144344
96060000 0.875687068052 -0.371673560362
96070000 0.875682462713 -0.371920474899
96080000 0.875663666568 -0.371816907983
96090000 0.875518584556 -0.372021690531
96100000 0.875715706137 -0.372475375359
96110000 0.875381291078 -0.372123101176
96120000 0.875481315429 -0.372534567683
96130000 0.87525497091 -0.37227346975
96140000 0.875249836138 -0.372607546059
96150000 0.875293957808 -0.37277172598
96160000 0.874922415922 -0.372627749333
96170000 0.87511616256 -0.372961285209
96180000 0.874827868225 -0.372686246682
96190000 0.87495682018 -0.373333088999
96200000 0.874891861719 -0.37331680602
96210000 0.874733360656 -0.373313265401
96220000 0.874791082642 -0.373449619103
96230000 0.874566830599 -0.3733446729
96240000 0.874721224372 -0.373861708188
96250000 0.874458637065 -0.373551604573
96260000 0.874456211758 -0.373782521552
96270000 0.874439234652 -0.373748163563
96280000 0.874242695719 -0.373906076401
96290000 0.874365273415 -0.374413799646
96300000 0.874104706887 -0.373909338716
96310000 0.874130719956 -0.374338920294
96320000 0.874023995698 -0.374113352337
96330000 0.873951805705 -0.374441362821
96340000 0.873964836561 -0.374700914179
96350000 0.873657109835 -0.374445730322
96360000 0.873859853923 -0.374775490079
96370000 0.873624829534 -0.374478922649
96380000 0.873640219664 -0.375166684638
96390000 0.873596460968 -0.375191810919
96400000 0.873403110066 -0.37511422558
96410000 0.873560360751 -0.375365214617
96420000 0.873263549882 -0.375114520917
96430000 0.873387163986 -0.375662912787
96440000 0.873255176235 -0.375503927723
96450000 0.873177543477 -0.375753731479
96460000 0.872995459591 -0.375767924385
96470000 0.872999382492 -0.375581315284
96480000 0.873155288871 -0.376094698853
96490000 0.872979108087 -0.375803312816
96500000 0.87280071153 -0.376196722006
96510000 0.872481892848 -0.37591849386
96520000 0.872618213356 -0.376289329894
96530000 0.872719377984 -0.376811218447
96540000 0.872478863047 -0.376218431109
96550000 0.872588847923 -0.376733662329
96560000 0.872514031361 -0.376350170963
96570000 0.872385303812 -0.37705409777
96580000 0.87236095453 -0.377050963288
96590000 0.872119176608 -0.376927396488
96600000 0.872210454761 -0.377208434891
96610000 0.872043297392 -0.376932764603
96620000 0.872020622843 -0.377534465809
96630000 0.871997878003 -0.377349481116
96640000 0.871815741067 -0.377528414866
96650000 0.871913563082 -0.377540743376
96660000 0.871602143429 -0.377567641654
96670000 0.871669086078 -0.378145846835
96680000 0.871615741878 -0.377751205273
96690000 0.871543191817 -0.378059837414
96700000 0.87154490323 -0.377948350123
96710000 0.871423754321 -0.378136751838
96720000 0.871477863514 -0.378454088541
96730000 0.871221679654 -0.378055462795
96740000 0.871279492318 -0.37852209498
96750000 0.871193039497 -0.37828866573
96760000 0.871017831356 -0.378814641935
96770000 0.871022901171 -0.378997134216
96780000 0.870874423664 -0.378772132303
96790000 0.870893110052 -0.379109411814
96800000 0.87087863725 -0.378814692479
96810000 0.870820706777 -0.379402448526
96820000 0.870766082205 -0.379278881653
96830000 0.870564617814 -0.379365648709
96840000 0.87064666481 -0.379476524759
96850000 0.870444312189 -0.379412135247
96860000 0.870409578244 -0.380095013963
96870000 0.870406560674 -0.37970031059
96880000 0.870286854599 -0.380011091468
96890000 0.870351784158 -0.379894696878
96900000 0.870145064926 -0.38001787091
96910000 0.870101817742 -0.380381672223
96920000 0.870048534516 -0.379944833005
96930000 0.869985998556 -0.380345587267
96940000 0.869978671214 -0.380159854046
96950000 0.869720286519 -0.380582491437
96960000 0.869772081845 -0.380890482517
96970000 0.86972419195 -0.380558931306
96980000 0.869740621689 -0.380944181733
96990000 0.869691892955 -0.38064737239
97000000 0.869502549952 -0.381237097693
97010000 0.869298878178 -0.381373409937
97020000 0.869423155679 -0.381302123913
97030000 0.869452477165 -0.381097763458
97040000 0.869314953836 -0.38148835543
97050000 0.869195922463 -0.381691092637
97060000 0.869061438822 -0.381776380184
97070000 0.869061144321 -0.38162283718
97080000 0.869022328481 -0.381557890564
97090000 0.868906196663 -0.38195731987
97100000 0.8687891787 -0.382153975619
97110000 0.868753489863 -0.382329971791
97120000 0.868837740291 -0.382138372766
97130000 0.868635439266 -0.38230542069
97140000 0.868587723653 -0.38267743119
97150000 0.868506473097 -0.382671664186
97160000 0.868470675667 -0.382677478958
97170000 0.868532275846 -0.382580716232
97180000 0.868421234472 -0.38285781
97190000 0.868175360861 -0.383153374648
97200000 0.868031572747 -0.383109515212
97210000 0.868546000719 -0.383201758698
97220000 0.868325748229 -0.383082016114
97230000 0.867804372703 -0.383383017954
97240000 0.86772937113 -0.383480787038
97250000 0.867594539037 -0.383658773109
97260000 0.868121390564 -0.383520180971
97270000 0.867909612819 -0.383412770258
97280000 0.867468764773 -0.383811892521
97290000 0.867883320906 -0.384049738256
97300000 0.867480366213 -0.384261298608
97310000 0.867640437082 -0.384202577953
97320000 0.867443802294 -0.38402285247
97330000 0.867478958987 -0.384511539284
97340000 0.867539450205 -0.384402515573
97350000 0.867418474416 -0.384942451762
97360000 0.867430484581 -0.384448486484
97370000 0.867103892174 -0.384880709152
97380000 0.866913437772 -0.385087063028
97390000 0.866889042076 -0.385102963534
97400000 0.866950249807 -0.385185435011
97410000 0.867002505137 -0.385011472807
97420000 0.866781668855 -0.385327157921
97430000 0.866675436963 -0.385513433575
97440000 0.86654740235 -0.385591113647
97450000 0.866715417867 -0.385463066163
97460000 0.866694749171 -0.385417384712
97470000 0.866548875028 -0.385822608666
97480000 0.866401763245 -0.385928055678
97490000 0.866286656445 -0.386106852921
97500000 0.866465759703 -0.385998334653
97510000 0.866352619282 -0.386019813944
97520000 0.866076712165 -0.386467769757
97530000 0.865992978556 -0.38649335945
97540000 0.865986448645 -0.386569951755
97550000 0.866073002756 -0.386434807005
97560000 0.865959814449 -0.386657072041
97570000 0.865739204484 -0.387092133351
97580000 0.865602165717 -0.387095695351
97590000 0.86570515032 -0.387202634394
97600000 0.865838514816 -0.38705473296
97610000 0.865633349636 -0.38732136365
97620000 0.865418363843 -0.387585734739
97630000 0.86530160747 -0.387599291808
97640000 0.865407099456 -0.387539861996
97650000 0.865440872082 -0.387504789292
97660000 0.865276035773 -0.38782685169
97670000 0.865113785907 -0.38797375379
97680000 0.865025145295 -0.38811514169
97690000 0.865226691411 -0.388095082681
97700000 0.865170966146 -0.388111593435
97710000 0.864896296626 -0.388484562487
97720000 0.864796420489 -0.388495782587
97730000 0.864805707461 -0.388585341999
97740000 0.864933894275 -0.388544944777
97750000 0.864767372605 -0.388704697556
97760000 0.864470404434 -0.389029189674
97770000 0.864373454107 -0.389096567122
97780000 0.864382905552 -0.389211381591
97790000 0.864552183916 -0.389146713498
97800000 0.864313879165 -0.389363598679
97810000 0.864044325193 -0.389706480437
97820000 0.864032834384 -0.389687885517
97830000 0.864190819385 -0.389647860735
97840000 0.864294937163 -0.389623949831
97850000 0.864015894648 -0.389920333063
97860000 0.863826121669 -0.390069400421
97870000 0.863758007199 -0.390194672469
97880000 0.863921486241 -0.390165110822
97890000 0.863908368341 -0.390169815342
97900000 0.863596553724 -0.390495738814
97910000 0.863464010725 -0.390608470519
97920000 0.863401042509 -0.390714402508
97930000 0.863615210367 -0.390686195454
97940000 0.863498907215 -0.390741242075
97950000 0.863203862691 -0.391104258493
97960000 0.86309845405 -0.391129273763
97970000 0.863097517202 -0.391322060697
97980000 0.863277026139 -0.39127276094
97990000 0.863069017492 -0.39146650392
98000000 0.862783897051 -0.391694276638
98010000 0.862683543283 -0.391650019094
98020000 0.862470384021 -0.392086101455
98030000 0.862828091047 -0.391756332994
98040000 0.862851449341 -0.391896539575
98050000 0.862865522753 -0.392000692747
98060000 0.86207203904 -0.392369656941
98070000 0.862255192018 -0.392477927551
98080000 0.862499478642 -0.392331128832
98090000 0.862558976205 -0.392497357705
98100000 0.862389393321 -0.392466110726
98110000 0.861675513025 -0.393023235006
98120000 0.862061880674 -0.392935439364
98130000 0.86212316895 -0.392886126843
98140000 0.862197849242 -0.393050892046
98150000 0.861982112378 -0.393087559168
98160000 0.861297340402 -0.393646832264
98170000 0.861798486951 -0.393378210778
98180000 0.861870387828 -0.39345547467
98190000 0.861882348096 -0.393643804129
98200000 0.861387327977 -0.393745982066
98210000 0.861041312764 -0.394171647764
98220000 0.861444261315 -0.393935660972
98230000 0.861503579999 -0.394109175719
98240000 0.86146192348 -0.39420875034
98250000 0.860767500689 -0.394484886981
98260000 0.860849355555 -0.394640242413
98270000 0.861165348324 -0.394508624842
98280000 0.861137410557 -0.394734715008
98290000 0.861159494855 -0.394700782619
98300000 0.860291797288 -0.395145866326
98310000 0.860605557835 -0.395137817802
98320000 0.860739575093 -0.395081184237
98330000 0.860761505091 -0.395311842279
98340000 0.860595997879 -0.39529634287
98350000 0.859905337502 -0.395776089488
98360000 0.860362751409 -0.395615195638
98370000 0.860388840818 -0.395688763333
98380000 0.860383729787 -0.395917570794
98390000 0.86001836051 -0.395947472097
98400000 0.859523200128 -0.39633891163
98410000 0.85999974061 -0.396181974065
98420000 0.860067051438 -0.396318383425
98430000 0.860024766643 -0.396443205021
98440000 0.859377715043 -0.39660980507
98450000 0.859328672248 -0.396856533755
98460000 0.859713502327 -0.396741637791
98470000 0.859696711716 -0.396931722318
98480000 0.859685400828 -0.396970788073
98490000 0.858885872066 -0.397219339371
98500000 0.859129120291 -0.397356663337
98510000 0.859294907595 -0.397321101902
98520000 0.859364025146 -0.397524979063
98530000 0.859186900313 -0.3974867128
98540000 0.858430646047 -0.397877610855
98550000 0.858873375884 -0.397822435662
98560000 0.858913287125 -0.39792298845
98570000 0.858905464721 -0.398190228087
98580000 0.85860408449 -0.39812135794
98590000 0.858000257299 -0.398526370776
98600000 0.858495815675 -0.398415581081
98610000 0.858591052957 -0.398542840532
98620000 0.858591904569 -0.39868515582
98630000 0.857997342783 -0.398742833933
98640000 0.857753684968 -0.399045250889
98650000 0.858139638899 -0.398939402236
98660000 0.858207849648 -0.399182973115
98670000 0.858175107885 -0.399252715957
98680000 0.857470578409 -0.399454140812
98690000 0.85759409191 -0.39963315314
98700000 0.857768035637 -0.399643490067
98710000 0.85783415127 -0.399858478698
98720000 0.85773011402 -0.399742122357
98730000 0.856962786445 -0.400007277421
98740000 0.857320721218 -0.400115954236
98750000 0.857393836158 -0.400144161903
98760000 0.857445550562 -0.400455875523
98770000 0.8571449622 -0.400354650801
98780000 0.856470379732 -0.40065015394
98790000 0.856940755353 -0.400713167356
98800000 0.856922116518 -0.400808490467
98810000 0.856964183469 -0.40109347478
98820000 0.85650660982 -0.400942528391
98830000 0.856164901229 -0.401315276832
98840000 0.856403277327 -0.401299293488
98850000 0.856737852537 -0.401795108047
98860000 0.856627564072 -0.40141747164
98870000 0.855811761293 -0.401726642992
98880000 0.856169191444 -0.401876656461
98890000 0.856208947827 -0.401876757437
98900000 0.8560550073 -0.402167062426
98910000 0.855963965049 -0.402078803319
98920000 0.855343050092 -0.402305494921
98930000 0.855564333569 -0.402280827746
98940000 0.855836331416 -0.402325723724
98950000 0.855766553898 -0.402801455891
98960000 0.855565998407 -0.402653354666
98970000 0.854896252054 -0.402939774332
98980000 0.855197584314 -0.402984332928
98990000 0.855344229604 -0.403141032098
99000000 0.855279670469 -0.40328183689
99010000 0.855120044788 -0.403274288879
99020000 0.85485250203 -0.403486721208
99030000 0.854711141815 -0.403562853899
99040000 0.854567075544 -0.403697343105
99050000 0.854745574514 -0.403906045086
99060000 0.854747415802 -0.4038936505
99070000 0.854533206365 -0.404057794521
99080000 0.854330069438 -0.404117984508
99090000 0.854169707266 -0.404313522289
99100000 0.854278729115 -0.404455411919
99110000 0.854138848299 -0.404562114634
99120000 0.853934001337 -0.404708451115
99130000 0.853747548734 -0.404738080919
99140000 0.853718869976 -0.404955206175
99150000 0.853848332893 -0.405034189419
99160000 0.853689376125 -0.405156503711
99170000 0.853566745187 -0.405242247361
99180000 0.853262058678 -0.405309011934
99190000 0.853275367711 -0.405520984717
99200000 0.853321458537 -0.40562656545
99210000 0.853109150233 -0.405804731251
99220000 0.852924501247 -0.405898210416
99230000 0.852702367815 -0.406010988317
99240000 0.852869716157 -0.406203978403
99250000 0.852902756152 -0.406258225663
99260000 0.852682497772 -0.406414169637
99270000 0.852598095106 -0.406413412798
99280000 0.852401650947 -0.406575410653
99290000 0.852475593632 -0.406743925014
99300000 0.852372837574 -0.406841516877
99310000 0.8521521422 -0.406960648153
99320000 0.851989593596 -0.407004373596
99330000 0.851901727562 -0.407267808036
99340000 0.85205045814 -0.407366949467
99350000 0.851893577066 -0.40750681314
99360000 0.85178316152 -0.407595309911
99370000 0.851540766085 -0.407620380554
99380000 0.851523090699 -0.407807354708
99390000 0.851579927513 -0.407944978856
99400000 0.851342358866 -0.408104377601
99410000 0.851179039031 -0.408222489675
99420000 0.85088663176 -0.40825320207
99430000 0.851017710235 -0.408471382111
99440000 0.851093761823 -0.4085070524
99450000 0.850913966841 -0.408683172823
99460000 0.8507285735 -0.408664434624
99470000 0.850538356355 -0.40885551899
99480000 0.850591766403 -0.40906197536
99490000 0.850544232664 -0.409168220733
99500000 0.850338590534 -0.4092733687
99510000 0.850158126248 -0.409315474643
99520000 0.850068426542 -0.409522460951
99530000 0.850164567784 -0.409696790715
99540000 0.850058226328 -0.409796794057
99550000 0.849913505872 -0.409906737354
99560000 0.84970705302 -0.40991398136
99570000 0.849665873006 -0.410144633714
99580000 0.849702775452 -0.410318271202
99590000 0.849465912514 -0.410417456556
99600000 0.849320605646 -0.410474853939
99610000 0.849102414031 -0.410494886942
99620000 0.849187074611 -0.410752518077
99630000 0.849204491227 -0.410872842977
99640000 0.848963897656 -0.411000939199
99650000 0.848835170737 -0.411043750602
99660000 0.848570200529 -0.411167937753
99670000 0.848556612257 -0.411381202296
99680000 0.848581458028 -0.411562706829
99690000 0.848396708675 -0.411619236007
99700000 0.848249413755 -0.411639127435
99710000 0.848094754107 -0.411798270398
99720000 0.848268550696 -0.41198768591
99730000 0.848148872512 -0.412145695208
99740000 0.848029068705 -0.412149721194
99750000 0.847840181928 -0.412174216226
99760000 0.847708468915 -0.412347140761
99770000 0.84771956959 -0.412555278343
99780000 0.847539256424 -0.412688569372
99790000 0.847350652771 -0.412770886106
99800000 0.847161038096 -0.412751286523
99810000 0.847163198114 -0.413034782211
99820000 0.847258349685 -0.413122434724
99830000 0.846885234885 -0.413404324394
99840000 0.847016460841 -0.413286498554
99850000 0.846855270149 -0.41325299134
99860000 0.846599924527 -0.413630501197
99870000 0.846719694527 -0.413778528211
99880000 0.846349313119 -0.413900534146
99890000 0.846294112523 -0.413698302884
99900000 0.846018621591 -0.414147432089
99910000 0.846261658528 -0.414241481665
99920000 0.846200444329 -0.41439471051
99930000 0.845902360189 -0.41435844319
99940000 0.845899691186 -0.41446564213
99950000 0.845769547347 -0.414689564453
99960000 0.845726445856 -0.414851110247
99970000 0.845600008988 -0.414971611121
99980000 0.845413904825 -0.415014606768
99990000 0.845233350735 -0.414997403788
100000000 0.845173317201 -0.415244904748
100010000 0.84507501062 -0.415328823539
100020000 0.845017015693 -0.415434749987
100030000 0.844929214489 -0.415757883816
100040000 0.84486264416 -0.41578981645
100050000 0.844646247212 -0.41583731747
100060000 0.844574049966 -0.415846879677
100070000 0.844510460557 -0.416028044811
100080000 0.844449076752 -0.416212253108
100090000 0.844383051378 -0.416267420898
100100000 0.844134669597 -0.4163845001
100110000 0.844092799742 -0.416468446232
100120000 0.8438971952 -0.416655599147
100130000 0.843953652746 -0.416826166556
100140000 0.843759190762 -0.416898384301
100150000 0.843581424959 -0.417029702908
100160000 0.843584766849 -0.417103236723
100170000 0.84346118305 -0.417267700058
100180000 0.843484662408 -0.417436687709
100190000 0.843289275341 -0.417524656552
100200000 0.843089489538 -0.417597211522
100210000 0.8429681816 -0.417677530666
100220000 0.842870274738 -0.41791376317
100230000 0.842863971722 -0.417956415086
100240000 0.842686335673 -0.418056320358
100250000 0.842554005328 -0.418147981939
100260000 0.8424625842 -0.41830117936
100270000 0.842399916606 -0.418571876332
100280000 0.842337252316 -0.418582672714
100290000 0.842080670968 -0.41866351468
100300000 0.842077672239 -0.418736432678
100310000 0.841918574479 -0.418862830415
100320000 0.841888966512 -0.419053196365
100330000 0.841712725329 -0.419056117062
100340000 0.84151108646 -0.419160308996
100350000 0.841539886941 -0.419255309625
100360000 0.841345222643 -0.419483952777
100370000 0.841372600106 -0.419689259644
100380000 0.841173553098 -0.419706817756
100390000 0.841042512091 -0.419809673244
100400000 0.840968904644 -0.419945508539
100410000 0.840744804776 -0.420144048378
100420000 0.840754764794 -0.420315610149
100430000 0.840541751034 -0.420321324542
100440000 0.840519931026 -0.420400088563
100450000 0.840461716965 -0.420541191008
100460000 0.840377742228 -0.420812594098
100470000 0.840296506047 -0.42086550496
100480000 0.840053089104 -0.420976596904
100490000 0.840008592981 -0.421025954372
100500000 0.839827058819 -0.421167526599
100510000 0.839756060861 -0.421353927128
100520000 0.839640003538 -0.421409023175
100530000 0.839486247642 -0.421491256737
100540000 0.839506852815 -0.421603968217
100550000 0.839338330236 -0.421795546511
100560000 0.839331402528 -0.421974832671
100570000 0.839124920916 -0.422025109422
100580000 0.838934551846 -0.422146203275
100590000 0.83886428051 -0.422206852315
100600000 0.838669092363 -0.422357791289
100610000 0.838714143895 -0.422513059306
100620000 0.838497111828 -0.422670257197
100630000 0.838377204861 -0.422773104444
100640000 0.838109993147 -0.422941636169
100650000 0.838039315702 -0.423250707558
100660000 0.838195266269 -0.423081309603
100670000 0.838039436846 -0.423251354028
100680000 0.837910078679 -0.423194445267
100690000 0.837836939393 -0.423491145428
100700000 0.837775529848 -0.423815179607
100710000 0.837531858654 -0.42383613953
100720000 0.837369681135 -0.423913209155
100730000 0.83743696366 -0.424010882972
100740000 0.837234948079 -0.424055725139
100750000 0.837150574381 -0.42434270874
100760000 0.83701747352 -0.424424491011
100770000 0.836839519632 -0.424536230101
100780000 0.836799139753 -0.42462330813
100790000 0.836556761774 -0.424807457077
100800000 0.83654293624 -0.424964415773
100810000 0.836338119752 -0.425021863686
100820000 0.836230203776 -0.425064037235
100830000 0.836162406302 -0.425230477883
100840000 0.835977841688 -0.425458377178
100850000 0.835969066358 -0.425605303883
100860000 0.83574652207 -0.425671262537
100870000 0.835749538398 -0.425775600481
100880000 0.835543013714 -0.425859043255
100890000 0.835417464155 -0.426058537085
100900000 0.835315354724 -0.426173848169
100910000 0.835113631182 -0.426257875481
100920000 0.835183244431 -0.426361051142
100930000 0.834984149725 -0.426543690173
100940000 0.834974675571 -0.426813847442
100950000 0.834862111916 -0.426855181631
100960000 0.834634300186 -0.426927819899
100970000 0.834625350089 -0.426994208834
100980000 0.834368863927 -0.427159173113
100990000 0.834328899198 -0.427355699258
101000000 0.83413650479 -0.427435423361
101010000 0.834032911308 -0.427640934337
101020000 0.833916870811 -0.427729007771
101030000 0.833773665844 -0.427726202728
101040000 0.833713869389 -0.4278394543
101050000 0.833533968935 -0.428098874906
101060000 0.833423425132 -0.428351970779
101070000 0.833295843996 -0.428295027263
101080000 0.833252988678 -0.428385683854
101090000 0.833178933432 -0.428465605204
101100000 0.832973893148 -0.428811383292
101110000 0.832903016976 -0.428985653635
101120000 0.832705935203 -0.428889166451
101130000 0.832625026514 -0.428948480335
101140000 0.832545515734 -0.429150409501
101150000 0.83230543222 -0.429446738815
101160000 0.832278684161 -0.429628327606
101170000 0.832167429584 -0.429543408711
101180000 0.832044828649 -0.429575824523
101190000 0.831895689006 -0.42986160565
101200000 0.831735450705 -0.430111863699
101210000 0.831650777701 -0.430214183222
101220000 0.83150973333 -0.43023175556
101230000 0.831436286705 -0.430320903601
101240000 0.831266775412 -0.430519614343
101250000 0.831134217288 -0.43078388672
101260000 0.830993262254 -0.430819836153
101270000 0.830904565543 -0.430890876058
101280000 0.830826080554 -0.430977484242
101290000 0.830659526899 -0.431223988237
101300000 0.830523213476 -0.431445881662
101310000 0.830413815193 -0.431446858557
101320000 0.830283131219 -0.43150774606
101330000 0.83012959331 -0.431686804896
101340000 0.829937183931 -0.43193248621
101350000 0.829861383349 -0.432088297033
101360000 0.829746881813 -0.432159664044
101370000 0.829697035599 -0.432179726119
101380000 0.82946505609 -0.43238689366
101390000 0.829321818692 -0.432629565905
101400000 0.829169981343 -0.432751017071
101410000 0.829092366874 -0.432728531436
101420000 0.828933030258 -0.432845181091
101430000 0.82871951438 -0.4330139756
101440000 0.828692494567 -0.433229873579
101450000 0.828509234192 -0.433361919955
101460000 0.828473459688 -0.433451642665
101470000 0.828359537715 -0.433541215989
101480000 0.828062366508 -0.433987754449
101490000 0.827937567837 -0.434027809919
101500000 0.827996627478 -0.433965690683
101510000 0.827817180533 -0.434052081925
101520000 0.827581406618 -0.434263044913
101530000 0.827234274464 -0.4344193963
101540000 0.827190939023 -0.434702655549
101550000 0.827146413065 -0.434654090337
101560000 0.827102999164 -0.43473410706
101570000 0.826887108797 -0.434930654501
101580000 0.826687533389 -0.435196354722
101590000 0.826555188863 -0.435348461743
101600000 0.826431503343 -0.435291116972
101610000 0.826359669811 -0.435386507322
101620000 0.826188167655 -0.435593565857
101630000 0.82595304355 -0.435794685932
101640000 0.825908484238 -0.435914836055
101650000 0.825796474472 -0.435998904472
101660000 0.825720226555 -0.436043450926
101670000 0.825446748276 -0.436278626375
101680000 0.82529456805 -0.436534280968
101690000 0.825240826632 -0.436620598134
101700000 0.825124606002 -0.436629637538
101710000 0.824946024188 -0.436808987037
101720000 0.824771940622 -0.436989923555
101730000 0.824614424531 -0.437194140725
101740000 0.824506372654 -0.437259657948
101750000 0.824437951392 -0.43731206863
101760000 0.824246184534 -0.437466034362
101770000 0.8240134497 -0.437702949684
101780000 0.823851850797 -0.437854514311
101790000 0.82371246105 -0.43791324584
101800000 0.823495780353 -0.438012424557
101810000 0.823345083629 -0.438130653267
101820000 0.823209248048 -0.438295131158
101830000 0.823122373303 -0.438425727243
101840000 0.8230276293 -0.438549109
101850000 0.822900405846 -0.438629071232
101860000 0.822670996374 -0.43878056997
101870000 0.822507517586 -0.438999959899
101880000 0.822392337332 -0.439070836967
101890000 0.822318846562 -0.439215958058
101900000 0.822170566741 -0.439351663651
101910000 0.821894676131 -0.439533853965
101920000 0.821726918481 -0.439698720625
101930000 0.821642559202 -0.439774060854
101940000 0.821634630861 -0.439893509988
101950000 0.821212068613 -0.440142775489
101960000 0.821089527703 -0.440295516077
101970000 0.820916565841 -0.440453034338
101980000 0.820856340432 -0.440479865153
101990000 0.820778067251 -0.440551826393
102000000 0.820591296758 -0.440656671877
102010000 0.820529007582 -0.44089438349
102020000 0.820302518358 -0.441021144611
102030000 0.820064580721 -0.441275920115
102040000 0.820004750393 -0.441330249236
102050000 0.819849551599 -0.441457604927
102060000 0.819740097433 -0.441567298368
102070000 0.8194848012 -0.44165315495
102080000 0.819325469397 -0.441835035833
102090000 0.819170112576 -0.441919504681
102100000 0.819094061668 -0.442072873322
102110000 0.81894868737 -0.442184649485
102120000 0.818706300733 -0.442433319339
102130000 0.818535544681 -0.442605883402
102140000 0.818375637835 -0.442672136901
102150000 0.818273204665 -0.442772554791
102160000 0.818118577774 -0.442860553449
102170000 0.81791394012 -0.443014336221
102180000 0.81771152706 -0.443181765055
102190000 0.817611809235 -0.443275049918
102200000 0.817495733626 -0.443362965385
102210000 0.81727453368 -0.44344325609
102220000 0.817091950746 -0.443699218695
102230000 0.816954826865 -0.443816437003
102240000 0.81670974589 -0.443946985661
102250000 0.816605353121 -0.444090431489
102260000 0.816391481362 -0.444162666582
102270000 0.816232476887 -0.44434618204
102280000 0.816096212047 -0.444491013094
102290000 0.816017634284 -0.444607769243
102300000 0.815837332113 -0.444738582786
102310000 0.815540903698 -0.444926439102
102320000 0.815415594792 -0.44503994761
102330000 0.815277332734 -0.445174542741
102340000 0.815147253581 -0.445282594282
102350000 0.814943178513 -0.44532413629
102360000 0.814733252069 -0.445509380133
102370000 0.814541460389 -0.445655674316
102380000 0.814400983709 -0.44575153202
102390000 0.814270029444 -0.445883361293
102400000 0.81433453087 -0.446179506415
102410000 0.813874926564 -0.446195317185
102420000 0.813749279186 -0.446257634542
102430000 0.813503708511 -0.446389467968
102440000 0.813400017333 -0.446523276007
102450000 0.813169550001 -0.446589338215
102460000 0.813048124629 -0.446766231357
102470000 0.812768258503 -0.44687221686
102480000 0.812621041474 -0.447023406233
102490000 0.812475220366 -0.447205325071
102500000 0.812181535271 -0.447358769861
102510000 0.812055956331 -0.447591915566
102520000 0.811855895017 -0.44745382425
102530000 0.811662687376 -0.447689957943
102540000 0.811558779129 -0.44783417439
102550000 0.811395429695 -0.447815834882
102560000 0.811063946361 -0.44811894251
102570000 0.810997931501 -0.448226235125
102580000 0.810773829455 -0.448353488375
102590000 0.81067640475 -0.448409262494
102600000 0.810491713745 -0.448628507469
102610000 0.810364855613 -0.448728333499
102620000 0.81018048281 -0.4489468244
102630000 0.810024288179 -0.449007865204
102640000 0.809787016186 -0.449098891622
102650000 0.809610522187 -0.449223259226
102660000 0.809468260709 -0.44932945542
102670000 0.809337607963 -0.449442257596
102680000 0.809126049509 -0.44962433981
102690000 0.808831953421 -0.449696782465
102700000 0.808600992647 -0.449867196613
102710000 0.808482354515 -0.450020586461
102720000 0.808301465945 -0.450186845288
102730000 0.808184341867 -0.45024821965
102740000 0.807950486205 -0.4503684944
102750000 0.80773569764 -0.450489433027
102760000 0.807605643236 -0.450610152702
102770000 0.807446125159 -0.450701315034
102780000 0.807288491375 -0.450768371767
102790000 0.806993703006 -0.450921792259
102800000 0.806831170578 -0.451086575642
102810000 0.806642796285 -0.451223104108
102820000 0.806540709965 -0.451325708433
102830000 0.806299949606 -0.451421059365
102840000 0.806080270327 -0.451572078953
102850000 0.805863135167 -0.451694482075
102860000 0.805753589581 -0.451823233122
102870000 0.805621329495 -0.451970460226
102880000 0.805305890885 -0.452065022753
102890000 0.805090032584 -0.452253341273
102900000 0.804841304448 -0.45232219909
102910000 0.804706266347 -0.452487607656
102920000 0.804601802033 -0.452518523111
102930000 0.804409246287 -0.452625074806
102940000 0.804175272796 -0.452820692578
102950000 0.803966425946 -0.452985826704
102960000 0.803808072633 -0.45301468258
102970000 0.803651687797 -0.45311929304
102980000 0.803400171136 -0.453259951408
102990000 0.803216297651 -0.453406210544
103000000 0.802988743914 -0.45354813852
103010000 0.802781802963 -0.453466765696
103020000 0.802594267646 -0.453512743281
103030000 0.80247063691 -0.453653080003
103040000 0.802161435355 -0.453897406701
103050000 0.801990252002 -0.454064060429
103060000 0.801777570722 -0.454188149919
103070000 0.801678181424 -0.454246912547
103080000 0.801491422705 -0.454298636733
103090000 0.801269877748 -0.4544407798
103100000 0.801095168787 -0.454584131975
103110000 0.800896034023 -0.454708502872
103120000 0.800777321302 -0.454796335917
103130000 0.80051180107 -0.45488924346
103140000 0.800243338904 -0.454997350908
103150000 0.800093860857 -0.455177237348
103160000 0.799685214837 -0.455380747618
103170000 0.799536478281 -0.455450498615
103180000 0.799476427078 -0.45550792526
103190000 0.799247644688 -0.455618719238
103200000 0.79908485696 -0.455789474347
103210000 0.798914376526 -0.455811935466
103220000 0.798794039725 -0.45589933998
103230000 0.79846627607 -0.456081714704
103240000 0.798207702908 -0.456215111886
103250000 0.79801770555 -0.456376435486
103260000 0.797928448537 -0.456444793977
103270000 0.797700146584 -0.456510575268
103280000 0.797491031679 -0.45656844341
103290000 0.79726386425 -0.456776660499
103300000 0.79711781139 -0.456947049452
103310000 0.796998699611 -0.457056414611
103320000 0.796683153175 -0.457208962479
103330000 0.796366984174 -0.457281682773
103340000 0.796173152449 -0.457438233977
103350000 0.796055638207 -0.457554115814
103360000 0.79589844738 -0.45765558807
103370000 0.795669589336 -0.45773216368
103380000 0.795364613596 -0.457774222535
103390000 0.795254043135 -0.457922652445
103400000 0.795139849861 -0.457950612414
103410000 0.794990408082 -0.458141450601
103420000 0.794624741898 -0.458268751095
103430000 0.79431895239 -0.458400329617
103440000 0.794092448567 -0.458586217796
103450000 0.794022556678 -0.458624574508
103460000 0.793806660292 -0.458758834168
103470000 0.79355489701 -0.458848971675
103480000 0.793335854774 -0.45900826826
103490000 0.793171675802 -0.459073197973
103500000 0.79303282567 -0.459152190792
103510000 0.79280606711 -0.459261292287
103520000 0.792471164119 -0.459346319955
103530000 0.792169150729 -0.459540721523
103540000 0.792052092914 -0.459589927378
103550000 0.791980302668 -0.459773997738
103560000 0.791687474319 -0.459869655046
103570000 0.791369227335 -0.459908345866
103580000 0.791175976203 -0.460134130403
103590000 0.791053433621 -0.460167172844
103600000 0.790925558532 -0.460316171297
103610000 0.790546490079 -0.460454102666
103620000 0.790298190613 -0.460474618638
103630000 0.789961242936 -0.460687847361
103640000 0.78998540087 -0.460725430332
103650000 0.78985795968 -0.460838793512
103660000 0.789060234478 -0.460771458318
103670000 0.78914792688 -0.461138946032
103680000 0.78920231974 -0.461325756956
103690000 0.788866969758 -0.461593758966
103700000 0.788697536423 -0.46131386685
103710000 0.788563099213 -0.461153445803
103720000 0.788141857471 -0.461607935825
103730000 0.787779307798 -0.461606480648
103740000 0.787725639848 -0.461731732169
103750000 0.787450846507 -0.461904451522
103760000 0.787192080629 -0.461906638714
103770000 0.78698700945 -0.46219291448
103780000 0.786840731162 -0.462223636564
103790000 0.786706368127 -0.462405801604
103800000 0.786315467609 -0.462444306746
103810000 0.786106694388 -0.462528595501
103820000 0.785869251 -0.462753906145
103830000 0.785749661861 -0.462708907218
103840000 0.785531364272 -0.462895664944
103850000 0.78521048537 -0.462940002339
103860000 0.784932597249 -0.463063650887
103870000 0.784716114114 -0.463224656124
103880000 0.78459437084 -0.463271547676
103890000 0.784392499635 -0.463418283247
103900000 0.784049368288 -0.463367976233
103910000 0.783859137656 -0.463605652714
103920000 0.783583165366 -0.463748067848
103930000 0.783448336859 -0.463807610765
103940000 0.783134952704 -0.463862633125
103950000 0.782885424178 -0.463850123189
103960000 0.782661499439 -0.464121168281
103970000 0.782551669358 -0.464133095026
103980000 0.782384322726 -0.46444644225
103990000 0.782005682844 -0.464467598259
104000000 0.781721003062 -0.464524562626
104010000 0.781623100099 -0.464699112208
104020000 0.781227720193 -0.464626646685
104030000 0.780875441048 -0.464736857317
104040000 0.780892081403 -0.465054624457
104050000 0.780704921359 -0.465119656481
104060000 0.780334040333 -0.465082326105
104070000 0.779921769796 -0.465071488738
104080000 0.779687080496 -0.465342092408
104090000 0.779623562778 -0.46552416527
104100000 0.779693620008 -0.465565065576
104110000 0.779222518145 -0.465606641882
104120000 0.778783189764 -0.465605186054
104130000 0.778551597802 -0.465854922786
104140000 0.778549336428 -0.465923469921
104150000 0.778339876245 -0.465973626834
104160000 0.777840513922 -0.465935301567
104170000 0.777478709868 -0.466038509811
104180000 0.777227777452 -0.466357554916
104190000 0.777324323404 -0.466403195096
104200000 0.777107893587 -0.466451536833
104210000 0.776609478631 -0.466479505291
104220000 0.776217205205 -0.466542002039
104230000 0.776164995588 -0.466869933528
104240000 0.776056810989 -0.46682739664
104250000 0.775793050939 -0.466778339367
104260000 0.775350964756 -0.466784854276
104270000 0.77507306186 -0.466977609399
104280000 0.77489651619 -0.467241480022
104290000 0.774914785767 -0.467289773386
104300000 0.774511457157 -0.467264301567
104310000 0.774017787488 -0.467240674001
104320000 0.773814765484 -0.467532223698
104330000 0.77381820593 -0.467734904692
104340000 0.773628618958 -0.467780424483
104350000 0.773144178715 -0.467666578438
104360000 0.772740361422 -0.467709347901
104370000 0.772429577943 -0.468011352165
104380000 0.772541449911 -0.468026636349
104390000 0.772425830566 -0.468038041708
104400000 0.771898215834 -0.468004864143
104410000 0.771502644803 -0.46809345943
104420000 0.771403258396 -0.468450164409
104430000 0.771387391783 -0.468514254841
104440000 0.770993451705 -0.468409907084
104450000 0.770576980094 -0.46829822978
104460000 0.770208818206 -0.468607361821
104470000 0.770051882765 -0.46884328596
104480000 0.770104398369 -0.468754612547
104490000 0.769765372529 -0.468854488383
104500000 0.769276757758 -0.468776258556
104510000 0.768946962961 -0.469042519333
104520000 0.76895127755 -0.469232196388
104530000 0.768831345128 -0.469234191602
104540000 0.768334461677 -0.469102813956
104550000 0.767902171457 -0.46907462385
104560000 0.767579545738 -0.469385458437
104570000 0.76764752806 -0.469565193525
104580000 0.767493562077 -0.469613035098
104590000 0.767026869816 -0.469533314022
104600000 0.76659250411 -0.469483849596
104610000 0.766444806598 -0.469859953895
104620000 0.766390112824 -0.469918106171
104630000 0.766124131232 -0.469891593863
104640000 0.765700783283 -0.469756530585
104650000 0.765312992081 -0.469944535901
104660000 0.765030309308 -0.470192157282
104670000 0.765221644268 -0.470235020503
104680000 0.764807250315 -0.470182934803
104690000 0.764347287831 -0.470009634994
104700000 0.764007196948 -0.470309920961
104710000 0.763947761091 -0.470549281665
104720000 0.763736736089 -0.47051433177
104730000 0.763276294329 -0.47034456695
104740000 0.762904714991 -0.470279759634
104750000 0.762595159405 -0.470679607487
104760000 0.762594951952 -0.470843148383
104770000 0.762489768169 -0.470896595957
104780000 0.761996549737 -0.470691333112
104790000 0.761574855842 -0.470571493297
104800000 0.761371440629 -0.4710612016
104810000 0.761355876591 -0.471187585622
104820000 0.76106674867 -0.471076026844
104830000 0.760632419873 -0.470832414223
104840000 0.760260228779 -0.470953687433
104850000 0.760017667328 -0.471345366157
104860000 0.760132105523 -0.471457673653
104870000 0.759745003741 -0.47136678547
104880000 0.75919116061 -0.471121289996
104890000 0.758858587951 -0.471254976574
104900000 0.758855319742 -0.471639879271
104910000 0.758727403843 -0.471677137313
104920000 0.758291520603 -0.471553970114
104930000 0.757803136137 -0.471355969805
104940000 0.75735391972 -0.471613968678
104950000 0.757398434904 -0.471784875982
104960000 0.757465487207 -0.471854260194
104970000 0.75702160368 -0.471780560785
104980000 0.756535627862 -0.471636322788
104990000 0.756214566774 -0.472116648348
105000000 0.756159789519 -0.472158921013
105010000 0.755562941065 -0.471608165616
105020000 0.755478093096 -0.471798440027
105030000 0.75535800431 -0.471861275295
105040000 0.754891062785 -0.47199783305
105050000 0.75462114495 -0.472064084064
105060000 0.754306949392 -0.471966497243
105070000 0.754069240655 -0.472033111806
105080000 0.753870548102 -0.471865918689
105090000 0.753524394399 -0.471903525642
105100000 0.753178390807 -0.472075875892
105110000 0.752914089715 -0.47218997816
105120000 0.752556752318 -0.472187972367
105130000 0.752428836117 -0.472209158519
105140000 0.752149448745 -0.472016190399
105150000 0.752050408359 -0.47252064724
105160000 0.751820039324 -0.472624277666
105170000 0.751399306768 -0.472596092473
105180000 0.75113095563 -0.472640751302
105190000 0.750786093864 -0.472521709893
105200000 0.750470988417 -0.472634392632
105210000 0.750361262134 -0.472774692728
105220000 0.750186782978 -0.472805824598
105230000 0.749774573585 -0.472750276876
105240000 0.749452652538 -0.472973789443
105250000 0.749499622521 -0.472691197934
105260000 0.748865671595 -0.472948171234
105270000 0.748461320148 -0.472506580839
105280000 0.748582883916 -0.472574653408
105290000 0.748162645533 -0.472589284885
105300000 0.748274048904 -0.473160738005
105310000 0.747397308884 -0.472908695332
105320000 0.747449126892 -0.473068845963
105330000 0.746883094493 -0.473169479891
105340000 0.746601223235 -0.473062016
105350000 0.746218395916 -0.473099238426
105360000 0.746234221647 -0.473073194793
105370000 0.745851761231 -0.473080335168
105380000 0.745522501321 -0.473045855352
105390000 0.745068045618 -0.473142645071
105400000 0.744984857333 -0.47326525521
105410000 0.744737266187 -0.47321173055
105420000 0.744453948976 -0.473217444864
105430000 0.744202282123 -0.473305034577
105440000 0.74388526007 -0.473256667403
105450000 0.743500901469 -0.473341064655
105460000 0.74337871744 -0.47302032457
105470000 0.743110767236 -0.473202752564
105480000 0.742725187212 -0.473197731822
105490000 0.742410367533 -0.473273188589
105500000 0.742090468791 -0.473358627833
105510000 0.741952744316 -0.473314087866
105520000 0.741660976949 -0.473204118831
105530000 0.741399522123 -0.473334195047
105540000 0.741036672977 -0.473301112069
105550000 0.74068813433 -0.473240315211
105560000 0.740436786432 -0.473150492749
105570000 0.740199893452 -0.473021220391
105580000 0.739832872365 -0.473083632116
105590000 0.73959287435 -0.473271181276
105600000 0.739342792746 -0.473299625664
105610000 0.739077748511 -0.473477273534
105620000 0.738842024538 -0.473403975225
105630000 0.738590593219 -0.473413243955
105640000 0.738135691408 -0.473551185799
105650000 0.738085872428 -0.473206122121
105660000 0.737711515753 -0.4733839399
105670000 0.73725861833 -0.473348902818
105680000 0.737129439481 -0.473256600873
105690000 0.736831229886 -0.473462914127
105700000 0.736568664548 -0.4734709546
105710000 0.736392882749 -0.473327456912
105720000 0.735961005595 -0.473578072211
105730000 0.735349880903 -0.473598927512
105740000 0.735239101507 -0.473387765154
105750000 0.735304211762 -0.473337204625
105760000 0.735032116799 -0.473301721483
105770000 0.73457743001 -0.473367453615
105780000 0.734321048293 -0.473450165867
105790000 0.734100084564 -0.473386085285
105800000 0.733836179332 -0.473374504493
105810000 0.733588822109 -0.473363817054
105820000 0.733279133633 -0.473388485921
105830000 0.732893611828 -0.473444248591
105840000 0.73282209745 -0.47322102879
105850000 0.732386574763 -0.473226430091
105860000 0.732157538264 -0.473159712797
105870000 0.73186288524 -0.473117774032
105880000 0.731562097566 -0.473357284576
105890000 0.731484326933 -0.473362376733
105900000 0.731020414229 -0.473183115449
105910000 0.730695880227 -0.47328394997
105920000 0.730415875043 -0.47325897269
105930000 0.73011530341 -0.473146318097
105940000 0.729926947725 -0.473043339828
105950000 0.729729387634 -0.472954129849
105960000 0.729264727002 -0.472919951171
105970000 0.729018031543 -0.473084737879
105980000 0.728770227468 -0.473087950104
105990000 0.728538408333 -0.473096916277
106000000 0.728280829361 -0.472981743383
106010000 0.72835536534 -0.473026783266
106020000 0.727754270243 -0.473046910886
106030000 0.727400507322 -0.473094949507
106040000 0.727339904335 -0.473260984178
106050000 0.727393593338 -0.473287686246
106060000 0.727107846525 -0.472918475641
106070000 0.726469680771 -0.473046611127
106080000 0.726099772353 -0.473124002298
106090000 0.725707620708 -0.472899045433
106100000 0.725678692036 -0.472790193111
106110000 0.725671496295 -0.472466998217
106120000 0.725051629875 -0.472652500315
106130000 0.724622834928 -0.472942185001
106140000 0.724582308089 -0.472934911437
106150000 0.724425512871 -0.472594439133
106160000 0.724122720036 -0.472375659274
106170000 0.723648354404 -0.472510271432
106180000 0.723331938947 -0.47281295169
106190000 0.723307738587 -0.472634528255
106200000 0.723204986427 -0.472204805069
106210000 0.722599514389 -0.472187372523
106220000 0.722213680456 -0.472284534446
106230000 0.721978956267 -0.472400455268
106240000 0.721952569505 -0.472348499429
106250000 0.721915543298 -0.471927660419
106260000 0.721222891595 -0.472065150236
106270000 0.720808434718 -0.472275215788
106280000 0.720622138839 -0.472210590058
106290000 0.720567769752 -0.471961578463
106300000 0.720561536195 -0.471547968892
106310000 0.719897218769 -0.471664364241
106320000 0.719576211468 -0.47192317886
106330000 0.719423797271 -0.471998743107
106340000 0.719244367824 -0.47170656563
106350000 0.718977977863 -0.471345983155
106360000 0.718611677608 -0.471351302676
106370000 0.718268604194 -0.471600723934
106380000 0.718316952711 -0.471567726415
106390000 0.718192586355 -0.47128004232
106400000 0.717550161453 -0.471135553028
106410000 0.717103585903 -0.471087983136
106420000 0.716878691337 -0.471159818668
106430000 0.716960023492 -0.471180232271
106440000 0.716906735555 -0.470891246514
106450000 0.716192919791 -0.470896011227
106460000 0.715689168826 -0.471099482278
106470000 0.715475830306 -0.470945884352
106480000 0.715571593469 -0.470693421509
106490000 0.715700692758 -0.47034933985
106500000 0.714925160992 -0.470468713667
106510000 0.714461248166 -0.470691563815
106520000 0.714314536347 -0.470710967887
106530000 0.714186091122 -0.470408097103
106540000 0.714076758126 -0.470073627316
106550000 0.713586887175 -0.470096801619
106560000 0.713205932783 -0.470399673472
106570000 0.713186417296 -0.470286789588
106580000 0.71311835272 -0.469963371485
106590000 0.712580825083 -0.469751293349
106600000 0.712228634546 -0.469711235953
106610000 0.71197148176 -0.469848299104
106620000 0.711968687255 -0.46992602673
106630000 0.711940369215 -0.469545452728
106640000 0.711259089693 -0.469439719626
106650000 0.710820341662 -0.469499438012
106660000 0.7106204074 -0.469475617157
106670000 0.710756470548 -0.469363481003
106680000 0.710780640277 -0.469009096534
106690000 0.709975516021 -0.468984203803
106700000 0.70957712213 -0.469099040986
106710000 0.709519355831 -0.469151732762
106720000 0.709494639219 -0.469094037046
106730000 0.70936530962 -0.468754524882
106740000 0.708761686416 -0.468646710022
106750000 0.708431177612 -0.46880011359
106760000 0.708473583626 -0.468732931643
106770000 0.708417194486 -0.468509788104
106780000 0.708021429773 -0.468278612997
106790000 0.707488266393 -0.468220373175
106800000 0.707170222346 -0.468262645764
106810000 0.707241816118 -0.468361837513
106820000 0.707195756392 -0.467989802724
106830000 0.70654139974 -0.467885022528
106840000 0.706133642366 -0.467925697247
106850000 0.705889142951 -0.467942456203
106860000 0.705894402735 -0.467995914522
106870000 0.706124624699 -0.467517930273
106880000 0.705376865026 -0.467376797591
106890000 0.705004293544 -0.467474121196
106900000 0.704924401529 -0.4674397928
106910000 0.704831441609 -0.467472344199
106920000 0.704851799202 -0.467082295813
106930000 0.704201969065 -0.466940589259
106940000 0.703829287497 -0.467022184805
106950000 0.703818199811 -0.467043683919
106960000 0.703799607729 -0.466787282379
106970000 0.703424298364 -0.46649085207
106980000 0.703004297131 -0.466391198335
106990000 0.702675137698 -0.466536333804
107000000 0.702713642408 -0.466710510496
107010000 0.702221145886 -0.467053201588
107020000 0.701979895871 -0.466747825376
107030000 0.70150446042 -0.466722784809
107040000 0.70162119139 -0.466463672769
107050000 0.701386956529 -0.466491093039
107060000 0.701274882912 -0.466501609647
107070000 0.700827672793 -0.466206353931
107080000 0.700298939727 -0.466289637805
107090000 0.700221407269 -0.466202659035
107100000 0.700164358342 -0.46613108946
107110000 0.700337295735 -0.465836028031
107120000 0.699744565592 -0.465880239606
107130000 0.699515091774 -0.465724695735
107140000 0.699333523079 -0.465472845957
107150000 0.699120711802 -0.465461680768
107160000 0.699125900465 -0.465195409628
107170000 0.698599934946 -0.4650840701
107180000 0.698422165939 -0.465218003967
107190000 0.698147522166 -0.46521495489
107200000 0.69814402558 -0.464926677652
107210000 0.698083133602 -0.464588073915
107220000 0.697571008059 -0.464593558454
107230000 0.697733624274 -0.46434354614
107240000 0.697456258921 -0.464321338725
107250000 0.697271457906 -0.464353764764
107260000 0.696947262828 -0.464025104089
107270000 0.696453245342 -0.464003919604
107280000 0.696435761186 -0.463960043087
107290000 0.696322821772 -0.464009188632
107300000 0.696497268239 -0.463668651595
107310000 0.695908087517 -0.463542973764
107320000 0.695811704817 -0.463368749434
107330000 0.69575584148 -0.46325210666
107340000 0.695476283174 -0.463287658417
107350000 0.695422596047 -0.463079510617
107360000 0.694853070228 -0.462853571474
107370000 0.694756766605 -0.462875688779
107380000 0.6945849103 -0.46290012566
107390000 0.694604601102 -0.462775160314
107400000 0.694526567317 -0.462480473784
107410000 0.693942547984 -0.462536045261
107420000 0.694184325533 -0.462224060277
107430000 0.693877472342 -0.462164995489
107440000 0.693778610893 -0.462209853207
107450000 0.693633790444 -0.461911517201
107460000 0.693079411518 -0.46185172176
107470000 0.69308995837 -0.461867463951
107480000 0.69290034031 -0.461882698037
107490000 0.693096098383 -0.46149299072
107500000 0.69268991488 -0.461449457289
107510000 0.692538067563 -0.461392041391
107520000 0.692493853934 -0.461254721073
107530000 0.692139382005 -0.461160022797
107540000 0.692167572717 -0.46091152405
107550000 0.69165000639 -0.46071173231
107560000 0.69146914878 -0.46077127972
107570000 0.691294045558 -0.460827418927
107580000 0.691293431078 -0.460675004551
107590000 0.691426314948 -0.460395464429
107600000 0.690751380772 -0.460440994044
107610000 0.691095582136 -0.460203567396
107620000 0.690748825838 -0.46020270434
107630000 0.690644799168 -0.460198887021
107640000 0.690365418221 -0.459851053937
107650000 0.689607891289 -0.459997455399
107660000 0.69019035654 -0.460114968955
107670000 0.690062454646 -0.459825428491
107680000 0.690150801102 -0.459414065735
107690000 0.689226457632 -0.459217659659
107700000 0.689286339641 -0.459179564627
107710000 0.689526311366 -0.459042676542
107720000 0.689111899021 -0.459236135232
107730000 0.68916648176 -0.458684877092
107740000 0.688953725559 -0.458818004936
107750000 0.68845971042 -0.458719793469
107760000 0.688500241725 -0.458807009648
107770000 0.68842325179 -0.45875065263
107780000 0.688630312796 -0.458562360064
107790000 0.687968513915 -0.458459455859
107800000 0.688218010225 -0.458241240682
107810000 0.688008260132 -0.458196228795
107820000 0.687845400321 -0.458201027933
107830000 0.687835456109 -0.457973783477
107840000 0.687198892578 -0.457833214342
107850000 0.687306470976 -0.457961947577
107860000 0.687033686231 -0.457952860098
107870000 0.687386873107 -0.457721263508
107880000 0.687039958301 -0.457498942513
107890000 0.686717406889 -0.457518207783
107900000 0.68697572332 -0.45745464012
107910000 0.686521620752 -0.457430686107
107920000 0.686593996846 -0.457301885491
107930000 0.686184243654 -0.457007179003
107940000 0.685935284915 -0.456984265078
107950000 0.68582326356 -0.457036970928
107960000 0.685732753474 -0.456986223915
107970000 0.686104144358 -0.456797329071
107980000 0.685357360586 -0.456683896559
107990000 0.685661566599 -0.456622044922
108000000 0.685439868308 -0.45661677205
