! Calibrated averaged scanner-service zoom
# Hz S RI R 50
976000000 -0.0137803757469 -0.899610958148
976004000 -0.0167296600706 -0.897107461391
976008000 -0.0115616070034 -0.898306915695
976012000 -0.014642863908 -0.89776232608
976016000 -0.0130921897997 -0.897203454789
976020000 -0.0137741988299 -0.898249716174
976024000 -0.013813367987 -0.900423968063
976028000 -0.0163360104953 -0.899873076629
976032000 -0.017228412608 -0.900370873245
976036000 -0.0168112283691 -0.90187767084
976040000 -0.0174951164123 -0.902760565278
976044000 -0.0170355619065 -0.90084463505
976048000 -0.0158014556932 -0.903158038269
976052000 -0.0191019077612 -0.902918846743
976056000 -0.0169329112316 -0.902696155134
976060000 -0.0194775472556 -0.901989096706
976064000 -0.0204157777778 -0.905294153519
976068000 -0.0180148146165 -0.903947582973
976072000 -0.0191630253342 -0.903678985159
976076000 -0.0205602050327 -0.902286593215
976080000 -0.0166914742612 -0.902424670471
976084000 -0.018705613147 -0.90157927127
976088000 -0.0164779524581 -0.902079408652
976092000 -0.0171734317972 -0.901465943147
976096000 -0.0159121892428 -0.901046612707
976100000 -0.0173114932255 -0.900998506652
976104000 -0.0173663914463 -0.903735611415
976108000 -0.0179472431908 -0.902345454124
976112000 -0.0193024547433 -0.899607732927
976116000 -0.0208025510287 -0.903702654116
976120000 -0.0199953835824 -0.901500581258
976124000 -0.0235258200249 -0.900157981884
976128000 -0.0229518402808 -0.90152624693
976132000 -0.0180669464921 -0.900888326194
976136000 -0.0159319877314 -0.901313811668
976140000 -0.0157342930836 -0.898314055118
976144000 -0.0151719702855 -0.898446163119
976148000 -0.0115618381622 -0.895503203818
976152000 -0.0138279455151 -0.896888385189
976156000 -0.0127834356508 -0.895530687015
976160000 -0.0137583271335 -0.895652789138
976164000 -0.0111154493416 -0.897440966231
976168000 -0.0121575517739 -0.897244165904
976172000 -0.0120650868956 -0.898027721408
976176000 -0.0129136074528 -0.896501258681
976180000 -0.0130403810772 -0.896492313721
976184000 -0.0141388191716 -0.899369385779
976188000 -0.0138066228666 -0.899105218105
976192000 -0.015931207013 -0.900169569248
976196000 -0.0178440302015 -0.90128121188
976200000 -0.017260435327 -0.900319003623
976204000 -0.0184914151954 -0.901143860163
976208000 -0.0189685942285 -0.899968372152
976212000 -0.0200751459665 -0.900768953634
976216000 -0.0192114693699 -0.899918105246
976220000 -0.0177930754926 -0.89912519726
976224000 -0.0172602805558 -0.89784028538
976228000 -0.0165548962855 -0.894186969751
976232000 -0.0152506461597 -0.893720156498
976236000 -0.0145955660057 -0.892840032664
976240000 -0.0150841260238 -0.891811581053
976244000 -0.0140390637211 -0.892592619075
976248000 -0.0152807097428 -0.892400133729
976252000 -0.0176038768626 -0.891512496434
976256000 -0.0161180732622 -0.891860567979
976260000 -0.0182475545527 -0.891720740114
976264000 -0.0196167834824 -0.894573595886
976268000 -0.0205494969538 -0.891406974297
976272000 -0.0175005678072 -0.895461942303
976276000 -0.0191210179312 -0.893236243397
976280000 -0.0202276310587 -0.895352927428
976284000 -0.0188501956823 -0.896225319513
976288000 -0.0206197482401 -0.89460264101
976292000 -0.0201380428754 -0.894075867877
976296000 -0.0178881053249 -0.894784537761
976300000 -0.0172060143871 -0.896315133927
976304000 -0.0185376730047 -0.896019362923
976308000 -0.0201296807711 -0.897155092015
976312000 -0.0182153494371 -0.899723528212
976316000 -0.0194235851404 -0.897965398454
976320000 -0.0190618225661 -0.900730287935
976324000 -0.0200751358484 -0.903759675761
976328000 -0.0198320396959 -0.903196493103
976332000 -0.0196561267616 -0.901341900568
976336000 -0.0174126950978 -0.897829765058
976340000 -0.019698586608 -0.898152955482
976344000 -0.0196407275182 -0.899931979283
976348000 -0.0181442053502 -0.896885518038
976352000 -0.0173045579227 -0.895119692838
976356000 -0.0179533785289 -0.8958077399
976360000 -0.0177402633686 -0.895173860228
976364000 -0.0161373050643 -0.894563326015
976368000 -0.0186992659261 -0.897331117759
976372000 -0.0175242996302 -0.897151804918
976376000 -0.0193684880649 -0.896795922309
976380000 -0.0170519426429 -0.896969695022
976384000 -0.0169162375762 -0.898238217849
976388000 -0.0178722083099 -0.896082895271
976392000 -0.0184208396591 -0.895970273483
976396000 -0.0169279543783 -0.896808603623
976400000 -0.017123744658 -0.896785712441
976404000 -0.0152827074591 -0.897585921724
976408000 -0.0163406551927 -0.895406684983
976412000 -0.015507898569 -0.898877603708
976416000 -0.0166066556633 -0.898786718832
976420000 -0.0163922964662 -0.899914017825
976424000 -0.0166695466644 -0.897532962756
976428000 -0.0176358208425 -0.896895968207
976432000 -0.0173118320742 -0.900036377819
976436000 -0.0149600389119 -0.897375431785
976440000 -0.016212803685 -0.899241418663
976444000 -0.0187178699107 -0.896784149588
976448000 -0.0189858318367 -0.897308612085
976452000 -0.0184629541706 -0.897552471899
976456000 -0.0196951343824 -0.896971691283
976460000 -0.0181263407546 -0.893941785975
976464000 -0.0202945651342 -0.896186982126
976468000 -0.0187119177987 -0.894653692955
976472000 -0.0197798560562 -0.893796011332
976476000 -0.0207008054801 -0.894694844156
976480000 -0.0204769692964 -0.895854412042
976484000 -0.0167404900718 -0.895876164758
976488000 -0.020096313183 -0.897517804224
976492000 -0.0188538314437 -0.900254223424
976496000 -0.0217705541434 -0.897382147293
976500000 -0.0201894438513 -0.898622721278
976504000 -0.020216298982 -0.896749350369
976508000 -0.0205638236663 -0.898804914571
976512000 -0.0190616010079 -0.896858774978
976516000 -0.020462250857 -0.896613779279
976520000 -0.022150869479 -0.894163626108
976524000 -0.0200155054296 -0.894031712197
976528000 -0.0202425408444 -0.893264119857
976532000 -0.0191133215401 -0.895970977715
976536000 -0.0227850596657 -0.89403463221
976540000 -0.0228475296686 -0.896362196082
976544000 -0.0171973978698 -0.898451308465
976548000 -0.0197791192314 -0.894539144492
976552000 -0.0186500568781 -0.898278386415
976556000 -0.0195215230613 -0.89813663564
976560000 -0.0186898702758 -0.89605698624
976564000 -0.0196856012075 -0.89716410238
976568000 -0.0225340183856 -0.899126588415
976572000 -0.0160298732504 -0.897335394061
976576000 -0.0206048211652 -0.897192018123
976580000 -0.0197332184309 -0.893966378574
976584000 -0.0185882550199 -0.897933137137
976588000 -0.0194034901587 -0.894779538387
976592000 -0.0181024996213 -0.895645358064
976596000 -0.0155319963918 -0.890094142911
976600000 -0.0154899683743 -0.889847108406
976604000 -0.0157835710003 -0.886054764784
976608000 -0.0172055624071 -0.884927560385
976612000 -0.0154321535822 -0.88401637151
976616000 -0.0148132420403 -0.885720651362
976620000 -0.0154662408796 -0.88661205633
976624000 -0.0177594822346 -0.889430873288
976628000 -0.015007566218 -0.892631757225
976632000 -0.0155800462774 -0.894570823539
976636000 -0.015206163469 -0.894117607351
976640000 -0.0162844470908 -0.899728147908
976644000 -0.0158610906968 -0.898132372575
976648000 -0.0183296206474 -0.90008937524
976652000 -0.0196181438712 -0.900539970393
976656000 -0.0219380295357 -0.898198050929
976660000 -0.0231093809295 -0.899745928928
976664000 -0.0239676380531 -0.8952820516
976668000 -0.0243699237551 -0.90007152558
976672000 -0.0275617005034 -0.899572200394
976676000 -0.0261801873419 -0.899505769349
976680000 -0.0227311894798 -0.901396119218
976684000 -0.0205491320088 -0.90062703228
976688000 -0.0205179517608 -0.899240846811
976692000 -0.0195848406773 -0.898249113787
976696000 -0.0175608463429 -0.90256531919
976700000 -0.0148500425615 -0.901494394823
976704000 -0.0175018130388 -0.900206327615
976708000 -0.0178223483139 -0.900297790822
976712000 -0.0181997146762 -0.899589843625
976716000 -0.0168815605779 -0.900779304581
976720000 -0.020068088253 -0.897874099285
976724000 -0.0169586644671 -0.896343356368
976728000 -0.0188397723842 -0.894631745098
976732000 -0.0177460168057 -0.897480661453
976736000 -0.0184787446951 -0.897736396206
976740000 -0.0163262760877 -0.89843653185
976744000 -0.0185339573543 -0.902857494272
976748000 -0.0187217039868 -0.902338760437
976752000 -0.0197520107717 -0.903702608892
976756000 -0.0187946717777 -0.90615342186
976760000 -0.0165637894251 -0.905448625371
976764000 -0.0162998906732 -0.902551710134
976768000 -0.0149136672227 -0.901300238828
976772000 -0.0154328083198 -0.904167682318
976776000 -0.0159157280944 -0.903169314301
976780000 -0.0154872876748 -0.904631383971
976784000 -0.0163582729252 -0.904382510276
976788000 -0.0145649833998 -0.902950657277
976792000 -0.0146730639031 -0.901613316133
976796000 -0.0154068919713 -0.900389782427
976800000 -0.0155170287909 -0.904046497948
976804000 -0.0169916606928 -0.90149672464
976808000 -0.0189654738257 -0.903071859419
976812000 -0.0179961515211 -0.901928375597
976816000 -0.0190962526135 -0.901258439936
976820000 -0.0184460178847 -0.901537773985
976824000 -0.0184086060642 -0.902774156452
976828000 -0.0197324250714 -0.90196756728
976832000 -0.0203028462296 -0.900930123054
976836000 -0.0212965435138 -0.903245103709
976840000 -0.0186500428039 -0.900370303713
976844000 -0.0195315546059 -0.901434712324
976848000 -0.0209690566448 -0.899049773271
976852000 -0.0205134849788 -0.898374899891
976856000 -0.0204239178727 -0.897527548389
976860000 -0.020513434559 -0.897491766283
976864000 -0.0224936368219 -0.896503703967
976868000 -0.0194833026285 -0.896529628246
976872000 -0.0205421072204 -0.89493685683
976876000 -0.0205267200365 -0.894619311166
976880000 -0.0220113344631 -0.891487545781
976884000 -0.0230974943371 -0.893320483154
976888000 -0.0222585871006 -0.894441902711
976892000 -0.0215076861402 -0.89253710092
976896000 -0.0235446771335 -0.893064778876
976900000 -0.0222956938536 -0.893083744056
976904000 -0.02146375334 -0.896847723254
976908000 -0.0179368400716 -0.896184638841
976912000 -0.0208623549199 -0.89566297316
976916000 -0.0176801428974 -0.894833386456
976920000 -0.0168352780277 -0.896813287073
976924000 -0.0153388143792 -0.896955415295
976928000 -0.0154340763476 -0.899016263351
976932000 -0.0155031861068 -0.89927262486
976936000 -0.0153583983069 -0.897626196459
976940000 -0.017169483333 -0.898991904267
976944000 -0.017671908595 -0.900889269026
976948000 -0.0187660775374 -0.900553615975
976952000 -0.0196510341204 -0.901518519756
976956000 -0.0217475846381 -0.901143473289
976960000 -0.0238927940894 -0.901392597525
976964000 -0.0218922544933 -0.901465616341
976968000 -0.0189321246969 -0.899460779989
976972000 -0.0170927404823 -0.899668951305
976976000 -0.0149459375454 -0.900669176651
976980000 -0.0144108275341 -0.899866330159
976984000 -0.0121875178697 -0.897794741281
976988000 -0.0126758114995 -0.900162226303
976992000 -0.0103203760199 -0.899746245664
976996000 -0.0163495532438 -0.901223011276
977000000 -0.016202194449 -0.901610977601
977004000 -0.01868643858 -0.902105130584
977008000 -0.017466764036 -0.899322369514
977012000 -0.0191475791799 -0.903403784028
977016000 -0.0205313484466 -0.904225919455
977020000 -0.0190007580978 -0.905917333191
977024000 -0.0190311421791 -0.903851158074
977028000 -0.0216548176946 -0.904165508977
977032000 -0.0239618575937 -0.903054057041
977036000 -0.024606475372 -0.902404276588
977040000 -0.0209380000722 -0.903508569021
977044000 -0.0244342011368 -0.902917725442
977048000 -0.0242246299853 -0.904906072861
977052000 -0.0229360569435 -0.90298914629
977056000 -0.0219342254376 -0.902080406762
977060000 -0.0218985764184 -0.900914858992
977064000 -0.0213269971938 -0.90343468821
977068000 -0.0209583772867 -0.902369072604
977072000 -0.0204769019422 -0.902643756051
977076000 -0.0232575457784 -0.902343062372
977080000 -0.0235100679593 -0.901765577114
977084000 -0.0240699921984 -0.90197302147
977088000 -0.0212042967454 -0.904469922037
977092000 -0.0210667946588 -0.904424651183
977096000 -0.0221051332544 -0.905377140592
977100000 -0.0268802483021 -0.902928719287
977104000 -0.0225936801974 -0.901759482557
977108000 -0.0229463915019 -0.906096272185
977112000 -0.0230327038245 -0.902972882199
977116000 -0.0194805871312 -0.897118865514
977120000 -0.0205592585463 -0.899854121495
977124000 -0.0235095811369 -0.902755348394
977128000 -0.021522118063 -0.901085375106
977132000 -0.0210218343987 -0.898191493624
977136000 -0.0186467566938 -0.898620516278
977140000 -0.0211944426824 -0.899418055014
977144000 -0.0186579234358 -0.897940738199
977148000 -0.017320781491 -0.898122643574
977152000 -0.0196560839674 -0.900521288512
977156000 -0.0172397377666 -0.899388729527
977160000 -0.0149459711424 -0.896988433625
977164000 -0.0180850415191 -0.899554370822
977168000 -0.0169369240487 -0.899117549808
977172000 -0.0191415612301 -0.899347035696
977176000 -0.0186375165537 -0.900583616202
977180000 -0.0189088266755 -0.89859499338
977184000 -0.0203831780317 -0.898625114405
977188000 -0.0193602047284 -0.89793018417
977192000 -0.0217872866921 -0.898356703707
977196000 -0.0203019970302 -0.896812354186
977200000 -0.0230599696677 -0.898298003965
977204000 -0.0219212606705 -0.898555772308
977208000 -0.0220268971006 -0.897908700859
977212000 -0.0255657258512 -0.897582953816
977216000 -0.0240792980918 -0.898226938684
977220000 -0.0245029387093 -0.900981308127
977224000 -0.0220761194647 -0.898216865866
977228000 -0.0200865116519 -0.899135514786
977232000 -0.0207680533503 -0.898184858514
977236000 -0.0192460987463 -0.89809472331
977240000 -0.0178495255308 -0.897585699392
977244000 -0.0136866250313 -0.898962370529
977248000 -0.0170586290495 -0.898082065049
977252000 -0.0175099412644 -0.89772240269
977256000 -0.018736376922 -0.898657556999
977260000 -0.0185450940635 -0.900240387541
977264000 -0.0185892016387 -0.901166396039
977268000 -0.0166350925777 -0.89752429314
977272000 -0.0191468041486 -0.898236965562
977276000 -0.0180535988536 -0.898934766213
977280000 -0.0150298336142 -0.894600651326
977284000 -0.0171098772708 -0.896560547662
977288000 -0.01459450462 -0.896147164109
977292000 -0.0142040406607 -0.891496654991
977296000 -0.0137194753379 -0.89320533988
977300000 -0.0115012477385 -0.891793898915
977304000 -0.0109625344423 -0.890485243214
977308000 -0.0161065335727 -0.890886838525
977312000 -0.0175324201776 -0.893197733144
977316000 -0.0190610057005 -0.893994048513
977320000 -0.0220981866367 -0.900102035961
977324000 -0.0252343770379 -0.897975875145
977328000 -0.0278628125181 -0.89985790778
977332000 -0.0306347763795 -0.901542427574
977336000 -0.0289174994141 -0.901440810703
977340000 -0.0286000214514 -0.898745319516
977344000 -0.0289099817123 -0.898894539031
977348000 -0.0262213643053 -0.896497057789
977352000 -0.0247538821032 -0.898218348309
977356000 -0.0241088008681 -0.899287956013
977360000 -0.022962811696 -0.897491629259
977364000 -0.0219677608039 -0.89640495377
977368000 -0.0191947004346 -0.89900677831
977372000 -0.0213010199349 -0.898253059871
977376000 -0.0230546946016 -0.900578364135
977380000 -0.0207125392575 -0.900065221855
977384000 -0.0203902948613 -0.898928243205
977388000 -0.0239567712302 -0.901672782321
977392000 -0.020792939925 -0.900277284132
977396000 -0.0208803343252 -0.902181245531
977400000 -0.0209122691007 -0.903077981773
977404000 -0.0213561374294 -0.906373892261
977408000 -0.018052542929 -0.900364734108
977412000 -0.0200223295703 -0.902792708815
977416000 -0.0174956284477 -0.900982880186
977420000 -0.016842057106 -0.900836873049
977424000 -0.0185692347449 -0.901644074547
977428000 -0.0176270843657 -0.903576364531
977432000 -0.0167176585854 -0.904133056029
977436000 -0.0165368937651 -0.903296935379
977440000 -0.0152979158454 -0.902376575697
977444000 -0.0122956858059 -0.901939586658
977448000 -0.0173876799423 -0.901913027715
977452000 -0.0180054567825 -0.901553929779
977456000 -0.018009293455 -0.903220470563
977460000 -0.0176104698561 -0.900523013734
977464000 -0.0201348734842 -0.901117589906
977468000 -0.0197641381602 -0.899850970399
977472000 -0.0227458645671 -0.900712628368
977476000 -0.0209053900824 -0.899825035389
977480000 -0.0200186836902 -0.897857189749
977484000 -0.0197859766449 -0.900069758164
977488000 -0.0186095405585 -0.900416941622
977492000 -0.0180213137107 -0.900564170131
977496000 -0.015505160446 -0.899442419334
977500000 -0.0154566324643 -0.903129544124
977504000 -0.0164590515723 -0.900422171854
977508000 -0.0184782173488 -0.900004200453
977512000 -0.0199107823023 -0.900888521451
977516000 -0.0182621131231 -0.897095960356
977520000 -0.0173060060367 -0.894982580707
977524000 -0.0187875908362 -0.893165588674
977528000 -0.023835469972 -0.894627578949
977532000 -0.023095400271 -0.89438912399
977536000 -0.0236032539027 -0.895704336409
977540000 -0.0207227216373 -0.892807579113
977544000 -0.0245406349459 -0.893989278468
977548000 -0.0247274604943 -0.89223057247
977552000 -0.0247906932229 -0.897438833225
977556000 -0.0244807634661 -0.896321148839
977560000 -0.0236269642965 -0.898456475399
977564000 -0.027045529655 -0.897469792443
977568000 -0.024130853951 -0.900662731082
977572000 -0.020909555377 -0.897806338684
977576000 -0.0193825261701 -0.899728351748
977580000 -0.020469878707 -0.901614370922
977584000 -0.0177104916072 -0.900402144461
977588000 -0.0178962187513 -0.902112906978
977592000 -0.0168809837463 -0.903268631792
977596000 -0.0160170911673 -0.901498126583
977600000 -0.0203228222036 -0.901064045359
977604000 -0.019417283717 -0.901461180975
977608000 -0.0169538404401 -0.900664295865
977612000 -0.0194977141767 -0.900728796202
977616000 -0.0195096979708 -0.899121209319
977620000 -0.0185792211527 -0.899660647866
977624000 -0.0202547712874 -0.902406763059
977628000 -0.0207246041107 -0.900949760602
977632000 -0.0222526983965 -0.899603340103
977636000 -0.0209966120233 -0.900795422995
977640000 -0.0215509721156 -0.902015941826
977644000 -0.0224520607169 -0.904602758481
977648000 -0.0197654513581 -0.902954730084
977652000 -0.0216156575881 -0.904532269475
977656000 -0.020604123567 -0.902608960695
977660000 -0.0207224037772 -0.900633391663
977664000 -0.0214131471119 -0.898368294528
977668000 -0.0203589688358 -0.895289201568
977672000 -0.0191958324433 -0.895578182424
977676000 -0.028398377078 -0.891564793435
977680000 -0.0191897030028 -0.894255055661
977684000 -0.0203802271716 -0.895403065176
977688000 -0.0172207814272 -0.895979320458
977692000 -0.0180601234818 -0.89711959759
977696000 -0.0180147116337 -0.900897623403
977700000 -0.0193593875858 -0.899974890956
977704000 -0.0173975159495 -0.901905457844
977708000 -0.0174483921405 -0.901837703514
977712000 -0.0193593084367 -0.89765607341
977716000 -0.0193810270867 -0.898873242772
977720000 -0.020862021217 -0.893055052448
977724000 -0.0219050396218 -0.894852169104
977728000 -0.0217834758505 -0.893096036943
977732000 -0.0225773343481 -0.89246673119
977736000 -0.0244876985063 -0.891698756981
977740000 -0.0230661561157 -0.895985317468
977744000 -0.0245552859765 -0.897990866218
977748000 -0.025161241599 -0.896416276425
977752000 -0.0258582517622 -0.898873462995
977756000 -0.0238477026103 -0.900410520444
977760000 -0.02777206685 -0.899479070982
977764000 -0.0263772815488 -0.902401127189
977768000 -0.0235503333459 -0.900762512605
977772000 -0.0229625027161 -0.901845072898
977776000 -0.0225149204863 -0.901049633756
977780000 -0.0230835516767 -0.900906117586
977784000 -0.0203064023661 -0.898361970967
977788000 -0.0194884448386 -0.900114912061
977792000 -0.0196771367095 -0.900369048119
977796000 -0.0201463401901 -0.898988791605
977800000 -0.0191869059064 -0.900546137548
977804000 -0.0187720496808 -0.900749218259
977808000 -0.0184463469014 -0.901078563079
977812000 -0.0167200717237 -0.904882077446
977816000 -0.016611259544 -0.902241467059
977820000 -0.017440067238 -0.906160142967
977824000 -0.0208569197332 -0.905839110488
977828000 -0.0202094659884 -0.903925608359
977832000 -0.0224585845584 -0.90423516638
977836000 -0.0220318771795 -0.903576155444
977840000 -0.0232192337763 -0.901724748097
977844000 -0.0215994793694 -0.904083846806
977848000 -0.0249795935826 -0.907303864305
977852000 -0.0236744560811 -0.904121804494
977856000 -0.0258528583445 -0.902948624558
977860000 -0.0295934859883 -0.900716197447
977864000 -0.0248382390679 -0.903103179292
977868000 -0.0241984281681 -0.904261334523
977872000 -0.0240756839417 -0.903739303849
977876000 -0.0252812260665 -0.900058915387
977880000 -0.0253511984616 -0.901465097386
977884000 -0.025094754009 -0.898767110874
977888000 -0.0258944219853 -0.900146628772
977892000 -0.0238034683814 -0.899065782029
977896000 -0.0222434741708 -0.895844875026
977900000 -0.0237100745128 -0.892532105207
977904000 -0.0247936473159 -0.892152653836
977908000 -0.0245517992516 -0.890379983748
977912000 -0.0235296022518 -0.892603332822
977916000 -0.0221577749113 -0.89348922975
977920000 -0.0224089130782 -0.891950722783
977924000 -0.0194947421556 -0.893170819724
977928000 -0.0207463996799 -0.892385841694
977932000 -0.0210761380126 -0.892459980529
977936000 -0.0187160327281 -0.891975324162
977940000 -0.0208521869379 -0.894471760062
977944000 -0.0216910653741 -0.893978114473
977948000 -0.0203519055322 -0.895296892107
977952000 -0.0192721410788 -0.893939599818
977956000 -0.020355415469 -0.894509970704
977960000 -0.0222554277316 -0.896980267253
977964000 -0.0227478766054 -0.895927554662
977968000 -0.0233269460756 -0.896487085744
977972000 -0.02381584837 -0.896424519681
977976000 -0.024126147793 -0.897366491374
977980000 -0.0258181075552 -0.896453293049
977984000 -0.0257829001465 -0.896526676075
977988000 -0.0272749511748 -0.896170480219
977992000 -0.0279129295889 -0.89721202458
977996000 -0.0307308131167 -0.89790480284
978000000 -0.0291776344501 -0.896999185074
978004000 -0.0299501752588 -0.897263564709
978008000 -0.0301581068037 -0.896324588443
978012000 -0.0303096928895 -0.897465536902
978016000 -0.0308381466382 -0.89440990104
978020000 -0.0303244064179 -0.894323784959
978024000 -0.0279532381733 -0.894319014133
978028000 -0.0294018095959 -0.895832990615
978032000 -0.0273097804813 -0.894832534278
978036000 -0.0283436755982 -0.893538193102
978040000 -0.0254578837187 -0.892044255988
978044000 -0.0277907269393 -0.890891452278
978048000 -0.0267664677727 -0.890797429325
978052000 -0.0257553792401 -0.893968465904
978056000 -0.0243146270053 -0.892462162031
978060000 -0.021638356173 -0.897567365401
978064000 -0.021068309015 -0.899864038421
978068000 -0.0207914268897 -0.902746984819
978072000 -0.0204664506862 -0.905036376247
978076000 -0.0176439451192 -0.904438796245
978080000 -0.0162053171064 -0.905048169878
978084000 -0.0186558787985 -0.903263184113
978088000 -0.0220870661553 -0.902943187895
978092000 -0.0245132396197 -0.90290082148
978096000 -0.0242422554271 -0.899903566428
978100000 -0.0249430727016 -0.902892039793
978104000 -0.025403073041 -0.899462335081
978108000 -0.0264526938743 -0.899047938567
978112000 -0.0271002464122 -0.898606485428
978116000 -0.0282992699657 -0.900413600943
978120000 -0.0251667682631 -0.899586256203
978124000 -0.0243010948942 -0.900345836411
978128000 -0.024761179092 -0.903156947392
978132000 -0.0225151788018 -0.903926472382
978136000 -0.0212550772523 -0.902697776319
978140000 -0.0220655774171 -0.901454518175
978144000 -0.0228852338603 -0.901523975913
978148000 -0.0213027211695 -0.900265424108
978152000 -0.0220180411171 -0.898424908346
978156000 -0.0246390264385 -0.901084867069
978160000 -0.0228579602203 -0.896550487355
978164000 -0.021210022686 -0.897426499273
978168000 -0.0223818272427 -0.898090303566
978172000 -0.0232825124341 -0.896813862482
978176000 -0.0232910827109 -0.897181556228
978180000 -0.02206112263 -0.896995055578
978184000 -0.0249831337655 -0.89504503842
978188000 -0.0226612879825 -0.894471796411
978192000 -0.0242327837627 -0.895420819559
978196000 -0.0232642046767 -0.901244816419
978200000 -0.0254435111111 -0.895375762165
978204000 -0.0237651627311 -0.896581643772
978208000 -0.024356324269 -0.89420165026
978212000 -0.0264995760237 -0.898381921387
978216000 -0.0242265639547 -0.891462017902
978220000 -0.0230594331843 -0.893833455458
978224000 -0.0254195936041 -0.899427258939
978228000 -0.023183801444 -0.898777107101
978232000 -0.0290444533765 -0.900543457336
978236000 -0.0238903588116 -0.900881957453
978240000 -0.0235697880294 -0.900934353782
978244000 -0.0259039179657 -0.902974355773
978248000 -0.0233803816417 -0.896076466377
978252000 -0.020165751028 -0.903847024524
978256000 -0.02166841531 -0.909609362683
978260000 -0.0263410084426 -0.910837084193
978264000 -0.0131398077576 -0.911246527969
978268000 -0.0142354652823 -0.914352813297
978272000 -0.0103461977967 -0.915803231961
978276000 -0.00930456064432 -0.919951722059
978280000 -0.00909936812587 -0.932005858616
978284000 -0.00820943547276 -0.920854614007
978288000 -0.0132131305328 -0.916559557697
978292000 -0.0166944610524 -0.91609815175
978296000 -0.0201945003627 -0.908616407403
978300000 -0.019966219025 -0.907523627582
978304000 -0.0262002093583 -0.904532503348
978308000 -0.0294178430337 -0.902086973894
978312000 -0.0294271509542 -0.900875995005
978316000 -0.0273315452165 -0.902977494464
978320000 -0.0281244749166 -0.90053695587
978324000 -0.0227929905592 -0.901208961147
978328000 -0.0232005242716 -0.902354011919
978332000 -0.0231218170442 -0.902651387406
978336000 -0.0201579323233 -0.901107230152
978340000 -0.0213842922278 -0.898595989213
978344000 -0.0215802482686 -0.900922508169
978348000 -0.0206029095684 -0.900103480322
978352000 -0.0220759755556 -0.900579848172
978356000 -0.0238227467156 -0.899446220688
978360000 -0.0220567804589 -0.899720311656
978364000 -0.022122886372 -0.899365673869
978368000 -0.0214183223517 -0.900161688772
978372000 -0.0224776168129 -0.899222617834
978376000 -0.0205337241726 -0.901654662437
978380000 -0.0220009015242 -0.901537561549
978384000 -0.021598673228 -0.89900262537
978388000 -0.0231599300307 -0.903610388481
978392000 -0.0224034814668 -0.899537748509
978396000 -0.0214869377253 -0.900925112312
978400000 -0.0209935610327 -0.90176071531
978404000 -0.020090650289 -0.89902885144
978408000 -0.0226769377893 -0.896342221236
978412000 -0.0200368845316 -0.897283233483
978416000 -0.0202131743252 -0.897174767172
978420000 -0.017223920831 -0.894334487541
978424000 -0.0200595015093 -0.896018768483
978428000 -0.0199260069012 -0.895281153993
978432000 -0.0191507425902 -0.894806296603
978436000 -0.0227437399881 -0.895096561048
978440000 -0.0229868978296 -0.897028606971
978444000 -0.0217366990217 -0.894853855989
978448000 -0.0238308827223 -0.893623575614
978452000 -0.0223431369887 -0.897087840977
978456000 -0.022558627456 -0.896448755334
978460000 -0.024257665858 -0.901443410556
978464000 -0.0234127179327 -0.902937655014
978468000 -0.0260288350576 -0.905176197592
978472000 -0.0251594124527 -0.904919810008
978476000 -0.0279693887542 -0.907752102536
978480000 -0.0240465783779 -0.910299175956
978484000 -0.0261098290134 -0.909366915989
978488000 -0.0254011298546 -0.907022945755
978492000 -0.0234681429032 -0.905059124386
978496000 -0.023016498228 -0.902669043402
978500000 -0.0224626446581 -0.900991915475
978504000 -0.0205711091685 -0.896288416759
978508000 -0.0208150718096 -0.895381617171
978512000 -0.0187667746515 -0.89419473521
978516000 -0.0211742513846 -0.896404356992
978520000 -0.0201544974141 -0.8950371686
978524000 -0.0213650052116 -0.895223328337
978528000 -0.020734438299 -0.894764979509
978532000 -0.0239934449354 -0.89681546748
978536000 -0.0247347200043 -0.895852508914
978540000 -0.0262054839043 -0.89688207082
978544000 -0.0242698137465 -0.898832674049
978548000 -0.0258186998076 -0.899174200701
978552000 -0.0292488740839 -0.89674185734
978556000 -0.0254451850625 -0.897069356955
978560000 -0.0278898083288 -0.898361741568
978564000 -0.0280314472991 -0.89417975248
978568000 -0.0304916873833 -0.896094656806
978572000 -0.0292510210722 -0.895652269813
978576000 -0.026621181442 -0.897105936781
978580000 -0.0270936906726 -0.89586221265
978584000 -0.0268950127259 -0.895589015526
978588000 -0.0214653448733 -0.896605717662
978592000 -0.0200723927842 -0.894855760885
978596000 -0.0208762424159 -0.893673851115
978600000 -0.0173818638508 -0.895462959535
978604000 -0.0187607097815 -0.895870784665
978608000 -0.0218295404549 -0.89704534443
978612000 -0.0218498421516 -0.896475700761
978616000 -0.0197582123425 -0.900309943227
978620000 -0.0225656173231 -0.899678159918
978624000 -0.0225490893405 -0.900863605849
978628000 -0.022027691921 -0.899869203958
978632000 -0.0237196460069 -0.902142904407
978636000 -0.0229773177055 -0.901405513227
978640000 -0.0217683538327 -0.897575064168
978644000 -0.0228561200301 -0.90054297633
978648000 -0.0211151183591 -0.90045872976
978652000 -0.0211232938666 -0.897534034155
978656000 -0.0218521621675 -0.898293153908
978660000 -0.024605916547 -0.897788162956
978664000 -0.0216207941841 -0.899435082909
978668000 -0.0207510438984 -0.899318056341
978672000 -0.0235247712999 -0.895346544989
978676000 -0.0232747216012 -0.898481109806
978680000 -0.0229275305734 -0.89702147508
978684000 -0.023632050008 -0.895658366466
978688000 -0.0222335864965 -0.897488807
978692000 -0.0230705617405 -0.895931743406
978696000 -0.023300587726 -0.894560380978
978700000 -0.0243817883104 -0.896840321468
978704000 -0.0240409168335 -0.896646452304
978708000 -0.023212358353 -0.898351575757
978712000 -0.0245827407145 -0.894314080397
978716000 -0.02518748502 -0.896244737081
978720000 -0.0254852526872 -0.893441441802
978724000 -0.0240980333927 -0.894776315576
978728000 -0.0223466621909 -0.893647690216
978732000 -0.0253672307053 -0.895418470371
978736000 -0.0250912258564 -0.897003732688
978740000 -0.0268904924023 -0.896235395114
978744000 -0.0261686859389 -0.895290256457
978748000 -0.0267578057376 -0.896213108272
978752000 -0.0245311060834 -0.89594373567
978756000 -0.0203983932958 -0.89642014722
978760000 -0.0216805938 -0.89711765279
978764000 -0.0223097683369 -0.898686704985
978768000 -0.0207961171194 -0.894568108161
978772000 -0.0208812381014 -0.893503641428
978776000 -0.0192595595131 -0.89921742928
978780000 -0.0173794807718 -0.896950084431
978784000 -0.0188090843447 -0.899651747207
978788000 -0.014942695847 -0.898465585511
978792000 -0.0164356504902 -0.902039645948
978796000 -0.0168818065955 -0.901770883147
978800000 -0.0163145256528 -0.89883769501
978804000 -0.0199355422703 -0.897556388428
978808000 -0.0201943862582 -0.901020741902
978812000 -0.0203751501219 -0.897212447366
978816000 -0.021819875452 -0.899944616551
978820000 -0.0276505092725 -0.89835850384
978824000 -0.0262537515362 -0.898912603168
978828000 -0.027775640262 -0.896952798139
978832000 -0.0269410460693 -0.894693851951
978836000 -0.0263521840139 -0.896156141667
978840000 -0.0259901281016 -0.895858187788
978844000 -0.0269344498092 -0.895436471435
978848000 -0.0220357194294 -0.896622134522
978852000 -0.0254107518107 -0.894180734668
978856000 -0.0212740494488 -0.89143134108
978860000 -0.0242103427218 -0.893639118692
978864000 -0.0232260303472 -0.891649888258
978868000 -0.0227778834828 -0.893569407809
978872000 -0.0225085019763 -0.891449158806
978876000 -0.0201696271598 -0.890033022521
978880000 -0.0204596232394 -0.890176296209
978884000 -0.0194506462437 -0.890374812466
978888000 -0.0223293255607 -0.889859188769
978892000 -0.0212780984224 -0.894448240188
978896000 -0.0192409347334 -0.894075473381
978900000 -0.020961360683 -0.898617174436
978904000 -0.0222377477786 -0.897961978175
978908000 -0.0225676601312 -0.89836374405
978912000 -0.0212195096362 -0.899768297355
978916000 -0.0222160341395 -0.900330704413
978920000 -0.0211564482882 -0.90099378779
978924000 -0.0212387674024 -0.900215654867
978928000 -0.0216159608903 -0.898516667611
978932000 -0.0223374525262 -0.901108171368
978936000 -0.0236203808941 -0.896978745596
978940000 -0.0187524700772 -0.896197812567
978944000 -0.0212580165391 -0.899045148737
978948000 -0.0205528761829 -0.897606475776
978952000 -0.0192223582483 -0.898503726553
978956000 -0.0188620519056 -0.897573283805
978960000 -0.0193787217036 -0.898035250684
978964000 -0.0194486702471 -0.901329637414
978968000 -0.0172698619209 -0.900737674512
978972000 -0.0181295464578 -0.901732511856
978976000 -0.0175363693914 -0.90022509467
978980000 -0.0165118866113 -0.900861973491
978984000 -0.017965228365 -0.898196963525
978988000 -0.0178067151454 -0.899102168554
978992000 -0.0234874765615 -0.899409399377
978996000 -0.0221508041524 -0.896124523662
979000000 -0.0205063840589 -0.896298149867
979004000 -0.0184143557853 -0.897320482268
979008000 -0.0210126979208 -0.896189846146
979012000 -0.0226680340698 -0.895160278504
979016000 -0.0218668934625 -0.895763808435
979020000 -0.0244383478526 -0.894146108783
979024000 -0.0254578336137 -0.895229487954
979028000 -0.0255324439447 -0.898089003245
979032000 -0.0231514432419 -0.895387449472
979036000 -0.0247047463868 -0.896267769928
979040000 -0.0218779564584 -0.897208776017
979044000 -0.0223784223294 -0.897952020821
979048000 -0.0229672590231 -0.899649023322
979052000 -0.0226283723075 -0.899388442514
979056000 -0.0209729924066 -0.899851095611
979060000 -0.0236882252214 -0.89890854953
979064000 -0.0272623366484 -0.898186324901
979068000 -0.0264617324448 -0.901067580203
979072000 -0.0255681180703 -0.90046154225
979076000 -0.0277789244254 -0.900683018768
979080000 -0.0310629334582 -0.90137521516
979084000 -0.03247005595 -0.902600890244
979088000 -0.0293270400522 -0.903505779705
979092000 -0.025646966836 -0.901512885705
979096000 -0.0273186026596 -0.898257014559
979100000 -0.0258102033067 -0.9005858313
979104000 -0.0096948088622 -0.882500871093
979108000 -0.0234320900822 -0.894402832987
979112000 -0.0244227436969 -0.892829809517
979116000 -0.022259228655 -0.890420729588
979120000 -0.0226834322221 -0.894144601328
979124000 -0.024441923644 -0.893196695153
979128000 -0.0251129600084 -0.895611510581
979132000 -0.0213811940756 -0.895547176144
979136000 -0.0211352045391 -0.898466119106
979140000 -0.0214297360835 -0.897386126586
979144000 -0.0214342912155 -0.896134299243
979148000 -0.0215260362499 -0.896375093331
979152000 -0.021628767238 -0.897935753037
979156000 -0.021618489505 -0.895048449959
979160000 -0.0220718340677 -0.893027436762
979164000 -0.0212899285582 -0.893827435566
979168000 -0.0218725483189 -0.893803284816
979172000 -0.0247358113626 -0.893075629705
979176000 -0.0227860320512 -0.892331310875
979180000 -0.0240967254423 -0.890688095069
979184000 -0.0232278475833 -0.892504784603
979188000 -0.0266895236083 -0.889713670342
979192000 -0.0264061940693 -0.893773774363
979196000 -0.0265226842246 -0.892126198409
979200000 -0.0276498124742 -0.890634077228
979204000 -0.0281206434344 -0.892236032772
979208000 -0.028598376866 -0.89365480302
979212000 -0.0271222327691 -0.892980503488
979216000 -0.0247604743173 -0.893852048072
979220000 -0.0249871631688 -0.896257729503
979224000 -0.0265889272471 -0.899184181695
979228000 -0.0259115715975 -0.898856800441
979232000 -0.0254308900928 -0.898543285327
979236000 -0.0260114400284 -0.899919740735
979240000 -0.0265969380375 -0.897526291184
979244000 -0.0243027222692 -0.896189034674
979248000 -0.0256760126708 -0.896226423323
979252000 -0.0256596749898 -0.894889885978
979256000 -0.0261020396589 -0.895950177192
979260000 -0.0244597797277 -0.895926871003
979264000 -0.0259673616351 -0.895186426188
979268000 -0.0251370247008 -0.897418435947
979272000 -0.0224492196108 -0.898472494737
979276000 -0.02133890499 -0.898566850323
979280000 -0.022788828469 -0.898764976041
979284000 -0.0209480419259 -0.897885994802
979288000 -0.0216404301523 -0.898717427479
979292000 -0.0203149832774 -0.900935659172
979296000 -0.0218009393113 -0.898094090196
979300000 -0.0224306045963 -0.896797711046
979304000 -0.0212722922635 -0.89781500113
979308000 -0.0220317800581 -0.896979742755
979312000 -0.0246740300375 -0.899128627825
979316000 -0.0231770417507 -0.895476440995
979320000 -0.0238802671156 -0.896727807513
979324000 -0.0227311215396 -0.895646372808
979328000 -0.0222376088944 -0.894988905827
979332000 -0.0243527761057 -0.895225011696
979336000 -0.0240802374097 -0.891809284871
979340000 -0.0246001534698 -0.893716164715
979344000 -0.0253109048379 -0.892976169319
979348000 -0.0269580321806 -0.895257799458
979352000 -0.0262639802123 -0.894552290195
979356000 -0.0265628986169 -0.895165684958
979360000 -0.0282550927153 -0.898193040478
979364000 -0.0252177209985 -0.900014621106
979368000 -0.0268038018729 -0.89949083475
979372000 -0.0269420646426 -0.900805183005
979376000 -0.0254990907739 -0.900644151015
979380000 -0.0285321968932 -0.901674893767
979384000 -0.0278342392218 -0.900858200767
979388000 -0.0255399557618 -0.900015674745
979392000 -0.0273755382247 -0.900905553325
979396000 -0.0261711508012 -0.900047498574
979400000 -0.0287658361113 -0.902023955696
979404000 -0.0278268777162 -0.900771576439
979408000 -0.0264710405123 -0.899834792168
979412000 -0.0294348044879 -0.898426756651
979416000 -0.0277394218228 -0.896065637003
979420000 -0.0289189686489 -0.895972480529
979424000 -0.0293654127216 -0.894205680806
979428000 -0.0304255329132 -0.893311626312
979432000 -0.0277065696357 -0.895383150349
979436000 -0.0297390807038 -0.895953523491
979440000 -0.0245961068666 -0.894455268491
979444000 -0.0257699671554 -0.896407011258
979448000 -0.0232934459211 -0.898863901564
979452000 -0.0230313947877 -0.897035150799
979456000 -0.0216541320978 -0.897936640083
979460000 -0.0222565750664 -0.897281993806
979464000 -0.0206059953447 -0.898527468855
979468000 -0.0222490322151 -0.89846810235
979472000 -0.0234659445431 -0.900443467965
979476000 -0.0253664839237 -0.90046108619
979480000 -0.0235239142462 -0.900534777637
979484000 -0.0282913237709 -0.901878252759
979488000 -0.0259661135994 -0.899475583829
979492000 -0.0223779463312 -0.900213478777
979496000 -0.0231046072048 -0.900006856957
979500000 -0.0235938387641 -0.899889074046
979504000 -0.0240613478673 -0.89916596151
979508000 -0.0213798275619 -0.899540256222
979512000 -0.02238359511 -0.901654573488
979516000 -0.0205706232259 -0.897840332959
979520000 -0.0213282782865 -0.897581676059
979524000 -0.0183681033441 -0.898152410274
979528000 -0.0184198319994 -0.895964824613
979532000 -0.0162172100124 -0.897101630436
979536000 -0.0156905529463 -0.892230089309
979540000 -0.0141458305908 -0.894326814057
979544000 -0.0131265186302 -0.894831887215
979548000 -0.0102685974268 -0.892910100518
979552000 -0.00791409927648 -0.894153987249
979556000 -0.00637047109824 -0.893949861813
979560000 -0.00140699812843 -0.897168031044
979564000 0.00343067066403 -0.896381651383
979568000 0.00662533145429 -0.899443691334
979572000 0.0105668886828 -0.901930670199
979576000 0.00851841243395 -0.898608087816
979580000 0.00191880505752 -0.897601083886
979584000 -0.000653256044376 -0.898427726986
979588000 -0.00852706400977 -0.898627278774
979592000 -0.0119513343874 -0.898859689451
979596000 -0.0199131599151 -0.89681324956
979600000 -0.0242818209545 -0.897096751735
979604000 -0.0275494678942 -0.897368310313
979608000 -0.0297313885052 -0.897366794245
979612000 -0.0290117638045 -0.897377156197
979616000 -0.0285765848519 -0.896239613939
979620000 -0.0293127679827 -0.898619688029
979624000 -0.0296000784794 -0.898985699934
979628000 -0.029607028282 -0.899310813521
979632000 -0.030596496585 -0.899861852949
979636000 -0.0268647951922 -0.90013941804
979640000 -0.0302639990827 -0.898541667368
979644000 -0.0301223758852 -0.900662173912
979648000 -0.0295428433155 -0.900442713899
979652000 -0.0300058387 -0.901711199025
979656000 -0.0293961387348 -0.901353187974
979660000 -0.0290444711062 -0.90206416957
979664000 -0.0262226130864 -0.901278117442
979668000 -0.0272736483413 -0.898099051769
979672000 -0.0237029206173 -0.901036977822
979676000 -0.0231858604503 -0.899403893168
979680000 -0.0221448400794 -0.897204903096
979684000 -0.0210211299485 -0.896775537625
979688000 -0.0191947699902 -0.89655284941
979692000 -0.0196807197752 -0.895430497093
979696000 -0.0124434335306 -0.895228603379
979700000 -0.0167702777729 -0.894888188042
979704000 -0.0188287191658 -0.895788440431
979708000 -0.019177173083 -0.894171665116
979712000 -0.0188323202734 -0.895898896114
979716000 -0.0202471097689 -0.895949825311
979720000 -0.0184209844208 -0.895146823223
979724000 -0.0198931282255 -0.896918662144
979728000 -0.0210015958829 -0.895565674073
979732000 -0.0204609674382 -0.893893436849
979736000 -0.022799864244 -0.893345786538
979740000 -0.0196855126204 -0.893961658707
979744000 -0.0197450991214 -0.895497314876
979748000 -0.0224609514232 -0.896289825624
979752000 -0.021305820862 -0.89799238809
979756000 -0.020468235104 -0.896983645415
979760000 -0.0210562414467 -0.898612776256
979764000 -0.025267644427 -0.900643886219
979768000 -0.0250199665318 -0.898267172911
979772000 -0.0262512993046 -0.899975422625
979776000 -0.0267707634546 -0.900971765465
979780000 -0.0241161105992 -0.901083384422
979784000 -0.0216732714117 -0.899628781545
979788000 -0.0192663602311 -0.901930142546
979792000 -0.016685825298 -0.898096913728
979796000 -0.0159925236274 -0.898565563214
979800000 -0.0157325267061 -0.90073791247
979804000 -0.0143441771206 -0.897817880691
979808000 -0.0158661683685 -0.896470901287
979812000 -0.020386196165 -0.898700743068
979816000 -0.0168596497885 -0.897918243261
979820000 -0.0212662930872 -0.895865543718
979824000 -0.0178430397941 -0.899648964408
979828000 -0.0193726607135 -0.896727870804
979832000 -0.0249464824352 -0.90082344439
979836000 -0.0258697078943 -0.900090355854
979840000 -0.0264968238116 -0.902908752789
979844000 -0.0267931660856 -0.900570969954
979848000 -0.0277613990368 -0.900592564164
979852000 -0.027327687975 -0.898622627977
979856000 -0.0278686045208 -0.900240074374
979860000 -0.0291945429606 -0.89988629315
979864000 -0.0282476405212 -0.901694778402
979868000 -0.0282781592395 -0.899268736501
979872000 -0.0281246288551 -0.896862616788
979876000 -0.027407840111 -0.898805278988
979880000 -0.024643970699 -0.898910696168
979884000 -0.0234903723435 -0.899513079791
979888000 -0.0248492773934 -0.902191946099
979892000 -0.0202032069488 -0.900540188821
979896000 -0.0198744103104 -0.899746497973
979900000 -0.0209425348478 -0.898288365079
979904000 -0.02118499504 -0.900037064573
979908000 -0.0212335078376 -0.899785145206
979912000 -0.0210365695411 -0.89860147399
979916000 -0.0200898184673 -0.897323858029
979920000 -0.0228231225587 -0.895192256347
979924000 -0.0209073895952 -0.898286882617
979928000 -0.0219316531105 -0.897609001509
979932000 -0.0218142856462 -0.897666066099
979936000 -0.025209276247 -0.896235996832
979940000 -0.0246255409739 -0.897820098894
979944000 -0.0265777722666 -0.899466152316
979948000 -0.0294779819246 -0.893753375121
979952000 -0.0251243816295 -0.895614157368
979956000 -0.0265215334272 -0.896326215867
979960000 -0.0216046953452 -0.896601375819
979964000 -0.0232463134113 -0.897163386551
979968000 -0.0228592651996 -0.899003143619
979972000 -0.0262085419414 -0.900769962577
979976000 -0.0210905090319 -0.896190975973
979980000 -0.0193136959178 -0.900066461744
979984000 -0.0184818980426 -0.901191002797
979988000 -0.0225543439378 -0.899171028837
979992000 -0.0232876547331 -0.895357703465
979996000 -0.0224489433863 -0.899760824574
980000000 -0.0235570846712 -0.897325826693
