! Calibrated averaged scanner-service zoom
# Hz S RI R 50
222000000 0.571916454993 -0.028010892809
222003000 0.572384693671 -0.0283705326747
222006000 0.572213577476 -0.0282455337382
222009000 0.571962318593 -0.0277260793673
222012000 0.571754655478 -0.0277459800918
222015000 0.572310391099 -0.0283037728013
222018000 0.571957394853 -0.0280147247862
222021000 0.572065860221 -0.0277772433865
222024000 0.571736244203 -0.0275695718754
222027000 0.572105010374 -0.0281641348982
222030000 0.571773499866 -0.0277666119583
222033000 0.572144608997 -0.0277726403791
222036000 0.571738839564 -0.027488876735
222039000 0.571919370179 -0.0279833909189
222042000 0.571826069884 -0.0277074845524
222045000 0.572220789511 -0.0278521673745
222048000 0.571750763876 -0.0273858467282
222051000 0.571963183969 -0.0277074481781
222054000 0.571760615559 -0.0277301789405
222057000 0.572312054576 -0.0278587598987
222060000 0.571672012154 -0.0271731448557
222063000 0.571893481436 -0.0275918172826
222066000 0.572079740612 -0.0277314284867
222069000 0.572266984461 -0.0276876603385
222072000 0.571803718773 -0.027335428732
222075000 0.571829748844 -0.0272777394827
222078000 0.572313658036 -0.0277421354329
222081000 0.572053305348 -0.0275006033231
222084000 0.571978960018 -0.0271416924099
222087000 0.571885814364 -0.0271301157048
222090000 0.572243052345 -0.0276367557
222093000 0.572047369269 -0.0273843317754
222096000 0.57211234832 -0.0270593051872
222099000 0.571802895077 -0.0267991149768
222102000 0.572275775444 -0.0274935580783
222105000 0.571741036871 -0.0271087582563
222108000 0.572146683113 -0.0271433528968
222111000 0.57167248135 -0.0267727821977
222114000 0.571883232201 -0.0273927046329
222117000 0.571787013426 -0.0270711547786
222120000 0.572100403259 -0.0270737433222
222123000 0.571594848378 -0.0266254002404
222126000 0.57159777283 -0.0271153776843
222129000 0.571742445473 -0.0270948504919
222132000 0.572030017758 -0.0271965473243
222135000 0.571693244186 -0.026563319714
222138000 0.571557347516 -0.0268916623599
222141000 0.571856503328 -0.0269954243771
222144000 0.572013386336 -0.0270100445696
222147000 0.571584210609 -0.0264156306588
222150000 0.571650981809 -0.0266430719415
222153000 0.572141808757 -0.0270635206453
222156000 0.571773550751 -0.0269087468719
222159000 0.571653044296 -0.0263969125293
222162000 0.571567066713 -0.0264121776828
222165000 0.572037470349 -0.0270091062794
222168000 0.571730543614 -0.0267290827101
222171000 0.571813342665 -0.0265027444758
222174000 0.571545972348 -0.026187145014
222177000 0.571980693253 -0.0267947327775
222180000 0.571733967381 -0.0265164834622
222183000 0.571976059092 -0.0263995571293
222186000 0.571530475711 -0.0260891747289
222189000 0.57181778826 -0.0266849539741
222192000 0.571492459434 -0.0263990415167
222195000 0.572015584008 -0.0265060965828
222198000 0.571474926844 -0.026006172449
222201000 0.571551165255 -0.0263467196408
222204000 0.571505895648 -0.0262588636131
222207000 0.571790031719 -0.0263212077483
222210000 0.571438875016 -0.0257604711803
222213000 0.571430788509 -0.0260388796074
222216000 0.571532529084 -0.026264236889
222219000 0.57196328137 -0.0263224370063
222222000 0.571431943103 -0.0256507423057
222225000 0.571422627484 -0.0258627009667
222228000 0.571878459068 -0.0262509818973
222231000 0.571869903065 -0.0260762091027
222234000 0.57156550071 -0.0256218777151
222237000 0.571458330105 -0.0255942009595
222240000 0.571882400215 -0.0261202201908
222243000 0.571542005023 -0.0260264777482
222246000 0.571886745845 -0.0255713889424
222249000 0.571503982756 -0.0254016207867
222252000 0.571916620672 -0.0261018176124
222255000 0.571455999283 -0.0257640529269
222258000 0.571732454023 -0.0256254126425
222261000 0.571287121853 -0.0253158286022
222264000 0.571557194357 -0.0258873725115
222267000 0.571334949393 -0.0255674773975
222270000 0.571806804642 -0.0256259426767
222273000 0.571266111284 -0.0251380702046
222276000 0.571359934967 -0.0255690265255
222279000 0.571276255634 -0.0255159696607
222282000 0.571813869165 -0.0256764901986
222285000 0.571384431349 -0.0251004786061
222288000 0.571358280015 -0.0254207311999
222291000 0.571522314699 -0.0255441467531
222294000 0.571765438327 -0.0256018717102
222297000 0.571325606759 -0.0248547832479
222300000 0.571348083795 -0.0251103550183
222303000 0.571493138318 -0.0254027734803
222306000 0.57149966617 -0.0249035994515
222309000 0.571313380004 -0.0248642652442
222312000 0.571663520619 -0.0254713272093
222315000 0.571309807678 -0.0251436299346
222318000 0.571638330158 -0.0249978583345
222321000 0.571331768785 -0.0247620323788
222324000 0.571493782417 -0.0252387801282
222327000 0.571450536396 -0.0251507177084
222330000 0.571796414176 -0.0250574203989
222333000 0.571342338537 -0.0246234982831
222336000 0.571334920351 -0.0250865787027
222339000 0.57149069659 -0.0251408722114
222342000 0.571739993596 -0.0249921328521
222345000 0.571156799296 -0.0245041325395
222348000 0.571264276027 -0.0248127037193
222351000 0.571680719582 -0.0250236598874
222354000 0.571567095493 -0.0249451167264
222357000 0.571143287694 -0.0242457690041
222360000 0.571134786332 -0.0244935928643
222363000 0.571535149651 -0.024890818604
222366000 0.571471057205 -0.0248630866128
222369000 0.571128237025 -0.0241556460875
222372000 0.571054831803 -0.0243280120918
222375000 0.571440119037 -0.0248654112087
222378000 0.571360442412 -0.0245752732845
222381000 0.571000883127 -0.0240863607562
222384000 0.571087047357 -0.0240147128102
222387000 0.571391891186 -0.0245697469078
222390000 0.571349041658 -0.0242968278372
222393000 0.571318258799 -0.024110863609
222396000 0.571102677875 -0.0239186101353
222399000 0.571230440035 -0.0244408931204
222402000 0.571178936005 -0.0243266577357
222405000 0.571644901305 -0.0242237697661
222408000 0.57109091709 -0.0237573733436
222411000 0.571155966287 -0.0242998485272
222414000 0.571291860042 -0.024405133877
222417000 0.571627571843 -0.0241839420042
222420000 0.571067595193 -0.0236879248397
222423000 0.571213575488 -0.0240195992641
222426000 0.571578209199 -0.0242986684641
222429000 0.571704242466 -0.0242101416537
222432000 0.571180404879 -0.0234135065819
222435000 0.571218090009 -0.0237376123939
222438000 0.571596883078 -0.024030176831
222441000 0.571423062804 -0.0238417847026
222444000 0.571021635155 -0.0232674882816
222447000 0.571077683047 -0.0234748268412
222450000 0.571417432467 -0.0239610830017
222453000 0.571169798387 -0.0237591446601
222456000 0.571139163927 -0.0233452060334
222459000 0.571011345239 -0.0233336496801
222462000 0.571179224313 -0.0238562628077
222465000 0.571164243363 -0.0237422869885
222468000 0.571253871896 -0.0234224360141
222471000 0.570882613606 -0.0233088201845
222474000 0.571003543896 -0.023766765373
222477000 0.570706563485 -0.0236564647434
222480000 0.571446962268 -0.023524188406
222483000 0.57102824653 -0.0230057847783
222486000 0.57121176009 -0.0233911244381
222489000 0.571350583387 -0.0234913123261
222492000 0.571560410568 -0.0234098032867
222495000 0.571023273233 -0.0228387334298
222498000 0.571044285095 -0.0233583335432
222501000 0.571563347756 -0.0235189287088
222504000 0.57152705081 -0.0233236000894
222507000 0.570963759498 -0.022717274387
222510000 0.571061233005 -0.0229810617835
222513000 0.571387134003 -0.023310405262
222516000 0.571383637812 -0.0232574235387
222519000 0.571051185294 -0.0225281399336
222522000 0.571017901926 -0.0227944432292
222525000 0.571187976316 -0.0232221065674
222528000 0.57109809955 -0.0230570549599
222531000 0.571181487337 -0.0225417789062
222534000 0.571035793575 -0.0224518751476
222537000 0.571125660393 -0.023063127334
222540000 0.571119257889 -0.0227813709656
222543000 0.571254890511 -0.0225474782391
222546000 0.570983651861 -0.0223633380705
222549000 0.571053775833 -0.0228052074553
222552000 0.571220567481 -0.0227645615667
222555000 0.571485811467 -0.0225472164483
222558000 0.571108556749 -0.0220769469414
222561000 0.571208429866 -0.0225369656822
222564000 0.571232465093 -0.0226957171819
222567000 0.571418428942 -0.0225799112778
222570000 0.571085026102 -0.0220236468088
222573000 0.570975436672 -0.0223290088257
222576000 0.571231778427 -0.0227392038825
222579000 0.571390246493 -0.0225392950645
222582000 0.570956402813 -0.0218325526899
222585000 0.570949586863 -0.0221536246623
222588000 0.571243447688 -0.0225847986459
222591000 0.571247198665 -0.0224072198558
222594000 0.570929134571 -0.0217337011721
222597000 0.570887757676 -0.021931015309
222600000 0.57114548449 -0.0224237975082
222603000 0.570936044057 -0.0219055773732
222606000 0.571281065821 -0.0224874232711
222609000 0.571053686052 -0.0216258574906
222612000 0.571104094998 -0.0218322938087
222615000 0.571023761601 -0.0216996048343
222618000 0.57109242499 -0.022007392191
222621000 0.571080574208 -0.0215561890471
222624000 0.570950101021 -0.0215217232193
222627000 0.571017037412 -0.0216513600549
222630000 0.570971099095 -0.021729220734
222633000 0.571314453892 -0.021768812348
222636000 0.57093861817 -0.0213910966154
222639000 0.571186533569 -0.0215166517414
222642000 0.570951722376 -0.0215135644703
222645000 0.571530127688 -0.0219031181077
222648000 0.570817971032 -0.0211656001991
222651000 0.571269473888 -0.0215970989521
222654000 0.570867471772 -0.0214113630133
222657000 0.571674754407 -0.022092630675
222660000 0.571020027289 -0.0210938247591
222663000 0.571220153029 -0.0214243095903
222666000 0.57106368025 -0.0211498898284
222669000 0.571506709281 -0.0217794624771
222672000 0.570945521984 -0.0208402115591
222675000 0.571272446285 -0.0212399509603
222678000 0.570888332692 -0.0209964478884
222681000 0.571162869742 -0.0215896098173
222684000 0.570961899291 -0.0207184463328
222687000 0.571177108135 -0.0209514247203
222690000 0.570995101956 -0.0207698208021
222693000 0.571071401912 -0.0211373908393
222696000 0.570999885946 -0.020694075936
222699000 0.570985096819 -0.0208168858088
222702000 0.57084563837 -0.020805254998
222705000 0.570883415704 -0.0208712361317
222708000 0.571156507642 -0.0208489629965
222711000 0.570949316319 -0.0205813509566
222714000 0.571013623229 -0.0208009246946
222717000 0.570885201719 -0.0207413608449
222720000 0.571373444363 -0.0211710494439
222723000 0.570916262518 -0.0204432936334
222726000 0.571238725892 -0.0209017743894
222729000 0.570981285398 -0.0207123127948
222732000 0.571571183784 -0.0212616823247
222735000 0.571001626027 -0.0203180251516
222738000 0.571324802578 -0.0208257892448
222741000 0.571111920094 -0.0204390638299
222744000 0.57160838468 -0.0211612125801
222747000 0.571054992537 -0.020191840385
222750000 0.5713876229 -0.0206226597575
222753000 0.571075497965 -0.0203076600086
222756000 0.571382269602 -0.0208204409581
222759000 0.571142971198 -0.0199872285428
222762000 0.571383071309 -0.0202080996678
222765000 0.571179760305 -0.0201538746751
222768000 0.57114415355 -0.0205027997225
222771000 0.571070359596 -0.0200178953547
222774000 0.571022498801 -0.0200050106078
222777000 0.571040752835 -0.0200755761556
222780000 0.570970163769 -0.0201803650917
222783000 0.571121476027 -0.0201622103682
222786000 0.570819226235 -0.0195236681854
222789000 0.571059253638 -0.0199409333503
222792000 0.570808408901 -0.0199183703669
222795000 0.571488547725 -0.0202885012352
222798000 0.570961459057 -0.0195611951172
222801000 0.571071891953 -0.0200225565489
222804000 0.570835467182 -0.0198099976597
222807000 0.571874424667 -0.0204581350941
222810000 0.571119978108 -0.0194405548224
222813000 0.571492175045 -0.0198676067558
222816000 0.571183968424 -0.0196572460529
222819000 0.57177815752 -0.0204122478653
222822000 0.571182783054 -0.0192859741868
222825000 0.571515730283 -0.0197183587856
222828000 0.571184938683 -0.0194995441178
222831000 0.57137109655 -0.0200290611832
222834000 0.571135941418 -0.0192392577092
222837000 0.571359981725 -0.0194633767047
222840000 0.571021882729 -0.0193948072429
222843000 0.571165150262 -0.0197167624466
222846000 0.570635682614 -0.0186660207386
222849000 0.571241392071 -0.0193553031319
222852000 0.571208430778 -0.019356304441
222855000 0.571005991959 -0.019448965597
222858000 0.571385546288 -0.0191993258204
222861000 0.571211607967 -0.0190656505188
222864000 0.571177684572 -0.0192426488764
222867000 0.571188486892 -0.019280003597
222870000 0.571653109575 -0.0195640127002
222873000 0.571196226054 -0.0189363797428
222876000 0.571286592761 -0.0193461344364
222879000 0.571036739486 -0.0190251291255
222882000 0.57164876637 -0.019758028048
222885000 0.571192011155 -0.0186775175713
222888000 0.571467031677 -0.0192846602376
222891000 0.571125712544 -0.0188038266072
222894000 0.571670350055 -0.0196245504299
222897000 0.571080844163 -0.0185315151957
222900000 0.571326497256 -0.0190419742549
222903000 0.571137196131 -0.0188805366592
222906000 0.571390385447 -0.018871177979
222909000 0.571049428301 -0.0185145051642
222912000 0.571143967569 -0.0188849614627
222915000 0.571116612249 -0.0187430697664
222918000 0.571080055226 -0.0185481006881
222921000 0.571151122479 -0.0185608975593
222924000 0.571086069397 -0.0187076643777
222927000 0.571013421884 -0.0185758963254
222930000 0.571123233672 -0.018698169929
222933000 0.571239353242 -0.0185069572798
222936000 0.571004920927 -0.0185274666757
222939000 0.571100285065 -0.018641363301
222942000 0.57129797243 -0.018532258113
222945000 0.571206537302 -0.0184572306387
222948000 0.570923985174 -0.0182587762812
222951000 0.571238774174 -0.0185995255075
222954000 0.571235555685 -0.018418030248
222957000 0.5712493983 -0.0183834882787
222960000 0.570916586827 -0.0179807004067
222963000 0.571320577121 -0.0184721608063
222966000 0.571352845839 -0.0184749386172
222969000 0.571259992959 -0.0181398705367
222972000 0.570999431109 -0.017809589701
222975000 0.571264207133 -0.0183113245281
222978000 0.571379990977 -0.0181450498369
222981000 0.571085737911 -0.017923115409
222984000 0.570914175731 -0.017649288934
222987000 0.571142669865 -0.017954522672
222990000 0.570989004758 -0.0178950562901
222993000 0.571120089498 -0.017859621169
222996000 0.571046221826 -0.017578875891
222999000 0.570957215561 -0.0177949315179
223002000 0.570933101947 -0.0177279928266
223005000 0.571260694783 -0.0177665691588
223008000 0.571277070059 -0.0175961224627
223011000 0.570892706693 -0.0176679570178
223014000 0.571165288447 -0.0177134458101
223017000 0.571283372001 -0.0177713640951
223020000 0.571283320142 -0.0176529188837
223023000 0.570947269287 -0.0173592369646
223026000 0.571204289474 -0.0177196025825
223029000 0.571289910452 -0.0176502659707
223032000 0.571271232704 -0.0176670710454
223035000 0.5709724389 -0.0172746421675
223038000 0.5712647612 -0.0176520471218
223041000 0.57115496346 -0.0174882616974
223044000 0.571210139285 -0.0173796330725
223047000 0.570985281752 -0.0169616970992
223050000 0.571272860427 -0.0174439023649
223053000 0.571180438481 -0.0172279682079
223056000 0.571097602893 -0.0171714241998
223059000 0.571036974336 -0.0167781462665
223062000 0.571073215696 -0.0171932805993
223065000 0.570999626132 -0.017091100132
223068000 0.571097138005 -0.0170048149144
223071000 0.571024414617 -0.0168743997571
223074000 0.571006607532 -0.0170357847322
223077000 0.571062014515 -0.0169742171397
223080000 0.571046410472 -0.0170106747297
223083000 0.571252572548 -0.0168611953299
223086000 0.571060882749 -0.0168459308933
223089000 0.571060866623 -0.0170052336197
223092000 0.571229445593 -0.0169645538
223095000 0.571289698139 -0.0167581528649
223098000 0.570916370036 -0.016643147225
223101000 0.571188892745 -0.0169255907877
223104000 0.571344135893 -0.0166828006314
223107000 0.571286000253 -0.0167664372883
223110000 0.570971082923 -0.0162872505432
223113000 0.571234655656 -0.0168850480102
223116000 0.571080236091 -0.0165780738034
223119000 0.571262791976 -0.0164860690548
223122000 0.570940510575 -0.0161782711374
223125000 0.57134737594 -0.0166405226168
223128000 0.571199763046 -0.0163513534038
223131000 0.57124046036 -0.0162277042108
223134000 0.570999331271 -0.0159503685683
223137000 0.571155314534 -0.0164076276032
223140000 0.571116087249 -0.0162067802686
223143000 0.571092902662 -0.0160746328815
223146000 0.57102136454 -0.0159297573953
223149000 0.570966682665 -0.0161186349651
223152000 0.570969955658 -0.0159934517661
223155000 0.571350145917 -0.0158599787294
223158000 0.571170306474 -0.0159262621311
223161000 0.571014351622 -0.0159561088658
223164000 0.571111111059 -0.0160790169131
223167000 0.571040200245 -0.0162284349412
223170000 0.57135610595 -0.0159562404629
223173000 0.571012562666 -0.0157819308548
223176000 0.57125671376 -0.0159784139344
223179000 0.571460404623 -0.0159231787523
223182000 0.571430693908 -0.0159079930738
223185000 0.571139274969 -0.0154683820574
223188000 0.571368515704 -0.0160676095641
223191000 0.571307118454 -0.0158391417084
223194000 0.571357520093 -0.015677126315
223197000 0.571131639731 -0.0152093636735
223200000 0.571398550123 -0.0157746966394
223203000 0.571045226726 -0.015360146894
223206000 0.571010833681 -0.0156379299474
223209000 0.571417515801 -0.0156528556736
223212000 0.571259540434 -0.0152917843207
223215000 0.571145295239 -0.0152042648091
223218000 0.571018531674 -0.0155136076472
223221000 0.571550821247 -0.0156790992144
223224000 0.571380250466 -0.015156803334
223227000 0.571030915992 -0.014879410406
223230000 0.571068227219 -0.0152008411492
223233000 0.571379841224 -0.0156119639952
223236000 0.571416127646 -0.0149216600702
223239000 0.571186413162 -0.0146944696158
223242000 0.571047937794 -0.0149655888435
223245000 0.571620284144 -0.0155894894838
223248000 0.571379646508 -0.0147955191557
223251000 0.571231653604 -0.0144765020679
223254000 0.571248592544 -0.0146485452678
223257000 0.571362905493 -0.0152319291848
223260000 0.571263757416 -0.0146539635557
223263000 0.571252741923 -0.0143562359595
223266000 0.571057492402 -0.0144736927923
223269000 0.571273748279 -0.014954087662
223272000 0.571367741988 -0.0146992520237
223275000 0.571303617663 -0.014262767041
223278000 0.571152978365 -0.0143206507312
223281000 0.571052794796 -0.014699198128
223284000 0.571442400715 -0.0147015086384
223287000 0.571420040353 -0.0142735309379
223290000 0.571196437898 -0.0141810870146
223293000 0.571057653822 -0.014424868667
223296000 0.571483750568 -0.0147108139161
223299000 0.571430138466 -0.0141531266127
223302000 0.571179312759 -0.01393416339
223305000 0.571070095882 -0.0143153130913
223308000 0.571524190971 -0.014695772776
223311000 0.571460663748 -0.014033746505
223314000 0.5711601159 -0.0137471023036
223317000 0.571226035182 -0.0141071194397
223320000 0.571691491548 -0.0146834923388
223323000 0.571417756623 -0.0138179939853
223326000 0.571203733425 -0.0135610767515
223329000 0.571246015604 -0.0138011920554
223332000 0.571403391458 -0.0144040578136
223335000 0.571479765647 -0.0137530833598
223338000 0.571451067667 -0.0134264597435
223341000 0.571237993293 -0.0136608517087
223344000 0.571405753731 -0.0140984798227
223347000 0.57161345423 -0.0138085460555
223350000 0.571441791504 -0.0133763835503
223353000 0.571325789802 -0.0134547701372
223356000 0.571408197501 -0.0139040951277
223359000 0.571609395259 -0.0137943961471
223362000 0.571671920326 -0.0133434150759
223365000 0.571446912825 -0.0132431916429
223368000 0.571358612178 -0.0135599715756
223371000 0.571657223079 -0.0138176597304
223374000 0.571529637505 -0.0132528192001
223377000 0.571298258933 -0.0130429897698
223380000 0.571305925242 -0.013275479938
223383000 0.57166176573 -0.0137520645468
223386000 0.571538805645 -0.0130578720543
223389000 0.571400921364 -0.0127652154518
223392000 0.5713221584 -0.0129768672858
223395000 0.571662290323 -0.0136835376965
223398000 0.571487314661 -0.0128457850043
223401000 0.571222341512 -0.0125764641761
223404000 0.571325137472 -0.0128202832664
223407000 0.571536370986 -0.0133146476528
223410000 0.571544229628 -0.0127935221226
223413000 0.571515826856 -0.0124635564881
223416000 0.571447038796 -0.0127590511676
223419000 0.571658863088 -0.0131790287531
223422000 0.571681145347 -0.0129166826398
223425000 0.571652616325 -0.0124749815413
223428000 0.571422005923 -0.0125245470428
223431000 0.571475732133 -0.0130044632471
223434000 0.571761611628 -0.0129832417954
223437000 0.57181757743 -0.0124310421348
223440000 0.571617289517 -0.0123469105415
223443000 0.571564848355 -0.0126824415591
223446000 0.571879031666 -0.012840724725
223449000 0.571825573867 -0.0123814924843
223452000 0.571596189804 -0.0121222195229
223455000 0.571591513991 -0.0124266288394
223458000 0.571860055341 -0.012838066515
223461000 0.571911970305 -0.0122391414791
223464000 0.571532524828 -0.0119714367628
223467000 0.571590596755 -0.0121436835299
223470000 0.571818481201 -0.0128768915483
223473000 0.571724346325 -0.0120436485744
223476000 0.571574182172 -0.0116923431639
223479000 0.571478431753 -0.0120797124117
223482000 0.571817320742 -0.0126022380471
223485000 0.571794544986 -0.01200743141
223488000 0.571660533963 -0.0116141406832
223491000 0.571461572828 -0.0118774986615
223494000 0.57168432657 -0.0123809930314
223497000 0.571903361026 -0.0120173737349
223500000 0.571678519568 -0.0116137207678
223503000 0.571873949985 -0.0119720081015
223506000 0.571917965146 -0.0118870524698
223509000 0.57168600242 -0.0114570769011
223512000 0.571673048209 -0.0118796003017
223515000 0.571852273682 -0.011730954271
223518000 0.571907981465 -0.0116556742741
223521000 0.571710293942 -0.0112550776246
223524000 0.571743404947 -0.0116082845475
223527000 0.571847601504 -0.0116041775147
223530000 0.571918405351 -0.0113557826937
223533000 0.571964877166 -0.0111962024268
223536000 0.57182485581 -0.011359195639
223539000 0.571906401425 -0.0115834852695
223542000 0.571992684748 -0.0113511180354
223545000 0.571902776222 -0.0112123429502
223548000 0.571732446072 -0.011131423469
223551000 0.572061461193 -0.0116833144747
223554000 0.571876693036 -0.0114339248572
223557000 0.571903956209 -0.0113073502814
223560000 0.571769279005 -0.0110717533432
223563000 0.571977925645 -0.0115616592603
223566000 0.572057794693 -0.0113225854729
223569000 0.572195936735 -0.011215570482
223572000 0.571912664521 -0.010817949474
223575000 0.572052338468 -0.0113599527621
223578000 0.572105224113 -0.0110643766379
223581000 0.572305145453 -0.0109854256803
223584000 0.571947627147 -0.0105794386094
223587000 0.572077669842 -0.0111002441351
223590000 0.572101061 -0.0110192819841
223593000 0.572308764581 -0.0107716445598
223596000 0.572039753692 -0.0104184312595
223599000 0.572086455625 -0.0107683667668
223602000 0.57216785278 -0.0109292719657
223605000 0.572248182791 -0.0106556953093
223608000 0.57206125173 -0.0103247660318
223611000 0.572052350547 -0.0105625368916
223614000 0.572113535905 -0.0108815975529
223617000 0.572272096145 -0.0106185909557
223620000 0.572247160615 -0.0104154817944
223623000 0.57218180927 -0.01040770674
223626000 0.57228604197 -0.0109015904177
223629000 0.572286836988 -0.0106375140798
223632000 0.572320137839 -0.0104669443309
223635000 0.572068180875 -0.0101981560386
223638000 0.57227493377 -0.0107681752368
223641000 0.572410317923 -0.010508192642
223644000 0.572344946955 -0.0103361606789
223647000 0.572180360027 -0.00999412263916
223650000 0.57232512532 -0.0105347238583
223653000 0.572375212436 -0.010320819707
223656000 0.572381182207 -0.0101544877569
223659000 0.572096759568 -0.0097435032614
223662000 0.572258793136 -0.010266105907
223665000 0.572360646215 -0.0100642765591
223668000 0.572366515934 -0.0098933453274
223671000 0.572275734344 -0.00956970741744
223674000 0.572209109808 -0.0099575044717
223677000 0.572267567585 -0.00999032193175
223680000 0.57237980258 -0.00978276027219
223683000 0.572305022114 -0.00959572739584
223686000 0.572117075176 -0.00967554814456
223689000 0.57221385749 -0.00993947792177
223692000 0.572383780908 -0.00984411059795
223695000 0.572365736991 -0.00968748536495
223698000 0.572383011831 -0.00950627438792
223701000 0.572367716588 -0.010004543202
223704000 0.572455592668 -0.0097517978429
223707000 0.572397334777 -0.00965452488053
223710000 0.572225436487 -0.00932918100111
223713000 0.572491832983 -0.00991757094903
223716000 0.572505600241 -0.0096404998643
223719000 0.572441918881 -0.00952781847469
223722000 0.572250133826 -0.00912227527278
223725000 0.572610907923 -0.00968574262564
223728000 0.572392875231 -0.00944607930938
223731000 0.572437226682 -0.00918527644191
223734000 0.572527062087 -0.00876444447614
223737000 0.572426272909 -0.00931908955098
223740000 0.572431759678 -0.00916097231086
223743000 0.572572981642 -0.00897741953449
223746000 0.572407588364 -0.0086418484193
223749000 0.572429241562 -0.00894544378876
223752000 0.572312381414 -0.00899242730592
223755000 0.572523324445 -0.00879373149966
223758000 0.572395916202 -0.00864922445725
223761000 0.572174801506 -0.00879528527087
223764000 0.572326551617 -0.00906363317868
223767000 0.572437928001 -0.0088185806954
223770000 0.572316032512 -0.0086132558648
223773000 0.572190444021 -0.00854032199935
223776000 0.572431042615 -0.00910317139137
223779000 0.57254647453 -0.00879870907263
223782000 0.572543276194 -0.00871696514302
223785000 0.572336403962 -0.00827646219728
223788000 0.572377853495 -0.00898750511986
223791000 0.572528462485 -0.00868468070129
223794000 0.572636553772 -0.00851408118299
223797000 0.572475400604 -0.00815747842766
223800000 0.572497857375 -0.00855333238832
223803000 0.572385534637 -0.00821035391628
223806000 0.572494140742 -0.00843362247778
223809000 0.572711409669 -0.00843531446677
223812000 0.572595076846 -0.00840036966857
223815000 0.572317456209 -0.00798067705905
223818000 0.572595276008 -0.00838330419818
223821000 0.572649506301 -0.00826689288517
223824000 0.572729930017 -0.00822962161136
223827000 0.572560419432 -0.00769359957444
223830000 0.572642746543 -0.00838489568686
223833000 0.572629332669 -0.00801967401437
223836000 0.572710164413 -0.00802622084288
223839000 0.57263314708 -0.0076004609116
223842000 0.572777539309 -0.00811125938324
223845000 0.572666237604 -0.00792156388171
223848000 0.572804675435 -0.00782775857758
223851000 0.572686387777 -0.00741501025854
223854000 0.572701615412 -0.00782049772414
223857000 0.572694570021 -0.0077119436283
223860000 0.572810289507 -0.00760636225603
223863000 0.57275904583 -0.00748713919479
223866000 0.572660454499 -0.00763467853887
223869000 0.572671041384 -0.00753401451171
223872000 0.572688798148 -0.00765454196081
223875000 0.572766741236 -0.00741722842667
223878000 0.572719117519 -0.00735436963398
223881000 0.572700351169 -0.00753712169873
223884000 0.572852044769 -0.00755682639119
223887000 0.572850852379 -0.00746435719798
223890000 0.572685814297 -0.0071326682734
223893000 0.572804036433 -0.00753441244632
223896000 0.572774203592 -0.00743686709034
223899000 0.572865393454 -0.00737939148359
223902000 0.572860778778 -0.00686841448041
223905000 0.572833493479 -0.00739764709803
223908000 0.572798548965 -0.00711606981488
223911000 0.572846632851 -0.00716936815928
223914000 0.573020468825 -0.00655690129845
223917000 0.572893651385 -0.00724906341061
223920000 0.572803219395 -0.00691894272298
223923000 0.573079772508 -0.00681339772157
223926000 0.572993301439 -0.00654771842887
223929000 0.572937273033 -0.00690628140877
223932000 0.573072990112 -0.00665347463126
223935000 0.573136359906 -0.00669293526818
223938000 0.573024056361 -0.00644005799457
223941000 0.57290024574 -0.00666316758009
223944000 0.573081385023 -0.00651794063854
223947000 0.573117336639 -0.00662603423116
223950000 0.573094794606 -0.00650744666613
223953000 0.57294919914 -0.00638514376269
223956000 0.57301881466 -0.00645455683513
223959000 0.573113125501 -0.00654520272222
223962000 0.573168356937 -0.00640793257681
223965000 0.572960760203 -0.00602398025826
223968000 0.573050989208 -0.00645977059454
223971000 0.573149665929 -0.00633974867469
223974000 0.573279975081 -0.0063369275355
223977000 0.573079611501 -0.00578939151199
223980000 0.573161005157 -0.00642351732471
223983000 0.573252119814 -0.0061356902607
223986000 0.573262272281 -0.00615623960809
223989000 0.573127509548 -0.00561902586292
223992000 0.573295722985 -0.00619009082529
223995000 0.573290840001 -0.00593319538502
223998000 0.573272806412 -0.00588172738705
224001000 0.573292353199 -0.00549017524094
224004000 0.573236439599 -0.00586194708776
224007000 0.573164748202 -0.00572804482201
224010000 0.573222265161 -0.00571036936885
224013000 0.573330220032 -0.00555953274641
224016000 0.57320166331 -0.00576826958608
224019000 0.573270948078 -0.00568756638509
224022000 0.573249638691 -0.00567986956422
224025000 0.573299438871 -0.00552934931351
224028000 0.573257715202 -0.00536463128769
224031000 0.573251292358 -0.00559169676498
224034000 0.573461250889 -0.00559727740228
224037000 0.573357731809 -0.00558021618944
224040000 0.573332836145 -0.00516428283553
224043000 0.573353896242 -0.00563413647154
224046000 0.57345722905 -0.00553443989556
224049000 0.57344000085 -0.00547147859228
224052000 0.573497916619 -0.00497885434473
224055000 0.573493108962 -0.00554220053783
224058000 0.573573138789 -0.00531607848965
224061000 0.573572963455 -0.00519289589229
224064000 0.573509497729 -0.00476179383683
224067000 0.573505498614 -0.00536107341571
224070000 0.573710583034 -0.00505109411068
224073000 0.573607564721 -0.0049000014988
224076000 0.573719411809 -0.00456913080671
224079000 0.573536286196 -0.00499740004725
224082000 0.573587310298 -0.00479323636545
224085000 0.573747029687 -0.00472931354929
224088000 0.573632609234 -0.00454386585187
224091000 0.573633132204 -0.00478959078756
224094000 0.57368640502 -0.00468668286782
224097000 0.573883787887 -0.00474246364502
224100000 0.57382811109 -0.00453154346727
224103000 0.573742124826 -0.00477154730842
224106000 0.573990128602 -0.00476933711459
224109000 0.574070663202 -0.00445472751469
224112000 0.573918915315 -0.00434441185045
224115000 0.573815823698 -0.00440492676427
224118000 0.574057197247 -0.00478832517969
224121000 0.574087493555 -0.00415262949048
224124000 0.573823864659 -0.00406136880972
224127000 0.573805304626 -0.00421900382394
224130000 0.574066086059 -0.00477938325192
224133000 0.573997629797 -0.00391731812753
224136000 0.573912383629 -0.00397721087606
224139000 0.573835106337 -0.00392596900494
224142000 0.573987635872 -0.00474521113335
224145000 0.574018548563 -0.00381249413298
224148000 0.574005419837 -0.00396074460964
224151000 0.574008175814 -0.00383890337861
224154000 0.574026917142 -0.00453151285844
224157000 0.573988186226 -0.00362371770411
224160000 0.574050806552 -0.00397938086976
224163000 0.574099486932 -0.00357038138888
224166000 0.574058823212 -0.00411562470188
224169000 0.574122074043 -0.00371150091332
224172000 0.574125772583 -0.00370208402365
224175000 0.573996226879 -0.00338096348585
224178000 0.574133054067 -0.00388664013446
224181000 0.574307669873 -0.0038120919466
224184000 0.574458549045 -0.00351524967721
224187000 0.574221487355 -0.00326853213443
224190000 0.574155105025 -0.0034723963695
224193000 0.574428821237 -0.00381879565121
224196000 0.574364337059 -0.00319871348632
224199000 0.574318275357 -0.00320514941673
224202000 0.574240028027 -0.00329777410713
224205000 0.574443443309 -0.00382417629373
224208000 0.574469275344 -0.00303251761448
224211000 0.574287337567 -0.00314763872416
224214000 0.574227461481 -0.0030505194327
224217000 0.574249161743 -0.00389304015941
224220000 0.57432086956 -0.00286942326613
224223000 0.574446781187 -0.0030652911313
224226000 0.574385398331 -0.00295869585014
224229000 0.574383937727 -0.00366454204001
224232000 0.574880416586 -0.00333316545599
224235000 0.577481168772 -0.00174125482135
224238000 0.574318350647 -0.00267385888538
224241000 0.581773600757 -0.00347653755945
224244000 0.575125869561 -0.00273890756645
224247000 0.57704074763 -0.00158092072002
224250000 0.574576308757 -0.00242939438723
224253000 0.575347189079 -0.00575465053111
224256000 0.574980204886 -0.00358374954417
224259000 0.57481950467 -0.00241914239968
224262000 0.574489226936 -0.00235769996142
224265000 0.574568922072 -0.00250230936706
224268000 0.574684201392 -0.00293304648114
224271000 0.57472632749 -0.00220999828547
224274000 0.574676728775 -0.00229230338988
224277000 0.574739771336 -0.00241455341583
224280000 0.574932848787 -0.00303167428546
224283000 0.574858990365 -0.00214586363537
224286000 0.574821185139 -0.00232830831545
224289000 0.574790738934 -0.00217387675368
224292000 0.57487561315 -0.00288526370826
224295000 0.57497963345 -0.00211263657387
224298000 0.574962487818 -0.00223265962333
224301000 0.574760845495 -0.00211288447498
224304000 0.574894421068 -0.00285317367769
224307000 0.575009846111 -0.00204175779964
224310000 0.575171278398 -0.00231822157984
224313000 0.574959780232 -0.00202444188063
224316000 0.574749042639 -0.00261976498348
224319000 0.575174147703 -0.00207248844813
224322000 0.575153220183 -0.00205915082442
224325000 0.574976615509 -0.0017504239957
224328000 0.575071796055 -0.00216595186717
224331000 0.575254838343 -0.00209255193357
224334000 0.57526352675 -0.00178297441934
224337000 0.575126483303 -0.00164406065544
224340000 0.575123423312 -0.00171624494412
224343000 0.575252415083 -0.00209471046976
224346000 0.575323980427 -0.00155460801283
224349000 0.575197867503 -0.00136998121283
224352000 0.575116723481 -0.00153338019585
224355000 0.575367298668 -0.0021421467193
224358000 0.575460284835 -0.00128663837945
224361000 0.575407413252 -0.00136692647502
224364000 0.575392395428 -0.00134183104756
224367000 0.5754723383 -0.00209218563057
224370000 0.575524056476 -0.00120388344395
224373000 0.575498381679 -0.00134959648014
224376000 0.575332012469 -0.00124262664782
224379000 0.575416782158 -0.00188690582005
224382000 0.575587858546 -0.00105413845985
224385000 0.575551010913 -0.00139794143348
224388000 0.57546682053 -0.00100729131354
224391000 0.575411449953 -0.00170800538847
224394000 0.575618383664 -0.00114788698689
224397000 0.5757332526 -0.00117882411297
224400000 0.575480351891 -0.000878356284115
224403000 0.575640234649 -0.000909870047251
224406000 0.575474253447 -0.00096179968935
224409000 0.575507542663 -0.00110235793779
224412000 0.575594362819 -0.0011520792033
224415000 0.575622773779 -0.00110850613485
224418000 0.575497194607 -0.000715039832546
224421000 0.575610323529 -0.00106607496095
224424000 0.575715525716 -0.00111229786644
224427000 0.575597933022 -0.00094993902446
224430000 0.575412923212 -0.000520236271856
224433000 0.575536528713 -0.00100256813661
224436000 0.575684878135 -0.000870999281346
224439000 0.575757685369 -0.00087223721526
224442000 0.57568090399 -0.000384305818649
224445000 0.575672950765 -0.00086898872538
224448000 0.575788441573 -0.000641143206755
224451000 0.5757354691 -0.000477595191449
224454000 0.575954821833 -6.25009669959e-05
224457000 0.575804007645 -0.000552718472262
224460000 0.575758569251 -0.00045400434921
224463000 0.575876852433 -0.000320139254899
224466000 0.57600840027 -7.57337720835e-05
224469000 0.576002032157 -0.000383062292923
224472000 0.575962078321 -0.000243887525628
224475000 0.576025664097 -0.000205304810439
224478000 0.576122309837 -0.000100114840259
224481000 0.575972697786 -0.000155624143045
224484000 0.576011381593 -0.000202449627428
224487000 0.576142013068 -0.000213389451424
224490000 0.576219459578 -0.000216594960885
224493000 0.576058482054 5.41133851719e-05
224496000 0.576148225645 -0.000238645494216
224499000 0.576195838106 -0.00020095581698
224502000 0.57618402357 -0.000173456416502
224505000 0.576131937579 0.000385976259993
224508000 0.576116344567 -0.000116976528383
224511000 0.576207689363 -6.15273444412e-05
224514000 0.576281680813 2.08573490852e-05
224517000 0.576326302587 0.000443262881855
224520000 0.576270550111 -6.93107411194e-05
224523000 0.576243496719 0.000249577861236
224526000 0.576271554692 0.000292891648097
224529000 0.576292987796 0.000649722348566
224532000 0.576179209948 0.000258851984634
224535000 0.576245019141 0.000387490197603
224538000 0.576429158022 0.000619128998211
224541000 0.576458833852 0.000792104666111
224544000 0.576394570369 0.000449000726771
224547000 0.576408649344 0.000521790206734
224550000 0.57640783316 0.000576933536609
224553000 0.576458056257 0.000677593829509
224556000 0.576343642485 0.000637639088561
224559000 0.576362748672 0.000577046839274
224562000 0.576664989907 0.000470789737485
224565000 0.576671224503 0.000531458235391
224568000 0.576501745758 0.000850487499975
224571000 0.576429426182 0.000523782908522
224574000 0.576721416058 0.000640160203367
224577000 0.576701283481 0.000635011476949
224580000 0.576570809103 0.00102550808901
224583000 0.576569863811 0.00061870575456
224586000 0.576694210277 0.000815335631382
224589000 0.57674960454 0.000783380778153
224592000 0.576709196042 0.00127329248178
224595000 0.57666206955 0.000771147781756
224598000 0.576788724387 0.00103900800681
224601000 0.576756764782 0.00111283490835
224604000 0.576752992862 0.00156328708102
224607000 0.57679000953 0.00106126399381
224610000 0.576694461528 0.00126357250954
224613000 0.57693945018 0.00123707008588
224616000 0.577021263353 0.00160118544629
224619000 0.576824397801 0.0012859323913
224622000 0.576893973819 0.00139404848918
224625000 0.577027721148 0.0013737150427
224628000 0.576955359059 0.00147872570558
224631000 0.577012930372 0.00166505535939
224634000 0.576921847358 0.00147559268275
224637000 0.576985801228 0.00144494461083
224640000 0.577102636724 0.00152573357503
224643000 0.577027748566 0.00186361160776
224646000 0.576934537917 0.00154061673427
224649000 0.577003802301 0.001518307051
224652000 0.577062956584 0.0015967966999
224655000 0.576931712955 0.00208070073182
224658000 0.576939704664 0.00158941287865
224661000 0.577168941534 0.00174557796276
224664000 0.577190066171 0.00178604783335
224667000 0.577150389894 0.00218404359293
224670000 0.577117433997 0.00180078112854
224673000 0.577227437281 0.00195462397236
224676000 0.577225829813 0.00206005643277
224679000 0.57740661114 0.00235133569131
224682000 0.577260787094 0.00197342181032
224685000 0.577316755979 0.00211200450631
224688000 0.57732439169 0.00228318971355
224691000 0.577553380483 0.00259660330724
224694000 0.577335650987 0.00230490790592
224697000 0.577407295289 0.00235410575822
224700000 0.577432404686 0.00242183843243
224703000 0.577285982351 0.00222855365076
224706000 0.577414658554 0.00168438674243
224709000 0.577770921922 0.00304302637235
224712000 0.577480328759 0.00292322070472
224715000 0.577533929389 0.00252400567307
224718000 0.577515648408 0.00179660529745
224721000 0.577832341725 0.00305579537771
224724000 0.577747530412 0.00304907227243
224727000 0.577505107075 0.00267999814602
224730000 0.577482553265 0.00200691911089
224733000 0.57780041967 0.002742144209
224736000 0.577835783703 0.00326477635414
224739000 0.57758007428 0.00279562269142
224742000 0.577597252138 0.00219982278288
224745000 0.577835744197 0.00256519872435
224748000 0.578011548715 0.00341632963443
224751000 0.577541301255 0.00300263131372
224754000 0.577681458078 0.00257603793636
224757000 0.578095296476 0.0023848496593
224760000 0.578187214943 0.00365180055016
224763000 0.577984628425 0.00324096276013
224766000 0.577957832896 0.0028501478
224769000 0.578092221848 0.00239299804479
224772000 0.578376330837 0.00377320228468
224775000 0.578220180737 0.00340194497803
224778000 0.577962182258 0.00308669607369
224781000 0.57803020453 0.00257280341648
224784000 0.578531356914 0.00376914331971
224787000 0.578170428987 0.00372647729822
224790000 0.578015402519 0.0035032805244
224793000 0.578036950086 0.0027777953323
224796000 0.57843769282 0.0039699487171
224799000 0.578374621389 0.00401294099755
224802000 0.578153650493 0.0036631768822
224805000 0.578123687588 0.00288163297744
224808000 0.578553749031 0.00370054823586
224811000 0.578435997585 0.00418408088084
224814000 0.578191054157 0.00375673245021
224817000 0.578132628099 0.00317626469338
224820000 0.578581456012 0.00351298064602
224823000 0.578695004349 0.00429104874066
224826000 0.578311157003 0.00388360682775
224829000 0.578264124817 0.00344585575536
224832000 0.578661696299 0.0032291210094
224835000 0.578797153253 0.00450872207543
224838000 0.578444269103 0.00412794973988
224841000 0.578519164199 0.00383551886294
224844000 0.578583749139 0.00335879430688
224847000 0.578927272733 0.00458278984334
224850000 0.578631155379 0.0043573356921
224853000 0.578689591762 0.00399251694716
224856000 0.578650979737 0.00352741763878
224859000 0.579003921311 0.00460946492516
224862000 0.578835597121 0.00458686434267
224865000 0.578631699144 0.00417461610875
224868000 0.57870720276 0.00353910745765
224871000 0.579203143997 0.00464415440807
224874000 0.578959836683 0.00479347071744
224877000 0.57870330674 0.00443909958146
224880000 0.578690926552 0.00370031957543
224883000 0.579109363224 0.00449374415436
224886000 0.57908403838 0.00502482870161
224889000 0.578790191782 0.00454230073837
224892000 0.578871513373 0.00403439296873
224895000 0.579274380779 0.00432184820178
224898000 0.579476713882 0.00521458467225
224901000 0.5790259257 0.00473031614326
224904000 0.578951439494 0.00432086506281
224907000 0.579315032558 0.00418311570949
224910000 0.579650735869 0.0052720113361
224913000 0.579187670344 0.00501761401836
224916000 0.579127674174 0.00467395156971
224919000 0.579372372476 0.00413878907578
224922000 0.579772911176 0.0054685770069
224925000 0.579413405732 0.00523699275699
224928000 0.579210064189 0.00488477061528
224931000 0.579404320452 0.00416819745825
224934000 0.579872105701 0.00553271242122
224937000 0.579528361548 0.00551382168823
224940000 0.579343778563 0.00515649003899
224943000 0.579423350864 0.00443114155843
224946000 0.579768269312 0.00554603462618
224949000 0.579688783315 0.00567268799873
224952000 0.579470182339 0.00525948398486
224955000 0.579415703465 0.00453212359897
224958000 0.579917528105 0.00530270229616
224961000 0.579871207006 0.0058600424369
224964000 0.579578157766 0.00546418505034
224967000 0.579468527697 0.00491259073418
224970000 0.579896472158 0.00515823371698
224973000 0.580168397154 0.00602081650007
224976000 0.579601185034 0.00556990488462
224979000 0.579701090319 0.00516684343537
224982000 0.579887339357 0.00494132980415
224985000 0.580233810049 0.00614194008958
224988000 0.579843557513 0.00583048158556
224991000 0.579780907065 0.00556813122626
224994000 0.579870937841 0.00501595613933
224997000 0.580370456196 0.00628455443028
225000000 0.580107100854 0.00605705618416
