! Calibrated averaged scanner-service zoom
# Hz S RI R 50
902000000 0.820002755813 -0.141669848196
902013000 0.821222832952 -0.141339859936
902026000 0.818146631914 -0.139612745018
902039000 0.818472377955 -0.141332262728
902052000 0.817352635131 -0.140714942665
902065000 0.818769796027 -0.138656446241
902078000 0.81939518047 -0.14021332783
902091000 0.820325036282 -0.138907929727
902104000 0.821695118322 -0.140705106493
902117000 0.820372060503 -0.141428422642
902130000 0.819860604687 -0.140815861698
902143000 0.817692228691 -0.138845469759
902156000 0.818206603353 -0.139182504876
902169000 0.81606191146 -0.139369192368
902182000 0.81638948723 -0.140542879782
902195000 0.818852100751 -0.142050998868
902208000 0.81724431369 -0.140520409714
902221000 0.818149658518 -0.137728410056
902234000 0.816477732085 -0.138848373535
902247000 0.81773762607 -0.139870175349
902260000 0.818838158167 -0.140164990343
902273000 0.818713199451 -0.13925839527
902286000 0.818756255463 -0.141020213661
902299000 0.818621934889 -0.14251057858
902312000 0.818230829418 -0.140377725398
902325000 0.819652815768 -0.138914610172
902338000 0.820446509791 -0.140772993394
902351000 0.821664288513 -0.138819474858
902364000 0.81986358739 -0.138285167425
902377000 0.819656322718 -0.137587750108
902390000 0.818353433532 -0.139318542048
902403000 0.818159580211 -0.137805713631
902416000 0.818649298804 -0.138274470946
902429000 0.820179990557 -0.13905290175
902442000 0.819112270616 -0.139702384891
902455000 0.815058191519 -0.139443117539
902468000 0.815573018012 -0.139231405209
902481000 0.817842740152 -0.139047336519
902494000 0.820030271572 -0.1396452778
902507000 0.817869797732 -0.138689459204
902520000 0.816506299976 -0.140243171818
902533000 0.819662720757 -0.142246536495
902546000 0.818856285118 -0.13985179805
902559000 0.821017075661 -0.139805626602
902572000 0.817857156432 -0.140340350089
902585000 0.819099174329 -0.139655114505
902598000 0.820869561334 -0.140602690728
902611000 0.820201183144 -0.140214845398
902624000 0.81830106511 -0.138784087775
902637000 0.815783516887 -0.137252390036
902650000 0.817094985932 -0.138351117741
902663000 0.818358970645 -0.138593322012
902676000 0.816066578992 -0.137999198897
902689000 0.817423040974 -0.137663852202
902702000 0.818147937325 -0.137300681297
902715000 0.815779991287 -0.135905609454
902728000 0.818698423899 -0.138750085021
902741000 0.817081038924 -0.139967558948
902754000 0.816236013491 -0.13938257278
902767000 0.816939469041 -0.141028314381
902780000 0.813863207569 -0.143582412089
902793000 0.815394884257 -0.138526507485
902806000 0.816849767791 -0.154990308648
902819000 0.818975596901 -0.140502134739
902832000 0.8193168113 -0.139813486541
902845000 0.815922132738 -0.140368747539
902858000 0.815736695699 -0.143133092863
902871000 0.820271974819 -0.141034271028
902884000 0.819600647187 -0.138794235188
902897000 0.816851254212 -0.141608720343
902910000 0.817311804788 -0.139978816937
902923000 0.819774518637 -0.141749421245
902936000 0.818613058424 -0.139969096191
902949000 0.817769870794 -0.139703997561
902962000 0.815560229343 -0.142159153072
902975000 0.818961185091 -0.139321159068
902988000 0.820109391318 -0.138742739989
903001000 0.819810235386 -0.138835029051
903014000 0.81942058372 -0.144082160791
903027000 0.820495141683 -0.143558625339
903040000 0.821086602391 -0.141893300087
903053000 0.821312773677 -0.142897807442
903066000 0.819239936376 -0.137398394195
903079000 0.818321689305 -0.139945533636
903092000 0.820563625205 -0.139708845929
903105000 0.821616280912 -0.139651218411
903118000 0.816848275872 -0.139914792287
903131000 0.818023541941 -0.142891329182
903144000 0.816277713263 -0.139879126158
903157000 0.815738345168 -0.140948743004
903170000 0.816606693982 -0.140840015998
903183000 0.817617829681 -0.142346688399
903196000 0.819630579012 -0.139879323787
903209000 0.818105083172 -0.139870914967
903222000 0.816619812155 -0.141666738075
903235000 0.813797763248 -0.147312414458
903248000 0.813859194145 -0.142145041053
903261000 0.819938225073 -0.143825682987
903274000 0.819012744157 -0.141005925656
903287000 0.818340035315 -0.142505208962
903300000 0.814682379318 -0.141170585077
903313000 0.816586564158 -0.143653409106
903326000 0.817713757305 -0.140219016396
903339000 0.816818641564 -0.140519110696
903352000 0.817932853641 -0.14139818567
903365000 0.819038796576 -0.142373983166
903378000 0.816930516621 -0.141200034226
903391000 0.820958448109 -0.141765789517
903404000 0.817102069527 -0.138802731863
903417000 0.818817379754 -0.13886403035
903430000 0.817038624291 -0.141844761754
903443000 0.816999078952 -0.140496698638
903456000 0.817061341551 -0.1411619061
903469000 0.818630721321 -0.14383585511
903482000 0.811790464382 -0.163206589974
903495000 0.820063810665 -0.142932170237
903508000 0.815953026379 -0.142416020174
903521000 0.818964847166 -0.140504242684
903534000 0.819589081946 -0.140182340019
903547000 0.819149583196 -0.143156669118
903560000 0.817094946479 -0.141229795228
903573000 0.816086744677 -0.141150670598
903586000 0.816658200328 -0.144804650773
903599000 0.815037572567 -0.141447689602
903612000 0.815032267633 -0.141572361524
903625000 0.817855687514 -0.141030985855
903638000 0.816833394602 -0.141222423585
903651000 0.818294594608 -0.137628988662
903664000 0.817116283695 -0.140487060571
903677000 0.816161405279 -0.140482872805
903690000 0.81667067023 -0.141446140057
903703000 0.813134483389 -0.140777057602
903716000 0.815908321509 -0.143383674215
903729000 0.818001406207 -0.142080068024
903742000 0.818966775061 -0.142035278581
903755000 0.819581521557 -0.1432456247
903768000 0.820772120117 -0.143121895135
903781000 0.819261183017 -0.141356693391
903794000 0.818640324406 -0.141079856359
903807000 0.816438293296 -0.142739524146
903820000 0.817665766647 -0.139910318124
903833000 0.816519932944 -0.139376100706
903846000 0.81768108739 -0.139133424191
903859000 0.814740225831 -0.141096670341
903872000 0.817543120483 -0.142549898578
903885000 0.815654780448 -0.14155650035
903898000 0.816807045062 -0.141332808216
903911000 0.816419504228 -0.139556793617
903924000 0.814627202843 -0.142384313463
903937000 0.81809603817 -0.143021250225
903950000 0.817171106405 -0.140323372623
903963000 0.819189278425 -0.139294749008
903976000 0.818099651615 -0.140551269409
903989000 0.817602888492 -0.138621209699
904002000 0.81953402414 -0.139342545104
904015000 0.816429248783 -0.139799384705
904028000 0.816572056491 -0.141845435732
904041000 0.814165573959 -0.140310943782
904054000 0.81673007319 -0.139888485768
904067000 0.81719169978 -0.139662733211
904080000 0.816030148942 -0.140052347006
904093000 0.816800902256 -0.141216272056
904106000 0.818371339356 -0.140963486974
904119000 0.815292172474 -0.141336770311
904132000 0.8167825011 -0.142178281845
904145000 0.815499999817 -0.142264750581
904158000 0.817107658642 -0.137523501897
904171000 0.818284384015 -0.139766934743
904184000 0.815522684603 -0.141601914473
904197000 0.815904522852 -0.140488165062
904210000 0.816943331071 -0.141750711613
904223000 0.813620208049 -0.142359912915
904236000 0.816782253428 -0.141743376646
904249000 0.817054337006 -0.143843112594
904262000 0.817012930697 -0.141230380154
904275000 0.81515404046 -0.141453536546
904288000 0.81742090636 -0.143314744227
904301000 0.816054780295 -0.140891510649
904314000 0.816043324578 -0.143287189664
904327000 0.813486440125 -0.141693187621
904340000 0.819102090571 -0.139274351377
904353000 0.817980824863 -0.142918766416
904366000 0.819029028742 -0.140393972248
904379000 0.81631622119 -0.142624200583
904392000 0.81943253375 -0.138916185161
904405000 0.818494954698 -0.138856335797
904418000 0.820597644613 -0.139312974101
904431000 0.815747744105 -0.140735349559
904444000 0.816313951443 -0.140588063649
904457000 0.818286556913 -0.142451750997
904470000 0.817880958382 -0.142048348083
904483000 0.818079152076 -0.142806299761
904496000 0.81682791597 -0.141131747022
904509000 0.816832685279 -0.139153751951
904522000 0.815518144079 -0.143525248139
904535000 0.819989232782 -0.139592944189
904548000 0.815620692414 -0.141347109211
904561000 0.814544525704 -0.139816799768
904574000 0.817099889454 -0.140405135543
904587000 0.816413949154 -0.139217354652
904600000 0.81886568682 -0.139262136573
904613000 0.817281156048 -0.141493831802
904626000 0.814881739827 -0.141135854372
904639000 0.815433768919 -0.142764088917
904652000 0.816334139375 -0.140518420492
904665000 0.816159054577 -0.140999352121
904678000 0.813884233652 -0.139327368649
904691000 0.815388267397 -0.140593213242
904704000 0.817649303291 -0.14159822676
904717000 0.816479887871 -0.143990186542
904730000 0.817894823577 -0.144492078097
904743000 0.819672973371 -0.143484691294
904756000 0.817386416448 -0.143188891144
904769000 0.81490945651 -0.139981798735
904782000 0.816525636701 -0.144024809715
904795000 0.817808647962 -0.142772950623
904808000 0.81444059873 -0.14370211046
904821000 0.814685524377 -0.140978398895
904834000 0.818208374403 -0.1410124421
904847000 0.816847051756 -0.14213693557
904860000 0.818964624905 -0.142703932273
904873000 0.813083589084 -0.146241489258
904886000 0.811194704905 -0.141711232552
904899000 0.81738768287 -0.145850401563
904912000 0.81704989127 -0.139729123438
904925000 0.814622520478 -0.141050956202
904938000 0.814385704102 -0.137210372815
904951000 0.814624436483 -0.140764041487
904964000 0.818441157435 -0.141095691919
904977000 0.817452114979 -0.143626463197
904990000 0.818352982248 -0.144920067441
905003000 0.81640412954 -0.141527019128
905016000 0.816105306108 -0.143679613769
905029000 0.818121265485 -0.142102956309
905042000 0.814910523864 -0.140520666299
905055000 0.81235416157 -0.137327938343
905068000 0.815551392938 -0.139521900396
905081000 0.821340872686 -0.135564885144
905094000 0.819145661125 -0.137838870464
905107000 0.818459704589 -0.138492971334
905120000 0.81670209329 -0.143306677617
905133000 0.81857974324 -0.142708228138
905146000 0.816989740449 -0.143749720663
905159000 0.813224003014 -0.144649728188
905172000 0.815855685413 -0.144376369182
905185000 0.815997025104 -0.13990862639
905198000 0.817969126455 -0.141971713579
905211000 0.814778330799 -0.141945888933
905224000 0.816106140934 -0.141791508266
905237000 0.817089970717 -0.142320435593
905250000 0.818432332599 -0.141522844008
905263000 0.818755624102 -0.142014329092
905276000 0.819771869177 -0.143210979329
905289000 0.816213854397 -0.143056748828
905302000 0.816339448496 -0.143777184792
905315000 0.815916741743 -0.143394976688
905328000 0.816728319841 -0.142600815922
905341000 0.816525005518 -0.1409379914
905354000 0.816555590302 -0.141869319559
905367000 0.816694239763 -0.145191926295
905380000 0.814596794193 -0.146003834818
905393000 0.816501038873 -0.145319489769
905406000 0.818721894861 -0.144932746864
905419000 0.818741495087 -0.141752049655
905432000 0.815915679116 -0.140640306397
905445000 0.817746266488 -0.142724960153
905458000 0.815183952088 -0.142375112364
905471000 0.816138367768 -0.144259338777
905484000 0.819351590613 -0.142124429372
905497000 0.816726772777 -0.14309093301
905510000 0.819574711911 -0.14557372965
905523000 0.815537895044 -0.144669431716
905536000 0.816773050025 -0.144294407625
905549000 0.814122541581 -0.145153304414
905562000 0.814843957603 -0.144170468165
905575000 0.817963028822 -0.142153572997
905588000 0.816339518454 -0.140777372405
905601000 0.814792627872 -0.14384753585
905614000 0.81712164988 -0.144424423379
905627000 0.821597290628 -0.142294568095
905640000 0.816135317776 -0.140796467487
905653000 0.818198339764 -0.141535553582
905666000 0.817054762666 -0.14127434446
905679000 0.817224114255 -0.14186813746
905692000 0.817827284917 -0.142173739676
905705000 0.818040628566 -0.141518255708
905718000 0.816227188131 -0.14185525441
905731000 0.815232608122 -0.143193736855
905744000 0.813349914018 -0.146134422961
905757000 0.814082861626 -0.143266533371
905770000 0.813890415862 -0.140334046495
905783000 0.815337230005 -0.140546740762
905796000 0.819302823238 -0.142711568104
905809000 0.817974286113 -0.147076288499
905822000 0.818266633391 -0.14430878418
905835000 0.817024766803 -0.145410887176
905848000 0.819865593999 -0.141430336335
905861000 0.816961565118 -0.144117366488
905874000 0.816892747783 -0.144654672556
905887000 0.816460592709 -0.146143563788
905900000 0.817578789152 -0.143604852895
905913000 0.814826962385 -0.141242471745
905926000 0.818074186325 -0.141809163067
905939000 0.817749933326 -0.143741642476
905952000 0.81716713112 -0.143656701073
905965000 0.816144753504 -0.140637387541
905978000 0.818099584531 -0.140374032512
905991000 0.818139213443 -0.14132306184
906004000 0.820034926449 -0.139819691655
906017000 0.81931138202 -0.141870827804
906030000 0.818771852964 -0.145056370307
906043000 0.817469395212 -0.142735622645
906056000 0.815481404803 -0.143221837005
906069000 0.818082573708 -0.144164928908
906082000 0.815487147534 -0.142242016098
906095000 0.816737244384 -0.143409699963
906108000 0.815451954327 -0.142049612768
906121000 0.81755385137 -0.14343751516
906134000 0.815955406663 -0.143646600179
906147000 0.816775499137 -0.144018481645
906160000 0.81503303464 -0.142329926869
906173000 0.814678308982 -0.143383607067
906186000 0.815608790628 -0.141379540425
906199000 0.815995678939 -0.141481458459
906212000 0.818098092392 -0.140816357318
906225000 0.818002469669 -0.143871348676
906238000 0.81712864789 -0.139847306588
906251000 0.816265024144 -0.142127202408
906264000 0.815625341305 -0.145313258809
906277000 0.814150265205 -0.144128978509
906290000 0.815723028796 -0.143817789574
906303000 0.812287685894 -0.139997379711
906316000 0.813778288002 -0.143198455218
906329000 0.813930326812 -0.142575947829
906342000 0.814393865187 -0.140705942156
906355000 0.815529051902 -0.142636803157
906368000 0.816162270279 -0.140074304065
906381000 0.814700402692 -0.14283497713
906394000 0.818893967152 -0.146512996435
906407000 0.822754394766 -0.145815404559
906420000 0.819274630818 -0.142775452313
906433000 0.818500358274 -0.146280625837
906446000 0.81418898917 -0.146124285693
906459000 0.817796340003 -0.142775066986
906472000 0.817241302795 -0.153610680605
906485000 0.810634464153 -0.161483911353
906498000 0.812574656721 -0.158425242698
906511000 0.816732990782 -0.150595858764
906524000 0.818489495802 -0.146998953581
906537000 0.81700054412 -0.143928228255
906550000 0.816599683781 -0.142257526219
906563000 0.813906574911 -0.143884326331
906576000 0.815796964189 -0.142851536241
906589000 0.817470058801 -0.142512888061
906602000 0.81456269331 -0.140663935102
906615000 0.818725509767 -0.143865607078
906628000 0.817922666869 -0.143542888469
906641000 0.818944258062 -0.141317994282
906654000 0.818905187434 -0.142365660897
906667000 0.816483245039 -0.144492153772
906680000 0.815074483676 -0.143255217893
906693000 0.813237229942 -0.145650337584
906706000 0.814383962401 -0.143381163581
906719000 0.812961006463 -0.143773950411
906732000 0.815521504328 -0.144125719695
906745000 0.814543270834 -0.143401018934
906758000 0.814004398962 -0.141285120092
906771000 0.819717068615 -0.142865252189
906784000 0.816676983075 -0.142102940336
906797000 0.817163572233 -0.143918866073
906810000 0.818054102011 -0.143492600844
906823000 0.817636530259 -0.143003955195
906836000 0.814373444625 -0.145775171673
906849000 0.81435238757 -0.142220293001
906862000 0.817722551826 -0.140941303713
906875000 0.816061368332 -0.144482959128
906888000 0.817035571522 -0.142103276757
906901000 0.817900032432 -0.146628210707
906914000 0.816792737868 -0.143876102727
906927000 0.814308467255 -0.142766371476
906940000 0.816073200333 -0.147102445241
906953000 0.816386752494 -0.146727916931
906966000 0.815875730147 -0.144927048187
906979000 0.813604229477 -0.14244646652
906992000 0.816213951597 -0.145146592235
907005000 0.818041191419 -0.143199121136
907018000 0.818371445408 -0.140681527108
907031000 0.817449036676 -0.14155762963
907044000 0.813528393707 -0.142910507342
907057000 0.817541253153 -0.144026195268
907070000 0.81583610008 -0.144906596826
907083000 0.815127631578 -0.143698301701
907096000 0.815793718252 -0.144860195995
907109000 0.813925467916 -0.143110739217
907122000 0.813028506535 -0.141341644425
907135000 0.815619760294 -0.138771313655
907148000 0.815289864758 -0.140740079374
907161000 0.815392253113 -0.141914465534
907174000 0.818153497735 -0.146779873466
907187000 0.812524573896 -0.144988200721
907200000 0.813771783894 -0.144489232091
907213000 0.813948900247 -0.142006995505
907226000 0.815376443877 -0.145502866418
907239000 0.818284922318 -0.144461763139
907252000 0.815728691001 -0.142396397055
907265000 0.816465108619 -0.143613023598
907278000 0.8123855736 -0.145143162105
907291000 0.815161606909 -0.143963238759
907304000 0.814589954841 -0.140745401363
907317000 0.815188081505 -0.142666105876
907330000 0.817307766221 -0.143024749496
907343000 0.814775314581 -0.143730767455
907356000 0.815635151938 -0.145353187677
907369000 0.818382206326 -0.146112958177
907382000 0.817451722046 -0.14469975495
907395000 0.816169911784 -0.143875367305
907408000 0.817181283598 -0.146564415016
907421000 0.815940714079 -0.144361334349
907434000 0.817606860843 -0.147300198153
907447000 0.816010393699 -0.143887769181
907460000 0.815394408725 -0.143620395542
907473000 0.816153441338 -0.143704871524
907486000 0.817204335356 -0.14693683922
907499000 0.817879520749 -0.14470764206
907512000 0.8173823519 -0.147540109856
907525000 0.815371057086 -0.145913422573
907538000 0.813127027682 -0.146963498674
907551000 0.811941320948 -0.14164994123
907564000 0.81357831048 -0.143946413743
907577000 0.818195880553 -0.143996110048
907590000 0.817133500979 -0.141341125462
907603000 0.816589985187 -0.144372311777
907616000 0.817113401344 -0.142107886627
907629000 0.81784137449 -0.144146485758
907642000 0.814584917358 -0.142934085533
907655000 0.815275768525 -0.144705878302
907668000 0.817031547918 -0.144286839396
907681000 0.816351710937 -0.143458705004
907694000 0.818185630539 -0.142569215411
907707000 0.815562525712 -0.14282278678
907720000 0.811577735624 -0.141828886684
907733000 0.813546370359 -0.144585048811
907746000 0.817128320483 -0.145947224917
907759000 0.820910947635 -0.145143523964
907772000 0.819609802759 -0.144514981007
907785000 0.819859413062 -0.145947609866
907798000 0.816537716945 -0.143740930665
907811000 0.815263765717 -0.145423193292
907824000 0.814846467531 -0.145215684548
907837000 0.814920832329 -0.147746288491
907850000 0.814779646287 -0.147175723693
907863000 0.815416727414 -0.145023842735
907876000 0.815631952284 -0.143243599008
907889000 0.817599435489 -0.14528628887
907902000 0.818710047137 -0.14570829755
907915000 0.816252196908 -0.144011041562
907928000 0.816179903931 -0.141696226129
907941000 0.81627707985 -0.141054399054
907954000 0.814776554777 -0.145707882124
907967000 0.814470956998 -0.144995427027
907980000 0.813177679695 -0.141740586114
907993000 0.815182770971 -0.143819056032
908006000 0.812276507249 -0.143889905746
908019000 0.814472571099 -0.141544122729
908032000 0.815469885936 -0.143237891719
908045000 0.81583916764 -0.140888435861
908058000 0.816512888438 -0.143830494919
908071000 0.815321657306 -0.146011984929
908084000 0.814777306821 -0.143968235825
908097000 0.816086282635 -0.143178122398
908110000 0.818048627143 -0.142830883735
908123000 0.816767302986 -0.142407544007
908136000 0.819212655618 -0.146388589713
908149000 0.817009874289 -0.143983020096
908162000 0.815709864386 -0.14341610558
908175000 0.816182907016 -0.142697841228
908188000 0.817803527185 -0.14536726662
908201000 0.816582004017 -0.142775202449
908214000 0.817457296167 -0.144680414036
908227000 0.814872582798 -0.143565249321
908240000 0.814991988041 -0.143791794331
908253000 0.813543879246 -0.144134759423
908266000 0.815923169346 -0.145535159493
908279000 0.813272378238 -0.147028879415
908292000 0.814298533901 -0.144436832334
908305000 0.814945802916 -0.146602337608
908318000 0.814715318103 -0.146327211211
908331000 0.817499048608 -0.143384853304
908344000 0.814906965262 -0.14530034803
908357000 0.817204870673 -0.144824355547
908370000 0.817392289685 -0.142847682006
908383000 0.81652570692 -0.142360648546
908396000 0.817389502333 -0.142601118817
908409000 0.816899284808 -0.14387016872
908422000 0.814840902252 -0.143953087125
908435000 0.814975451801 -0.148813968874
908448000 0.814117513403 -0.147749776583
908461000 0.81135811729 -0.142923918857
908474000 0.81336412901 -0.143529787147
908487000 0.81442282453 -0.144712448699
908500000 0.814549250362 -0.146005380021
908513000 0.814124556474 -0.145182852635
908526000 0.81651025812 -0.140582773002
908539000 0.81604958 -0.144189243674
908552000 0.815492718892 -0.144592304127
908565000 0.814126923817 -0.146554977293
908578000 0.814979469024 -0.142818538389
908591000 0.81510035299 -0.144910789622
908604000 0.815707711398 -0.144488931654
908617000 0.818579238172 -0.143997746949
908630000 0.814277294374 -0.145406458065
908643000 0.813239625847 -0.146696634419
908656000 0.813865288542 -0.147253686929
908669000 0.814229143567 -0.14691189367
908682000 0.815195597325 -0.145190937159
908695000 0.813746570533 -0.149008638643
908708000 0.816191307508 -0.147440810789
908721000 0.815355379719 -0.144997749432
908734000 0.815994537206 -0.142760399017
908747000 0.8152372286 -0.14570814215
908760000 0.815814321839 -0.145488340655
908773000 0.815686899772 -0.145192532529
908786000 0.816168813202 -0.14519143133
908799000 0.816231132777 -0.146775782698
908812000 0.821291246801 -0.144980729932
908825000 0.819734004764 -0.145012715216
908838000 0.816246635112 -0.144431274573
908851000 0.812596284588 -0.143409988748
908864000 0.81624081637 -0.145573033043
908877000 0.812670495056 -0.14351701361
908890000 0.815111675882 -0.149757191427
908903000 0.81526939166 -0.151127635733
908916000 0.817716901188 -0.14869140727
908929000 0.816572858642 -0.144553324495
908942000 0.817934614441 -0.145399406701
908955000 0.81771775306 -0.146208072754
908968000 0.818653148908 -0.146080433849
908981000 0.815440771896 -0.147402830541
908994000 0.816491234936 -0.145523079304
909007000 0.815583190732 -0.146956091825
909020000 0.815289791995 -0.145593974968
909033000 0.817908243736 -0.145742938088
909046000 0.819656821858 -0.145951075974
909059000 0.816271839964 -0.14658700776
909072000 0.815544039788 -0.146536417417
909085000 0.817294777982 -0.144280894587
909098000 0.814602632858 -0.1467771856
909111000 0.817527363971 -0.145364082356
909124000 0.813057922788 -0.145468301135
909137000 0.813608048819 -0.143466850637
909150000 0.812335392201 -0.145037438405
909163000 0.811267084326 -0.143772200903
909176000 0.813656474393 -0.145119277727
909189000 0.817925515469 -0.147266413559
909202000 0.817958346732 -0.144225434911
909215000 0.81701339019 -0.144856329664
909228000 0.816951308568 -0.144794356901
909241000 0.818607298344 -0.147480606507
909254000 0.817051542749 -0.149450806032
909267000 0.815670315694 -0.146937733443
909280000 0.81442400459 -0.148829428355
909293000 0.815668262349 -0.145579147412
909306000 0.817404056425 -0.147008891658
909319000 0.813289557732 -0.146033101934
909332000 0.815818654351 -0.144861002413
909345000 0.818157336111 -0.14502909076
909358000 0.814195068193 -0.144315180423
909371000 0.813225562773 -0.147958545341
909384000 0.816879854441 -0.14551145776
909397000 0.812530594721 -0.146732039657
909410000 0.813323812219 -0.144529406779
909423000 0.815191964947 -0.152394628901
909436000 0.817356557182 -0.146117036111
909449000 0.821784480913 -0.146262270147
909462000 0.819960797167 -0.145883279871
909475000 0.81708550749 -0.14267393169
909488000 0.814767418408 -0.143585873572
909501000 0.815234655086 -0.145418906913
909514000 0.816380392471 -0.144309811471
909527000 0.818027431854 -0.144260378355
909540000 0.81488115221 -0.142339215275
909553000 0.816915600418 -0.14517199761
909566000 0.816569228456 -0.15075000941
909579000 0.81499548048 -0.145985274472
909592000 0.816253422482 -0.145772512393
909605000 0.818638977209 -0.146747795803
909618000 0.815166379437 -0.145946466736
909631000 0.814895557552 -0.149809570619
909644000 0.814907218535 -0.148764973928
909657000 0.816472622263 -0.14730016745
909670000 0.815575773575 -0.144568510527
909683000 0.817405710182 -0.14339034379
909696000 0.816522175228 -0.145701034336
909709000 0.815859592042 -0.148685594408
909722000 0.815135128294 -0.14968201306
909735000 0.812560208668 -0.148032088123
909748000 0.812295245014 -0.149389948201
909761000 0.81334438156 -0.144375135624
909774000 0.816982557451 -0.139855975071
909787000 0.820556922961 -0.143290165273
909800000 0.809212588774 -0.127652838698
909813000 0.846649598199 -0.127931394379
909826000 0.775761722198 -0.0892547713438
909839000 0.823206415115 -0.118559038775
909852000 0.816184970142 -0.141502085694
909865000 0.820177500119 -0.151473052744
909878000 0.812083257089 -0.149815030617
909891000 0.815440725395 -0.150844698036
909904000 0.820369656686 -0.149050752909
909917000 0.820113056166 -0.152736608237
909930000 0.83768330764 -0.166023853994
909943000 0.810281295524 -0.205500497145
909956000 0.81184495332 -0.163693848603
909969000 0.804548772381 -0.165567613738
909982000 0.782865561858 -0.149133603192
909995000 0.802528884527 -0.155818390506
910008000 0.751610955522 -0.116683151996
910021000 0.735267158734 -0.156944544299
910034000 0.746817922789 -0.181540161661
910047000 0.794598547036 -0.156377260669
910060000 0.819909452999 -0.145510819292
910073000 0.820032220815 -0.143598756326
910086000 0.823789017885 -0.146966461015
910099000 0.822342627514 -0.144029534542
910112000 0.824464543301 -0.149139820982
910125000 0.826701903703 -0.147444642011
910138000 0.816397267082 -0.144761990906
910151000 0.81833591781 -0.145270059282
910164000 0.819058073596 -0.150205023983
910177000 0.817558514691 -0.150586713624
910190000 0.818374069756 -0.15399645112
910203000 0.820636346141 -0.153884453334
910216000 0.815634203962 -0.134659567502
910229000 0.821955633556 -0.12512177446
910242000 0.797281487414 -0.138523665428
910255000 0.82122465848 -0.146835934626
910268000 0.814990528962 -0.148725506696
910281000 0.814033901023 -0.140478935477
910294000 0.814485418517 -0.14850282063
910307000 0.813945737389 -0.144866700427
910320000 0.816175847577 -0.150449594735
910333000 0.813847829096 -0.147534487588
910346000 0.816521543312 -0.1541337221
910359000 0.81785308224 -0.149308457469
910372000 0.819240601154 -0.145627931603
910385000 0.818965884434 -0.149232796271
910398000 0.817919935212 -0.148196537556
910411000 0.816764642535 -0.151034404111
910424000 0.81844194246 -0.153893550424
910437000 0.817099332547 -0.150141058409
910450000 0.823280532414 -0.149793760056
910463000 0.81883861876 -0.149333639412
910476000 0.817237699698 -0.147453528937
910489000 0.81929511974 -0.146680967016
910502000 0.819314680222 -0.149531373234
910515000 0.818468063286 -0.152821143966
910528000 0.813698814956 -0.149879491786
910541000 0.812630738492 -0.148256230065
910554000 0.820349330801 -0.146672067463
910567000 0.819293822017 -0.148398466587
910580000 0.817716425192 -0.151069909805
910593000 0.820729691004 -0.150825883993
910606000 0.822915989599 -0.155513155718
910619000 0.816483914278 -0.151432744273
910632000 0.81467065613 -0.14723385302
910645000 0.819947532237 -0.149027863745
910658000 0.820006562476 -0.147699097269
910671000 0.821832746098 -0.147748472922
910684000 0.821127539698 -0.147220733707
910697000 0.819124872987 -0.145445091264
910710000 0.81608648297 -0.146634867406
910723000 0.820828347718 -0.14746691659
910736000 0.820410541444 -0.150296509638
910749000 0.816848250506 -0.148940294821
910762000 0.817543989166 -0.148340701772
910775000 0.820294166652 -0.148621677967
910788000 0.821181636803 -0.148320842495
910801000 0.817953746713 -0.149052953684
910814000 0.818394400795 -0.149417796735
910827000 0.818500230803 -0.148271216635
910840000 0.819203224916 -0.149741649301
910853000 0.818530120635 -0.155058022247
910866000 0.81832160575 -0.151019529164
910879000 0.819242601901 -0.14767821606
910892000 0.817978451768 -0.147620129245
910905000 0.821236077966 -0.150690714143
910918000 0.816099394373 -0.151002869753
910931000 0.82077985154 -0.149892919794
910944000 0.816465627964 -0.150430690252
910957000 0.816076377727 -0.147032571711
910970000 0.818568710484 -0.149523514913
910983000 0.816009083225 -0.147268610711
910996000 0.817143472817 -0.147562189981
911009000 0.818658964962 -0.149011522418
911022000 0.819223530582 -0.149876140539
911035000 0.821512579893 -0.149991417807
911048000 0.821167250188 -0.149129598861
911061000 0.817030162424 -0.152640034105
911074000 0.818046126163 -0.147558817078
911087000 0.819067211365 -0.150755634408
911100000 0.817676903364 -0.152857281226
911113000 0.814911001005 -0.156809967492
911126000 0.814007805609 -0.153406649566
911139000 0.814391501434 -0.152280472743
911152000 0.816708482435 -0.149356717902
911165000 0.817131664231 -0.148223409609
911178000 0.81997389153 -0.14475692547
911191000 0.819602794057 -0.147244205068
911204000 0.819812121221 -0.149358335504
911217000 0.81887035101 -0.150481286466
911230000 0.819467581984 -0.154308830082
911243000 0.816271939205 -0.152444759447
911256000 0.821139601613 -0.148050314015
911269000 0.819435491824 -0.14852200766
911282000 0.82175086427 -0.149633692364
911295000 0.8182147193 -0.149505988285
911308000 0.816232877821 -0.149279146592
911321000 0.821072032865 -0.146436978695
911334000 0.817231050228 -0.150686290732
911347000 0.818306330152 -0.152143317728
911360000 0.817081791252 -0.15039311711
911373000 0.818126473625 -0.149815672119
911386000 0.818483272715 -0.150215680863
911399000 0.81452241151 -0.147020313365
911412000 0.815600144228 -0.143906396405
911425000 0.814388033296 -0.147829196577
911438000 0.81492000391 -0.149954709104
911451000 0.815631462271 -0.148616321242
911464000 0.816300221048 -0.148452451574
911477000 0.817070354783 -0.151925072915
911490000 0.818393359532 -0.15058369963
911503000 0.820792121753 -0.151131014775
911516000 0.820820149415 -0.148490028521
911529000 0.821061392558 -0.151848642371
911542000 0.816466801651 -0.150045149228
911555000 0.814641557176 -0.148298428993
911568000 0.81816206195 -0.148149815588
911581000 0.819776339994 -0.150057558208
911594000 0.819130212685 -0.150373452152
911607000 0.815756977325 -0.148805375804
911620000 0.819270415989 -0.147877713239
911633000 0.817426123762 -0.14574299077
911646000 0.816242660191 -0.144387247812
911659000 0.818582979675 -0.149595933921
911672000 0.81957136022 -0.149877755212
911685000 0.815257274037 -0.147007757396
911698000 0.815783885071 -0.149334100182
911711000 0.815716857295 -0.145591539894
911724000 0.819198367573 -0.146300339622
911737000 0.819089889631 -0.148634344007
911750000 0.818935449738 -0.147951890877
911763000 0.818119620636 -0.148388635795
911776000 0.818549345363 -0.148060934278
911789000 0.818575441652 -0.151160787842
911802000 0.812475942313 -0.148893711217
911815000 0.817938103747 -0.148246824928
911828000 0.817419725876 -0.14917882494
911841000 0.819080201532 -0.149003056787
911854000 0.819214503387 -0.150114875424
911867000 0.81737625041 -0.14790592599
911880000 0.819472948887 -0.148210634471
911893000 0.817799652416 -0.146713676364
911906000 0.818404438456 -0.146767142177
911919000 0.817829327456 -0.149652363197
911932000 0.818858423523 -0.148084635909
911945000 0.815750724665 -0.146975614645
911958000 0.815965080583 -0.145893185828
911971000 0.815035364056 -0.147706736754
911984000 0.817707896286 -0.148422848874
911997000 0.81704726298 -0.14924876867
912010000 0.820387718411 -0.150331739259
912023000 0.820060585005 -0.151271065924
912036000 0.817032054166 -0.15026083425
912049000 0.815660419938 -0.150689635136
912062000 0.81759692038 -0.152313029963
912075000 0.8176568729 -0.149441404693
912088000 0.81513922142 -0.150630272008
912101000 0.816515392539 -0.15152066403
912114000 0.818941979641 -0.150361023345
912127000 0.81714279137 -0.15130648139
912140000 0.816159987937 -0.149152490694
912153000 0.816452509584 -0.151126547028
912166000 0.819285395311 -0.152893428971
912179000 0.822337748812 -0.153268266069
912192000 0.817510105333 -0.152233013183
912205000 0.81850643412 -0.147241042823
912218000 0.817026225598 -0.150103226887
912231000 0.818258941442 -0.151375742469
912244000 0.819357941703 -0.150328066438
912257000 0.81557924301 -0.148242508106
912270000 0.814011725724 -0.145329401923
912283000 0.813042486965 -0.148186759676
912296000 0.815810991893 -0.15016303981
912309000 0.815401901549 -0.154744844451
912322000 0.815580950265 -0.152894327087
912335000 0.814105191032 -0.152315126739
912348000 0.813549539981 -0.15197130691
912361000 0.815268249214 -0.149906921566
912374000 0.814515519646 -0.142249539219
912387000 0.816677236908 -0.141616070997
912400000 0.813856457058 -0.144881967268
912413000 0.811990001096 -0.14901807151
912426000 0.815872436641 -0.147333958729
912439000 0.819646585715 -0.146793258426
912452000 0.815779709225 -0.151146190464
912465000 0.815903379011 -0.152468755392
912478000 0.816146040001 -0.152465847106
912491000 0.815188078832 -0.149436276596
912504000 0.817769762235 -0.150943682379
912517000 0.817799166509 -0.149090659488
912530000 0.816543825996 -0.150715030068
912543000 0.818301518296 -0.147937200361
912556000 0.818227912743 -0.148263511476
912569000 0.817882940335 -0.1472088306
912582000 0.818829321171 -0.148183872152
912595000 0.816688859806 -0.148589914754
912608000 0.816276120028 -0.149450704033
912621000 0.816131991974 -0.150150884264
912634000 0.819078033776 -0.149432531946
912647000 0.817246960426 -0.151653254568
912660000 0.817462011783 -0.150363774025
912673000 0.816628731206 -0.149441315632
912686000 0.818282882384 -0.15161453541
912699000 0.818457582058 -0.152490921275
912712000 0.817771632513 -0.15043369317
912725000 0.822779872812 -0.150043753652
912738000 0.819208855027 -0.151474116252
912751000 0.819109543546 -0.151555011927
912764000 0.823135618396 -0.15109828641
912777000 0.816219529503 -0.151428093725
912790000 0.816852486296 -0.14863267564
912803000 0.816577693327 -0.149255253534
912816000 0.814501626229 -0.151298250856
912829000 0.815611420045 -0.153212475198
912842000 0.815946800008 -0.147656203791
912855000 0.81633154862 -0.149484936166
912868000 0.818504096317 -0.151189968792
912881000 0.816536601507 -0.153399861067
912894000 0.815251983025 -0.149195657879
912907000 0.816266610824 -0.148557750404
912920000 0.816134388658 -0.149809097788
912933000 0.816400022606 -0.148168607075
912946000 0.818982810278 -0.150047118983
912959000 0.817026151915 -0.149467515875
912972000 0.817823462973 -0.149290500485
912985000 0.815991835089 -0.148163187556
912998000 0.817138751662 -0.149334479559
913011000 0.816729429146 -0.151440155564
913024000 0.817250113489 -0.150366283638
913037000 0.81824545467 -0.150858705201
913050000 0.819470335234 -0.150491206642
913063000 0.820399527473 -0.147635174795
913076000 0.819308868391 -0.148485538463
913089000 0.816887619687 -0.149429609689
913102000 0.816371708015 -0.152668309009
913115000 0.814300376887 -0.152218692054
913128000 0.816116085789 -0.151476193089
913141000 0.815993150734 -0.15114866461
913154000 0.814181289013 -0.150252194249
913167000 0.815440508347 -0.150053304756
913180000 0.816254293197 -0.149814979275
913193000 0.81598017562 -0.147895574286
913206000 0.818775595973 -0.147685812779
913219000 0.818888756616 -0.14933172639
913232000 0.817921671033 -0.150210155607
913245000 0.820006679646 -0.149515574971
913258000 0.817986442257 -0.151826914441
913271000 0.816962725315 -0.151859101275
913284000 0.816350683665 -0.151112875417
913297000 0.813723678238 -0.150961936647
913310000 0.812428624927 -0.150183644775
913323000 0.814606343855 -0.15165163369
913336000 0.816958293504 -0.153637268817
913349000 0.813997175434 -0.152332759014
913362000 0.817276661996 -0.152596157159
913375000 0.814030267955 -0.151328454035
913388000 0.813825784846 -0.152795169153
913401000 0.8134635104 -0.148516105126
913414000 0.815724620513 -0.149656146304
913427000 0.816081384078 -0.150335732149
913440000 0.815005699313 -0.151124228794
913453000 0.816791230126 -0.150303360292
913466000 0.815296658232 -0.153057804744
913479000 0.817924498841 -0.151042446908
913492000 0.816751697098 -0.152674139097
913505000 0.818044441055 -0.151927473457
913518000 0.818627291145 -0.151457447714
913531000 0.816869485895 -0.152199026503
913544000 0.817708091027 -0.152973008553
913557000 0.816512919162 -0.152081878612
913570000 0.817285112706 -0.150116989184
913583000 0.817626790546 -0.150251768956
913596000 0.815353641394 -0.151758023559
913609000 0.817956319016 -0.149907946213
913622000 0.815233153969 -0.148866187347
913635000 0.819737078912 -0.148960689508
913648000 0.817614610779 -0.150082839127
913661000 0.819663031291 -0.150376577645
913674000 0.817726368867 -0.150827192655
913687000 0.816832072217 -0.15171921667
913700000 0.81807144633 -0.150349693416
913713000 0.815809194037 -0.15211620184
913726000 0.815570122002 -0.149329229384
913739000 0.817865230126 -0.152016625576
913752000 0.818469050761 -0.152772411808
913765000 0.815642575266 -0.152667713933
913778000 0.816603266733 -0.153156922571
913791000 0.816162171557 -0.150765287221
913804000 0.817254427515 -0.149992034889
913817000 0.816769288482 -0.150598573834
913830000 0.817332544392 -0.14829053054
913843000 0.815303694832 -0.148209091053
913856000 0.814039180552 -0.149176613264
913869000 0.818082529168 -0.150247896546
913882000 0.817751874933 -0.150642379697
913895000 0.815176130747 -0.14940040775
913908000 0.815874772481 -0.148889944182
913921000 0.815202952377 -0.148264142886
913934000 0.815755037441 -0.147542152916
913947000 0.815452322067 -0.149122693294
913960000 0.814974591152 -0.14751047592
913973000 0.815917756213 -0.148785899428
913986000 0.817550839879 -0.152021749034
913999000 0.817930673964 -0.151145950984
914012000 0.813436341433 -0.150485772975
914025000 0.815067330927 -0.147379189614
914038000 0.81474433051 -0.151478743794
914051000 0.814443344539 -0.154746744319
914064000 0.816294672163 -0.149296407816
914077000 0.818886814378 -0.150575160409
914090000 0.815530345637 -0.148869600914
914103000 0.814645529461 -0.154867302446
914116000 0.812464432545 -0.155164059342
914129000 0.815279163317 -0.152621653237
914142000 0.816452726093 -0.153349372594
914155000 0.812307399259 -0.150119714993
914168000 0.816035195367 -0.14713536356
914181000 0.815623007718 -0.149810983882
914194000 0.813739132567 -0.151566988339
914207000 0.815941796287 -0.148830745984
914220000 0.814028511304 -0.149644170746
914233000 0.814910689963 -0.149255398412
914246000 0.816277027672 -0.148684420266
914259000 0.817625675192 -0.147562087269
914272000 0.817490975749 -0.152189347871
914285000 0.815971925005 -0.153050041457
914298000 0.818363450548 -0.150346415603
914311000 0.815016688468 -0.152011985343
914324000 0.81501658847 -0.154218848451
914337000 0.817279677639 -0.153205442721
914350000 0.818957919563 -0.152516772011
914363000 0.814681157141 -0.1508475566
914376000 0.814066708351 -0.151802860215
914389000 0.815101560946 -0.151372716406
914402000 0.814833659868 -0.149862653665
914415000 0.818320841706 -0.151167545742
914428000 0.81443729982 -0.153185848067
914441000 0.817305857569 -0.150178452982
914454000 0.814784745725 -0.148447144861
914467000 0.817050793592 -0.151690379647
914480000 0.815838750142 -0.154361176689
914493000 0.813227170351 -0.15404508384
914506000 0.817715296853 -0.151217754091
914519000 0.816367749352 -0.150277694609
914532000 0.812812567468 -0.149330964286
914545000 0.81226269511 -0.14750888127
914558000 0.815341477846 -0.147639139799
914571000 0.816016609183 -0.150141975345
914584000 0.815337147675 -0.151706907137
914597000 0.813451580073 -0.151906358708
914610000 0.81478782114 -0.151810029428
914623000 0.815737057696 -0.150791687432
914636000 0.81522521924 -0.15036198699
914649000 0.813421158639 -0.150931882012
914662000 0.814339336587 -0.153192705597
914675000 0.817657506339 -0.151840499237
914688000 0.815099776767 -0.150048720575
914701000 0.814410088595 -0.148843013312
914714000 0.813445136634 -0.147278632184
914727000 0.814027301314 -0.148045598975
914740000 0.814997576351 -0.151872554781
914753000 0.81474840024 -0.152711399617
914766000 0.81577896123 -0.154709255435
914779000 0.816027986465 -0.152544903534
914792000 0.815853341205 -0.150782492517
914805000 0.817448393684 -0.153370744832
914818000 0.815472887431 -0.154157234076
914831000 0.816148471434 -0.152788483594
914844000 0.816868008071 -0.15340025964
914857000 0.815007494906 -0.155550507441
914870000 0.816367795632 -0.151195694407
914883000 0.816143964835 -0.152984600887
914896000 0.816068535974 -0.150035047246
914909000 0.815575953818 -0.153238249388
914922000 0.814672092152 -0.151674692818
914935000 0.815175087859 -0.149913309546
914948000 0.815639951329 -0.154827779514
914961000 0.815704369567 -0.149368466949
914974000 0.815517031042 -0.149643581158
914987000 0.812799539543 -0.152870385197
915000000 0.817585699192 -0.152284256827
915013000 0.813901280945 -0.151774231362
915026000 0.811486537416 -0.150516486768
915039000 0.805588433873 -0.145990065971
915052000 0.813800186855 -0.152950266975
915065000 0.815878521015 -0.150481730947
915078000 0.818778373769 -0.150907983275
915091000 0.818014391793 -0.154054541999
915104000 0.817221570201 -0.155167249415
915117000 0.813689390779 -0.152040324901
915130000 0.816630900016 -0.149945916642
915143000 0.814928802927 -0.153142754772
915156000 0.815199793508 -0.15306881883
915169000 0.814029297131 -0.154448519782
915182000 0.815601774275 -0.154726305358
915195000 0.812455318845 -0.152209538261
915208000 0.812838642369 -0.151543926453
915221000 0.812964840674 -0.150214750813
915234000 0.814649827117 -0.15177611176
915247000 0.815067638977 -0.156488583878
915260000 0.814788936759 -0.154151392136
915273000 0.815988050329 -0.151583912559
915286000 0.817817537681 -0.150185630679
915299000 0.814256602554 -0.150062485388
915312000 0.811951967213 -0.151553127023
915325000 0.815405584956 -0.152807125188
915338000 0.810926680838 -0.155646123548
915351000 0.812480020333 -0.155088273233
915364000 0.816234433134 -0.152744464311
915377000 0.812907315741 -0.152001913872
915390000 0.816197577973 -0.153823890517
915403000 0.813259643292 -0.153661845202
915416000 0.814804429314 -0.150456858107
915429000 0.814464982114 -0.152428957161
915442000 0.814643920867 -0.154453791486
915455000 0.81578773801 -0.14663257907
915468000 0.812052148839 -0.150197123521
915481000 0.814582070825 -0.154149735987
915494000 0.816387781879 -0.153036131885
915507000 0.815610931753 -0.154213824464
915520000 0.813738381449 -0.153549294245
915533000 0.811706277355 -0.154099026309
915546000 0.814738604883 -0.151583950488
915559000 0.813485232316 -0.147385770412
915572000 0.818461608984 -0.150750762914
915585000 0.819771213316 -0.153574429481
915598000 0.81635456459 -0.154973462338
915611000 0.817884660565 -0.153978642311
915624000 0.81635824243 -0.150501187787
915637000 0.814665248633 -0.152399275449
915650000 0.812946051161 -0.150954487114
915663000 0.814402260048 -0.152178182957
915676000 0.814358222966 -0.150439542372
915689000 0.811541844818 -0.151823664362
915702000 0.814842634305 -0.152545191462
915715000 0.816277087055 -0.153881405553
915728000 0.818095076949 -0.15626328862
915741000 0.819341206453 -0.151983176138
915754000 0.817374564396 -0.154338313803
915767000 0.813631236848 -0.153103940647
915780000 0.815238730167 -0.154898822775
915793000 0.814367110814 -0.151966521019
915806000 0.812292398329 -0.152620352124
915819000 0.813367238473 -0.154555015694
915832000 0.814895714482 -0.151846585457
915845000 0.816297924578 -0.150629303337
915858000 0.81679875432 -0.152587049643
915871000 0.81833159151 -0.153213163328
915884000 0.816706855031 -0.152060461473
915897000 0.815355534124 -0.151748031595
915910000 0.812063189601 -0.154530414407
915923000 0.815286433654 -0.155515345549
915936000 0.814335186315 -0.155668616189
915949000 0.816284268857 -0.155549994419
915962000 0.81625891801 -0.153998491713
915975000 0.816185173401 -0.152780755003
915988000 0.812904347406 -0.149978378259
916001000 0.812108335656 -0.152883701791
916014000 0.813878916663 -0.149684374265
916027000 0.816747716089 -0.151452251767
916040000 0.816222071543 -0.150254195619
916053000 0.817080747172 -0.151816346827
916066000 0.814919753358 -0.151950108776
916079000 0.815162360919 -0.151393263453
916092000 0.817787284968 -0.152894873278
916105000 0.813982504454 -0.151934652173
916118000 0.81508089984 -0.151412584347
916131000 0.816750611133 -0.152360366419
916144000 0.815173156951 -0.152448549466
916157000 0.817719145598 -0.151723432715
916170000 0.812742520068 -0.153237750037
916183000 0.814049750104 -0.151532049765
916196000 0.812531207523 -0.15251949482
916209000 0.813539986609 -0.15050037306
916222000 0.813951754717 -0.154738176287
916235000 0.816905607988 -0.153123646726
916248000 0.816260143791 -0.154895785005
916261000 0.813547907497 -0.155186807365
916274000 0.814600833555 -0.154580558398
916287000 0.817131512702 -0.151256716195
916300000 0.814289697787 -0.150487495857
916313000 0.815144467436 -0.150618124044
916326000 0.8179618821 -0.154560342327
916339000 0.814867702797 -0.153015788456
916352000 0.814360365584 -0.152368119585
916365000 0.815637661282 -0.153856024999
916378000 0.817335579783 -0.151396114958
916391000 0.816255788129 -0.152739055297
916404000 0.815541945808 -0.151923416128
916417000 0.814868912944 -0.148345658151
916430000 0.812314081682 -0.149757963042
916443000 0.813704099959 -0.151504864784
916456000 0.815096964385 -0.153320548447
916469000 0.814796331415 -0.153154431578
916482000 0.804995373548 -0.144639766521
916495000 0.815788180417 -0.151155849487
916508000 0.814320867512 -0.154650463749
916521000 0.8151575459 -0.154086476804
916534000 0.81300278629 -0.153932265056
916547000 0.813117863919 -0.149727240571
916560000 0.813558417459 -0.150448053151
916573000 0.813819006515 -0.15251362269
916586000 0.813365923062 -0.154046950814
916599000 0.816083449594 -0.154656980243
916612000 0.812879486383 -0.152311910443
916625000 0.815790538697 -0.15162233915
916638000 0.815387846014 -0.152237325417
916651000 0.818013506347 -0.153329027268
916664000 0.817180725221 -0.151355734827
916677000 0.815497185338 -0.152698017161
916690000 0.812689217773 -0.152148103793
916703000 0.814414947901 -0.153495602623
916716000 0.816471942226 -0.152342584842
916729000 0.815524641533 -0.153175441204
916742000 0.812799478035 -0.152001188213
916755000 0.810689993598 -0.150396334641
916768000 0.814611764639 -0.149664919893
916781000 0.81452898505 -0.150386325122
916794000 0.814734154474 -0.150390213613
916807000 0.814340498728 -0.15507970826
916820000 0.814438065277 -0.15446570826
916833000 0.814865654552 -0.150491187176
916846000 0.815946718223 -0.150939191378
916859000 0.813497036364 -0.153078511356
916872000 0.813996542158 -0.15320252952
916885000 0.81636239529 -0.153176131507
916898000 0.816270909035 -0.152766277683
916911000 0.81691385835 -0.146816219441
916924000 0.813687628796 -0.153054427677
916937000 0.813315356304 -0.153458146665
916950000 0.812950216356 -0.154296897015
916963000 0.814488717512 -0.153609709866
916976000 0.813101127306 -0.156469411524
916989000 0.813654829199 -0.158737910154
917002000 0.810888054325 -0.157515578934
917015000 0.81693853148 -0.153747388384
917028000 0.817546561091 -0.15307786851
917041000 0.815490814432 -0.151398062016
917054000 0.813863884886 -0.15419867346
917067000 0.813820452989 -0.154647040182
917080000 0.814825216317 -0.152388986671
917093000 0.814940680599 -0.152722186186
917106000 0.814234738987 -0.153144264248
917119000 0.813879863717 -0.150015589774
917132000 0.813866718956 -0.153582858836
917145000 0.814253465166 -0.155247344741
917158000 0.812437072627 -0.154975426309
917171000 0.815164924058 -0.151628182721
917184000 0.815368388727 -0.155459859506
917197000 0.813801351501 -0.153320176915
917210000 0.813833352282 -0.154109951992
917223000 0.814945325585 -0.150980107508
917236000 0.81372497306 -0.153748729423
917249000 0.813924279284 -0.15024457526
917262000 0.814080006583 -0.155756834692
917275000 0.815948963675 -0.15644464946
917288000 0.821531409836 -0.154486206937
917301000 0.821878591078 -0.153379326034
917314000 0.818513494083 -0.151455401216
917327000 0.816758259088 -0.151713159564
917340000 0.816459393818 -0.150891618774
917353000 0.815678914554 -0.151926740054
917366000 0.814863345062 -0.148560578553
917379000 0.815036050309 -0.152997702354
917392000 0.813707418227 -0.152198572343
917405000 0.812949108093 -0.15380525649
917418000 0.812416938936 -0.153692894974
917431000 0.813586992655 -0.154654972835
917444000 0.814810461261 -0.153938698702
917457000 0.815019603603 -0.152945194096
917470000 0.812916228009 -0.156064861587
917483000 0.812165254548 -0.155076447964
917496000 0.812587164948 -0.15344642489
917509000 0.81069239652 -0.155665113916
917522000 0.813373548302 -0.153016822431
917535000 0.814702627002 -0.152125100843
917548000 0.814670444771 -0.152051835053
917561000 0.815464290867 -0.154861611483
917574000 0.817003591456 -0.153396232541
917587000 0.814597946232 -0.152529749685
917600000 0.815388155884 -0.152205787354
917613000 0.817263716695 -0.150831233489
917626000 0.816849708851 -0.154231282281
917639000 0.814593224595 -0.153862876436
917652000 0.815760116503 -0.154061717136
917665000 0.816037368851 -0.154989341094
917678000 0.815063413667 -0.154769303349
917691000 0.81535766365 -0.152776951065
917704000 0.814780894438 -0.155070283707
917717000 0.81427290179 -0.154277774518
917730000 0.812972165273 -0.15507228611
917743000 0.813819879111 -0.155063891112
917756000 0.815299348154 -0.157246727711
917769000 0.814513810498 -0.155521667583
917782000 0.815016869039 -0.156339353936
917795000 0.815981073953 -0.154496723335
917808000 0.81588167219 -0.156028864802
917821000 0.816033539223 -0.152957360485
917834000 0.811980925662 -0.152762612165
917847000 0.812677062971 -0.154144731903
917860000 0.814445949454 -0.152989323
917873000 0.816805175076 -0.154326195381
917886000 0.818031909212 -0.153774509913
917899000 0.817739152179 -0.156620845551
917912000 0.816547106144 -0.156034911603
917925000 0.813485454987 -0.156156309148
917938000 0.812264702656 -0.155458739832
917951000 0.812129474454 -0.154660396434
917964000 0.810677517123 -0.155132341319
917977000 0.812330587887 -0.151211749296
917990000 0.814330490545 -0.150273484924
918003000 0.81426145637 -0.149098285168
918016000 0.815917417563 -0.151377556374
918029000 0.817438214119 -0.153277411438
918042000 0.816278077621 -0.155965615591
918055000 0.81639200314 -0.1533774053
918068000 0.815450618096 -0.154861139838
918081000 0.814112622089 -0.154205526569
918094000 0.813930781831 -0.1542388629
918107000 0.813763218937 -0.152738722389
918120000 0.811942403568 -0.15309326285
918133000 0.811805692893 -0.150552950179
918146000 0.811392333874 -0.153447738504
918159000 0.813934258722 -0.151197203628
918172000 0.814706497986 -0.152301105611
918185000 0.813960132469 -0.151959014246
918198000 0.814473833295 -0.152867112631
918211000 0.80985528497 -0.151786271679
918224000 0.81481502308 -0.154524148969
918237000 0.814284126154 -0.156401773548
918250000 0.815639924879 -0.155366584522
918263000 0.814792900849 -0.151783446223
918276000 0.81480444596 -0.15360639399
918289000 0.813010727196 -0.152926777618
918302000 0.816586622628 -0.150395307341
918315000 0.811513029986 -0.155625937796
918328000 0.816652430431 -0.154096531679
918341000 0.816891749991 -0.15447107823
918354000 0.815174247232 -0.153242858336
918367000 0.812777118763 -0.15166958099
918380000 0.815017504441 -0.154163618339
918393000 0.8142866029 -0.151735010635
918406000 0.815603511131 -0.155204948192
918419000 0.815112307884 -0.156115255053
918432000 0.81657641986 -0.156516318061
918445000 0.817378372826 -0.155230176707
918458000 0.813600123051 -0.15676599554
918471000 0.81588403212 -0.156043513698
918484000 0.812794451258 -0.154134931508
918497000 0.815952813619 -0.156577881362
918510000 0.815066518805 -0.157401358691
918523000 0.814752815295 -0.155089700232
918536000 0.814718303312 -0.153699109501
918549000 0.815042814974 -0.152381142511
918562000 0.816253285451 -0.154391173011
918575000 0.812227629476 -0.154006184935
918588000 0.81219349711 -0.156728298867
918601000 0.811608903907 -0.154306531322
918614000 0.812358449625 -0.153295937571
918627000 0.814047462282 -0.154446230292
918640000 0.812299844777 -0.153562360813
918653000 0.815966603261 -0.157894009308
918666000 0.814881362033 -0.154628506996
918679000 0.81088871904 -0.153241710257
918692000 0.813156995489 -0.154878748161
918705000 0.811555910229 -0.155458097283
918718000 0.813177167535 -0.155486693315
918731000 0.812830931932 -0.153213735324
918744000 0.81285374994 -0.153412002423
918757000 0.815803963674 -0.157446349567
918770000 0.814878943522 -0.157219962495
918783000 0.815362976693 -0.156252665594
918796000 0.813154799283 -0.153705989618
918809000 0.814043954075 -0.15489255853
918822000 0.812967491526 -0.155145915644
918835000 0.813248658984 -0.156497519012
918848000 0.812936423531 -0.154687565831
918861000 0.815901572751 -0.153025245321
918874000 0.813996111556 -0.153786218959
918887000 0.816304928726 -0.154670292027
918900000 0.813770998414 -0.154752379593
918913000 0.817889871314 -0.153925579709
918926000 0.814452739359 -0.153690907722
918939000 0.81239849687 -0.15412412143
918952000 0.81597934093 -0.154394862505
918965000 0.815294654276 -0.154324497264
918978000 0.817072881082 -0.156864471443
918991000 0.816412465371 -0.156292790077
919004000 0.815930011625 -0.157372836952
919017000 0.814563338948 -0.155118985259
919030000 0.812432305459 -0.154557470398
919043000 0.814269763027 -0.156118790544
919056000 0.812885404599 -0.154792913545
919069000 0.830165858995 -0.161757358749
919082000 0.845436468467 -0.164368346608
919095000 0.837954655916 -0.164608054761
919108000 0.819660467634 -0.158883610181
919121000 0.814893313169 -0.155643301661
919134000 0.817032388694 -0.154078014188
919147000 0.815855129894 -0.154285552613
919160000 0.815528492781 -0.153322466654
919173000 0.816840724107 -0.15367304697
919186000 0.815623678563 -0.15300729841
919199000 0.814065838975 -0.153670467266
919212000 0.812208499966 -0.152125511381
919225000 0.814667449278 -0.156822270975
919238000 0.811467919055 -0.151917877864
919251000 0.814232598456 -0.152795314849
919264000 0.813449108194 -0.152961055453
919277000 0.813137145384 -0.152253626037
919290000 0.813616060559 -0.153246808943
919303000 0.812060229055 -0.154410325706
919316000 0.81322202758 -0.154319977148
919329000 0.816967714548 -0.153384709913
919342000 0.815529135892 -0.149399026076
919355000 0.815164927398 -0.153580163638
919368000 0.811337160477 -0.153172225851
919381000 0.813622276162 -0.153362767215
919394000 0.812950579416 -0.155339608648
919407000 0.814353496814 -0.154822855957
919420000 0.81457961802 -0.154160460094
919433000 0.815142129684 -0.152641362109
919446000 0.815100320895 -0.153266678243
919459000 0.813648747772 -0.150954158769
919472000 0.813644966201 -0.153362917246
919485000 0.813190351915 -0.151577806839
919498000 0.816980071253 -0.152939816082
919511000 0.813777053778 -0.152854507587
919524000 0.813211972599 -0.156807276731
919537000 0.816454415588 -0.154472222731
919550000 0.813394176858 -0.155922433939
919563000 0.813860109891 -0.155804981847
919576000 0.812454306151 -0.153474159565
919589000 0.814069416377 -0.154650110297
919602000 0.812553356979 -0.151258328362
919615000 0.81161819247 -0.155750147137
919628000 0.81585623687 -0.1544297163
919641000 0.812642866236 -0.153242851621
919654000 0.814249036317 -0.157484455028
919667000 0.813730901901 -0.155711641699
919680000 0.812036600846 -0.157729056979
919693000 0.812278378891 -0.156035936336
919706000 0.814171804449 -0.157241648781
919719000 0.815579086249 -0.154842110625
919732000 0.812130549586 -0.155332292201
919745000 0.811027852556 -0.14934984677
919758000 0.810824670035 -0.155044917876
919771000 0.814129633089 -0.15694899437
919784000 0.814040171545 -0.153386975815
919797000 0.817814636283 -0.151344024039
919810000 0.818738302882 -0.153716119474
919823000 0.816280545334 -0.155951777926
919836000 0.814287394106 -0.152044215979
919849000 0.812886075699 -0.15230909426
919862000 0.814326251906 -0.152225691567
919875000 0.812491053833 -0.154051347734
919888000 0.81004794032 -0.150744097125
919901000 0.815977989916 -0.156592451925
919914000 0.811002925335 -0.151234070014
919927000 0.813108827743 -0.151928001226
919940000 0.816612195337 -0.155560777866
919953000 0.80995944638 -0.158109188563
919966000 0.813075001913 -0.155214474188
919979000 0.814741948899 -0.156208409414
919992000 0.814828846671 -0.156479777193
920005000 0.814366686665 -0.154452700089
920018000 0.815927518716 -0.154999768873
920031000 0.814551756618 -0.157588136977
920044000 0.813814732401 -0.159620900841
920057000 0.807681225192 -0.15434185078
920070000 0.813280570001 -0.158257798844
920083000 0.813017486288 -0.155954663725
920096000 0.816206035005 -0.150307162023
920109000 0.81185116974 -0.15401550038
920122000 0.809644351286 -0.15115270586
920135000 0.810333868455 -0.158385370276
920148000 0.813100455676 -0.155528105695
920161000 0.809792011967 -0.15663142412
920174000 0.810013133156 -0.156880201811
920187000 0.811151097907 -0.154718936812
920200000 0.81272999737 -0.155285861148
920213000 0.813342848702 -0.157555240226
920226000 0.816200034099 -0.156402997386
920239000 0.812026735275 -0.155840597564
920252000 0.814341059476 -0.155060570937
920265000 0.815528145918 -0.153887700674
920278000 0.810400105215 -0.151232580481
920291000 0.814489054022 -0.153358107862
920304000 0.812841085123 -0.152760359892
920317000 0.814304987252 -0.15426402959
920330000 0.812828171442 -0.155502053082
920343000 0.81542799574 -0.156201500002
920356000 0.813429028235 -0.157061508891
920369000 0.811677773166 -0.152987548062
920382000 0.812078858047 -0.154534583338
920395000 0.814475961562 -0.153994443652
920408000 0.815941164235 -0.154731853437
920421000 0.817046632263 -0.156833739325
920434000 0.815130476277 -0.15498125601
920447000 0.812461459473 -0.155135022723
920460000 0.813399732372 -0.154928168688
920473000 0.812690666306 -0.157126726899
920486000 0.815172492277 -0.156475340902
920499000 0.812361703785 -0.15650727602
920512000 0.812379643906 -0.155694630088
920525000 0.814239991444 -0.15645926026
920538000 0.814145262507 -0.155501172808
920551000 0.816004224401 -0.154347738061
920564000 0.816785862297 -0.157897998617
920577000 0.818387210392 -0.15707366221
920590000 0.816139169349 -0.157125127568
920603000 0.813404254924 -0.156109550484
920616000 0.814125439064 -0.155435666415
920629000 0.813256355329 -0.153431614104
920642000 0.815402584923 -0.154035899687
920655000 0.811998536472 -0.151978983927
920668000 0.810905211167 -0.15239254721
920681000 0.810269186111 -0.155140754066
920694000 0.816499333517 -0.151452569306
920707000 0.809507439199 -0.155094488801
920720000 0.81327679405 -0.156420461111
920733000 0.813753943683 -0.156193403974
920746000 0.811248453914 -0.153299941988
920759000 0.809841306413 -0.154480374153
920772000 0.81741395341 -0.151695156309
920785000 0.816422552408 -0.155377346436
920798000 0.816519698294 -0.149846743772
920811000 0.81713724365 -0.154310774936
920824000 0.810594463441 -0.15198787947
920837000 0.812387529038 -0.157520170023
920850000 0.8138148558 -0.152236923866
920863000 0.810429107175 -0.15119806408
920876000 0.817495854199 -0.157142483853
920889000 0.813570289466 -0.157982824244
920902000 0.812120780333 -0.159028629594
920915000 0.817869144775 -0.154462773217
920928000 0.820190076259 -0.152078954306
920941000 0.814900992627 -0.153056662423
920954000 0.816616786853 -0.154972062564
920967000 0.810899915621 -0.156596078758
920980000 0.815281438714 -0.158275786327
920993000 0.816742454697 -0.157440196583
921006000 0.816884444426 -0.156279704742
921019000 0.817634163855 -0.155532826263
921032000 0.818059077098 -0.158138740618
921045000 0.817394191502 -0.154638259039
921058000 0.815034542895 -0.154319271326
921071000 0.814088509664 -0.155374032076
921084000 0.814364457333 -0.15575286521
921097000 0.813453986304 -0.155594020687
921110000 0.813524331061 -0.153237931441
921123000 0.813080944641 -0.155412467953
921136000 0.816947554431 -0.155766474733
921149000 0.812300482491 -0.155632515517
921162000 0.815327391022 -0.154200415965
921175000 0.812660239196 -0.156864460798
921188000 0.811876173819 -0.156622870409
921201000 0.811785296877 -0.15550727882
921214000 0.812421879185 -0.156775793645
921227000 0.815086967191 -0.157224013623
921240000 0.814456834168 -0.157727648711
921253000 0.81399626855 -0.158713109429
921266000 0.813866807479 -0.157767140356
921279000 0.813170583978 -0.154664415058
921292000 0.813236745837 -0.153275527105
921305000 0.812162944817 -0.15488459955
921318000 0.811135077362 -0.156556749494
921331000 0.814288186514 -0.156067351909
921344000 0.810706471641 -0.153522878808
921357000 0.811201065309 -0.153899775782
921370000 0.815326751289 -0.156851759994
921383000 0.817654347976 -0.15623461288
921396000 0.815691245459 -0.158431575264
921409000 0.816651188376 -0.156215169534
921422000 0.810384787599 -0.1580138823
921435000 0.812133279999 -0.157289189543
921448000 0.814811547993 -0.153502700477
921461000 0.818191789784 -0.15725530944
921474000 0.814089223577 -0.1560805334
921487000 0.817297014552 -0.155731081244
921500000 0.817147315933 -0.155935607111
921513000 0.815392655568 -0.155743469716
921526000 0.81146246349 -0.159758832631
921539000 0.816184619565 -0.158601969375
921552000 0.812562100993 -0.156785895979
921565000 0.811609773404 -0.152834547182
921578000 0.819023822582 -0.15985791227
921591000 0.817080680779 -0.156645388625
921604000 0.810876815584 -0.154912804099
921617000 0.81179020952 -0.156925800558
921630000 0.814362397426 -0.155027743671
921643000 0.811373735959 -0.154431172357
921656000 0.814742370732 -0.155197779664
921669000 0.818589423436 -0.158277391587
921682000 0.816304987615 -0.156034347958
921695000 0.815703321387 -0.158325662637
921708000 0.815048725157 -0.156533123742
921721000 0.812532065661 -0.155498647749
921734000 0.812571920191 -0.157749077372
921747000 0.811896616628 -0.158416081084
921760000 0.812756689535 -0.159078569124
921773000 0.813774958696 -0.15789087635
921786000 0.813620057904 -0.156886882099
921799000 0.814188871969 -0.158124649931
921812000 0.812635407213 -0.157675103539
921825000 0.814749143861 -0.156569054116
921838000 0.812973895064 -0.159926012396
921851000 0.813801998436 -0.157702638385
921864000 0.813358414949 -0.15512903896
921877000 0.813698039608 -0.158120453936
921890000 0.81381588404 -0.155945795355
921903000 0.815425882962 -0.155029440368
921916000 0.815262624481 -0.15622519421
921929000 0.813547854778 -0.157996253551
921942000 0.813747084395 -0.156223216723
921955000 0.813655748974 -0.156289647326
921968000 0.815354730512 -0.155443922131
921981000 0.811013816092 -0.157235388647
921994000 0.81267696266 -0.156190604786
922007000 0.815305936159 -0.159040817705
922020000 0.814959894767 -0.162762461945
922033000 0.813069022691 -0.156338976753
922046000 0.814411112584 -0.152827590802
922059000 0.810274001565 -0.155959938925
922072000 0.81262115819 -0.160487494274
922085000 0.814545902892 -0.158106054981
922098000 0.817702287287 -0.157885314092
922111000 0.816576367723 -0.152846376775
922124000 0.812300037039 -0.160005177999
922137000 0.813440767208 -0.155977418693
922150000 0.809651996123 -0.154768488028
922163000 0.811406433952 -0.154736940076
922176000 0.812354823564 -0.157091497441
922189000 0.814900211619 -0.159364132393
922202000 0.814322049122 -0.158077380621
922215000 0.814667392473 -0.155758245355
922228000 0.817752210274 -0.158104669637
922241000 0.813383910511 -0.155404765726
922254000 0.814785519059 -0.15449455696
922267000 0.810378597489 -0.158660839876
922280000 0.811538104643 -0.158925299986
922293000 0.811703392355 -0.156665705891
922306000 0.812998038609 -0.155486040664
922319000 0.817683889391 -0.154425580197
922332000 0.812249622905 -0.152808681935
922345000 0.81258433187 -0.15549831682
922358000 0.812443003664 -0.161327959005
922371000 0.81007597007 -0.158765527074
922384000 0.81149722255 -0.153875168602
922397000 0.811885578487 -0.157387109877
922410000 0.809559675098 -0.153329636559
922423000 0.808941599474 -0.157565363542
922436000 0.812291452792 -0.154636540643
922449000 0.81257618747 -0.158577545809
922462000 0.815675632548 -0.157992472212
922475000 0.812031332337 -0.156209189483
922488000 0.813413783788 -0.159099636752
922501000 0.813261004047 -0.159412691153
922514000 0.812777674667 -0.158478592159
922527000 0.81050550793 -0.154902985709
922540000 0.81568319399 -0.155331352657
922553000 0.810273075701 -0.153657165571
922566000 0.809904767111 -0.153787094605
922579000 0.81408484781 -0.15551438531
922592000 0.816396067215 -0.158364678799
922605000 0.813426131571 -0.157323500759
922618000 0.813018433291 -0.154972987135
922631000 0.815289746561 -0.157296571477
922644000 0.813936033611 -0.156478251514
922657000 0.813895309615 -0.156778808983
922670000 0.81206642895 -0.157358799843
922683000 0.813666852228 -0.15421515278
922696000 0.81216510147 -0.158137859767
922709000 0.814227819529 -0.155398889118
922722000 0.814517691076 -0.157086072312
922735000 0.812656910255 -0.157713611871
922748000 0.812947816066 -0.157630274439
922761000 0.813742334398 -0.156659653151
922774000 0.811797833149 -0.157759166278
922787000 0.810631420341 -0.158151520817
922800000 0.811402680036 -0.153481176054
922813000 0.811222420709 -0.154503392385
922826000 0.811724908459 -0.159078517673
922839000 0.814620756406 -0.155834856951
922852000 0.812310913749 -0.160520916053
922865000 0.81314174749 -0.162002429224
922878000 0.813485865425 -0.159578936168
922891000 0.814398913447 -0.159539121674
922904000 0.815273924588 -0.157227924128
922917000 0.813912384402 -0.15939638459
922930000 0.813083719437 -0.159610304263
922943000 0.81312345276 -0.157381557612
922956000 0.812417709284 -0.153815018534
922969000 0.81100888319 -0.156423362448
922982000 0.835450867627 -0.147809065981
922995000 0.815371865765 -0.155756419682
923008000 0.814253944779 -0.15836291652
923021000 0.812128074321 -0.158862716238
923034000 0.814124226474 -0.155587544741
923047000 0.813812351141 -0.159657633636
923060000 0.814737679295 -0.155526082374
923073000 0.815010108643 -0.157875330671
923086000 0.814470690733 -0.15297968184
923099000 0.812342105268 -0.158876896744
923112000 0.808223559112 -0.15714381597
923125000 0.812706752972 -0.157673235183
923138000 0.805972127717 -0.159807094771
923151000 0.814519759814 -0.158133238194
923164000 0.809657245168 -0.159850269655
923177000 0.815897812175 -0.155149052322
923190000 0.812117346372 -0.158638761941
923203000 0.813208768458 -0.156430229546
923216000 0.814525439829 -0.159912975042
923229000 0.814664178754 -0.15619728776
923242000 0.814749706957 -0.157890858218
923255000 0.815369290229 -0.155289614871
923268000 0.809590656997 -0.150994848546
923281000 0.808216821119 -0.15642163219
923294000 0.806216943215 -0.162515191133
923307000 0.809264183119 -0.155284581814
923320000 0.813752272624 -0.156948016291
923333000 0.810412990547 -0.158821020433
923346000 0.810965237112 -0.154603677492
923359000 0.811164541079 -0.156498878865
923372000 0.811406318702 -0.15798745434
923385000 0.810837515726 -0.158448399201
923398000 0.811261997256 -0.160791334006
923411000 0.813603808206 -0.158109876121
923424000 0.815048138679 -0.155788164638
923437000 0.812279116249 -0.158037859009
923450000 0.808983652219 -0.161771318302
923463000 0.810869710241 -0.160117190904
923476000 0.813365906901 -0.159575017979
923489000 0.810662139372 -0.159651429536
923502000 0.809357502631 -0.15957852298
923515000 0.814056413952 -0.159566882443
923528000 0.809937654843 -0.160633581508
923541000 0.812118080104 -0.158727966783
923554000 0.815109189984 -0.156395616025
923567000 0.813331091985 -0.153026544685
923580000 0.812923027939 -0.155540048504
923593000 0.813145989174 -0.158307634965
923606000 0.811947994596 -0.158580038556
923619000 0.812652098922 -0.158546448379
923632000 0.813687286261 -0.157759452163
923645000 0.81502401831 -0.157067803464
923658000 0.811781131593 -0.158435232255
923671000 0.809662193672 -0.157522285958
923684000 0.809818529052 -0.159122018136
923697000 0.810850809369 -0.155540618509
923710000 0.811675717757 -0.153815960701
923723000 0.812622459031 -0.156906439723
923736000 0.811627933946 -0.158892394264
923749000 0.809546144521 -0.159479014338
923762000 0.810474084671 -0.161778706216
923775000 0.811336384057 -0.158567708401
923788000 0.809856835368 -0.160146858849
923801000 0.816403627873 -0.151007206068
923814000 0.812369430391 -0.157984076115
923827000 0.816480794827 -0.157289346588
923840000 0.815005071998 -0.158783956377
923853000 0.814370387376 -0.159201891326
923866000 0.811854148074 -0.151526924133
923879000 0.811211233838 -0.156437463963
923892000 0.801375065613 -0.148829874347
923905000 0.813569043284 -0.153270555631
923918000 0.806671787971 -0.156337933301
923931000 0.813534221777 -0.157161636919
923944000 0.813879968409 -0.159446085013
923957000 0.812525869352 -0.160223166802
923970000 0.812572839918 -0.155925671672
923983000 0.811201067155 -0.157357538462
923996000 0.809702147539 -0.154155415215
924009000 0.81221497639 -0.156012051732
924022000 0.810522480664 -0.160310448383
924035000 0.816141126293 -0.163760892041
924048000 0.813536629017 -0.159185549085
924061000 0.796382581285 -0.150421132404
924074000 0.814513108798 -0.156913594758
924087000 0.812175372885 -0.157432646634
924100000 0.810165129083 -0.161749049438
924113000 0.809781555093 -0.16147069915
924126000 0.812835342186 -0.157220193731
924139000 0.811755181675 -0.159615394244
924152000 0.812532694849 -0.158826031732
924165000 0.815391469972 -0.159584787984
924178000 0.813227398718 -0.160132787704
924191000 0.812523762403 -0.156702636537
924204000 0.81231850396 -0.156871866089
924217000 0.813381581385 -0.154586570116
924230000 0.817062068677 -0.158415147098
924243000 0.816070181718 -0.159106826092
924256000 0.811525280623 -0.159551027591
924269000 0.812432686903 -0.161525327566
924282000 0.814934140805 -0.161746099962
924295000 0.812406786369 -0.157890257901
924308000 0.816883348376 -0.158694867557
924321000 0.816596465509 -0.156166979687
924334000 0.8110841054 -0.158047000822
924347000 0.811924097107 -0.160238650058
924360000 0.813528355422 -0.160820166284
924373000 0.812859550303 -0.164105894061
924386000 0.812582141709 -0.161844805199
924399000 0.813286837383 -0.157978570388
924412000 0.815272596026 -0.158725853518
924425000 0.812684802882 -0.161412777233
924438000 0.809852679374 -0.159414924729
924451000 0.810225937072 -0.163499258452
924464000 0.816027723885 -0.153899963624
924477000 0.818208530082 -0.159245396655
924490000 0.812413171297 -0.15438355852
924503000 0.818197210376 -0.158189784209
924516000 0.809399605714 -0.16253068686
924529000 0.813500004185 -0.15812852648
924542000 0.815416534686 -0.156129347617
924555000 0.810534140401 -0.156928639091
924568000 0.807418278241 -0.162467268242
924581000 0.808798274609 -0.165666437635
924594000 0.812831253975 -0.157144245999
924607000 0.810099400195 -0.161897896579
924620000 0.810523041671 -0.155044903731
924633000 0.811211248295 -0.152688603022
924646000 0.811382425564 -0.156006077478
924659000 0.81697595386 -0.167175347586
924672000 0.812480538606 -0.157808218017
924685000 0.812701124628 -0.159731986006
924698000 0.815313751589 -0.15514219493
924711000 0.815024032498 -0.15886567766
924724000 0.810620424408 -0.159081577064
924737000 0.805588320714 -0.150231357371
924750000 0.815408549287 -0.155800824954
924763000 0.810532313122 -0.160772783911
924776000 0.807836966797 -0.15676718859
924789000 0.804795308079 -0.164471298984
924802000 0.807020682856 -0.160426938309
924815000 0.805711899971 -0.16430966676
924828000 0.815495908518 -0.160574912671
924841000 0.813910255055 -0.160801415364
924854000 0.811233076715 -0.153894265517
924867000 0.811678718629 -0.157576553897
924880000 0.810929250423 -0.158522824193
924893000 0.80802942647 -0.161209271387
924906000 0.809814056701 -0.158327679838
924919000 0.809619651614 -0.156123868447
924932000 0.811034111007 -0.160225832827
924945000 0.81122488469 -0.162725842398
924958000 0.816063421041 -0.160111110976
924971000 0.811208770998 -0.156259733228
924984000 0.809955981268 -0.157879740945
924997000 0.810252772528 -0.158469279043
925010000 0.810509777506 -0.158905431496
925023000 0.810016586533 -0.16215953008
925036000 0.813273775773 -0.156101003943
925049000 0.813247724417 -0.158065518128
925062000 0.814139268124 -0.15702858485
925075000 0.813554190307 -0.155066554702
925088000 0.813521562098 -0.160852134347
925101000 0.809104947973 -0.159906993026
925114000 0.811278752045 -0.162653589223
925127000 0.817289052521 -0.159172141287
925140000 0.83491716866 -0.140415219624
925153000 0.843139336328 -0.137753306712
925166000 0.837118775824 -0.153240393385
925179000 0.812395615849 -0.16224807701
925192000 0.812328576416 -0.157683656913
925205000 0.812557487329 -0.162003619877
925218000 0.818705599884 -0.159494873937
925231000 0.818211431407 -0.15991235466
925244000 0.818449825268 -0.158952443837
925257000 0.812582728517 -0.160301103873
925270000 0.810141099445 -0.161458597013
925283000 0.816877322255 -0.160218676258
925296000 0.806045772869 -0.167266664986
925309000 0.81056094715 -0.155818019384
925322000 0.807174169199 -0.162598237815
925335000 0.816360011944 -0.15929658259
925348000 0.816253547267 -0.154785957088
925361000 0.815279373831 -0.155930798604
925374000 0.810958365261 -0.156583311453
925387000 0.809178371355 -0.16751809417
925400000 0.807802205786 -0.155375412268
925413000 0.811222163314 -0.159772732526
925426000 0.815267639923 -0.159836443524
925439000 0.817894899771 -0.156375818736
925452000 0.812947014984 -0.166165145271
925465000 0.810486363802 -0.168336540872
925478000 0.819275063431 -0.161669084505
925491000 0.820354794555 -0.163347120404
925504000 0.807718327612 -0.161356491404
925517000 0.815035529428 -0.159844184873
925530000 0.817292014069 -0.156065640588
925543000 0.81005004396 -0.162966588913
925556000 0.810224480782 -0.156313604288
925569000 0.809068766162 -0.154836482516
925582000 0.812439510945 -0.16443255977
925595000 0.808299141976 -0.158584051033
925608000 0.814836543478 -0.164586448544
925621000 0.810349389903 -0.159798645115
925634000 0.812119433105 -0.160965040378
925647000 0.811699131045 -0.158833303427
925660000 0.810674223471 -0.161612095072
925673000 0.813664216846 -0.159430220437
925686000 0.813958913704 -0.157113887608
925699000 0.811929258475 -0.15858538227
925712000 0.810315445569 -0.155733192085
925725000 0.810489095165 -0.158516688685
925738000 0.812810105803 -0.156573555917
925751000 0.811361041482 -0.158319852702
925764000 0.812540572808 -0.158767652591
925777000 0.811484689277 -0.159108849104
925790000 0.812692863709 -0.159350119403
925803000 0.810296354102 -0.157249802833
925816000 0.812222087575 -0.157196739909
925829000 0.812594573832 -0.15738672484
925842000 0.814322809683 -0.158370886615
925855000 0.810896912036 -0.160127161299
925868000 0.812295260883 -0.164434236052
925881000 0.811026088785 -0.158868369065
925894000 0.810094773972 -0.157282067723
925907000 0.809682623189 -0.159590051883
925920000 0.810050431577 -0.157908633069
925933000 0.811520369996 -0.158254833341
925946000 0.815986308349 -0.157143587708
925959000 0.813022270707 -0.160300808549
925972000 0.813979616299 -0.162659496801
925985000 0.811219365055 -0.153892755694
925998000 0.815771744212 -0.156711178597
926011000 0.80296566163 -0.154260703377
926024000 0.816987643508 -0.15852859611
926037000 0.818512399305 -0.165235343339
926050000 0.807103058971 -0.151108452828
926063000 0.811194354684 -0.155172845403
926076000 0.806854616745 -0.155327302449
926089000 0.802300782171 -0.15753112633
926102000 0.807266037541 -0.153494410983
926115000 0.811489249504 -0.15853755176
926128000 0.805659843646 -0.152185377533
926141000 0.820927739654 -0.16225914342
926154000 0.806107974896 -0.156937301954
926167000 0.811615946567 -0.154667106484
926180000 0.811576160968 -0.159669453126
926193000 0.81334247365 -0.160285429915
926206000 0.821353782669 -0.160932184423
926219000 0.81514028963 -0.153787401336
926232000 0.809352134759 -0.151503147289
926245000 0.801720124323 -0.159076233436
926258000 0.808912275325 -0.160652472875
926271000 0.810749028288 -0.156637017009
926284000 0.818480917215 -0.15994129051
926297000 0.807114026937 -0.159031461379
926310000 0.810457594118 -0.162828747587
926323000 0.811476627082 -0.154394964219
926336000 0.812031661562 -0.155261813963
926349000 0.811421763632 -0.155811848084
926362000 0.811363225537 -0.159281062616
926375000 0.809688778354 -0.160324493572
926388000 0.807863900985 -0.159679776451
926401000 0.808916865684 -0.161728021535
926414000 0.806383691528 -0.156876075094
926427000 0.81785791894 -0.158407511972
926440000 0.812898632375 -0.158119943231
926453000 0.809596076618 -0.1576572232
926466000 0.807191238009 -0.159406895549
926479000 0.809035481249 -0.160525843245
926492000 0.812591692155 -0.159823589495
926505000 0.813191513476 -0.160856376831
926518000 0.810628383608 -0.160119293994
926531000 0.804412011863 -0.159022924423
926544000 0.811455134071 -0.15563925484
926557000 0.813142825591 -0.159054004432
926570000 0.810425779808 -0.154667856731
926583000 0.81311826569 -0.159332079514
926596000 0.812722596467 -0.155742792339
926609000 0.812556304994 -0.158249654888
926622000 0.807645505661 -0.162328168757
926635000 0.803995353278 -0.155885741695
926648000 0.807821968241 -0.153758674148
926661000 0.809864762675 -0.157622654793
926674000 0.810912502858 -0.156797405344
926687000 0.810171556659 -0.159477963949
926700000 0.800788607914 -0.159945460488
926713000 0.811083308908 -0.158237557861
926726000 0.813403010318 -0.157198381513
926739000 0.808493610468 -0.160432109304
926752000 0.80937794386 -0.163052212811
926765000 0.803546402611 -0.15212394164
926778000 0.814829625981 -0.154963784315
926791000 0.814498730856 -0.15338668285
926804000 0.810877778567 -0.154070222352
926817000 0.820316784709 -0.155819874386
926830000 0.819284207831 -0.164258708494
926843000 0.812709243124 -0.155877692698
926856000 0.806969705844 -0.159216734021
926869000 0.809907791208 -0.173785501712
926882000 0.808532859918 -0.162874455792
926895000 0.801723908949 -0.161334521557
926908000 0.813548809439 -0.154653864205
926921000 0.799920377781 -0.16368906336
926934000 0.807041802271 -0.157371966386
926947000 0.80116024669 -0.158147270995
926960000 0.803049308758 -0.16057973575
926973000 0.803574252072 -0.161750669307
926986000 0.815234533232 -0.15457391228
926999000 0.817187947395 -0.157128178887
927012000 0.810085334954 -0.158619115611
927025000 0.803503359752 -0.153915815935
927038000 0.804593842316 -0.159043790092
927051000 0.816537774706 -0.153175679825
927064000 0.810180379547 -0.15325199163
927077000 0.808194307821 -0.15196098286
927090000 0.815842306089 -0.159100353929
927103000 0.811929217369 -0.154751855516
927116000 0.812054692107 -0.155835757275
927129000 0.818398749987 -0.160496822525
927142000 0.815285890969 -0.157026353149
927155000 0.80939723371 -0.155084052169
927168000 0.812520604891 -0.154726413672
927181000 0.810263986177 -0.160590638484
927194000 0.811569326125 -0.160730989218
927207000 0.815416401144 -0.158099067151
927220000 0.811960483218 -0.155905601984
927233000 0.811108915847 -0.153799729052
927246000 0.81458539509 -0.156516243587
927259000 0.807365434543 -0.156211589072
927272000 0.807235847677 -0.156646007197
927285000 0.813662902457 -0.152077467978
927298000 0.809480956515 -0.159222199682
927311000 0.811715247588 -0.156822607663
927324000 0.810225809685 -0.157830806217
927337000 0.80958984077 -0.158295293795
927350000 0.806001445852 -0.158310962986
927363000 0.810163735305 -0.158228717055
927376000 0.809657676381 -0.154497872421
927389000 0.810285970535 -0.159533498424
927402000 0.812830601827 -0.16155043664
927415000 0.807243426021 -0.157186142828
927428000 0.812029718222 -0.155155877068
927441000 0.811878864853 -0.158118906453
927454000 0.809642836554 -0.161735024158
927467000 0.806306252866 -0.144138893702
927480000 0.811846031842 -0.150803703015
927493000 0.806183048319 -0.158978843102
927506000 0.804158099113 -0.161473012431
927519000 0.811627871796 -0.155497149585
927532000 0.814940692411 -0.156844779032
927545000 0.814961207696 -0.154420184521
927558000 0.807514555651 -0.160749095635
927571000 0.815031109456 -0.162271756125
927584000 0.800254170426 -0.151873203739
927597000 0.80469315606 -0.152494015775
927610000 0.803906474858 -0.159515842638
927623000 0.816458346226 -0.159561551829
927636000 0.803041251756 -0.153651201497
927649000 0.81532115146 -0.159630703173
927662000 0.809931151164 -0.158207781541
927675000 0.806403893503 -0.154832331563
927688000 0.804807196849 -0.158388891948
927701000 0.80831011358 -0.154032624602
927714000 0.802249182945 -0.153311380792
927727000 0.80445248795 -0.159684733455
927740000 0.821584734016 -0.16169608039
927753000 0.810259496815 -0.158883933865
927766000 0.805680175826 -0.165828048335
927779000 0.810397083779 -0.157843351179
927792000 0.810414581858 -0.171900568776
927805000 0.810135919644 -0.155984574753
927818000 0.814678095985 -0.153842300954
927831000 0.813393802185 -0.15187193468
927844000 0.810342869954 -0.155893396888
927857000 0.813376699379 -0.156730715774
927870000 0.808298978524 -0.158741551898
927883000 0.807669473553 -0.154940206539
927896000 0.810847567718 -0.155268066383
927909000 0.812687841136 -0.161387653309
927922000 0.814439011592 -0.155959082392
927935000 0.811835581905 -0.159051101105
927948000 0.812677447311 -0.153980376736
927961000 0.810303871044 -0.160381448313
927974000 0.813893481402 -0.159141085164
927987000 0.80914377736 -0.158540775683
928000000 0.812442121149 -0.16063941335
