! Calibrated averaged scanner-service zoom
# Hz S RI R 50
406100000 0.161207964228 -0.0354238184856
406106950 0.161853757907 -0.0352368629143
406113900 0.161675092096 -0.0355169065071
406120850 0.161595097756 -0.0355104236084
406127800 0.161939065157 -0.0356535208632
406134750 0.161563314095 -0.0353129079127
406141700 0.161698025193 -0.0352609267944
406148650 0.161870060835 -0.0345099077975
406155600 0.161763615345 -0.0345885028156
406162550 0.161869505707 -0.0345619991711
406169500 0.16177743667 -0.0344646199476
406176450 0.161666694548 -0.0346956315298
406183400 0.161245001522 -0.0343780421023
406190350 0.16183100272 -0.0344157769061
406197300 0.161298348488 -0.0346082450979
406204250 0.161538912411 -0.0349003953148
406211200 0.161667314557 -0.0339851377039
406218150 0.161829135139 -0.0347137447548
406225100 0.161632574289 -0.034518026558
406232050 0.1618317364 -0.0334908137955
406239000 0.164784180326 -0.0340050977549
406245950 0.161795155133 -0.0340250235605
406252900 0.161104254228 -0.0340185173309
406259850 0.16108392848 -0.0341360175239
406266800 0.161709384097 -0.03371066393
406273750 0.162086359922 -0.033704498385
406280700 0.161002447085 -0.0338301066156
406287650 0.161547698656 -0.0333341054574
406294600 0.161520390136 -0.0327751839094
406301550 0.161931295752 -0.0329360934608
406308500 0.161079617699 -0.0328841130016
406315450 0.161148154783 -0.0333761477378
406322400 0.161606390924 -0.0329710834114
406329350 0.161663537473 -0.0329181639492
406336300 0.161912370459 -0.0327359560155
406343250 0.161078322891 -0.0333454179925
406350200 0.160888280058 -0.0334295598609
406357150 0.1615571327 -0.0336991850085
406364100 0.160853698918 -0.0326480226179
406371050 0.161072024729 -0.0331079124758
406378000 0.161539050238 -0.0327103067008
406384950 0.161771367061 -0.0317109433441
406391900 0.161999770388 -0.0325077937179
406398850 0.161324232707 -0.0325654811264
406405800 0.161559077073 -0.0328817202961
406412750 0.161794822779 -0.0326590584101
406419700 0.161471974988 -0.0322537063086
406426650 0.161189457929 -0.0325606496442
406433600 0.161436869612 -0.0318213900499
406440550 0.16165435371 -0.0319035177781
406447500 0.162110546617 -0.032465024871
406454450 0.161699671782 -0.0316666092442
406461400 0.160935870365 -0.0314292918093
406468350 0.161806206331 -0.0319864434861
406475300 0.161600286829 -0.0317597218781
406482250 0.161200329086 -0.0321836758398
406489200 0.161302176784 -0.0314551129687
406496150 0.16165915591 -0.0321472688414
406503100 0.161795591334 -0.0313496892682
406510050 0.161972145615 -0.0316467474239
406517000 0.161518064408 -0.0319207909433
406523950 0.161636870479 -0.0310356337669
406530900 0.162058713535 -0.0311610405972
406537850 0.161982106265 -0.0315955170565
406544800 0.161406320335 -0.0311107657086
406551750 0.161763426924 -0.0315135627297
406558700 0.161772900884 -0.0318087903661
406565650 0.161661160331 -0.0316174148082
406572600 0.161621170756 -0.0315209686197
406579550 0.161444646917 -0.0315016524807
406586500 0.162278361217 -0.0314235211164
406593450 0.162134610961 -0.0314239341854
406600400 0.161935041428 -0.0315625953556
406607350 0.161703757412 -0.0311641481754
406614300 0.162083342657 -0.0307653716352
406621250 0.162179298688 -0.0310320179057
406628200 0.16150566388 -0.0309302070416
406635150 0.161974639478 -0.0314744850712
406642100 0.161941370707 -0.0310680997376
406649050 0.161937827729 -0.0311401863867
406656000 0.162071159239 -0.0310773844539
406662950 0.161915927141 -0.0313828026661
406669900 0.161623000467 -0.0312475630795
406676850 0.161926561066 -0.0312029240216
406683800 0.161864528445 -0.0310420472326
406690750 0.161452392081 -0.0309422200826
406697700 0.161502987034 -0.030787248463
406704650 0.161672457286 -0.0309032795863
406711600 0.161861483809 -0.0311774611964
406718550 0.161411204779 -0.0309402580751
406725500 0.161328829865 -0.0304601114942
406732450 0.16235164979 -0.0302905664136
406739400 0.16214102475 -0.0305868904981
406746350 0.161648200304 -0.0305630218753
406753300 0.161591137628 -0.0307396155053
406760250 0.161955035214 -0.0308431941544
406767200 0.162126381756 -0.0305895246142
406774150 0.161242743801 -0.0308988061663
406781100 0.161337835819 -0.0302484841298
406788050 0.162059368794 -0.0299771035303
406795000 0.161089458605 -0.0305941423383
406801950 0.160430390528 -0.0295364038227
406808900 0.160608642645 -0.029494862547
406815850 0.160299079474 -0.0295117396481
406822800 0.160943562534 -0.029789929319
406829750 0.159970658239 -0.0296781420604
406836700 0.159989675218 -0.0287480394572
406843650 0.160017421127 -0.0287991646927
406850600 0.160028532895 -0.0296409389316
406857550 0.159921181678 -0.0297595200813
406864500 0.160050512711 -0.0295263192494
406871450 0.160352120537 -0.0295708234026
406878400 0.160081736582 -0.0291255210216
406885350 0.160749272258 -0.0293653315153
406892300 0.160054687333 -0.028982938715
406899250 0.160456010962 -0.0285630827545
406906200 0.160569203124 -0.0292468711516
406913150 0.160461081763 -0.0288115553841
406920100 0.160239507954 -0.0289746647796
406927050 0.160605872823 -0.0287160908864
406934000 0.160299715123 -0.0284129981908
406940950 0.160351747084 -0.0288534383987
406947900 0.15988665103 -0.029070913486
406954850 0.159787562224 -0.0291380380463
406961800 0.159953551527 -0.0292538785713
406968750 0.159442008908 -0.0291953854887
406975700 0.159850791586 -0.0284771904863
406982650 0.159764819042 -0.0285649279377
406989600 0.159918478326 -0.0285655327193
406996550 0.15997361625 -0.0280633597017
407003500 0.159911666756 -0.0284237254978
407010450 0.1600266725 -0.0275766501922
407017400 0.160268337072 -0.0283050245123
407024350 0.160073352454 -0.0281758897419
407031300 0.159732490596 -0.0279386156541
407038250 0.160090383642 -0.028372262066
407045200 0.159854401005 -0.0287803549484
407052150 0.159432438154 -0.0277028059553
407059100 0.159821900743 -0.0285558980669
407066050 0.159447346406 -0.0279216824931
407073000 0.159731298952 -0.0281111749607
407079950 0.159496001001 -0.0279910492573
407086900 0.159599090513 -0.0276801979436
407093850 0.159220887946 -0.0276238551525
407100800 0.160021260766 -0.0272379462625
407107750 0.159930664801 -0.0275654930833
407114700 0.159750662494 -0.0274651336186
407121650 0.159202439324 -0.0273431295907
407128600 0.1591530286 -0.0271074709028
407135550 0.158986160492 -0.0272370380369
407142500 0.159323954052 -0.0276197516894
407149450 0.159493606578 -0.0276406903425
407156400 0.159450534411 -0.0269865242757
407163350 0.15979669138 -0.0273976701875
407170300 0.159429648001 -0.0277527143215
407177250 0.159353570867 -0.0269320606439
407184200 0.159090238235 -0.0274070849185
407191150 0.159400897599 -0.0274354688865
407198100 0.158855574484 -0.0270713859587
407205050 0.159156935931 -0.0275142795255
407212000 0.158968904716 -0.0272593550661
407218950 0.159568268217 -0.0271333567322
407225900 0.158850244006 -0.0269453171388
407232850 0.159020596333 -0.0268636956709
407239800 0.159004596845 -0.0269392494404
407246750 0.158808805349 -0.0266498552257
407253700 0.159022819448 -0.0263503560767
407260650 0.158863552038 -0.0271529695964
407267600 0.15846435275 -0.0270206333244
407274550 0.159244091756 -0.0270482090138
407281500 0.15877685291 -0.0266581756853
407288450 0.15898216254 -0.027038229622
407295400 0.158902897217 -0.0265389117385
407302350 0.158486858021 -0.0265094929723
407309300 0.1584821284 -0.0267635712609
407316250 0.158334145038 -0.0260461986958
407323200 0.158112603718 -0.0276675048272
407330150 0.159126183066 -0.0262839028746
407337100 0.15853426655 -0.0262305766632
407344050 0.158572085955 -0.0259077868946
407351000 0.158623780396 -0.0265531241164
407357950 0.15801502271 -0.0266048456735
407364900 0.158031783653 -0.0257567696496
407371850 0.158288881478 -0.026229278372
407378800 0.15842131472 -0.0262114498069
407385750 0.158173436118 -0.0258292867878
407392700 0.158666728926 -0.0269576094768
407399650 0.158330171833 -0.0258472754461
407406600 0.158665753931 -0.0255445963407
407413550 0.157931704785 -0.0258559101848
407420500 0.158684178282 -0.0255081532169
407427450 0.158207562865 -0.0250332190629
407434400 0.158360954357 -0.0253964184003
407441350 0.158309440469 -0.0253541507648
407448300 0.15831135493 -0.025535442545
407455250 0.15874252071 -0.0246903189313
407462200 0.158356012379 -0.0254115045297
407469150 0.158417507478 -0.0251218644307
407476100 0.158491972883 -0.0253872853226
407483050 0.158788186974 -0.0254623848404
407490000 0.158512999818 -0.0254633999517
407496950 0.157590443314 -0.0269419804372
407503900 0.157606028732 -0.027335446918
407510850 0.158069774986 -0.0269655394912
407517800 0.157729501776 -0.0268750652922
407524750 0.156630785359 -0.0272164341004
407531700 0.156489593223 -0.0268983806855
407538650 0.157007905735 -0.027144738209
407545600 0.157320311258 -0.0264459148275
407552550 0.156338708188 -0.0263249663894
407559500 0.156551398116 -0.0266513654036
407566450 0.156478217547 -0.0265291795403
407573400 0.156710618849 -0.0265005819898
407580350 0.155781622886 -0.0264117496715
407587300 0.156656624015 -0.026375122069
407594250 0.156309030639 -0.0261194789625
407601200 0.156444397954 -0.0262722982019
407608150 0.155945375614 -0.0260546795129
407615100 0.155830953664 -0.0263574160371
407622050 0.155674597587 -0.0266542535516
407629000 0.156237139937 -0.0261931500853
407635950 0.156185606142 -0.0258018038778
407642900 0.155587257537 -0.0257762078991
407649850 0.155583832973 -0.0257315533479
407656800 0.156806770205 -0.0262195606772
407663750 0.155755756131 -0.0255736565973
407670700 0.155689399119 -0.0258172506342
407677650 0.155610576383 -0.0255029675178
407684600 0.15588267638 -0.0257753922938
407691550 0.155764886143 -0.0253371257946
407698500 0.155424176394 -0.0254593909491
407705450 0.155754915436 -0.0256657298096
407712400 0.15610068223 -0.0257973485409
407719350 0.156013920491 -0.0253008988246
407726300 0.155432973576 -0.0250420670881
407733250 0.154978217649 -0.0251788200909
407740200 0.155274823693 -0.0250653060626
407747150 0.15601100354 -0.0253189361773
407754100 0.155817901929 -0.0248660454174
407761050 0.155771179592 -0.0250759454826
407768000 0.156014116907 -0.025430163015
407774950 0.156443793432 -0.0251266933193
407781900 0.155929941971 -0.0246349959004
407788850 0.155434267269 -0.0255141500924
407795800 0.155798132947 -0.0251657613059
407802750 0.15553786538 -0.0250513790097
407809700 0.155614023576 -0.0248796112603
407816650 0.155370196137 -0.0250427231984
407823600 0.155891401469 -0.0251739448495
407830550 0.156118115866 -0.022239020584
407837500 0.15582655492 -0.0253075052184
407844450 0.155340571384 -0.0253641579907
407851400 0.155117996832 -0.0254273376357
407858350 0.155902821708 -0.0251366517941
407865300 0.155919137037 -0.0246755281628
407872250 0.155457072727 -0.0249806996254
407879200 0.156062259863 -0.0247116089047
407886150 0.156102649918 -0.0245613062589
407893100 0.15599797633 -0.0246822288455
407900050 0.155258149782 -0.0245838500772
407907000 0.154930561527 -0.0249274922114
407913950 0.155114756953 -0.0245727526562
407920900 0.155762638956 -0.0244816107679
407927850 0.155321159859 -0.0246609082089
407934800 0.155102278496 -0.024809089094
407941750 0.155595057475 -0.024942456116
407948700 0.155730721376 -0.0247874672755
407955650 0.15573517708 -0.0244846562902
407962600 0.155450260995 -0.0247180208796
407969550 0.155276030029 -0.0245745548049
407976500 0.155323575864 -0.0242761427825
407983450 0.15551100655 -0.0240862597441
407990400 0.155365815408 -0.0241345386091
407997350 0.155657844589 -0.0242038748502
408004300 0.155457260245 -0.0242626333654
408011250 0.155374986565 -0.0237547391062
408018200 0.155059626424 -0.0238621104844
408025150 0.155152689307 -0.0240752539178
408032100 0.155133059403 -0.0243629257929
408039050 0.155092241834 -0.0245143976354
408046000 0.154513789326 -0.0231504342417
408052950 0.155117355392 -0.0240140074328
408059900 0.154816762876 -0.0240507381877
408066850 0.155152240416 -0.0237104081115
408073800 0.154534430144 -0.0238997534001
408080750 0.153898918933 -0.023354234977
408087700 0.153977300413 -0.0235487189136
408094650 0.154531263709 -0.0233298540451
408101600 0.154429696157 -0.0233199005863
408108550 0.154661266372 -0.0233440685525
408115500 0.154735134182 -0.0235149237855
408122450 0.154561958051 -0.0231576505487
408129400 0.154135362071 -0.022756666493
408136350 0.154380050932 -0.0231091436655
408143300 0.154307898999 -0.0231679969522
408150250 0.153983482852 -0.023231718313
408157200 0.153839700527 -0.0232802967725
408164150 0.154112003504 -0.022971268444
408171100 0.153456142814 -0.022987116072
408178050 0.153711483179 -0.0230233733191
408185000 0.153925152759 -0.0227065939868
408191950 0.151539157031 -0.0212863805547
408198900 0.151754739179 -0.0209736083708
408205850 0.15154800624 -0.0209470091805
408212800 0.150810786828 -0.0208966233204
408219750 0.151139876468 -0.0209846637674
408226700 0.151038638093 -0.0208948322331
408233650 0.150942428531 -0.0206414830461
408240600 0.150923849855 -0.0206321556996
408247550 0.150648257534 -0.0204366557707
408254500 0.150801180005 -0.0205460890452
408261450 0.151344875251 -0.0203971905905
408268400 0.151101519609 -0.0200653666804
408275350 0.150519525488 -0.020022524344
408282300 0.150796773301 -0.0198946610618
408289250 0.151460871083 -0.0201395284074
408296200 0.150796798417 -0.0197253824006
408303150 0.150878810774 -0.0194315870268
408310100 0.150774902898 -0.0191413703658
408317050 0.151442391187 -0.0196384394214
408324000 0.151079360782 -0.0192591047535
408330950 0.15064300075 -0.0193300769972
408337900 0.15021729512 -0.0194631480412
408344850 0.150612774151 -0.01939878049
408351800 0.150473242801 -0.0194584573271
408358750 0.150518288119 -0.0190704344666
408365700 0.150777860819 -0.0193518310536
408372650 0.151033280563 -0.0190057755623
408379600 0.15117409485 -0.0188538622997
408386550 0.150426120424 -0.0186683658288
408393500 0.150110565667 -0.0183212269446
408400450 0.150069230742 -0.0185553056713
408407400 0.150551074841 -0.018503314122
408414350 0.150242619235 -0.0181913073674
408421300 0.150512495868 -0.0181888764489
408428250 0.151128600037 -0.0185140766465
408435200 0.151511154738 -0.0182717557458
408442150 0.150760746895 -0.0180427240081
408449100 0.150418247796 -0.0175245188575
408456050 0.150218327137 -0.0178180012749
408463000 0.151202129949 -0.0179178808458
408469950 0.150470688523 -0.0173780755998
408476900 0.150907195507 -0.0177595017465
408483850 0.150834089498 -0.0173908065836
408490800 0.151075197528 -0.0178250874105
408497750 0.151077110236 -0.0175706965827
408504700 0.15047020128 -0.0173784263817
408511650 0.150964178276 -0.0178252831375
408518600 0.150757207496 -0.0178655316848
408525550 0.150663856837 -0.017161646687
408532500 0.150387581313 -0.0169510772101
408539450 0.150241235303 -0.0169261609387
408546400 0.150602623315 -0.0172568719979
408553350 0.150953501493 -0.017063341142
408560300 0.150644020905 -0.0168938582808
408567250 0.150687942736 -0.0174109424503
408574200 0.151041410249 -0.0171159349643
408581150 0.150743040621 -0.0164846423771
408588100 0.15073525938 -0.0165892625124
408595050 0.150690747799 -0.0164118702901
408602000 0.150815044101 -0.0165143047283
408608950 0.151469148602 -0.0162278365923
408615900 0.1503819111 -0.0163613166834
408622850 0.150583470075 -0.0164651872293
408629800 0.150571149553 -0.0162883169116
408636750 0.151064568078 -0.0163592777504
408643700 0.150513911237 -0.0164067870159
408650650 0.151002409848 -0.0166707837808
408657600 0.150870466481 -0.01697608327
408664550 0.151195925047 -0.0169655594616
408671500 0.150378998171 -0.0163303254597
408678450 0.150315587194 -0.0167532327741
408685400 0.150334229516 -0.0159423625758
408692350 0.150334202041 -0.0157442845618
408699300 0.150470095899 -0.0159784689337
408706250 0.149967990849 -0.0160155299018
408713200 0.150883036488 -0.0156296437454
408720150 0.150725932641 -0.0159868761345
408727100 0.150658134618 -0.015826419082
408734050 0.150156243865 -0.015382773357
408741000 0.150148450868 -0.0157616571108
408747950 0.150405729892 -0.0158845033644
408754900 0.150623284119 -0.0157827860741
408761850 0.150275176018 -0.0151933307438
408768800 0.150242804907 -0.0155269944938
408775750 0.150233467084 -0.0151305091306
408782700 0.150854178757 -0.015872159573
408789650 0.15020368171 -0.0151560516567
408796600 0.149967434799 -0.0155010239894
408803550 0.149767316485 -0.0152693425184
408810500 0.150039696617 -0.0152426943948
408817450 0.15000389693 -0.0149165886588
408824400 0.149784883214 -0.0147766192305
408831350 0.150209809647 -0.0149198961707
408838300 0.150498725888 -0.0152182671646
408845250 0.150391580064 -0.0151262311286
408852200 0.149787640887 -0.0146190927638
408859150 0.14977014904 -0.0147079282038
408866100 0.150204194065 -0.0149103903904
408873050 0.149953320644 -0.0145930314187
408880000 0.149405596259 -0.0142730352961
408886950 0.152733761533 -0.0147509814563
408893900 0.152479145578 -0.0148418689587
408900850 0.151613954359 -0.0144053040139
408907800 0.152631014136 -0.0148446144722
408914750 0.152666788504 -0.0148210896765
408921700 0.152902877948 -0.0144629752011
408928650 0.152846168796 -0.0145689181674
408935600 0.152353053172 -0.0140654328925
408942550 0.152521720031 -0.0142798972831
408949500 0.152872103158 -0.013648355604
408956450 0.151882619419 -0.0139528240683
408963400 0.152562944622 -0.0139751216315
408970350 0.152343180934 -0.0137868781268
408977300 0.15234697251 -0.0137686229869
408984250 0.152399919427 -0.014078621973
408991200 0.152033994316 -0.0137207274691
408998150 0.152486624258 -0.0142190731659
409005100 0.152276219271 -0.0140539133472
409012050 0.152670040885 -0.0138416267955
409019000 0.151915139017 -0.0135546405456
409025950 0.152549260025 -0.0136002825809
409032900 0.152968560034 -0.0133982985075
409039850 0.152889158378 -0.0139089144784
409046800 0.152045926531 -0.013725991041
409053750 0.151881169829 -0.0133079963656
409060700 0.152090763011 -0.0139677935902
409067650 0.152314105418 -0.013352073351
409074600 0.151810084887 -0.0130823151934
409081550 0.152175320831 -0.0130571242538
409088500 0.152480025483 -0.0137318272254
409095450 0.152042830529 -0.0133969388354
409102400 0.151621242496 -0.0132979412686
409109350 0.151518469958 -0.0132395717804
409116300 0.151474998378 -0.0133879223512
409123250 0.152000927923 -0.0131841464805
409130200 0.15166696227 -0.0127515729503
409137150 0.152047975366 -0.0129712717158
409144100 0.152153584703 -0.0127796262536
409151050 0.1521619399 -0.0126016638048
409158000 0.152231773089 -0.0127216155338
409164950 0.151789306865 -0.0123706149566
409171900 0.151370515685 -0.0122870399287
409178850 0.151355809478 -0.0124274730009
409185800 0.151941335865 -0.0124552754544
409192750 0.151567737079 -0.012437513124
409199700 0.151424460176 -0.0127571359234
409206650 0.152183937525 -0.0125992186375
409213600 0.151516291654 -0.0124739056495
409220550 0.151471912118 -0.0125945411178
409227500 0.152584006594 -0.012508872436
409234450 0.15220020266 -0.0124809451588
409241400 0.151890751599 -0.0125835841046
409248350 0.151303430207 -0.0121518601168
409255300 0.151907035743 -0.0123160601259
409262250 0.151920648293 -0.0125248258841
409269200 0.15185947367 -0.0120755912318
409276150 0.151690469955 -0.0115673656076
409283100 0.151613705144 -0.011936475541
409290050 0.151045017501 -0.0117601236153
409297000 0.151546728259 -0.0113567666834
409303950 0.151760933233 -0.0119112554675
409310900 0.151799390781 -0.0115471190959
409317850 0.151103579271 -0.0120474675311
409324800 0.150773647812 -0.0117641706188
409331750 0.151086149356 -0.0118853963621
409338700 0.150826451716 -0.0114742848563
409345650 0.150722797462 -0.0111993664042
409352600 0.150842750717 -0.0108805468199
409359550 0.150830217821 -0.0103637457929
409366500 0.150766159429 -0.00920926198355
409373450 0.150908517279 -0.00870805504675
409380400 0.151356002894 -0.0095391314138
409387350 0.151598646379 -0.00988599362113
409394300 0.15170836227 -0.0103377000432
409401250 0.151326621586 -0.0106989646093
409408200 0.151347088548 -0.0107771652536
409415150 0.151412172936 -0.0105040434794
409422100 0.151179603407 -0.0107212682052
409429050 0.150909621563 -0.0108431719275
409436000 0.15082461898 -0.011234645004
409442950 0.15063493035 -0.0102357634542
409449900 0.151126162165 -0.01053460234
409456850 0.151180504642 -0.0104719688281
409463800 0.151208421105 -0.0105705192627
409470750 0.150019275911 -0.0118677161379
409477700 0.149910583983 -0.0125004418573
409484650 0.149285592963 -0.013535854053
409491600 0.148920066914 -0.0137052994021
409498550 0.148621991617 -0.0138567153651
409505500 0.150069371299 -0.0120290934815
409512450 0.150286239565 -0.0112812171998
409519400 0.15123954683 -0.0095092406541
409526350 0.151328805562 -0.0100301273683
409533300 0.151425181954 -0.0101685158579
409540250 0.151230943961 -0.00997182754735
409547200 0.150923753093 -0.0105488601247
409554150 0.151093926088 -0.0104230732427
409561100 0.150960148139 -0.00974624845708
409568050 0.15012085396 -0.00979220119965
409575000 0.150648151023 -0.00945406419124
409581950 0.149425392054 -0.013222575841
409588900 0.149655117777 -0.0131046836562
409595850 0.148577698049 -0.0124196570277
409602800 0.148212819109 -0.0124511349402
409609750 0.148732963496 -0.0128933512177
409616700 0.148944408092 -0.0131664958982
409623650 0.14823495782 -0.0122452591008
409630600 0.148368915001 -0.0124686597592
409637550 0.148601436346 -0.0126672700817
409644500 0.14883180628 -0.0125135258695
409651450 0.14852043068 -0.0123469241887
409658400 0.148517646543 -0.0121325567743
409665350 0.148440154564 -0.0119274222759
409672300 0.148078153137 -0.0124342111868
409679250 0.148292091876 -0.0121527228567
409686200 0.14789525457 -0.0120572108128
409693150 0.148101532067 -0.0122060449623
409700100 0.148355191227 -0.0123102570691
409707050 0.147017239701 -0.0115265807035
409714000 0.146875017804 -0.011693576215
409720950 0.146115095742 -0.0121288613067
409727900 0.146904645294 -0.0114002009608
409734850 0.146902265306 -0.0109604954167
409741800 0.146601789803 -0.0109109461611
409748750 0.146324507521 -0.0108324017506
409755700 0.146907087957 -0.011205376505
409762650 0.146471148397 -0.0116353962294
409769600 0.146198720403 -0.0112104648951
409776550 0.14559633011 -0.0112355551509
409783500 0.146142415379 -0.011017442094
409790450 0.147118008055 -0.0110150676424
409797400 0.146139697686 -0.0102506288
409804350 0.145893674983 -0.0109082004572
409811300 0.146013475004 -0.010364214688
409818250 0.146835844929 -0.0104769924997
409825200 0.145827113532 -0.0104412774792
409832150 0.145610278393 -0.0099272723454
409839100 0.145382109065 -0.0102565894952
409846050 0.145772361144 -0.00982641071238
409853000 0.145178393125 -0.0100544428556
409859950 0.145035808958 -0.0102120514892
409866900 0.145770957127 -0.0100507148601
409873850 0.145694686902 -0.0096467799328
409880800 0.144830268771 -0.00963533776157
409887750 0.145005441283 -0.00910125995866
409894700 0.144882864847 -0.00956498976947
409901650 0.145353986596 -0.0102176786214
409908600 0.145494316329 -0.00877923133817
409915550 0.145057673984 -0.00927244093558
409922500 0.144480141462 -0.0089003459442
409929450 0.144896699692 -0.00987788055748
409936400 0.145375818164 -0.0090442131313
409943350 0.145023745183 -0.00806510005179
409950300 0.144390079688 -0.00871515885845
409957250 0.144883631785 -0.0088574595858
409964200 0.144613056236 -0.00856942781252
409971150 0.143941692972 -0.00795284741052
409978100 0.144408854795 -0.00867741620849
409985050 0.144453998 -0.00880353165118
409992000 0.143813851222 -0.00846072858946
409998950 0.14367232732 -0.00779402648919
410005900 0.143937229372 -0.00788153534412
410012850 0.143338685324 -0.00785133271083
410019800 0.144096496664 -0.00829727473531
410026750 0.143466843429 -0.00725186023567
410033700 0.143612415161 -0.0075340307324
410040650 0.143801996911 -0.00767065466173
410047600 0.143631162449 -0.00778873982945
410054550 0.14295117496 -0.00742631345103
410061500 0.14355771399 -0.00730192902429
410068450 0.1428851965 -0.00708784602819
410075400 0.143120545091 -0.00703699620228
410082350 0.143423422493 -0.00635076989513
410089300 0.143178953719 -0.00640951426973
410096250 0.143297646554 -0.0064810695642
410103200 0.143104802761 -0.00690339821177
410110150 0.143431330626 -0.0063418232384
410117100 0.143155237306 -0.00608334809805
410124050 0.142678307069 -0.0068086471016
410131000 0.142855908056 -0.00602167581035
410137950 0.143148487618 -0.00653134927291
410144900 0.142777591065 -0.00574216679236
410151850 0.142244151528 -0.00621110243893
410158800 0.142529781684 -0.00600948456854
410165750 0.142784039487 -0.00581839396547
410172700 0.142575380556 -0.00575279232879
410179650 0.142054667456 -0.00539236097671
410186600 0.141793183356 -0.0052277096878
410193550 0.142696038438 -0.00563935198071
410200500 0.142128061632 -0.00484186515767
410207450 0.142145850464 -0.00509163226819
410214400 0.142832032329 -0.00451906791779
410221350 0.142417970178 -0.00505460382338
410228300 0.141899080364 -0.00477449065129
410235250 0.142085863743 -0.00426662829117
410242200 0.141594869425 -0.00436662770308
410249150 0.141452931341 -0.00458233128415
410256100 0.141409645364 -0.00400128399594
410263050 0.141572576994 -0.00394539578932
410270000 0.141214855596 -0.00424106019946
410276950 0.140398023219 -0.00321027531402
410283900 0.140603647597 -0.00273037549066
410290850 0.140111037546 -0.00308189551664
410297800 0.139852847949 -0.0024758274699
410304750 0.140309525826 -0.00270585307753
410311700 0.1406861264 -0.00273311582505
410318650 0.140266479445 -0.0025220276343
410325600 0.139960478325 -0.0023008577583
410332550 0.140402280171 -0.00196123128333
410339500 0.140108938916 -0.00168533892323
410346450 0.14038811759 -0.00250182132763
410353400 0.140198238135 -0.00162326112506
410360350 0.140066418938 -0.00238020047994
410367300 0.139791433213 -0.00175536231117
410374250 0.139961560844 -0.00172690995625
410381200 0.139633193206 -0.00170088033775
410388150 0.139247977447 -0.00190058888206
410395100 0.140220694967 -0.00107759198435
410402050 0.13988078013 -0.00178581982577
410409000 0.139921529695 -0.00127495684682
410415950 0.140335781723 -0.00128668845123
410422900 0.139970018751 -0.00116234408721
410429850 0.140113061643 -0.00109476022533
410436800 0.139427805903 -0.000629946508005
410443750 0.139371708889 -0.000550675665558
410450700 0.138995914389 -0.00117419435777
410457650 0.1392819307 -0.000189997716702
410464600 0.139003907123 -0.000432091765292
410471550 0.139319439307 -0.000645543363145
410478500 0.139441108263 -0.000430142864378
410485450 0.139013853325 -0.000605177377935
410492400 0.139559510969 0.000150988273718
410499350 0.139400639959 -8.09737131967e-05
410506300 0.138670090353 -0.000271463173583
410513250 0.138235167513 0.00066001600059
410520200 0.139479402842 -0.000153530632526
410527150 0.138531057362 -4.84608970063e-05
410534100 0.138699363979 0.000111000494187
410541050 0.138886575958 0.000108703894676
410548000 0.139067604971 0.00068506821865
410554950 0.138198855981 0.000244287567263
410561900 0.138819253808 0.000785888032905
410568850 0.138388839662 0.000722214188502
410575800 0.138252428888 0.000857570162458
410582750 0.138216926793 0.00153961946007
410589700 0.138688273958 0.00132945507673
410596650 0.138274728535 0.00140025574529
410603600 0.138474003001 0.000976692367231
410610550 0.138753697197 0.00182557563266
410617500 0.138534374388 0.00165320459848
410624450 0.138072629548 0.00213081075091
410631400 0.138129811153 0.00180663260733
410638350 0.137964734288 0.00254228422395
410645300 0.138295998341 0.00173943037707
410652250 0.138160494793 0.00207902829822
410659200 0.138323527235 0.00237521600507
410666150 0.138429867723 0.00288540109827
410673100 0.138154724157 0.00262673929054
410680050 0.137880529133 0.00271435117044
410687000 0.138106754039 0.00232497123711
410693950 0.138394363358 0.00302059272767
410700900 0.138271663035 0.00263992216549
410707850 0.138590459839 0.0028094402742
410714800 0.138046569846 0.00306213379918
410721750 0.137803546206 0.00322943519196
410728700 0.137571056762 0.00343370658446
410735650 0.137609124782 0.00351313849185
410742600 0.138168752022 0.00366057589785
410749550 0.137878309348 0.00411462026911
410756500 0.137856861709 0.00430942856299
410763450 0.137713333018 0.00432317899655
410770400 0.137783851768 0.00402741553998
410777350 0.137759694033 0.00379409163512
410784300 0.137472835031 0.00418340142857
410791250 0.136922768607 0.00429563275347
410798200 0.137220416001 0.00424381807824
410805150 0.137175265606 0.00384386625017
410812100 0.137046333035 0.00431971146897
410819050 0.13713010776 0.00453034909826
410826000 0.137463530438 0.00413527681209
410832950 0.137198297386 0.00473679023884
410839900 0.137528864994 0.00514320266702
410846850 0.137412373235 0.00523933106853
410853800 0.137723043321 0.00559977463149
410860750 0.137410247881 0.00502565270711
410867700 0.137347468308 0.00498218064771
410874650 0.137020260828 0.00545866164124
410881600 0.137643990795 0.00521143413153
410888550 0.137575137671 0.00505053462994
410895500 0.136634179292 0.00595187588318
410902450 0.136541744356 0.0060708090838
410909400 0.136907492782 0.00566197161103
410916350 0.136840797451 0.00614771391156
410923300 0.136378714255 0.00600631917028
410930250 0.136765455894 0.00604083727664
410937200 0.136700701473 0.00618784841332
410944150 0.136701798677 0.00633785949185
410951100 0.137023855113 0.00650618543667
410958050 0.136197176023 0.00645623152864
410965000 0.13604067415 0.00687372220336
410971950 0.13737622541 0.00807849565712
410978900 0.137662049629 0.00767806989975
410985850 0.137520136389 0.00793638333263
410992800 0.137544340294 0.00878703060887
410999750 0.137081165885 0.00812452273368
411006700 0.137577797804 0.00859509842201
411013650 0.13708842814 0.00856660891943
411020600 0.136839621141 0.00850271834605
411027550 0.137147865958 0.00876808864745
411034500 0.136784811211 0.00898571440355
411041450 0.136490437335 0.00875936488186
411048400 0.137454350936 0.00914161857289
411055350 0.136565497899 0.00942899079784
411062300 0.136542835252 0.00955108031072
411069250 0.137074990573 0.0092198026098
411076200 0.136779369675 0.00970190042528
411083150 0.136703495547 0.00983307822563
411090100 0.137051226695 0.0102716564973
411097050 0.136735796824 0.0105978302502
411104000 0.136292790569 0.00991261190677
411110950 0.136481387983 0.0104387250079
411117900 0.136435225032 0.0106176466084
411124850 0.136173230131 0.0105527186032
411131800 0.135876302839 0.0108062964142
411138750 0.136187805257 0.0105338065765
411145700 0.1364015078 0.0106338368347
411152650 0.13601742584 0.0109134011344
411159600 0.135957193216 0.0110139082207
411166550 0.136513170138 0.0111004569071
411173500 0.136680779483 0.0108965593197
411180450 0.136400743824 0.010742551018
411187400 0.136697136744 0.0115654238007
411194350 0.136556617264 0.0107705716351
411201300 0.136700749432 0.011228866591
411208250 0.136024036393 0.0116632214436
411215200 0.135608594625 0.0114658923818
411222150 0.135930981994 0.011677699951
411229100 0.136297198143 0.0121907603138
411236050 0.135744060082 0.0121544369307
411243000 0.135222005446 0.0119984499657
411249950 0.135723139926 0.0124582092066
411256900 0.13567996976 0.0125701025292
411263850 0.135834490883 0.0128798700158
411270800 0.135749247416 0.0129045531341
411277750 0.135569287596 0.0133330558728
411284700 0.1357034049 0.0131450343501
411291650 0.135712525285 0.0131033182619
411298600 0.136003310715 0.0128191290751
411305550 0.135844455168 0.0135075780694
411312500 0.135459936726 0.01317457835
411319450 0.135377033855 0.0138182082767
411326400 0.135662248939 0.0138594342006
411333350 0.134809239616 0.0141238974809
411340300 0.134763489392 0.0140636245336
411347250 0.135070230574 0.0139021300971
411354200 0.134612815344 0.0140656892608
411361150 0.134603273554 0.0139642552693
411368100 0.13518095365 0.0137492696272
411375050 0.134853851902 0.0140475346983
411382000 0.134673115226 0.0147955603086
411388950 0.134477538465 0.0147909904951
411395900 0.134299615464 0.0150247494651
411402850 0.13447573292 0.0144486090434
411409800 0.134559557936 0.0148036923802
411416750 0.134159307999 0.0149715617868
411423700 0.134370195887 0.015489357196
411430650 0.134781485118 0.0154724933258
411437600 0.13429379319 0.0153858652096
411444550 0.134418152604 0.0163328560398
411451500 0.133949106093 0.0158032092514
411458450 0.134317826024 0.0158752530565
411465400 0.133922974788 0.0159357372232
411472350 0.134563983021 0.0160059482251
411479300 0.133754243558 0.0161098337045
411486250 0.134063535991 0.0161309098811
411493200 0.133839208895 0.0168008672374
411500150 0.13375592645 0.0168819676177
411507100 0.133725692695 0.01687718456
411514050 0.133786132091 0.0167610209974
411521000 0.133569922318 0.0172186803049
411527950 0.133709285763 0.0172181804522
411534900 0.133753099804 0.0171240493177
411541850 0.133674138406 0.0171941422346
411548800 0.13405636642 0.0173994260975
411555750 0.134244481264 0.0175185022667
411562700 0.133634912969 0.0176444462284
411569650 0.133492211559 0.0178877431057
411576600 0.133130441198 0.0177927560472
411583550 0.132858616883 0.0180337448814
411590500 0.132812830189 0.0181265864108
411597450 0.133043679141 0.0182146814833
411604400 0.13258504989 0.0182590643808
411611350 0.133548039485 0.0185950752729
411618300 0.134007305444 0.0190388166858
411625250 0.134220124136 0.0204061583537
411632200 0.133059445931 0.019653602409
411639150 0.132295623738 0.0210076633034
411646100 0.133977779152 0.0183918629705
411653050 0.148400935348 0.0220277492167
411660000 0.159500476459 0.0219975432554
411666950 0.174721386697 0.0249704093944
411673900 0.192126833654 0.0284034882089
411680850 0.180427670702 0.0262914056627
411687800 0.163499793798 0.0236403282458
411694750 0.149077412262 0.0219714594594
411701700 0.135686189795 0.0202883870151
411708650 0.132250823724 0.0195690235921
411715600 0.13186103041 0.0204437959685
411722550 0.132599461435 0.0203948787328
411729500 0.132296416658 0.0205458062708
411736450 0.132448488998 0.0205372400183
411743400 0.132313925018 0.0201504480727
411750350 0.131998683791 0.0213856148433
411757300 0.131629870507 0.0207625678836
411764250 0.132189168223 0.0207767724892
411771200 0.132265227902 0.0211979149485
411778150 0.131415734917 0.0215177909093
411785100 0.131610405942 0.0213533883228
411792050 0.131695557873 0.0210597746465
411799000 0.132417721115 0.0217317667545
411805950 0.131894234571 0.0220686196084
411812900 0.131317569532 0.0220511249595
411819850 0.131663277062 0.022157176684
411826800 0.131715618025 0.0218004004802
411833750 0.131534378686 0.0224385913438
411840700 0.131360628984 0.0225310321121
411847650 0.131390742744 0.0226561801204
411854600 0.131554647553 0.0222950633733
411861550 0.131295887986 0.0228137675014
411868500 0.131330604186 0.0225157349577
411875450 0.131389719339 0.0233922540394
411882400 0.131461177417 0.0230726416288
411889350 0.131485418237 0.0234172947287
411896300 0.131172258054 0.0234647339088
411903250 0.131081188955 0.0237820690355
411910200 0.131480202003 0.0236956767161
411917150 0.131043900414 0.0236374218205
411924100 0.131121157578 0.0238034081082
411931050 0.130859489787 0.0238010001409
411938000 0.131512131871 0.0236878827063
411944950 0.131077788551 0.0240275719101
411951900 0.130428190432 0.0244244569247
411958850 0.130386918149 0.0243024078931
411965800 0.130675585401 0.0238953503212
411972750 0.130632203636 0.024381626611
411979700 0.130237477977 0.0250970884304
411986650 0.130735587545 0.0242800814651
411993600 0.130521912468 0.0249695730621
412000550 0.130820620268 0.0247833705289
412007500 0.130732610193 0.0251087204787
412014450 0.130287952038 0.0254850550374
412021400 0.130593516529 0.0252513816867
412028350 0.130605623298 0.0254350419262
412035300 0.13045970769 0.0259083336893
412042250 0.13044996919 0.0258361950919
412049200 0.130337971399 0.0255035635995
412056150 0.130144707337 0.0260381028288
412063100 0.130280708278 0.0257132861423
412070050 0.130289929078 0.026358625518
412077000 0.130610534328 0.0259528492815
412083950 0.130484322523 0.0262190789375
412090900 0.130432544041 0.0265996481686
412097850 0.13020668542 0.0271798079544
412104800 0.130247309629 0.0266219035589
412111750 0.130317582241 0.0265449996032
412118700 0.130374713858 0.0270144202342
412125650 0.129628908572 0.0276742310136
412132600 0.130518179441 0.0279658487786
412139550 0.129993323624 0.0276573231517
412146500 0.129925177955 0.0272136381321
412153450 0.130186298857 0.0286040715162
412160400 0.1299418111 0.0279792636044
412167350 0.129818052504 0.0282936158439
412174300 0.129869321192 0.0282531869119
412181250 0.130220860083 0.0289212645535
412188200 0.129826467064 0.0289469231713
412195150 0.129854391337 0.0287588275899
412202100 0.130036772089 0.0280362668715
412209050 0.130530439534 0.0288229749822
412216000 0.129957065005 0.0289089399958
412222950 0.129913854239 0.029196286481
412229900 0.130014015467 0.0288294573772
412236850 0.129739595902 0.0295202817734
412243800 0.129920392228 0.0292465021237
412250750 0.129729714123 0.0298218858973
412257700 0.129581155492 0.0296041092104
412264650 0.129370341268 0.0302930525269
412271600 0.129718436052 0.0305249586178
412278550 0.129296304829 0.0305082938753
412285500 0.128911039451 0.0309376859218
412292450 0.129301552547 0.0307424510299
412299400 0.12880379442 0.0308030248306
412306350 0.128712414384 0.0308892088721
412313300 0.128623206065 0.0308454789606
412320250 0.128646143534 0.0306021426933
412327200 0.12875139657 0.0311737496779
412334150 0.128687479306 0.0314218715389
412341100 0.128889805261 0.0314244652976
412348050 0.128577687307 0.0314636234871
412355000 0.128974913012 0.0319070044128
412361950 0.127033403646 0.0339965812317
412368900 0.126770556163 0.0329788551533
412375850 0.126511489153 0.0338843027929
412382800 0.126794575648 0.0340152157988
412389750 0.126702636809 0.0341084684508
412396700 0.126538530047 0.033870523102
412403650 0.126649714247 0.0345899935296
412410600 0.126609805607 0.0348075027425
412417550 0.126684234493 0.0351411601144
412424500 0.126601458451 0.0349600320987
412431450 0.126130411329 0.0352893974449
412438400 0.126412113998 0.0355055525338
412445350 0.12638252255 0.0349085429168
412452300 0.125993603787 0.0351551685895
412459250 0.125935960104 0.0353863315128
412466200 0.126271354099 0.0358555656078
412473150 0.126364899506 0.0360024737107
412480100 0.126277449527 0.0364803565752
412487050 0.126281625481 0.0359626345686
412494000 0.126145102209 0.0365897365369
412500950 0.126458251615 0.0367054025459
412507900 0.126054210359 0.0368915827608
412514850 0.126181518365 0.036286030299
412521800 0.126488093561 0.0367236869761
412528750 0.126348638216 0.037212887818
412535700 0.126541494948 0.037592208759
412542650 0.126417541437 0.0370579498701
412549600 0.12629592157 0.037172056127
412556550 0.126413204178 0.0379546025625
412563500 0.126784263454 0.0378202014068
412570450 0.126683529057 0.0375484606401
412577400 0.126193574137 0.0376488898642
412584350 0.125981424812 0.0384433908032
412591300 0.125546391364 0.037993893572
412598250 0.126172710668 0.0383675056651
412605200 0.125629146244 0.0381051824345
412612150 0.12595040242 0.0386469681122
412619100 0.125551286396 0.0394098085492
412626050 0.125973045173 0.0387997923971
412633000 0.125974656607 0.0388325993285
412639950 0.125877987339 0.0389938152773
412646900 0.125398466097 0.0393636139603
412653850 0.125617815451 0.0394307929016
412660800 0.125649635762 0.0388827943083
412667750 0.125350757275 0.0394137246181
412674700 0.12528034064 0.0398399607067
412681650 0.125232020789 0.0399190102266
412688600 0.125634402626 0.0394780882963
412695550 0.125127345309 0.0401148641811
412702500 0.125154898251 0.0403132033402
412709450 0.125128022135 0.040467197913
412716400 0.124657455142 0.0405254768977
412723350 0.12539648062 0.0407468422509
412730300 0.125136018983 0.0408007200817
412737250 0.125088153089 0.0411981130158
412744200 0.124886887066 0.0409017994721
412751150 0.124504310224 0.0411753490242
412758100 0.125277066579 0.041235272486
412765050 0.124700615333 0.0412116351972
412772000 0.124568879538 0.0415032342231
412778950 0.124624315077 0.042292388841
412785900 0.124637806792 0.042496550322
412792850 0.124716676327 0.0426697440024
412799800 0.124769989799 0.0425328894419
412806750 0.124710907055 0.0425545350997
412813700 0.124211855455 0.0431391338103
412820650 0.124217151965 0.0432656392138
412827600 0.124252618947 0.0434299022097
412834550 0.124611481333 0.0430144584017
412841500 0.12439806739 0.0433516733212
412848450 0.124545349641 0.0433404785254
412855400 0.124039502452 0.0436933690535
412862350 0.124156470315 0.0435297807261
412869300 0.124200277074 0.0437753185826
412876250 0.124112456458 0.0444456293719
412883200 0.123934076297 0.0444942770777
412890150 0.124164775281 0.0446751940351
412897100 0.123917604824 0.0445920105342
412904050 0.123782397286 0.0448961937648
412911000 0.124350199252 0.0448651194873
412917950 0.123913869927 0.0448655211152
412924900 0.124061535816 0.0454656482484
412931850 0.123882604728 0.0456567553806
412938800 0.123819264532 0.0465697669684
412945750 0.124300725968 0.0460798757149
412952700 0.124122948788 0.0458399217582
412959650 0.12376071555 0.0466463397069
412966600 0.123504175819 0.0460183263708
412973550 0.123326368173 0.0467764342963
412980500 0.123865451439 0.0468544530126
412987450 0.123600236183 0.0468157053905
412994400 0.123503931807 0.0470575959939
413001350 0.123750046606 0.0478952066099
413008300 0.123854027845 0.0477668692888
413015250 0.123725027648 0.0473332694337
413022200 0.123621522341 0.0479491390689
413029150 0.123678872015 0.0475515055786
413036100 0.123297611857 0.0480079041628
413043050 0.123373769883 0.0482739475401
413050000 0.123239612183 0.0487098254317
413056950 0.122699019635 0.0461416740087
413063900 0.122504880148 0.0463353796876
413070850 0.122032171475 0.0463362450592
413077800 0.122781139153 0.0469914147622
413084750 0.122308282953 0.0467233129873
413091700 0.122139665521 0.0466645830054
413098650 0.122305090458 0.0471176000848
413105600 0.122830576409 0.0469239538708
413112550 0.122584306204 0.047025660633
413119500 0.122370547432 0.0473040873759
413126450 0.122383641667 0.0470365627986
413133400 0.122826437587 0.0474672804846
413140350 0.122969819995 0.0476273415564
413147300 0.122620635204 0.0475590532583
413154250 0.122467424117 0.0472993217091
413161200 0.122880068124 0.0480077587835
413168150 0.122796993631 0.0478273591674
413175100 0.122717816083 0.0482970006325
413182050 0.122866849425 0.0482115164914
413189000 0.122399069142 0.0489808262654
413195950 0.122609191316 0.0487038363012
413202900 0.122794849526 0.0492917452294
413209850 0.122779575225 0.048908466918
413216800 0.122170710601 0.0495847384709
413223750 0.122198554331 0.0498046250536
413230700 0.12239893941 0.0498367469888
413237650 0.122147708961 0.0497526945422
413244600 0.122411358322 0.0497562648701
413251550 0.122430593787 0.0501628712477
413258500 0.122316534541 0.0504130332222
413265450 0.122734482592 0.0506136760285
413272400 0.122504310572 0.0507671255061
413279350 0.122512159094 0.0513170922872
413286300 0.122714636575 0.050869933345
413293250 0.122270837099 0.050975282285
413300200 0.122167395683 0.0511143245373
413307150 0.122737548416 0.0514023820972
413314100 0.122396222129 0.051390793471
413321050 0.123029181744 0.0522287995333
413328000 0.122044973474 0.0515559996809
413334950 0.12202320237 0.0521473131728
413341900 0.121750461126 0.0515332037813
413348850 0.122237143749 0.0520301575814
413355800 0.122411708939 0.0519906220695
413362750 0.12215341871 0.0526667243604
413369700 0.122516658159 0.0525973901743
413376650 0.122813454509 0.0530054579241
413383600 0.122524601722 0.0524492429995
413390550 0.122385875496 0.0529071356035
413397500 0.122658506684 0.0535078256158
413404450 0.12271507593 0.0536678307176
413411400 0.12242394544 0.0537494732818
413418350 0.122749605259 0.0539788156358
413425300 0.122850117496 0.053930988038
413432250 0.123024972939 0.053815086488
413439200 0.122610897866 0.0544745929257
413446150 0.122734666218 0.0544443104491
413453100 0.123110982756 0.0549130515742
413460050 0.122321020389 0.0549926771272
413467000 0.122158057881 0.0553104187839
413473950 0.122705715741 0.0547631059997
413480900 0.122111932416 0.0551117054811
413487850 0.122169233383 0.0546203912242
413494800 0.122774285004 0.055975535123
413501750 0.122152671282 0.0556302394325
413508700 0.122840763288 0.0557640189874
413515650 0.122702530821 0.0558558080336
413522600 0.122375953752 0.0560514399501
413529550 0.122532481493 0.0558006594904
413536500 0.122503681222 0.0562591883462
413543450 0.122442604386 0.0567581438567
413550400 0.122435365728 0.0565749287859
413557350 0.122266260039 0.0568151322956
413564300 0.122233772108 0.0570431810169
413571250 0.12203934924 0.0569418976502
413578200 0.122387697982 0.0571548433692
413585150 0.122518081085 0.0577187627566
413592100 0.121761860408 0.0573408831963
413599050 0.122161384929 0.0580304754622
413606000 0.122549938754 0.058063919041
413612950 0.122557948342 0.0582712224194
413619900 0.122397168607 0.0584837091429
413626850 0.122347509774 0.058067410946
413633800 0.122008087851 0.0582283478153
413640750 0.12206474707 0.0586889020181
413647700 0.12208633088 0.0587017519687
413654650 0.122077723407 0.059500000467
413661600 0.122421646564 0.0593180730764
413668550 0.122404688037 0.0597217183218
413675500 0.122107698121 0.0595872573444
413682450 0.122668686098 0.0599541164117
413689400 0.122305408048 0.0603566935763
413696350 0.122519585215 0.0601248634577
413703300 0.122394303793 0.0602311219343
413710250 0.122422163127 0.060244515025
413717200 0.122956157772 0.0607298456087
413724150 0.12242068197 0.0615514580609
413731100 0.122726514211 0.0612641280584
413738050 0.122938164746 0.0613726789598
413745000 0.12258085399 0.0612900588046
413751950 0.123109681828 0.0611310566792
413758900 0.122543176778 0.0613181070501
413765850 0.122811166952 0.0610795759327
413772800 0.122418395239 0.0613938403604
413779750 0.122585513624 0.0618712947992
413786700 0.122415722034 0.0618873189611
413793650 0.122713451889 0.0619098005947
413800600 0.123058885691 0.0623643929736
413807550 0.122764097628 0.0623005765239
413814500 0.122556890987 0.0625946649242
413821450 0.122730216755 0.0634648978645
413828400 0.123056414917 0.0633557388619
413835350 0.122708911358 0.0634131990732
413842300 0.122658590198 0.0632783061794
413849250 0.122765707429 0.0630530014805
413856200 0.122487660846 0.063276392718
413863150 0.122976203319 0.0631657512114
413870100 0.122458468499 0.0637056736789
413877050 0.122766828524 0.0639829499987
413884000 0.122758372615 0.0641254712435
413890950 0.122659526311 0.0640361175619
413897900 0.122683740131 0.0642507971977
413904850 0.12290941306 0.0651155053072
413911800 0.122571174788 0.0651938746017
413918750 0.122407354126 0.0652481821346
413925700 0.12253985595 0.0656293284728
413932650 0.122671038429 0.0657497584045
413939600 0.122577556464 0.0654750958082
413946550 0.12277980016 0.0653034567827
413953500 0.122551998882 0.0660820457619
413960450 0.122540251618 0.0661746663998
413967400 0.12298802394 0.0663732330397
413974350 0.122402245266 0.0666264615349
413981300 0.122589566006 0.0668053370417
413988250 0.12271462367 0.0671492115319
413995200 0.12299044294 0.0671149778942
414002150 0.123232488474 0.0670808836709
414009100 0.122556365906 0.0671978308908
414016050 0.122922436708 0.0674014140454
414023000 0.122953330705 0.067287773147
414029950 0.122802878371 0.067689381393
414036900 0.122613167994 0.0676585473523
414043850 0.122720183145 0.0678026759468
414050800 0.122754503279 0.0681451946094
414057750 0.122840500305 0.0682070345716
414064700 0.122484464425 0.0684621483211
414071650 0.122533694073 0.0686684182944
414078600 0.122579916923 0.0688074698321
414085550 0.122576659287 0.0688137043816
414092500 0.122400049065 0.0686929717576
414099450 0.122833067265 0.0693783384375
414106400 0.122876438721 0.0692367189815
414113350 0.122602300757 0.0689945311232
414120300 0.123219770469 0.0699125792908
414127250 0.122784313898 0.0698049468656
414134200 0.122833468825 0.0701281795393
414141150 0.122901183866 0.0699900613865
414148100 0.122746685128 0.0703333282608
414155050 0.12275927716 0.0699004669795
414162000 0.122954982643 0.0711152481969
414168950 0.123069235747 0.0706005637633
414175900 0.123029250381 0.0710900648557
414182850 0.123237989557 0.0714848575653
414189800 0.123629625992 0.0713591158413
414196750 0.122742596475 0.0714169653442
414203700 0.123232197158 0.0714183904756
414210650 0.123026448689 0.0720675866727
414217600 0.123193498821 0.0719773971546
414224550 0.123157492051 0.0720545532439
414231500 0.123656486391 0.0718895873096
414238450 0.123415843725 0.0719820982429
414245400 0.123106487318 0.0724906348305
414252350 0.123004148229 0.0728871392849
414259300 0.123337014798 0.0730711017222
414266250 0.123171660841 0.0727677884756
414273200 0.122841661827 0.0730363860366
414280150 0.122911527828 0.0737596346894
414287100 0.122734641839 0.0732036683789
414294050 0.123421033094 0.0732154014902
414301000 0.122998829732 0.0738681247516
414307950 0.122950607465 0.0738626001784
414314900 0.122937784769 0.0741166360129
414321850 0.122982589043 0.0743477909235
414328800 0.122973106638 0.0744462794877
414335750 0.123449039683 0.0750996229732
414342700 0.122400147533 0.0754651875426
414349650 0.123804234133 0.0745620650722
414356600 0.123146950384 0.075508406038
414363550 0.122969958673 0.0759546239548
414370500 0.123898853798 0.0760674595841
414377450 0.123100275968 0.0762254938495
414384400 0.123195481587 0.0763643939424
414391350 0.123540722527 0.0764786047442
414398300 0.123686350494 0.0765360439382
414405250 0.123897601259 0.0763887793841
414412200 0.123353085143 0.0763065839231
414419150 0.123581529267 0.0766808493395
414426100 0.123399712117 0.0765506912721
414433050 0.12307755042 0.0767202313623
414440000 0.122771293667 0.0767332625517
414446950 0.124034376357 0.0779554569186
414453900 0.123981648638 0.0778336934111
414460850 0.124041828069 0.078191502716
414467800 0.124229257634 0.0786516087119
414474750 0.124159219345 0.0783203307884
414481700 0.124169919406 0.0784421877049
414488650 0.124157276202 0.0792699610511
414495600 0.123901547243 0.0794096251025
414502550 0.123768076953 0.0794435409303
414509500 0.123955370583 0.0796537289882
414516450 0.124243015452 0.0793241432237
414523400 0.123804245236 0.0799387612545
414530350 0.124443483316 0.0799643449825
414537300 0.123695055331 0.0801579351559
414544250 0.124234946997 0.0806757641634
414551200 0.123768974991 0.0806905881823
414558150 0.124124186495 0.080811707639
414565100 0.123808159125 0.0810227715853
414572050 0.123708054673 0.0811853360606
414579000 0.123845150111 0.0812035237054
414585950 0.123923561501 0.0811313197471
414592900 0.123760434971 0.0817781973963
414599850 0.124212004842 0.0816910743869
414606800 0.124050741112 0.0819357398099
414613750 0.123891423376 0.0822363194875
414620700 0.123811663288 0.0822079589046
414627650 0.124022578642 0.0824119776299
414634600 0.123997362335 0.0823652696467
414641550 0.123864878359 0.0828010233203
414648500 0.123515239313 0.0827530639223
414655450 0.123792199675 0.083373009231
414662400 0.124102528006 0.0831621619138
414669350 0.123905284047 0.0835367455005
414676300 0.123985089047 0.0841434509595
414683250 0.12421850743 0.0836586434679
414690200 0.123872549406 0.0836137022974
414697150 0.123992033746 0.0842548007981
414704100 0.123788569998 0.0846385027856
414711050 0.124051639101 0.0846143865972
414718000 0.124271363493 0.0845118954059
414724950 0.124370352391 0.0846892756753
414731900 0.124104496606 0.0844044051132
414738850 0.124040593932 0.0846482897525
414745800 0.124107868068 0.0846536994014
414752750 0.11728420491 0.0763000779931
414759700 0.124288235981 0.0847798312519
414766650 0.124089864969 0.0849288556519
414773600 0.123819181953 0.0857005173577
414780550 0.123880839547 0.0860651517286
414787500 0.124084436987 0.0865055004162
414794450 0.12394357955 0.0871469746623
414801400 0.124058141492 0.0871858594737
414808350 0.123119029843 0.0863203181402
414815300 0.124108303149 0.0870626183987
414822250 0.123997877013 0.0874819841963
414829200 0.123725115824 0.0875798710481
414836150 0.123937991173 0.0878390021346
414843100 0.123707441509 0.0881393514878
414850050 0.124212593447 0.0883901151063
414857000 0.123836225471 0.0884141503059
414863950 0.124157803198 0.0888786473764
414870900 0.124938160245 0.0887812655813
414877850 0.12423144892 0.0891098451098
414884800 0.124229700935 0.0890197290191
414891750 0.124509579265 0.0891331237287
414898700 0.124189176006 0.089710597638
414905650 0.122890984966 0.0893406183079
414912600 0.124196455484 0.0897383438806
414919550 0.123705523408 0.0899097498807
414926500 0.124322465083 0.0900568769755
414933450 0.123811773247 0.0906033714608
414940400 0.124136743587 0.0906298117807
414947350 0.124053327834 0.0903193730562
414954300 0.124015201772 0.091059767889
414961250 0.124053154045 0.0909447564939
414968200 0.123924012705 0.0911876906974
414975150 0.124493176151 0.0912009691953
414982100 0.124043983054 0.0914049397346
414989050 0.124595007555 0.0914035063548
414996000 0.124762912874 0.0917761826797
415002950 0.12461841268 0.0922745209622
415009900 0.124336939224 0.0924006252539
415016850 0.124307060106 0.0926322627374
415023800 0.124497585534 0.0928080236176
415030750 0.124683556128 0.0922902489732
415037700 0.124331310529 0.092430502795
415044650 0.124569705691 0.092808218643
415051600 0.124713184963 0.0931376033629
415058550 0.124503629087 0.0934080178054
415065500 0.124372807864 0.093479073875
415072450 0.124494656761 0.0934034934381
415079400 0.124426307707 0.093558085186
415086350 0.123960724068 0.0943941771575
415093300 0.124129209805 0.0941121404498
415100250 0.124168675148 0.0948508783955
415107200 0.124558647814 0.0949060729389
415114150 0.124317755263 0.0948720505632
415121100 0.124339157048 0.0953619486584
415128050 0.124540174714 0.0954331120992
415135000 0.124401770405 0.0952101031922
415141950 0.122787037203 0.0963863371561
415148900 0.122508948566 0.0960814924738
415155850 0.122561741678 0.0963628490736
415162800 0.122466164382 0.0970090800099
415169750 0.122625725504 0.0967083089866
415176700 0.122783045152 0.0967534405158
415183650 0.122869921094 0.0971029211601
415190600 0.122552821077 0.0971362854697
415197550 0.122674675522 0.0974251381876
415204500 0.122775318566 0.0974978263897
415211450 0.122940874381 0.0980166091247
415218400 0.123005821016 0.0985681095505
415225350 0.12255396538 0.0982831721111
415232300 0.122414073048 0.098761196806
415239250 0.122756375822 0.098800808398
415246200 0.122453046053 0.0989458778174
415253150 0.122458596521 0.0992229914271
415260100 0.122486374759 0.0993867794518
415267050 0.122291545336 0.0994848944567
415274000 0.122761962293 0.100313210205
415280950 0.122541658126 0.0999216108239
415287900 0.122793980191 0.0997780878001
415294850 0.123023721002 0.100067805634
415301800 0.122785830845 0.100321471819
415308750 0.123054001417 0.100439228186
415315700 0.122975200225 0.100945622864
415322650 0.123187082472 0.100456951067
415329600 0.122492016251 0.101054257382
415336550 0.122736836542 0.101552854597
415343500 0.122749788352 0.101674727692
415350450 0.122741396083 0.101428361768
415357400 0.122866308105 0.102222156078
415364350 0.122592041021 0.102060097957
415371300 0.122637800886 0.101899083959
415378250 0.122825322091 0.101946534132
415385200 0.122742592105 0.102510529605
415392150 0.123121802686 0.102433582861
415399100 0.123186822897 0.102499469546
415406050 0.123093948715 0.102280413104
415413000 0.124030553288 0.102823161489
415419950 0.123762671416 0.10300781739
415426900 0.12365277974 0.103049609755
415433850 0.123651062774 0.103583741245
415440800 0.123626113614 0.10367266023
415447750 0.123788913155 0.103813791714
415454700 0.123219486749 0.104199142104
415461650 0.123709625611 0.104525793588
415468600 0.123385648662 0.10452823957
415475550 0.123347541873 0.104374891856
415482500 0.123861726158 0.104901533723
415489450 0.12378512626 0.105246303275
415496400 0.123479444814 0.105469482787
415503350 0.123607822676 0.105523796136
415510300 0.123933974939 0.106075701188
415517250 0.123458425423 0.106045180115
415524200 0.12393627278 0.106343463345
415531150 0.123563336834 0.106436644714
415538100 0.124002592952 0.106518582269
415545050 0.123807510381 0.106460829616
415552000 0.123886237909 0.106125150766
415558950 0.124002545094 0.106443970999
415565900 0.124080692795 0.106800171286
415572850 0.123787282193 0.106708944128
415579800 0.12388100099 0.107184127446
415586750 0.124187309877 0.107760848647
415593700 0.125246783169 0.107903033078
415600650 0.124192851275 0.107589237973
415607600 0.12419834157 0.10810396319
415614550 0.124000434877 0.10827740039
415621500 0.124562782557 0.108813723627
415628450 0.124620134805 0.108479333525
415635400 0.124407277947 0.109026714218
415642350 0.124913271547 0.10897745816
415649300 0.124719172203 0.109754180539
415656250 0.124622030816 0.109572996227
415663200 0.12447761071 0.109890244805
415670150 0.124423873343 0.109752945485
415677100 0.124733202363 0.110121354194
415684050 0.124244316182 0.110505667506
415691000 0.124453543195 0.110451452553
415697950 0.124404778401 0.110152074682
415704900 0.124543060789 0.110468731727
415711850 0.124826788472 0.110798793051
415718800 0.124910743212 0.110939818147
415725750 0.124583390966 0.110832274761
415732700 0.12524979226 0.111452594041
415739650 0.124984441396 0.111341118885
415746600 0.12474115917 0.111844584167
415753550 0.124972327915 0.112002018183
415760500 0.125000385244 0.111988942679
415767450 0.125214605809 0.112353434981
415774400 0.124535533927 0.11212922237
415781350 0.124713509647 0.112261302419
415788300 0.12520289978 0.112719569757
415795250 0.125647680507 0.113139105154
415802200 0.125244888425 0.113071760123
415809150 0.125545802649 0.113801575381
415816100 0.125521456494 0.11384357075
415823050 0.125276853947 0.113735832808
415830000 0.125450112867 0.114031179207
415836950 0.125989093244 0.115445742116
415843900 0.126547591743 0.115421792826
415850850 0.125719708964 0.115835408373
415857800 0.126327718666 0.115508426904
415864750 0.12649937216 0.115939694475
415871700 0.126549700549 0.11619197076
415878650 0.125817232456 0.116222108058
415885600 0.1263330418 0.116204973844
415892550 0.126701241343 0.116580525909
415899500 0.126761220068 0.116902660474
415906450 0.12669421694 0.117149711494
415913400 0.126075232634 0.117034201125
415920350 0.126161798933 0.117259400556
415927300 0.126191870517 0.117500019943
415934250 0.1264831746 0.118089469517
415941200 0.126050935486 0.118046424301
415948150 0.127143595967 0.117881310937
415955100 0.126445257577 0.11812806428
415962050 0.126471925889 0.118367345907
415969000 0.126406418619 0.117579043397
415975950 0.125769000961 0.11720193381
415982900 0.125496992927 0.117545742842
415989850 0.125748580504 0.117671905481
415996800 0.125422368293 0.117765369913
416003750 0.125943243586 0.118667516256
416010700 0.126536653572 0.118794424372
416017650 0.127323538347 0.119868902243
416024600 0.126940066434 0.119772725424
416031550 0.127211798678 0.119923445802
416038500 0.127542649895 0.120386504282
416045450 0.127204850941 0.120271974512
416052400 0.127343258645 0.12044911918
416059350 0.127083797865 0.120633862872
416066300 0.127927969941 0.120951353797
416073250 0.127560726378 0.121241865248
416080200 0.127736486486 0.121293187818
416087150 0.127490621033 0.121573916442
416094100 0.127144449477 0.122050088205
416101050 0.127417308318 0.121971346819
416108000 0.127254413465 0.122126096765
416114950 0.127208068728 0.122252452938
416121900 0.127464949993 0.122970267158
416128850 0.127891577003 0.122774562615
416135800 0.12728748778 0.123073851661
416142750 0.127480542267 0.122779918301
416149700 0.127994896761 0.123002357733
416156650 0.128025108882 0.123801844157
416163600 0.128456674849 0.123646845405
416170550 0.127779256841 0.123552790704
416177500 0.127823223853 0.124165797563
416184450 0.12832227303 0.124040093354
416191400 0.128097959447 0.124681856732
416198350 0.12783515709 0.124213666463
416205300 0.128540540604 0.124392385413
416212250 0.128171460456 0.124400860652
416219200 0.128639531182 0.125420910383
416226150 0.128541866334 0.125253980271
416233100 0.128718827158 0.125056074245
416240050 0.128964301207 0.125541004331
416247000 0.128889071733 0.125833714755
416253950 0.129410185054 0.125998587459
416260900 0.128852007435 0.12556128364
416267850 0.129611049072 0.126290712024
416274800 0.129462559799 0.126156847228
416281750 0.129048023872 0.126585015461
416288700 0.128856798652 0.126703652728
416295650 0.128919547794 0.126950306452
416302600 0.128583115051 0.12729802298
416309550 0.12970125312 0.127248883296
416316500 0.128473187815 0.127132592247
416323450 0.128781562052 0.127641483535
416330400 0.129352919961 0.128012788358
416337350 0.129366672612 0.127857427742
416344300 0.129303700635 0.12778116643
416351250 0.129884543824 0.127490810003
416358200 0.129919759487 0.127925556438
416365150 0.129794024929 0.128969355943
416372100 0.129580807934 0.12850705852
416379050 0.129830802969 0.128919999013
416386000 0.129718575123 0.129103635873
416392950 0.129489834168 0.129669807156
416399900 0.129947019252 0.130212510025
416406850 0.129392982727 0.12986305111
416413800 0.130112369436 0.130864525421
416420750 0.129993857674 0.131314572286
416427700 0.130136791613 0.130625449474
416434650 0.129867641693 0.130628148319
416441600 0.130694277221 0.130884141723
416448550 0.129639762082 0.130701206427
416455500 0.130384782679 0.130849133606
416462450 0.130426857047 0.131398706229
416469400 0.130009971105 0.131483115885
416476350 0.130371269078 0.13209825334
416483300 0.130498884494 0.132363964618
416490250 0.130585818095 0.132255207462
416497200 0.131259451462 0.132493480396
416504150 0.131087385399 0.132876626955
416511100 0.131056927237 0.132854988493
416518050 0.131508368491 0.132993352121
416525000 0.131482764094 0.133219187147
416531950 0.129330011642 0.133778272839
416538900 0.128789868939 0.133835606788
416545850 0.128726102095 0.134095965913
416552800 0.129266424501 0.134521079899
416559750 0.128829405736 0.135338659501
416566700 0.129435712778 0.134615954155
416573650 0.128773786945 0.134573605207
416580600 0.129509709021 0.134778305644
416587550 0.128951891074 0.134796577528
416594500 0.129160256416 0.134600381814
416601450 0.129203172416 0.135429702022
416608400 0.129182331194 0.135259742497
416615350 0.129028046835 0.13566212918
416622300 0.129498735917 0.135891381461
416629250 0.129488699212 0.135773472783
416636200 0.129698336141 0.136133701978
416643150 0.130003273049 0.135970834153
416650100 0.130188343769 0.136311945346
416657050 0.130033865745 0.13617169681
416664000 0.130132899245 0.136071638696
416670950 0.129924197005 0.136494954231
416677900 0.130066983762 0.136911050132
416684850 0.129654795097 0.13680815797
416691800 0.130069257099 0.137176667989
416698750 0.130180766371 0.137334487244
416705700 0.129812627445 0.137311796254
416712650 0.129838348393 0.137037794096
416719600 0.129438358191 0.137765887617
416726550 0.129739287291 0.137990525306
416733500 0.130245649922 0.137973831536
416740450 0.130223185592 0.138206166605
416747400 0.130020396857 0.138488260091
416754350 0.130082411404 0.138211355812
416761300 0.130361216396 0.13817163274
416768250 0.13019805115 0.13887537242
416775200 0.129951236681 0.138837289639
416782150 0.130310007054 0.138908017644
416789100 0.130817275678 0.139035324081
416796050 0.130410431402 0.139313565413
416803000 0.130120337281 0.139301694462
416809950 0.130630935745 0.13968556472
416816900 0.130898123716 0.139897096309
416823850 0.130232620835 0.140146983854
416830800 0.130372812537 0.140044646184
416837750 0.13110629253 0.13989601318
416844700 0.131276836148 0.140266730557
416851650 0.131063433143 0.140873909185
416858600 0.130911244404 0.140575079898
416865550 0.131012265028 0.140669041379
416872500 0.130718926279 0.141254395359
416879450 0.131084927189 0.141305380647
416886400 0.130966414785 0.141210058922
416893350 0.130960414925 0.141344845283
416900300 0.131571409508 0.141180168676
416907250 0.131264487611 0.141424471842
416914200 0.130892061822 0.141931698819
416921150 0.131633613078 0.141911702524
416928100 0.131308430561 0.142535207459
416935050 0.13143757461 0.14249439725
416942000 0.132159869355 0.143056230349
416948950 0.131759476385 0.141952006536
416955900 0.131525669939 0.142323987288
416962850 0.131452688411 0.142464832089
416969800 0.131782557423 0.142595190116
416976750 0.132168400923 0.142706504809
416983700 0.131929683774 0.142754739118
416990650 0.13214603216 0.143407994702
416997600 0.131982684996 0.143998622596
417004550 0.132026642781 0.143159964577
417011500 0.132238032064 0.143392388797
417018450 0.132015408478 0.143775591411
417025400 0.132003156289 0.144261410163
417032350 0.131680198689 0.143846787398
417039300 0.131904510305 0.144097680051
417046250 0.13235446639 0.144285510717
417053200 0.132299669185 0.144505412512
417060150 0.132539442159 0.144664248661
417067100 0.131783161091 0.145199625421
417074050 0.133067119506 0.144796976906
417081000 0.132907089831 0.144977652651
417087950 0.132610190486 0.144881853448
417094900 0.132951178947 0.145207978149
417101850 0.133000042333 0.145207277743
417108800 0.133204931037 0.145593643146
417115750 0.13284346046 0.146105131063
417122700 0.132898647804 0.146082976233
417129650 0.132970708272 0.146745538295
417136600 0.133497655607 0.146815473582
417143550 0.133117247066 0.147128206139
417150500 0.13323248945 0.147027727299
417157450 0.133399551603 0.147206951845
417164400 0.133786467902 0.14810030751
417171350 0.133925523287 0.148346423383
417178300 0.133605640789 0.147972721521
417185250 0.134075133158 0.147784915626
417192200 0.134066042982 0.148233696437
417199150 0.134116526117 0.148099646766
417206100 0.133842185167 0.148574875825
417213050 0.133876735592 0.148792342852
417220000 0.133498595011 0.14905449516
417226950 0.138584854672 0.150091193901
417233900 0.13899905704 0.149758030124
417240850 0.139045344458 0.149699203429
417247800 0.139065692826 0.150656450995
417254750 0.138779861597 0.150157910002
417261700 0.138787590378 0.150178399807
417268650 0.139432887978 0.150572185046
417275600 0.138658042031 0.150496247718
417282550 0.138210345299 0.151314688736
417289500 0.13904430107 0.151045627619
417296450 0.139690806427 0.151063419752
417303400 0.139339833726 0.151254812406
417310350 0.139522598957 0.150992963136
417317300 0.139463230484 0.150892420767
417324250 0.13948825578 0.151432326901
417331200 0.139596825964 0.151018587832
417338150 0.13992893361 0.151999859946
417345100 0.140012705264 0.151297056753
417352050 0.140195229882 0.151846765823
417359000 0.13999519903 0.152428186094
417365950 0.140091307532 0.152422948361
417372900 0.140369494122 0.152146819119
417379850 0.140261006798 0.152311991355
417386800 0.140764443511 0.152641535396
417393750 0.140056458515 0.152282848337
417400700 0.140342090111 0.1524547276
417407650 0.140794801942 0.152397704945
417414600 0.140829901509 0.152695106345
417421550 0.141043493295 0.152867419094
417428500 0.140448928401 0.152753098874
417435450 0.141052175771 0.152963259328
417442400 0.140879746616 0.152535245842
417449350 0.141219451983 0.15306509701
417456300 0.141450526852 0.1530258231
417463250 0.141230915117 0.153099134487
417470200 0.141643594234 0.153820213824
417477150 0.141809842305 0.153665329125
417484100 0.141726202033 0.15388036413
417491050 0.141101906551 0.1532056124
417498000 0.141576465028 0.153843907873
417504950 0.141919706754 0.154511099704
417511900 0.141373352844 0.154526302964
417518850 0.141899852915 0.15461304792
417525800 0.142178939028 0.154328429395
417532750 0.142043741803 0.155300765554
417539700 0.142341280691 0.154822737761
417546650 0.141927175547 0.154960775577
417553600 0.142101259688 0.155077563836
417560550 0.141653722925 0.155676727399
417567500 0.142687613569 0.155756749767
417574450 0.142479202328 0.155889517736
417581400 0.141878571504 0.156066381058
417588350 0.14255634523 0.156227352339
417595300 0.141805606587 0.156525352538
417602250 0.14165537291 0.156202767209
417609200 0.142456220345 0.156780493475
417616150 0.142103107921 0.156692270869
417623100 0.142596864018 0.157033273307
417630050 0.142729769804 0.156913139428
417637000 0.142774259362 0.156738186984
417643950 0.14245898667 0.157301483162
417650900 0.142636967061 0.157268470794
417657850 0.14246870777 0.157446527436
417664800 0.142826395689 0.157444362048
417671750 0.142832285659 0.157701316283
417678700 0.142725242662 0.158159836344
417685650 0.143430512255 0.158154594302
417692600 0.142772825255 0.157705789832
417699550 0.143305778067 0.158559823002
417706500 0.143100777488 0.158548531048
417713450 0.143438578161 0.158360240287
417720400 0.1431481829 0.158724393721
417727350 0.143605006334 0.159195042019
417734300 0.143682364492 0.159555741224
417741250 0.143962292317 0.15963559965
417748200 0.143601085325 0.159566576659
417755150 0.143699925317 0.160156135873
417762100 0.143808991913 0.16055580885
417769050 0.143801605045 0.160783879538
417776000 0.143446092036 0.160553150505
417782950 0.143447511451 0.161211941413
417789900 0.14378197687 0.160731105316
417796850 0.144094554953 0.161017441699
417803800 0.144022031793 0.160980578121
417810750 0.144408302355 0.160856687141
417817700 0.14468313344 0.161433559926
417824650 0.144951500195 0.16113052097
417831600 0.144605434462 0.161268220793
417838550 0.144483794964 0.161525849559
417845500 0.145847734304 0.162741763635
417852450 0.145429466753 0.162192968731
417859400 0.145149427874 0.16232503938
417866350 0.145006764185 0.162440080138
417873300 0.145623576782 0.162501271841
417880250 0.145544748856 0.163255596527
417887200 0.145567042864 0.162786117268
417894150 0.145310896945 0.162784381286
417901100 0.145308281224 0.163394988455
417908050 0.145544069813 0.16366079465
417915000 0.145569811944 0.163813986966
417921950 0.14515714586 0.166253062784
417928900 0.145208183012 0.166572534167
417935850 0.144594459406 0.166416001738
417942800 0.14520904777 0.166295957323
417949750 0.145258474211 0.166485457691
417956700 0.145542125782 0.16671896104
417963650 0.145559446469 0.166789951809
417970600 0.145696645553 0.167280666602
417977550 0.145882442969 0.167232727246
417984500 0.145684159376 0.167306791846
417991450 0.1456723638 0.167649031865
417998400 0.146670779244 0.167920938323
418005350 0.146387915195 0.167997471536
418012300 0.146168350036 0.16831646358
418019250 0.14672581146 0.168056555746
418026200 0.14641646216 0.168143736198
418033150 0.146430317333 0.167809911839
418040100 0.147374782049 0.167905096615
418047050 0.147239776101 0.168493053978
418054000 0.147032685089 0.16869446743
418060950 0.147282620511 0.169162475212
418067900 0.146849224985 0.169304092133
418074850 0.147579655664 0.16989595191
418081800 0.147716325826 0.169282341892
418088750 0.147242456152 0.169953552713
418095700 0.147738810708 0.169967010285
418102650 0.147849162846 0.169955030551
418109600 0.147646147219 0.169978512188
418116550 0.14825600421 0.169810518574
418123500 0.148100847097 0.170349204884
418130450 0.148242041472 0.170871207543
418137400 0.148067609264 0.170655703028
418144350 0.148331349196 0.170653481435
418151300 0.148588139716 0.171254140459
418158250 0.148952826298 0.170952307115
418165200 0.148533179056 0.171770387436
418172150 0.148657986877 0.172200011116
418179100 0.149575955763 0.172207189794
418186050 0.149153399975 0.171833117713
418193000 0.148940002861 0.171856744177
418199950 0.149680469831 0.171917721267
418206900 0.149873397543 0.172432562625
418213850 0.149950710632 0.172398284071
418220800 0.149901591709 0.172955497183
418227750 0.150138365767 0.173127043202
418234700 0.150352471407 0.173263753923
418241650 0.150522230353 0.17326190462
418248600 0.150457199795 0.173510437208
418255550 0.151504683174 0.174179226474
418262500 0.151099232132 0.173597396228
418269450 0.151167420941 0.174137748525
418276400 0.151113862548 0.174240634419
418283350 0.151164303164 0.17471607076
418290300 0.150958854691 0.174919768679
418297250 0.151397746006 0.174563610647
418304200 0.151220993063 0.174706412629
418311150 0.150947540861 0.17487769907
418318100 0.151279286601 0.174682230901
418325050 0.151965525691 0.175623009576
418332000 0.151613600792 0.175270044497
418338950 0.151444709586 0.175268879508
418345900 0.15162424911 0.175947375541
418352850 0.152214513267 0.175767801445
418359800 0.152073050349 0.176107818941
418366750 0.152155737548 0.176038317608
418373700 0.152793454008 0.176834251093
418380650 0.153098619793 0.176516138273
418387600 0.152846551006 0.176395169509
418394550 0.153065981085 0.176549788772
418401500 0.15350821613 0.176294327401
418408450 0.153758580113 0.176827362658
418415400 0.15371251102 0.177081331071
418422350 0.153940817303 0.177055259288
418429300 0.154184936839 0.177070032997
418436250 0.154253988389 0.177596818614
418443200 0.154149066056 0.177445975419
418450150 0.153904413235 0.177842039098
418457100 0.15400097117 0.177716626589
418464050 0.154648756274 0.177443904148
418471000 0.154483180063 0.17808492627
418477950 0.154705230763 0.178043537402
418484900 0.155123504892 0.178092966376
418491850 0.155350988586 0.17870092405
418498800 0.155336912674 0.178776402728
418505750 0.155284543034 0.178810373889
418512700 0.154822963461 0.178899727599
418519650 0.155268624161 0.178932846325
418526600 0.155801045111 0.179238164282
418533550 0.155397311317 0.178898854786
418540500 0.155795623053 0.179083390005
418547450 0.156063279681 0.178852584521
418554400 0.156238309542 0.179136153902
418561350 0.156571248439 0.179347947846
418568300 0.156335695752 0.179513806475
418575250 0.156634305306 0.179775099359
418582200 0.157182988232 0.179656871755
418589150 0.156843210244 0.180372208283
418596100 0.156939077529 0.17966529993
418603050 0.156951847792 0.180113265234
418610000 0.157322696681 0.179839260453
418616950 0.156336639518 0.182435005389
418623900 0.156295568169 0.182135008017
418630850 0.156445544409 0.182617486003
418637800 0.156623056961 0.182570903492
418644750 0.15695766546 0.182589197514
418651700 0.156980834424 0.18249768056
418658650 0.156963481491 0.182634627508
418665600 0.157119018028 0.182213190827
418672550 0.157328584021 0.183257041932
418679500 0.157305170882 0.182704696497
418686450 0.157507335902 0.183114202078
418693400 0.157579885347 0.183275070315
418700350 0.158189430165 0.18350488571
418707300 0.157801391143 0.183294548227
418714250 0.157772325727 0.184072652458
418721200 0.158369943595 0.184046627296
418728150 0.158167457388 0.183969036591
418735100 0.158628586173 0.184663564301
418742050 0.1587342177 0.184049385524
418749000 0.158439281789 0.184290979732
418755950 0.158923527065 0.18484418602
418762900 0.159452788421 0.184594060753
418769850 0.159256624794 0.184266343147
418776800 0.159601478524 0.184428173473
418783750 0.159747774114 0.184422438556
418790700 0.159628086578 0.185009018907
418797650 0.159792981083 0.184755321418
418804600 0.159158415331 0.185408883504
418811550 0.159711740621 0.18482751667
418818500 0.159955865694 0.185580449385
418825450 0.159706979199 0.186065120871
418832400 0.160261206804 0.18521802536
418839350 0.160424847494 0.185971063993
418846300 0.16028020233 0.186079393037
418853250 0.160413791738 0.186318682888
418860200 0.160663313882 0.185686232923
418867150 0.16031405359 0.186017402877
418874100 0.161249012071 0.186500336104
418881050 0.160679466232 0.187063772393
418888000 0.160889680049 0.18676487839
418894950 0.160700581433 0.186303894195
418901900 0.160375569819 0.186596134682
418908850 0.160938706267 0.186834735068
418915800 0.160583574292 0.186738502349
418922750 0.160989774769 0.186821504802
418929700 0.160800336124 0.18680352893
418936650 0.161506976685 0.187301693966
418943600 0.160970246931 0.187687534048
418950550 0.160889059759 0.18763951485
418957500 0.161694039353 0.187590724839
418964450 0.161477762767 0.188139245232
418971400 0.162292077547 0.188063989428
418978350 0.16166962795 0.188026611342
418985300 0.161685375483 0.188176441153
418992250 0.162061006711 0.188039215091
418999200 0.16193222862 0.188406415884
419006150 0.16241603471 0.188743021397
419013100 0.162500063741 0.189228646175
419020050 0.162501108008 0.188643802854
419027000 0.163062350399 0.188605907022
419033950 0.162311429681 0.189252817603
419040900 0.162332804359 0.188889689824
419047850 0.16273687466 0.188992929339
419054800 0.162843200236 0.188911642329
419061750 0.162801002684 0.188691783163
419068700 0.162717400148 0.189767207786
419075650 0.163619588309 0.190096310866
419082600 0.163414727517 0.189546959567
419089550 0.162342240007 0.18991241227
419096500 0.162899984608 0.1902471225
419103450 0.163254276308 0.190958820698
419110400 0.162945828922 0.190487156152
419117350 0.162312590513 0.19102113779
419124300 0.162980525846 0.191119016243
419131250 0.163336342103 0.1907552122
419138200 0.163431642448 0.191613318619
419145150 0.163772411315 0.190902764552
419152100 0.164031556468 0.191155254837
419159050 0.163696922018 0.191655735224
419166000 0.164199713782 0.190999595987
419172950 0.163712254835 0.191507262317
419179900 0.163701430377 0.191612544871
419186850 0.163937811537 0.192171953375
419193800 0.163940503852 0.192302059225
419200750 0.163760189428 0.192389398476
419207700 0.163435875184 0.192626745197
419214650 0.163511348993 0.192223151284
419221600 0.163258866088 0.192740034472
419228550 0.164234427372 0.193494579963
419235500 0.164334978926 0.193120940672
419242450 0.16447186215 0.193302270202
419249400 0.164279880549 0.1937965193
419256350 0.164618886071 0.194044988732
419263300 0.164025723026 0.193639954978
419270250 0.163727982343 0.193530721367
419277200 0.164976953423 0.194153168211
419284150 0.164242572503 0.194838179945
419291100 0.163811642769 0.194594758148
419298050 0.164156362564 0.194068989777
419305000 0.164865145327 0.194949440022
419311950 0.165612834124 0.194867691682
419318900 0.165614308477 0.195702100361
419325850 0.165457333025 0.195691886238
419332800 0.166000925502 0.196700062484
419339750 0.165780764528 0.196358680645
419346700 0.165908447942 0.195830261136
419353650 0.165766845349 0.196518640343
419360600 0.165919310366 0.196474910888
419367550 0.164931738178 0.196611336576
419374500 0.166229815094 0.196917010925
419381450 0.165958028742 0.197606998008
419388400 0.166142816531 0.197310649721
419395350 0.165050891282 0.197008179198
419402300 0.166804228349 0.198365270477
419409250 0.16626512748 0.197751957374
419416200 0.166702937088 0.198032289122
419423150 0.167208327682 0.198270691183
419430100 0.167159512591 0.1979822298
419437050 0.167123652633 0.198177689898
419444000 0.167917271532 0.198899123822
419450950 0.167190026597 0.198360001893
419457900 0.168019093302 0.198848322591
419464850 0.16714749083 0.198958820073
419471800 0.168415185998 0.199356487318
419478750 0.167764246063 0.199510323156
419485700 0.168833945057 0.199549974646
419492650 0.168154320759 0.199216801601
419499600 0.167983992717 0.199702998273
419506550 0.168048019918 0.200598225851
419513500 0.16895825681 0.200265505871
419520450 0.168297274044 0.200427184013
419527400 0.169233502848 0.199731311545
419534350 0.172391915136 0.200044009722
419541300 0.169160380151 0.201213020779
419548250 0.1687580954 0.201160071373
419555200 0.169468282724 0.201124301001
419562150 0.169811741817 0.202102410228
419569100 0.170126150481 0.201556720201
419576050 0.170460998795 0.201867669075
419583000 0.170317235489 0.202140027095
419589950 0.170580786034 0.202263673263
419596900 0.170930562487 0.202467161752
419603850 0.170253232717 0.202794557856
419610800 0.170451711217 0.203129449821
419617750 0.170210836917 0.202988144292
419624700 0.171141234223 0.203519401755
419631650 0.171200851583 0.20301812901
419638600 0.171868540159 0.202774350562
419645550 0.171610907887 0.203691158183
419652500 0.171075013429 0.203887690514
419659450 0.171477471134 0.203839147407
419666400 0.17181810104 0.203432813128
419673350 0.171427782933 0.203966969746
419680300 0.171773555531 0.203921445044
419687250 0.171774709227 0.20480033716
419694200 0.171974419926 0.204582509979
419701150 0.172640206985 0.204741758701
419708100 0.172228815351 0.204766517477
419715050 0.173185069522 0.20478572822
419722000 0.17321215112 0.2046253593
419728950 0.172195528202 0.205451174788
419735900 0.173632194604 0.204813871789
419742850 0.173645371617 0.205598746987
419749800 0.172990975392 0.205487569616
419756750 0.173816186742 0.205803284517
419763700 0.174163887174 0.206230973372
419770650 0.174595444652 0.206382468181
419777600 0.174600869665 0.207106753403
419784550 0.174213206389 0.20680548966
419791500 0.174705632945 0.205972898622
419798450 0.17526191782 0.206238620387
419805400 0.174604636086 0.205624425239
419812350 0.174672950026 0.206160599074
419819300 0.17485939738 0.206854414719
419826250 0.175140946412 0.207507077271
419833200 0.17506643978 0.206337226486
419840150 0.176240648853 0.206664624198
419847100 0.177853879862 0.207874388956
419854050 0.177666239529 0.207793783922
419861000 0.176272810498 0.207328707255
419867950 0.1773112819 0.208074494437
419874900 0.176401970028 0.208227017494
419881850 0.177520747768 0.20829404412
419888800 0.176756186499 0.207999526085
419895750 0.177081872586 0.207681072218
419902700 0.177192377054 0.208378116424
419909650 0.178150672357 0.208618463025
419916600 0.177344363173 0.209017311708
419923550 0.178164789832 0.209406748688
419930500 0.178083867655 0.208799034009
419937450 0.17759369609 0.209132110651
419944400 0.178475711133 0.209181352201
419951350 0.178603151289 0.208354526553
419958300 0.178635115632 0.210491501089
419965250 0.18039601919 0.209716098663
419972200 0.179127641845 0.211072288668
419979150 0.17993075901 0.209707064826
419986100 0.179334917283 0.211137700934
419993050 0.179213717028 0.210511822675
420000000 0.179642302283 0.210421377413
