! Calibrated averaged scanner-service zoom
# Hz S RI R 50
156000000 0.654297125481 -0.278456527944
156006000 0.650174965887 -0.279623533127
156012000 0.648834072102 -0.279735436576
156018000 0.66285767966 -0.281941474737
156024000 0.661930150739 -0.281654288055
156030000 0.66227886972 -0.282066263133
156036000 0.662291713873 -0.282128785897
156042000 0.661464490243 -0.282394819201
156048000 0.661625606075 -0.282151597255
156054000 0.661802838853 -0.282471080159
156060000 0.661700763402 -0.282518432765
156066000 0.661242005901 -0.283182713383
156072000 0.661189698746 -0.282666501193
156078000 0.661305501994 -0.283096780269
156084000 0.661221661619 -0.283182502293
156090000 0.661147244246 -0.283357373751
156096000 0.661035219029 -0.283064697464
156102000 0.66154665743 -0.283331940217
156108000 0.660798010685 -0.283260331617
156114000 0.660748939518 -0.283979716866
156120000 0.660377846069 -0.283545539807
156126000 0.661024049754 -0.283841580186
156132000 0.660726146919 -0.284176932113
156138000 0.660853667076 -0.284208093546
156144000 0.660392226646 -0.284089480158
156150000 0.661219805556 -0.284221256816
156156000 0.660669786503 -0.284472797929
156162000 0.660801184062 -0.284618137317
156168000 0.660014565884 -0.28484337996
156174000 0.660449368544 -0.284679928091
156180000 0.660123375696 -0.284953136586
156186000 0.660402271539 -0.285069342452
156192000 0.659841813568 -0.285189066825
156198000 0.660222841668 -0.285081325488
156204000 0.660189169391 -0.285413331766
156210000 0.66046386369 -0.285331989619
156216000 0.659599149264 -0.28573814807
156222000 0.659828401647 -0.285479751931
156228000 0.659801029528 -0.286017837759
156234000 0.659825630067 -0.285860294239
156240000 0.65978037917 -0.286255900081
156246000 0.659651872434 -0.285801595228
156252000 0.659838100759 -0.286187717681
156258000 0.659625108933 -0.286346925946
156264000 0.659358276272 -0.286696094555
156270000 0.659099188892 -0.28640960256
156276000 0.659537653898 -0.286640494296
156282000 0.659081550582 -0.286755489899
156288000 0.659271028768 -0.28695254742
156294000 0.659117693441 -0.286745973559
156300000 0.659375510807 -0.287009580354
156306000 0.658979462511 -0.287114122551
156312000 0.659291993763 -0.287357992664
156318000 0.658422296699 -0.287375902495
156324000 0.659052588173 -0.287535495852
156330000 0.658769325137 -0.287942103094
156336000 0.659165990147 -0.288234683176
156342000 0.657883108437 -0.288476327266
156348000 0.659247154748 -0.287832396407
156354000 0.658617331103 -0.288171913688
156360000 0.658845622897 -0.288242170848
156366000 0.658169860276 -0.288513868271
156372000 0.658331177441 -0.288202832967
156378000 0.658363493464 -0.288345506504
156384000 0.658256339983 -0.288468034789
156390000 0.65763755164 -0.288830666322
156396000 0.658318255219 -0.288415651779
156402000 0.658232192104 -0.288830462111
156408000 0.657841167327 -0.288842260398
156414000 0.65795451594 -0.289165959987
156420000 0.657536447789 -0.288903815689
156426000 0.657761828712 -0.289275631986
156432000 0.657468368016 -0.289366521021
156438000 0.657513058385 -0.289607606997
156444000 0.657280539319 -0.2893188768
156450000 0.657762330225 -0.289587256115
156456000 0.657332096909 -0.289720235922
156462000 0.657754701661 -0.289878539192
156468000 0.656900206918 -0.289915075239
156474000 0.657171974053 -0.289928921205
156480000 0.656806295617 -0.290002221057
156486000 0.657194538737 -0.290392438028
156492000 0.656628375929 -0.290310271361
156498000 0.656860017937 -0.290326886525
156504000 0.656743113633 -0.290474671459
156510000 0.656806783331 -0.290729478198
156516000 0.656350946344 -0.290773786779
156522000 0.656508332854 -0.290702548339
156528000 0.656380955709 -0.291086719906
156534000 0.656284171386 -0.29121454766
156540000 0.656330015624 -0.29119884098
156546000 0.656203199124 -0.291215450142
156552000 0.656288915302 -0.291378448573
156558000 0.656243009084 -0.291624866787
156564000 0.65612673884 -0.291928952704
156570000 0.656033925277 -0.291408509884
156576000 0.656039116831 -0.292006078632
156582000 0.655910940957 -0.291776362802
156588000 0.655758972256 -0.292187953539
156594000 0.655491032495 -0.291882958645
156600000 0.655985568513 -0.29207617738
156606000 0.655277607878 -0.292359661562
156612000 0.655521503278 -0.29218510782
156618000 0.655279037557 -0.292502455409
156624000 0.655513785074 -0.292746871161
156630000 0.655034896249 -0.292843598193
156636000 0.654764308806 -0.292604223803
156642000 0.654945913805 -0.293175399954
156648000 0.654759723456 -0.293063279247
156654000 0.654974094396 -0.293344263841
156660000 0.654557134021 -0.292744244204
156666000 0.655124054548 -0.293228549629
156672000 0.654515163844 -0.293306060432
156678000 0.654651490765 -0.293770545746
156684000 0.654429137 -0.293567855645
156690000 0.654586837031 -0.293645048447
156696000 0.654503451942 -0.294078361198
156702000 0.654575173004 -0.294216612863
156708000 0.654096186834 -0.293871388244
156714000 0.65450204713 -0.294140623113
156720000 0.654165917368 -0.294290083514
156726000 0.654310693415 -0.294653241075
156732000 0.653762818952 -0.294344820013
156738000 0.654081352961 -0.294444497027
156744000 0.6535942097 -0.29477068685
156750000 0.653577234096 -0.294775655984
156756000 0.653371675673 -0.294855583538
156762000 0.653695933883 -0.294775792824
156768000 0.653688243352 -0.295127978678
156774000 0.653751286476 -0.295263116314
156780000 0.653335202165 -0.295269694268
156786000 0.653422575939 -0.295177325806
156792000 0.653503439272 -0.295556964838
156798000 0.653125246492 -0.295547819716
156804000 0.653508541057 -0.295887660112
156810000 0.653006311393 -0.295513843146
156816000 0.653253120852 -0.295875664817
156822000 0.652854173652 -0.29577300235
156828000 0.653038537582 -0.296103880495
156834000 0.652167545536 -0.296055263812
156840000 0.652787878916 -0.296173103601
156846000 0.652158860372 -0.296304759968
156852000 0.652737622254 -0.296677378383
156858000 0.652244716469 -0.296317329404
156864000 0.652533498257 -0.296510252716
156870000 0.652101679709 -0.296644762896
156876000 0.652454849223 -0.296840049716
156882000 0.651606793631 -0.296959373675
156888000 0.652122625573 -0.296894141714
156894000 0.651484011024 -0.297227844092
156900000 0.651829501313 -0.29736867568
156906000 0.651496201865 -0.297212088814
156912000 0.651766315883 -0.297376985657
156918000 0.65169491094 -0.297703995295
156924000 0.651597289397 -0.297631203035
156930000 0.651801733059 -0.297723675385
156936000 0.651362297092 -0.29754274936
156942000 0.651360091989 -0.297998745308
156948000 0.651199762676 -0.297985598322
156954000 0.65156661147 -0.298257064339
156960000 0.6510332038 -0.297975587228
156966000 0.651521477866 -0.298297389973
156972000 0.650851753658 -0.298294335347
156978000 0.651207759742 -0.298408283182
156984000 0.650741855654 -0.298261507954
156990000 0.651226996899 -0.298768614278
156996000 0.650188512086 -0.298638753667
157002000 0.650806612607 -0.299010184713
157008000 0.650315466754 -0.298773901626
157014000 0.649797922913 -0.299666787644
157020000 0.650445908146 -0.298972904644
157026000 0.651331838844 -0.296976166628
157032000 0.649982365709 -0.299156321135
157038000 0.650545848442 -0.298953114967
157044000 0.649854346938 -0.299479618382
157050000 0.650257671785 -0.299467075741
157056000 0.649825740783 -0.299691833868
157062000 0.649980141948 -0.299541270181
157068000 0.649856833232 -0.299850560896
157074000 0.650110632645 -0.299940294318
157080000 0.649580521891 -0.300020942954
157086000 0.64964809539 -0.299783570206
157092000 0.649762366374 -0.300421817274
157098000 0.649217257939 -0.299971584517
157104000 0.64942947115 -0.300712449971
157110000 0.649013993933 -0.300255272549
157116000 0.649458585083 -0.300638818441
157122000 0.648965460204 -0.300509878262
157128000 0.649131595284 -0.300964904404
157134000 0.648539021804 -0.300528606513
157140000 0.648977576545 -0.300810414459
157146000 0.648540394848 -0.301105134805
157152000 0.6485013515 -0.301133802129
157158000 0.648186895955 -0.300798930477
157164000 0.648648785074 -0.301259456691
157170000 0.646823830329 -0.301989293392
157176000 0.648678421037 -0.301617549332
157182000 0.647931119584 -0.303306786338
157188000 0.648479070592 -0.301576129069
157194000 0.648065720925 -0.301680412697
157200000 0.64840501214 -0.301964247086
157206000 0.647427614052 -0.30157422021
157212000 0.648214224304 -0.301809747045
157218000 0.648470149453 -0.302101644088
157224000 0.647884423257 -0.302541344228
157230000 0.647872982798 -0.302290893178
157236000 0.647558983474 -0.302048431551
157242000 0.64776274646 -0.302565637643
157248000 0.64738632294 -0.302925034888
157254000 0.647166946574 -0.302701222457
157260000 0.647251963293 -0.302449369374
157266000 0.647682904736 -0.302793640728
157272000 0.646771370755 -0.303174712967
157278000 0.646926413227 -0.303231726751
157284000 0.64681769557 -0.302490999725
157290000 0.647200442623 -0.3030834825
157296000 0.646538087118 -0.303332365706
157302000 0.646711313834 -0.303657991352
157308000 0.646505302838 -0.303305406146
157314000 0.646655030772 -0.303339858095
157320000 0.646547226811 -0.303851263805
157326000 0.646535659354 -0.304193832955
157332000 0.646324118567 -0.303629854198
157338000 0.646465626924 -0.303683007368
157344000 0.646308674496 -0.304369480311
157350000 0.646110916222 -0.304498877364
157356000 0.646004753788 -0.30424695104
157362000 0.645883361281 -0.303799538264
157368000 0.645717426402 -0.304547742719
157374000 0.645590865672 -0.304754021364
157380000 0.64522556802 -0.304711259654
157386000 0.645772614856 -0.304138538825
157392000 0.64581960046 -0.304487389047
157398000 0.645149669077 -0.305116337895
157404000 0.645378680123 -0.305026198994
157410000 0.645383969178 -0.304760036891
157416000 0.645237491575 -0.305045524795
157422000 0.644712161756 -0.305336172667
157428000 0.645125153127 -0.305485114474
157434000 0.645058755142 -0.305011452849
157440000 0.64502685296 -0.305243677685
157446000 0.644278439822 -0.305725989579
157452000 0.64443512895 -0.305908880385
157458000 0.644473559734 -0.305702258857
157464000 0.644592925525 -0.305565573577
157470000 0.644294059044 -0.306014855536
157476000 0.644381357551 -0.306235649461
157482000 0.644244754109 -0.305838951591
157488000 0.644098874484 -0.305664646599
157494000 0.644130524924 -0.306133879647
157500000 0.643989059997 -0.30645785314
157506000 0.643687130974 -0.30622657207
157512000 0.643979504759 -0.306067931245
157518000 0.643752321711 -0.306614605464
157524000 0.643430662637 -0.306809117398
157530000 0.643552049084 -0.306780114912
157536000 0.643817163144 -0.306541893485
157542000 0.643507709887 -0.307034677458
157548000 0.643067372166 -0.307139754792
157554000 0.643454810505 -0.30744979222
157560000 0.64314262831 -0.30683093773
157566000 0.643053371903 -0.307278472253
157572000 0.642610860754 -0.307322967305
157578000 0.642610825457 -0.307605440568
157584000 0.642880969349 -0.306954471162
157590000 0.643144490833 -0.307593745173
157596000 0.64233973164 -0.307800532618
157602000 0.642718677978 -0.308039247537
157608000 0.642285991181 -0.307654104648
157614000 0.642751820718 -0.307570467495
157620000 0.642349994035 -0.308061057109
157626000 0.642327805333 -0.308431852714
157632000 0.642090173709 -0.307888030124
157638000 0.642623716523 -0.308065951825
157644000 0.642244338303 -0.308524334822
157650000 0.64176480475 -0.308857226102
157656000 0.641891662733 -0.308480868223
157662000 0.642056394695 -0.308317828455
157668000 0.641632448115 -0.308682241767
157674000 0.641471150881 -0.308925649007
157680000 0.641667255434 -0.309075267939
157686000 0.641965833334 -0.308605663408
157692000 0.641658938442 -0.309132024289
157698000 0.641281573191 -0.309293072883
157704000 0.64144367455 -0.309501594173
157710000 0.641305205725 -0.309006737616
157716000 0.64128933783 -0.30937663721
157722000 0.640799077136 -0.30952019728
157728000 0.641044312778 -0.309942461966
157734000 0.641254975818 -0.309329728843
157740000 0.641099208026 -0.309663579239
157746000 0.640838383291 -0.310106755629
157752000 0.641025476528 -0.310640494713
157758000 0.640609153105 -0.309761628545
157764000 0.641023340038 -0.309919023496
157770000 0.640381755503 -0.310157832845
157776000 0.640388019614 -0.310700063465
157782000 0.640293499115 -0.31006512819
157788000 0.640720829651 -0.310154995304
157794000 0.64004240085 -0.310638856044
157800000 0.640119542762 -0.311024708945
157806000 0.640247378971 -0.310633676632
157812000 0.64001424715 -0.310996890761
157818000 0.639439046047 -0.310803823199
157824000 0.639756863133 -0.311199548887
157830000 0.639525839871 -0.310814509909
157836000 0.63956312459 -0.310995014581
157842000 0.638858751853 -0.311075998753
157848000 0.639368078882 -0.311619482553
157854000 0.639008625884 -0.31129822307
157860000 0.639247305888 -0.311411937138
157866000 0.639080404467 -0.311843913128
157872000 0.639088050687 -0.311983054565
157878000 0.639012728729 -0.311942776376
157884000 0.638738275333 -0.311591807914
157890000 0.638733934097 -0.312293561364
157896000 0.638621889634 -0.312514830762
157902000 0.638791914797 -0.312305096889
157908000 0.638561221186 -0.311971862953
157914000 0.638571749607 -0.312808681066
157920000 0.638102695194 -0.312309453627
157926000 0.638651717147 -0.312727605629
157932000 0.638173986006 -0.312195481268
157938000 0.638240684548 -0.312867315438
157944000 0.637840190865 -0.312555565278
157950000 0.637818005853 -0.313082468159
157956000 0.638053645114 -0.312632018352
157962000 0.637814814728 -0.313172929159
157968000 0.63722432754 -0.312908337682
157974000 0.63720664681 -0.313372198933
157980000 0.637301409057 -0.313366279545
157986000 0.637018365492 -0.313399926312
157992000 0.636860321838 -0.31343771127
157998000 0.637040093319 -0.313932342206
158004000 0.637125385353 -0.313758986896
158010000 0.637194026376 -0.313524779152
158016000 0.636963264668 -0.313905841146
158022000 0.636614220801 -0.31412440746
158028000 0.637025730848 -0.314070236377
158034000 0.636728389845 -0.313804548665
158040000 0.636622325715 -0.314076873534
158046000 0.636473746844 -0.314506833479
158052000 0.636938039053 -0.314498020008
158058000 0.636395017952 -0.314214645427
158064000 0.636335180682 -0.314842016584
158070000 0.635913396499 -0.314787599677
158076000 0.636026434278 -0.314877751304
158082000 0.636184315471 -0.314515764466
158088000 0.636158407662 -0.31510292231
158094000 0.635742727011 -0.314933863761
158100000 0.635854149593 -0.315219563953
158106000 0.635875643994 -0.315073101748
158112000 0.635790123562 -0.315473088346
158118000 0.635334369272 -0.315235084539
158124000 0.63538564946 -0.315756426689
158130000 0.635212690215 -0.315607066425
158136000 0.63542904457 -0.315576041221
158142000 0.635090272571 -0.315759980432
158148000 0.635027526861 -0.316092954162
158154000 0.635878279867 -0.320596245507
158160000 0.635018776019 -0.315950494658
158166000 0.640350530917 -0.320510569581
158172000 0.634648929437 -0.316338086545
158178000 0.634827315606 -0.316248602865
158184000 0.634503145859 -0.315883952692
158190000 0.634344926713 -0.316645098549
158196000 0.634098039101 -0.316749277434
158202000 0.634221421772 -0.316593669
158208000 0.63428560084 -0.316380709654
158214000 0.633897560866 -0.317243825822
158220000 0.633656275897 -0.316690817341
158226000 0.633883314676 -0.317342661588
158232000 0.633929583433 -0.316875508631
158238000 0.633888328821 -0.317455243724
158244000 0.633418083127 -0.317048347001
158250000 0.633466051467 -0.317654710935
158256000 0.633739573498 -0.31730544232
158262000 0.633623947289 -0.317521850859
158268000 0.633093180896 -0.317292839242
158274000 0.632925420881 -0.31782135569
158280000 0.63333673426 -0.317424084216
158286000 0.633151294749 -0.317666377381
158292000 0.632576610943 -0.317561613564
158298000 0.632750995763 -0.318294033885
158304000 0.632737824441 -0.3178390867
158310000 0.632715741744 -0.317680990046
158316000 0.632558194055 -0.31818609697
158322000 0.632327991862 -0.318475094903
158328000 0.632530666026 -0.31840490987
158334000 0.632347449783 -0.317888121938
158340000 0.632314377115 -0.318900292597
158346000 0.632008693446 -0.318847414286
158352000 0.632397021033 -0.318997459508
158358000 0.632104084486 -0.318743018102
158364000 0.631643005687 -0.319446708684
158370000 0.631468841178 -0.318984028599
158376000 0.631611975875 -0.319268414583
158382000 0.631665415385 -0.318744634572
158388000 0.631571612478 -0.319403151807
158394000 0.631030886713 -0.318949584131
158400000 0.631242914993 -0.319702728366
158406000 0.631591574816 -0.319367296258
158412000 0.631497470482 -0.319549228863
158418000 0.631033125497 -0.319539359439
158424000 0.63080069861 -0.319283853611
158430000 0.630846471196 -0.319780335802
158436000 0.63000422366 -0.320002077173
158442000 0.630718890771 -0.319822118317
158448000 0.630283760619 -0.320286314029
158454000 0.630455200095 -0.32017151508
158460000 0.630886386553 -0.320352526408
158466000 0.630312773355 -0.320148212215
158472000 0.629960036775 -0.320655507572
158478000 0.629894622602 -0.320581979007
158484000 0.630225619958 -0.320598961761
158490000 0.630061385501 -0.320271696514
158496000 0.629636361787 -0.321038119346
158502000 0.629545981265 -0.320981629205
158508000 0.630076970415 -0.320953756513
158514000 0.629941642871 -0.320696300712
158520000 0.629503635538 -0.321537969946
158526000 0.629358356292 -0.321480737888
158532000 0.629565345633 -0.321556699102
158538000 0.629417409896 -0.321094868828
158544000 0.628982503495 -0.32155877349
158550000 0.628789683197 -0.321934588886
158556000 0.628892243495 -0.321680051297
158562000 0.62911861054 -0.32161449533
158568000 0.628653655827 -0.321842607397
158574000 0.628403961949 -0.321936789921
158580000 0.628763837606 -0.322171689132
158586000 0.628837235626 -0.322469613444
158592000 0.628417464211 -0.322025774559
158598000 0.628039731563 -0.322209516044
158604000 0.628148220521 -0.322499484301
158610000 0.628418935997 -0.322393456548
158616000 0.628039680355 -0.322333175141
158622000 0.627541565605 -0.322753405005
158628000 0.627560707737 -0.322703784015
158634000 0.628065134976 -0.322638450947
158640000 0.627639018997 -0.322337738345
158646000 0.62702156438 -0.322975715033
158652000 0.627207511193 -0.323108290108
158658000 0.627454866106 -0.322899139448
158664000 0.627343457489 -0.322790735509
158670000 0.626967385286 -0.323480211765
158676000 0.626854528252 -0.323477466575
158682000 0.627196386783 -0.323630085883
158688000 0.62712959752 -0.323347537234
158694000 0.626453002178 -0.323648191677
158700000 0.626483462376 -0.323889593315
158706000 0.626741475507 -0.323902409277
158712000 0.626772280412 -0.323890414116
158718000 0.626372623709 -0.324037289793
158724000 0.62608448343 -0.324328052687
158730000 0.62646469715 -0.32446162056
158736000 0.626481237486 -0.324318040885
158742000 0.626162435211 -0.324233149677
158748000 0.625736521305 -0.32465597307
158754000 0.62588269 -0.324873247635
158760000 0.626014016665 -0.324623342187
158766000 0.625512899928 -0.324313808642
158772000 0.624749959673 -0.325355765609
158778000 0.625247929342 -0.324832799447
158784000 0.625480470916 -0.324320264373
158790000 0.625251194721 -0.324520330514
158796000 0.624745440481 -0.325135872398
158802000 0.624828768402 -0.325487318844
158808000 0.625315210758 -0.325353719934
158814000 0.625405123475 -0.324935763589
158820000 0.624483623084 -0.325639111152
158826000 0.623620580185 -0.325877066067
158832000 0.624522816508 -0.325618066119
158838000 0.624680435709 -0.325361949473
158844000 0.624047903223 -0.326005756832
158850000 0.62408015684 -0.326026975612
158856000 0.624049021339 -0.325880760065
158862000 0.624435404112 -0.325905318603
158868000 0.624421337031 -0.326207495487
158874000 0.623622776918 -0.326205813094
158880000 0.623724675062 -0.3263755246
158886000 0.624009601773 -0.326237342936
158892000 0.623760618082 -0.326173171389
158898000 0.623391942111 -0.326515443833
158904000 0.623552343527 -0.326862361829
158910000 0.623854607769 -0.326880944518
158916000 0.623259156776 -0.32652398285
158922000 0.623095901518 -0.327043559122
158928000 0.622981081409 -0.327138548853
158934000 0.623548042373 -0.32702588776
158940000 0.623330761077 -0.326867571414
158946000 0.622167598673 -0.327682049515
158952000 0.622525502458 -0.327423324385
158958000 0.622847240697 -0.327413016268
158964000 0.622813153072 -0.327240182662
158970000 0.621902405684 -0.327760037708
158976000 0.622045326561 -0.327764475402
158982000 0.622246269444 -0.327766412888
158988000 0.622281139701 -0.327627013585
158994000 0.621606101328 -0.327900868166
159000000 0.621653733418 -0.328107017371
159006000 0.621915377722 -0.327898984607
159012000 0.622040441041 -0.327987298654
159018000 0.621331777588 -0.328111306809
159024000 0.621124712667 -0.328409879484
159030000 0.621582019321 -0.32850957808
159036000 0.621222134034 -0.328211896924
159042000 0.620853400945 -0.328398024756
159048000 0.620551032567 -0.328741218532
159054000 0.621289956587 -0.328791462
159060000 0.621012870392 -0.328388728517
159066000 0.620722182287 -0.328548420012
159072000 0.620277802404 -0.329003068945
159078000 0.620412199505 -0.32926989361
159084000 0.6206803423 -0.328952487431
159090000 0.62012185138 -0.328947418042
159096000 0.619792412356 -0.328936053253
159102000 0.620116821097 -0.328988586409
159108000 0.62033729485 -0.329150906535
159114000 0.620267667796 -0.329735516565
159120000 0.619621098346 -0.329351244764
159126000 0.619565965657 -0.329393349913
159132000 0.619917915141 -0.329815161669
159138000 0.620181649137 -0.330052151268
159144000 0.619154703201 -0.329881998503
159150000 0.617965682308 -0.329922445197
159156000 0.619703903401 -0.330083163339
159162000 0.618168306773 -0.331116049517
159168000 0.618963927536 -0.330131488505
159174000 0.618874917301 -0.330598514329
159180000 0.619133853397 -0.330618830206
159186000 0.619416788046 -0.330473375714
159192000 0.618894272303 -0.330378023902
159198000 0.618294509964 -0.33085850108
159204000 0.618867246504 -0.330891408474
159210000 0.6189595302 -0.330677908933
159216000 0.618415090187 -0.330785658768
159222000 0.618185312124 -0.331097500829
159228000 0.618175660223 -0.331276746656
159234000 0.618483397126 -0.331015870354
159240000 0.617610843604 -0.330366550291
159246000 0.617610087849 -0.331244305254
159252000 0.616742380179 -0.331713070903
159258000 0.617883887868 -0.331278394826
159264000 0.617588295082 -0.331597797943
159270000 0.61720419499 -0.331445547212
159276000 0.61717536914 -0.331964110188
159282000 0.617513815798 -0.331886962012
159288000 0.617220020398 -0.331819958178
159294000 0.616783259555 -0.33191307948
159300000 0.616519101712 -0.332203302414
159306000 0.617024861645 -0.332259956813
159312000 0.616956402524 -0.332322031936
159318000 0.616479826052 -0.332432355921
159324000 0.616110205095 -0.332581883851
159330000 0.616563502904 -0.332874453821
159336000 0.616639300954 -0.332450973819
159342000 0.616273455738 -0.332591109781
159348000 0.616044076703 -0.332954314201
159354000 0.616329301135 -0.333121522841
159360000 0.61670501581 -0.332836443192
159366000 0.616117233889 -0.333123142068
159372000 0.615786309103 -0.333388573372
159378000 0.615379042313 -0.333326839272
159384000 0.616118323824 -0.333376907119
159390000 0.61544573312 -0.333321522474
159396000 0.615240039708 -0.333266701638
159402000 0.615010156766 -0.333865560604
159408000 0.615490883716 -0.333858551404
159414000 0.615160880414 -0.333710850029
159420000 0.614827118737 -0.333883000209
159426000 0.614442615803 -0.334124861534
159432000 0.614933667766 -0.334239092393
159438000 0.614889526556 -0.334071285585
159444000 0.614216374786 -0.334046974074
159450000 0.614112323013 -0.334406884442
159456000 0.61442771762 -0.334577691911
159462000 0.614332838065 -0.334495217368
159468000 0.614136382601 -0.334349902316
159474000 0.613537844708 -0.334813776284
159480000 0.614104371056 -0.334830521979
159486000 0.614610343293 -0.334772467498
159492000 0.613770452559 -0.334572803775
159498000 0.613277517198 -0.334908338964
159504000 0.613723803228 -0.335078700392
159510000 0.614210843992 -0.335138732013
159516000 0.613516515322 -0.334946418305
159522000 0.613095773507 -0.335409237625
159528000 0.613164548911 -0.335574338824
159534000 0.616190274692 -0.33414087446
159540000 0.612640331631 -0.335257417538
159546000 0.614557659055 -0.335981409718
159552000 0.612517709555 -0.335694370567
159558000 0.61286387633 -0.33577263831
159564000 0.612580763398 -0.336006015708
159570000 0.612159409445 -0.335730864188
159576000 0.611899806615 -0.336154632156
159582000 0.61252688245 -0.336566573628
159588000 0.61231428644 -0.336223856066
159594000 0.611986522892 -0.336041830856
159600000 0.611352297769 -0.336422400974
159606000 0.612136901317 -0.336463144728
159612000 0.611880553927 -0.336095568662
159618000 0.610988773406 -0.336674357172
159624000 0.611573348702 -0.336797813929
159630000 0.61157765126 -0.336652713721
159636000 0.611402084572 -0.336670966431
159642000 0.610456608278 -0.336889044013
159648000 0.611128039198 -0.336973133477
159654000 0.611498981636 -0.337110812411
159660000 0.610966833422 -0.336990663048
159666000 0.610542347715 -0.337075377848
159672000 0.610840644154 -0.337385160914
159678000 0.611313739936 -0.337382984162
159684000 0.610785950869 -0.337520274698
159690000 0.610434611776 -0.337549086438
159696000 0.610166764286 -0.337784685262
159702000 0.609751321776 -0.338200331619
159708000 0.61001622338 -0.337967415553
159714000 0.608560023322 -0.336152770259
159720000 0.609484249961 -0.338000474657
159726000 0.609675156213 -0.338240966385
159732000 0.6095237785 -0.33818582808
159738000 0.609661080407 -0.338052479434
159744000 0.608709354249 -0.33842393479
159750000 0.609389485543 -0.338792404636
159756000 0.609640551072 -0.338637416073
159762000 0.609613293505 -0.339118509111
159768000 0.608570868479 -0.338626710273
159774000 0.607649310088 -0.338443097595
159780000 0.609244591097 -0.338798009781
159786000 0.609134662754 -0.338840822631
159792000 0.607993472218 -0.339243115831
159798000 0.608383796566 -0.339405115024
159804000 0.608792446411 -0.339315003413
159810000 0.608352174443 -0.339210382868
159816000 0.60770772491 -0.339282792283
159822000 0.60792460701 -0.339587831217
159828000 0.608314812873 -0.339638356629
159834000 0.60778094022 -0.339613805108
159840000 0.607687209545 -0.339642595886
159846000 0.607361528291 -0.339857470934
159852000 0.607984807955 -0.340219328877
159858000 0.607577340495 -0.340188730547
159864000 0.607354942486 -0.339830344194
159870000 0.60676589147 -0.339957928509
159876000 0.607287822408 -0.340412082088
159882000 0.607178166945 -0.340428864243
159888000 0.607058215734 -0.3400957094
159894000 0.606512678564 -0.340408653878
159900000 0.60677099753 -0.340904072389
159906000 0.606941594365 -0.340916385329
159912000 0.606714432876 -0.340617816072
159918000 0.605811213575 -0.340769492701
159924000 0.606457907915 -0.341315135659
159930000 0.606533384887 -0.341004037615
159936000 0.606448127833 -0.340948636053
159942000 0.605398476752 -0.341153662572
159948000 0.606093446883 -0.341529163076
159954000 0.605810092378 -0.341150241345
159960000 0.605665871483 -0.341577982957
159966000 0.605115121112 -0.341708788407
159972000 0.605561214744 -0.341868881752
159978000 0.605658407285 -0.342164726267
159984000 0.605584014133 -0.342205374784
159990000 0.605233611554 -0.34192278173
159996000 0.604684708651 -0.342186608849
160002000 0.605058050309 -0.342384393507
160008000 0.605040512137 -0.342509798762
160014000 0.604758142781 -0.342097679065
160020000 0.604241825676 -0.342231262793
160026000 0.604457565462 -0.34279261507
160032000 0.604408607179 -0.342804109419
160038000 0.604612719942 -0.342377810673
160044000 0.603870623715 -0.342857422356
160050000 0.60394893863 -0.343149191639
160056000 0.604571865518 -0.343299108653
160062000 0.604411811856 -0.342584923411
160068000 0.60329257446 -0.343049548167
160074000 0.603884286189 -0.343588984414
160080000 0.604156123436 -0.343646469541
160086000 0.603705515139 -0.343502358361
160092000 0.60289778184 -0.343468600054
160098000 0.603364988514 -0.343970753277
160104000 0.603540523982 -0.343777218535
160110000 0.603256823164 -0.343776922139
160116000 0.602549707532 -0.343740140243
160122000 0.602761565624 -0.344039764446
160128000 0.602850674031 -0.344318145405
160134000 0.602511242871 -0.344449108678
160140000 0.602302536394 -0.344327983511
160146000 0.602255991545 -0.34444605168
160152000 0.602506716848 -0.344953785554
160158000 0.602165350357 -0.344844895677
160164000 0.602263876433 -0.344661175012
160170000 0.601792230182 -0.344913834567
160176000 0.602000740383 -0.345440338265
160182000 0.602137057746 -0.345364891379
160188000 0.601980012518 -0.345175408517
160194000 0.600529837859 -0.345492754941
160200000 0.601525106542 -0.345930721722
160206000 0.60196662883 -0.345489349306
160212000 0.601163854317 -0.345510566492
160218000 0.600941951086 -0.345811212804
160224000 0.601146064202 -0.346100573276
160230000 0.600987139525 -0.345880969907
160236000 0.60067705027 -0.345867566883
160242000 0.600606359692 -0.346015824015
160248000 0.600710879411 -0.346359419841
160254000 0.601052483584 -0.346422216534
160260000 0.60047475081 -0.346193626181
160266000 0.600005815395 -0.346742886482
160272000 0.600359220717 -0.347042400886
160278000 0.600323672459 -0.347117202915
160284000 0.599979460411 -0.34695085631
160290000 0.599611460859 -0.346876915842
160296000 0.599777401205 -0.347382703352
160302000 0.599707401577 -0.347236082307
160308000 0.599482568078 -0.347235453726
160314000 0.598823336538 -0.347179529377
160320000 0.599554336166 -0.348358345332
160326000 0.599178536483 -0.347657292399
160332000 0.59866672822 -0.347292806133
160338000 0.598347961123 -0.347401689691
160344000 0.598556307009 -0.347963560992
160350000 0.598829064594 -0.34820840848
160356000 0.598485581951 -0.347891235464
160362000 0.597939095334 -0.348084445876
160368000 0.597910230695 -0.348434784399
160374000 0.598388313574 -0.348765764161
160380000 0.598059232274 -0.348684171081
160386000 0.597878242808 -0.348533620768
160392000 0.597719803026 -0.348717096384
160398000 0.597582069793 -0.349230100529
160404000 0.597605526017 -0.349086997225
160410000 0.597437480604 -0.348773337815
160416000 0.597002178462 -0.349070974558
160422000 0.596897497565 -0.34947683801
160428000 0.596984344178 -0.349373082912
160434000 0.596821886683 -0.34943237841
160440000 0.596155625353 -0.349510585137
160446000 0.596295614965 -0.3501319826
160452000 0.596382930474 -0.350327799988
160458000 0.5960177122 -0.350341206874
160464000 0.595779551164 -0.350013053489
160470000 0.595940234078 -0.350569996294
160476000 0.596298783205 -0.350649984415
160482000 0.596097308185 -0.350219127395
160488000 0.595550183836 -0.350201967705
160494000 0.595484936154 -0.35071653837
160500000 0.596035066202 -0.350750120785
160506000 0.595623635719 -0.350578416462
160512000 0.595386014611 -0.350616554336
160518000 0.595072785903 -0.350909956414
160524000 0.595349935909 -0.351286217893
160530000 0.595039234324 -0.351183449925
160536000 0.594850062181 -0.350907993918
160542000 0.59447347346 -0.351337989093
160548000 0.594494083601 -0.351620657077
160554000 0.594478958894 -0.351628584761
160560000 0.594388144604 -0.351387711702
160566000 0.593903561641 -0.351400175049
160572000 0.594095388512 -0.35202280297
160578000 0.594126619777 -0.352167696318
160584000 0.593871323449 -0.351879830089
160590000 0.593437088636 -0.351771620385
160596000 0.593443263239 -0.352540227115
160602000 0.593651699729 -0.352642487812
160608000 0.59419463421 -0.353050067988
160614000 0.594212793352 -0.353716296635
160620000 0.595110016192 -0.354718141441
160626000 0.595993611397 -0.355341015733
160632000 0.595816017802 -0.355386089379
160638000 0.594770006649 -0.354522939949
160644000 0.5940737978 -0.354585435794
160650000 0.593596360535 -0.354408035503
160656000 0.592562426709 -0.353553938157
160662000 0.592060728142 -0.353211665399
160668000 0.591865406454 -0.353647659394
160674000 0.591589059117 -0.354254612941
160680000 0.591899976425 -0.353748592434
160686000 0.591494888968 -0.35369068332
160692000 0.591263168511 -0.353797190465
160698000 0.591382185705 -0.35420912326
160704000 0.591186317832 -0.354253179433
160710000 0.591114081609 -0.35418114204
160716000 0.590512084805 -0.354352470047
160722000 0.590440092486 -0.354902461439
160728000 0.590430673555 -0.354857236636
160734000 0.590595828912 -0.354502756178
160740000 0.590005289696 -0.354690317926
160746000 0.590305085621 -0.355399548389
160752000 0.590143229956 -0.355345579815
160758000 0.590180017133 -0.355216443247
160764000 0.58964141215 -0.355065771229
160770000 0.589832495951 -0.35563343146
160776000 0.589669260753 -0.3558385359
160782000 0.5896307099 -0.355662761271
160788000 0.589315826198 -0.355404402122
160794000 0.589363032988 -0.355979313972
160800000 0.589245883516 -0.35621118585
160806000 0.588708447196 -0.35617377249
160812000 0.588796702864 -0.356417156145
160818000 0.589055407158 -0.356467421367
160824000 0.588566862624 -0.356297262861
160830000 0.588426339857 -0.356647001358
160836000 0.588694601614 -0.356768390724
160842000 0.5895763467 -0.356912101588
160848000 0.589326970052 -0.356569894685
160854000 0.589867249617 -0.35685497006
160860000 0.587905669944 -0.357913391374
160866000 0.588169365882 -0.354888302509
160872000 0.590831468641 -0.358283033109
160878000 0.588401986185 -0.358038628724
160884000 0.587148425831 -0.357534345404
160890000 0.586966609397 -0.357804169532
160896000 0.586578845122 -0.357579128842
160902000 0.586565284773 -0.357821386193
160908000 0.586067828918 -0.358012813308
160914000 0.586099540297 -0.358484666552
160920000 0.586152790081 -0.358295843596
160926000 0.585872709422 -0.358295337101
160932000 0.58551332301 -0.358521140446
160938000 0.585440336148 -0.358813511017
160944000 0.585476640022 -0.358637628361
160950000 0.585360265381 -0.358566180265
160956000 0.584854926284 -0.358936792968
160962000 0.585017516394 -0.359274435017
160968000 0.585146224333 -0.359323704623
160974000 0.584574598755 -0.359189233397
160980000 0.584489986132 -0.359471067422
160986000 0.584366273605 -0.359660032926
160992000 0.584765394067 -0.359792934208
160998000 0.583996175968 -0.359517421495
161004000 0.584160946931 -0.35997512528
161010000 0.58387981535 -0.359963008192
161016000 0.583778931608 -0.360192409056
161022000 0.583428977485 -0.35991038258
161028000 0.583392118834 -0.360168190286
161034000 0.583021968333 -0.360220311192
161040000 0.583059563633 -0.3607621896
161046000 0.582768591529 -0.360359801405
161052000 0.58276367822 -0.360590328401
161058000 0.582286015478 -0.360853660683
161064000 0.582311450545 -0.361302943228
161070000 0.582037553311 -0.361044175534
161076000 0.581989707396 -0.361065874798
161082000 0.581526589424 -0.361191116498
161088000 0.581599973197 -0.361551119324
161094000 0.581683085955 -0.361558657208
161100000 0.581292391471 -0.361340786282
161106000 0.580949802219 -0.361652922782
161112000 0.580912189202 -0.362020538535
161118000 0.581114935687 -0.362058774959
161124000 0.580644294245 -0.361672659797
161130000 0.580478697541 -0.362208657962
161136000 0.580361620847 -0.362256405852
161142000 0.580532276395 -0.362563886464
161148000 0.580104742011 -0.362115286082
161154000 0.580031927358 -0.362758324707
161160000 0.579760346582 -0.362682073105
161166000 0.579966814612 -0.363440207957
161172000 0.579493759075 -0.362650229581
161178000 0.579171722084 -0.362884128425
161184000 0.57894762622 -0.363132402698
161190000 0.57885497873 -0.363465598382
161196000 0.57854823087 -0.363029365484
161202000 0.578774920833 -0.363483357438
161208000 0.577985949055 -0.363495980142
161214000 0.578093879149 -0.363972697549
161220000 0.577961422079 -0.363647389585
161226000 0.577855457084 -0.363662999211
161232000 0.577554010233 -0.363947838108
161238000 0.577468372469 -0.36426239285
161244000 0.577566243652 -0.364268786129
161250000 0.578043633143 -0.36398445023
161256000 0.576659576652 -0.364276032975
161262000 0.577235650313 -0.364918106448
161268000 0.576790108824 -0.364726238872
161274000 0.57655007878 -0.364402533143
161280000 0.576223044271 -0.364761904737
161286000 0.576148693236 -0.36485901126
161292000 0.576067201736 -0.365236296831
161298000 0.575699061695 -0.364876076103
161304000 0.575598605837 -0.365360348827
161310000 0.575366460689 -0.365498396628
161316000 0.575326682701 -0.365769604289
161322000 0.575146228269 -0.365262987636
161328000 0.575045181588 -0.365680329414
161334000 0.574532672041 -0.365572460442
161340000 0.574579776244 -0.366158674717
161346000 0.574500101676 -0.365830010932
161352000 0.574467395051 -0.365948523467
161358000 0.573837094128 -0.36612822925
161364000 0.573698214329 -0.366540725753
161370000 0.573646216327 -0.36625086454
161376000 0.573809264304 -0.366393491518
161382000 0.57307923271 -0.366392144149
161388000 0.573113335621 -0.366721519099
161394000 0.573030958804 -0.366576767035
161400000 0.572843429118 -0.36653863235
161406000 0.572420936159 -0.36724212862
161412000 0.572422935269 -0.36721154819
161418000 0.572564654059 -0.367337650263
161424000 0.572181498503 -0.366609501984
161430000 0.571589806589 -0.366987609398
161436000 0.571456320364 -0.367720240655
161442000 0.571176795175 -0.368664394368
161448000 0.571522173202 -0.367329746648
161454000 0.571205247493 -0.367744626515
161460000 0.570882109993 -0.367941814565
161466000 0.570948354116 -0.36823214843
161472000 0.570809582024 -0.367862377479
161478000 0.570277152018 -0.368091661249
161484000 0.57035422554 -0.368732470113
161490000 0.570105723717 -0.368718001105
161496000 0.569968699129 -0.368079133079
161502000 0.569639996496 -0.368299915213
161508000 0.569157431167 -0.36873105014
161514000 0.569289743802 -0.369002986352
161520000 0.569374547729 -0.368657236624
161526000 0.568906854588 -0.36867240415
161532000 0.568565413162 -0.369272241488
161538000 0.568509411839 -0.369411976741
161544000 0.568647742027 -0.369195654986
161550000 0.568538716594 -0.368864956137
161556000 0.567942134495 -0.369486242444
161562000 0.567811567744 -0.3698607616
161568000 0.56771748873 -0.369660567069
161574000 0.567521728307 -0.369698343571
161580000 0.566969750073 -0.370010994253
161586000 0.566756363691 -0.370091731591
161592000 0.566879179378 -0.370313063336
161598000 0.566748101391 -0.369642567157
161604000 0.56638406011 -0.370205685892
161610000 0.566075852715 -0.370644289554
161616000 0.56613638155 -0.370670243919
161622000 0.566117741651 -0.370040165857
161628000 0.565608169366 -0.370773820984
161634000 0.565040094765 -0.370734667198
161640000 0.565361269283 -0.370892606634
161646000 0.565295483791 -0.370621573553
161652000 0.564914935553 -0.370766246134
161658000 0.564491857486 -0.371126015853
161664000 0.56438723112 -0.371396390295
161670000 0.564393493478 -0.371016062116
161676000 0.564535002127 -0.371142582973
161682000 0.563411078295 -0.37171794805
161688000 0.563551180789 -0.371896322774
161694000 0.56366346668 -0.371838047987
161700000 0.563390286065 -0.371498191939
161706000 0.562436861538 -0.372135600861
161712000 0.562573890584 -0.372241307213
161718000 0.562867869896 -0.372280192933
161724000 0.562378132468 -0.371856801229
161730000 0.562099605086 -0.372593145946
161736000 0.561724319588 -0.372855293009
161742000 0.56216553578 -0.372946753819
161748000 0.561948714362 -0.372294999028
161754000 0.560983770749 -0.373144163191
161760000 0.561074118179 -0.372988130022
161766000 0.56074773559 -0.37302653223
161772000 0.561032642829 -0.372750368913
161778000 0.559522845123 -0.372748356513
161784000 0.560194021744 -0.373230710103
161790000 0.560162202194 -0.373556934856
161796000 0.560162257181 -0.373023524563
161802000 0.559731451201 -0.373382714182
161808000 0.559207431978 -0.373530326091
161814000 0.559433936144 -0.373818993313
161820000 0.559322341769 -0.373475250009
161826000 0.559022099501 -0.373608935852
161832000 0.558328554512 -0.37398171707
161838000 0.558337462993 -0.37410058755
161844000 0.558294469019 -0.374184638274
161850000 0.558004913031 -0.373785702994
161856000 0.557511096372 -0.374251474535
161862000 0.557626102213 -0.374468615577
161868000 0.557489966966 -0.374391194845
161874000 0.557372857461 -0.374254199587
161880000 0.556697392225 -0.37460015602
161886000 0.556493942122 -0.374804930616
161892000 0.556619270666 -0.374850093313
161898000 0.556472306293 -0.374538156874
161904000 0.556095138545 -0.374977956985
161910000 0.555742230161 -0.375258396106
161916000 0.555938294431 -0.375414468845
161922000 0.555741208577 -0.374919603662
161928000 0.555422826772 -0.37544341349
161934000 0.554934324094 -0.375700910456
161940000 0.554871234537 -0.375585807871
161946000 0.555068168541 -0.375325112942
161952000 0.554443793624 -0.375497517352
161958000 0.553855859256 -0.37556110062
161964000 0.554032873432 -0.376090384044
161970000 0.553892702404 -0.37565304052
161976000 0.553663427283 -0.375780229987
161982000 0.55302763989 -0.376117927735
161988000 0.553018410438 -0.376145938289
161994000 0.553204743406 -0.376242279271
162000000 0.552951721003 -0.375954877845
