! Calibrated averaged scanner-service zoom
# Hz S RI R 50
159810000 0.60813032742 -0.339309555276
159811755 0.607956141096 -0.33949844193
159813510 0.608290824968 -0.339549414916
159815265 0.608005166849 -0.33951661035
159817020 0.608204244398 -0.339246670416
159818775 0.607701874866 -0.339455143927
159820530 0.608218781275 -0.3396165214
159822285 0.608003326611 -0.339604540373
159824040 0.608372510832 -0.339353063761
159825795 0.607491806501 -0.339506659936
159827550 0.608005221471 -0.339908540764
159829305 0.608011853681 -0.339830322444
159831060 0.60804622496 -0.339510415366
159832815 0.607266044384 -0.339423822197
159834570 0.607977780275 -0.339760261805
159836325 0.60807575767 -0.339777039686
159838080 0.607984635791 -0.339536386734
159839835 0.607252594855 -0.339699014567
159841590 0.607883973908 -0.340085928361
159843345 0.608013320767 -0.339998113354
159845100 0.607843797146 -0.339801059149
159846855 0.606989566318 -0.339800502368
159848610 0.60760119397 -0.339992033513
159850365 0.60814437842 -0.339996211036
159852120 0.607499099299 -0.339926575153
159853875 0.607305150421 -0.339989050755
159855630 0.607441326202 -0.33992091035
159857385 0.607694060772 -0.340210460139
159859140 0.60734524312 -0.340275174725
159860895 0.607406258766 -0.339864685173
159862650 0.606850090807 -0.339981248608
159864405 0.60742364255 -0.340143175602
159866160 0.607508478571 -0.340228509063
159867915 0.607509308321 -0.339893938715
159869670 0.606797793172 -0.340182018328
159871425 0.607071077008 -0.340448902743
159873180 0.607115006981 -0.34040650177
159874935 0.607367837956 -0.339891306564
159876690 0.606531562526 -0.340123464661
159878445 0.607056480783 -0.34033435412
159880200 0.607240727251 -0.340451425013
159881955 0.6072419383 -0.340200179602
159883710 0.606568482157 -0.340302709803
159885465 0.60655584351 -0.34064962852
159887220 0.607045794501 -0.340365756419
159888975 0.606488519647 -0.340339977312
159890730 0.60632944839 -0.340212001422
159892485 0.606813944175 -0.340569015915
159894240 0.607037224339 -0.340583259793
159895995 0.606854771502 -0.34061612236
159897750 0.606672933178 -0.340569528455
159899505 0.606450801374 -0.340436966784
159901260 0.607294095582 -0.340784742942
159903015 0.606805645988 -0.340952182003
159904770 0.606697741058 -0.340449946134
159906525 0.606091137732 -0.340631669314
159908280 0.606808471724 -0.340945521367
159910035 0.606605698176 -0.340905373203
159911790 0.606728674371 -0.340660623347
159913545 0.606166903486 -0.340864328978
159915300 0.60662374402 -0.341356547079
159917055 0.606580806396 -0.341082594463
159918810 0.606550650252 -0.340826526885
159920565 0.605841257813 -0.340889254983
159922320 0.606311534565 -0.341129317939
159924075 0.606602438495 -0.340958439461
159925830 0.606552280083 -0.340960124716
159927585 0.605767524808 -0.341027368343
159929340 0.6063069195 -0.341404757457
159931095 0.60633741675 -0.34124208496
159932850 0.606216671718 -0.341084935581
159934605 0.605743318817 -0.340859239659
159936360 0.606007235695 -0.341195555312
159938115 0.60636444493 -0.34107528364
159939870 0.606090266098 -0.341314428242
159941625 0.605999651363 -0.34114988951
159943380 0.605786273553 -0.341280289177
159945135 0.606214258814 -0.341551079691
159946890 0.605908704586 -0.341409891674
159948645 0.606081006478 -0.341202887855
159950400 0.605527479213 -0.341199097145
159952155 0.60612570017 -0.341535428625
159953910 0.606093702706 -0.341602779926
159955665 0.606178683576 -0.341355059606
159957420 0.605635779971 -0.341659100792
159959175 0.605818017017 -0.341899419186
159960930 0.605868591252 -0.341754549232
159962685 0.605927373466 -0.341464089659
159964440 0.605425891125 -0.341474436398
159966195 0.60589134653 -0.341942980621
159967950 0.605898284869 -0.341776720721
159969705 0.606157136037 -0.341705347585
159971460 0.60507978529 -0.341819204796
159973215 0.605642353476 -0.342239881224
159974970 0.605829169834 -0.342025161933
159976725 0.605608002694 -0.34198197775
159978480 0.605036383312 -0.341784787589
159980235 0.605388027325 -0.342045231894
159981990 0.605624873047 -0.342159323087
159983745 0.605524502068 -0.342018608775
159985500 0.605225050011 -0.341975359152
159987255 0.605609950978 -0.342234713787
159989010 0.605197592512 -0.342239469029
159990765 0.605091415959 -0.341891857356
159992520 0.604957349243 -0.342270054544
159994275 0.605323977228 -0.342382953054
159996030 0.60513066371 -0.342361507083
159997785 0.605349708105 -0.342052968482
159999540 0.602836482429 -0.34114076992
160001295 0.605035705945 -0.342481761132
160003050 0.605003671624 -0.3423987269
160004805 0.605265514089 -0.342186840476
160006560 0.604317871425 -0.342246666338
160008315 0.604849644813 -0.342626807177
160010070 0.60504200299 -0.342425524504
160011825 0.605056783515 -0.342220628021
160013580 0.604102187908 -0.342291696475
160015335 0.604783045647 -0.342620590897
160017090 0.604855099351 -0.342726526524
160018845 0.604719517323 -0.342400065401
160020600 0.604066911846 -0.342369719167
160022355 0.604447030973 -0.342648719994
160024110 0.604678801384 -0.342357352302
160025865 0.604387370243 -0.342409124305
160027620 0.604144528818 -0.342336013815
160029375 0.604156865999 -0.342565195781
160031130 0.604637145905 -0.342811675162
160032885 0.604377204719 -0.342875593819
160034640 0.604247743382 -0.342664194327
160036395 0.604170504843 -0.342615730272
160038150 0.604422412536 -0.34294904303
160039905 0.604404085681 -0.342972610346
160041660 0.604472063915 -0.342699981925
160043415 0.603806219176 -0.342727495
160045170 0.604344047397 -0.343067387047
160046925 0.604267381893 -0.34308132272
160048680 0.604552272088 -0.342864119114
160050435 0.603899639326 -0.34308720827
160052190 0.604183125217 -0.343226786292
160053945 0.604454809648 -0.343256827209
160055700 0.604567608158 -0.342872341523
160057455 0.603883041657 -0.342990655529
160059210 0.604095118345 -0.343323739476
160060965 0.604469582199 -0.343295533213
160062720 0.604353663575 -0.343210742829
160064475 0.603585403811 -0.343103504324
160066230 0.603785788661 -0.343306931529
160067985 0.604225712717 -0.343472977215
160069740 0.603967415692 -0.343335260353
160071495 0.603522238944 -0.343158116965
160073250 0.603769752904 -0.343578571154
160075005 0.604024993536 -0.34359335377
160076760 0.603817693696 -0.343590572129
160078515 0.603840651518 -0.34339922905
160080270 0.603198161379 -0.343408041705
160082025 0.603832758488 -0.343684722832
160083780 0.603726842437 -0.343602591521
160085535 0.603801579194 -0.343391207008
160087290 0.603158646284 -0.343430288056
160089045 0.603581372239 -0.343893757532
160090800 0.603515618272 -0.343780633341
160092555 0.603703042756 -0.343659710971
160094310 0.60285609141 -0.343607416603
160096065 0.603357401686 -0.343910022006
160097820 0.603423863555 -0.343939638191
160099575 0.603533364606 -0.343740295802
160101330 0.602623175663 -0.343546475948
160103085 0.603318247357 -0.344046367847
160104840 0.603566875306 -0.344060517984
160106595 0.603267004041 -0.343862019148
160108350 0.602738965799 -0.343808078026
160110105 0.602865390068 -0.344122957838
160111860 0.60319516989 -0.344146790967
160113615 0.602998821266 -0.344048745212
160115370 0.602686970178 -0.343779088551
160117125 0.60282544443 -0.344048628721
160118880 0.603080349206 -0.344142936663
160120635 0.602845145392 -0.344169012356
160122390 0.60285561621 -0.343970595439
160124145 0.602284977082 -0.34409023314
160125900 0.602903505701 -0.344544594023
160127655 0.602751484559 -0.344406491549
160129410 0.602931846203 -0.344044520717
160131165 0.602225716348 -0.344015440998
160132920 0.602847446773 -0.344611860606
160134675 0.602474619333 -0.344490157015
160136430 0.603035794566 -0.34418698771
160138185 0.601942546587 -0.344336630753
160139940 0.6025837803 -0.344796062808
160141695 0.60265421197 -0.344663934866
160143450 0.602824529489 -0.344692451695
160145205 0.601981110476 -0.344373052446
160146960 0.602415342022 -0.344771961663
160148715 0.602443356691 -0.344698488396
160150470 0.602441560794 -0.344698739388
160152225 0.60200479229 -0.344568507198
160153980 0.602237226249 -0.344936395871
160155735 0.602588177702 -0.344781271778
160157490 0.602444438982 -0.344917051541
160159245 0.602021695666 -0.344649353426
160161000 0.60208222622 -0.344926372435
160162755 0.602024962578 -0.345006835047
160164510 0.602411372596 -0.345061851359
160166265 0.602221414189 -0.344848807142
160168020 0.602237996636 -0.345029439991
160169775 0.60193122384 -0.345226486143
160171530 0.602392268541 -0.345386220518
160173285 0.602002898009 -0.345078849197
160175040 0.601712204941 -0.34524164202
160176795 0.601690563909 -0.34523232075
160178550 0.602089443664 -0.345232428897
160180305 0.60183945818 -0.345144545915
160182060 0.601637659366 -0.345145149406
160183815 0.601789389386 -0.34526217798
160185570 0.601722793356 -0.345447465433
160187325 0.601711305965 -0.345529539499
160189080 0.601426476982 -0.345392039421
160190835 0.60175007263 -0.345399194291
160192590 0.601483247919 -0.345420247082
160194345 0.601769942509 -0.345444617114
160196100 0.601455265492 -0.34555501104
160197855 0.601432381813 -0.345499333487
160199610 0.601389112489 -0.345710179209
160201365 0.60172461573 -0.345872116501
160203120 0.601339560763 -0.345576469198
160204875 0.601351588601 -0.345607701993
160206630 0.601053797026 -0.345769705113
160208385 0.601702480751 -0.345693949762
160210140 0.60144356208 -0.345486222905
160211895 0.601257441595 -0.345723445885
160213650 0.601085394934 -0.345901143013
160215405 0.601425449147 -0.346017892622
160217160 0.601133416039 -0.345804503877
160218915 0.600917847565 -0.345879190035
160220670 0.600931566175 -0.34586980141
160222425 0.601137621961 -0.345908927873
160224180 0.600998611556 -0.345806741013
160225935 0.600789009948 -0.345808163452
160227690 0.600662404542 -0.345911287146
160229445 0.600886226922 -0.346061626162
160231200 0.600831085807 -0.346081124228
160232955 0.600573674067 -0.345876878561
160234710 0.600890328139 -0.346054922109
160236465 0.60069194733 -0.346009260384
160238220 0.600804945022 -0.346077885846
160239975 0.600440033364 -0.346000982641
160241730 0.600812766119 -0.346026781148
160243485 0.600623117927 -0.346274517655
160245240 0.600941629453 -0.346607536559
160246995 0.600644647482 -0.346235291405
160248750 0.600538723505 -0.346295340826
160250505 0.600557618424 -0.346382094933
160252260 0.600940551039 -0.346399476313
160254015 0.600700684404 -0.346279598722
160255770 0.600397716419 -0.346361436506
160257525 0.600260812048 -0.346620119755
160259280 0.600863042132 -0.346748108805
160261035 0.600559807564 -0.346430984508
160262790 0.600293369295 -0.346617856998
160264545 0.600128302081 -0.346623151365
160266300 0.600420695144 -0.346803562505
160268055 0.600365107672 -0.346614749658
160269810 0.599926446304 -0.346668348433
160271565 0.600170674034 -0.346776751314
160273320 0.600092095521 -0.347016990171
160275075 0.600144482241 -0.346981760393
160276830 0.599793536672 -0.346796678041
160278585 0.599983484651 -0.346959502477
160280340 0.60044818569 -0.346738707089
160282095 0.600149543583 -0.347180995757
160283850 0.599960212858 -0.346981664512
160285605 0.60005111246 -0.347018893464
160287360 0.600048037045 -0.347054014516
160289115 0.600138290466 -0.347333153981
160290870 0.599787851405 -0.347028479142
160292625 0.599756435098 -0.347235864762
160294380 0.59970205144 -0.347217671566
160296135 0.599878547526 -0.347412106589
160297890 0.599841472309 -0.347115726992
160299645 0.599568067126 -0.347290834902
160301400 0.599431344799 -0.347371809825
160303155 0.599676404647 -0.347453535147
160304910 0.599567281247 -0.347214701186
160306665 0.599312778508 -0.347408072049
160308420 0.599199232688 -0.347393096184
160310175 0.599499444654 -0.347576094495
160311930 0.599361896455 -0.347355971896
160313685 0.599013704012 -0.347260738334
160315440 0.599344314015 -0.347597869352
160317195 0.599173410647 -0.347168595088
160318950 0.599241929206 -0.347969062979
160320705 0.598407449426 -0.347119502125
160322460 0.599573841398 -0.347595894941
160324215 0.598832444346 -0.347733487727
160325970 0.599058427558 -0.347609547332
160327725 0.598911016956 -0.347463589008
160329480 0.598975006764 -0.347209092959
160331235 0.597544359108 -0.346281216098
160332990 0.598613068534 -0.347548702054
160334745 0.59850420405 -0.347623655581
160336500 0.59865519931 -0.347653110576
160338255 0.598387994492 -0.347642997234
160340010 0.598607001737 -0.347985764956
160341765 0.598497615972 -0.348084860962
160343520 0.599020771251 -0.347853314971
160345275 0.598190286039 -0.347738590584
160347030 0.598552103007 -0.347902885387
160348785 0.598523005058 -0.348160569263
160350540 0.598789391976 -0.348180503878
160352295 0.598037007184 -0.347933422924
160354050 0.598562542774 -0.348143679637
160355805 0.598122677313 -0.348196777788
160357560 0.59845899055 -0.348445347426
160359315 0.598273596971 -0.348012836849
160361070 0.598344458632 -0.347997307927
160362825 0.597990521293 -0.348321548121
160364580 0.598302676552 -0.348740853653
160366335 0.5980739508 -0.348287912188
160368090 0.598214998937 -0.348358586319
160369845 0.597717836497 -0.348503885555
160371600 0.598056940459 -0.348756383668
160373355 0.598357561945 -0.3484918489
160375110 0.59785732962 -0.348231456479
160376865 0.5978609448 -0.348534075155
160378620 0.598083908344 -0.348869130108
160380375 0.598448501711 -0.348702879925
160382130 0.597650187212 -0.348423852963
160383885 0.597722476983 -0.348851472138
160385640 0.597642934898 -0.349100940755
160387395 0.598354986643 -0.348855671825
160389150 0.597530569978 -0.348458350127
160390905 0.597678631657 -0.348729969543
160392660 0.597771263164 -0.348915536856
160394415 0.598142036839 -0.349009318084
160396170 0.597576135726 -0.348753910488
160397925 0.597706867964 -0.348892666428
160399680 0.597340338155 -0.349031648451
160401435 0.597784328935 -0.349268224888
160403190 0.597211105664 -0.348729260392
160404945 0.597476738097 -0.348817499085
160406700 0.597133192402 -0.34896119584
160408455 0.59750900881 -0.349414249564
160410210 0.597284285111 -0.349074787735
160411965 0.597315581547 -0.349112790636
160413720 0.596979719641 -0.349220084907
160415475 0.59725385447 -0.349461199765
160417230 0.597492672111 -0.349078085535
160418985 0.596987976507 -0.348886720295
160420740 0.59701110124 -0.349112406826
160422495 0.597350230472 -0.349518172198
160424250 0.597227933086 -0.349387555571
160426005 0.596808853707 -0.349155162066
160427760 0.596876900919 -0.349521481123
160429515 0.59683154864 -0.349742285634
160431270 0.597543492613 -0.34996171608
160433025 0.59635348855 -0.349274865704
160434780 0.596659346781 -0.349579412759
160436535 0.596597119019 -0.349796886553
160438290 0.596831117317 -0.35001636689
160440045 0.596095170912 -0.349585825707
160441800 0.596642706672 -0.350105435827
160443555 0.596140011808 -0.349969170666
160445310 0.596099877261 -0.350173820297
160447065 0.596108510394 -0.349758592752
160448820 0.596268704558 -0.349933623022
160450575 0.595808168563 -0.350174798005
160452330 0.596239580149 -0.350489230635
160454085 0.596040030343 -0.35030222535
160455840 0.595806789219 -0.350261809057
160457595 0.595580001601 -0.350545478659
160459350 0.595993958319 -0.350641327665
160461105 0.596221719491 -0.350356681583
160462860 0.595798412388 -0.350197437359
160464615 0.59578120505 -0.350185747692
160466370 0.595891584477 -0.350534800836
160468125 0.596353081875 -0.350463785471
160469880 0.59554362905 -0.350093363616
160471635 0.595747479219 -0.350574211418
160473390 0.59575130734 -0.350601625086
160475145 0.596307868129 -0.350444429361
160476900 0.595626624973 -0.350034788871
160478655 0.596119237714 -0.350333972424
160480410 0.595699294064 -0.350510057913
160482165 0.596130821332 -0.350600433447
160483920 0.595572220459 -0.35026903082
160485675 0.595999637831 -0.350450956509
160487430 0.595622267209 -0.350468816554
160489185 0.596058801234 -0.350721060882
160490940 0.595561047717 -0.350166691525
160492695 0.5956541434 -0.350371126628
160494450 0.595342255036 -0.350598523665
160496205 0.595811332843 -0.350897494076
160497960 0.595678845079 -0.350816037568
160499715 0.595532483209 -0.350583326707
160501470 0.595280120892 -0.350685575354
160503225 0.595564900394 -0.350967356453
160504980 0.59579807384 -0.350511245207
160506735 0.595346268065 -0.350565228397
160508490 0.595178936327 -0.350746370013
160510245 0.595085681865 -0.35074088997
160512000 0.595820994156 -0.351083447902
160513755 0.594811088587 -0.350381815664
160515510 0.595102273142 -0.350815764979
160517265 0.595179919889 -0.351220166807
160519020 0.59555857463 -0.351496247785
160520775 0.594810470813 -0.350580825463
160522530 0.594831868305 -0.350722223687
160524285 0.59503185957 -0.351417592774
160526040 0.595194727628 -0.351623963903
160527795 0.595008310674 -0.350847509648
160529550 0.594502790179 -0.350735622175
160531305 0.594818909772 -0.351479944787
160533060 0.595033788031 -0.351669604805
160534815 0.595489974815 -0.350800599362
160536570 0.59441668822 -0.35062981186
160538325 0.594697409804 -0.35160647931
160540080 0.594811895653 -0.351748389905
160541835 0.595362037399 -0.351445737418
160543590 0.594109885329 -0.350696617205
160545345 0.594410647345 -0.351565154446
160547100 0.594678658687 -0.351787929773
160548855 0.595431010902 -0.351615090172
160550610 0.593938797782 -0.351106413978
160552365 0.594340406151 -0.351651391949
160554120 0.594461351281 -0.351948129018
160555875 0.594764478124 -0.351826866117
160557630 0.593978303769 -0.350905071008
160559385 0.59412746533 -0.351591117356
160561140 0.594251526552 -0.351821169973
160562895 0.594661207763 -0.351943758579
160564650 0.594057837404 -0.35131496605
160566405 0.594019087646 -0.351415990442
160568160 0.593944135853 -0.352211833809
160569915 0.594505300433 -0.352330807044
160571670 0.594388564286 -0.351671580564
160573425 0.593943129613 -0.351510783345
160575180 0.594005541679 -0.352079569985
160576935 0.594418796756 -0.352567070749
160578690 0.594513835229 -0.351918584701
160580445 0.593703704825 -0.351603696086
160582200 0.593590565435 -0.35230987614
160583955 0.59402265466 -0.352682018892
160585710 0.594407131173 -0.351611006621
160587465 0.593232542529 -0.351550531156
160589220 0.593587422621 -0.352386207362
160590975 0.593726456231 -0.352646329743
160592730 0.594248529594 -0.352395674254
160594485 0.593010862922 -0.351838112363
160596240 0.593396885776 -0.352527155213
160597995 0.593434528371 -0.352716059978
160599750 0.593714538657 -0.352727177593
160601505 0.593067330271 -0.351832662385
160603260 0.593349180671 -0.352502837054
160605015 0.593620674765 -0.353115889858
160606770 0.5940440718 -0.35346068319
160608525 0.593911608457 -0.352885528276
160610280 0.594054295513 -0.353165203053
160612035 0.594207923602 -0.353926795
160613790 0.59450917066 -0.354318922288
160615545 0.594861599093 -0.353725562585
160617300 0.594692454452 -0.353753284609
160619055 0.594903302264 -0.354682826366
160620810 0.595170976172 -0.355022127445
160622565 0.595737360407 -0.354868797356
160624320 0.595064419238 -0.354442909662
160626075 0.595332945403 -0.355442762142
160627830 0.595903199913 -0.355866778651
160629585 0.596634124864 -0.355530698867
160631340 0.595391763132 -0.355052742992
160633095 0.595339763028 -0.355502031309
160634850 0.595512895351 -0.355579233829
160636605 0.59560134211 -0.35532873597
160638360 0.594476494819 -0.35430369201
160640115 0.594535141165 -0.354963166544
160641870 0.593910921467 -0.355287569582
160643625 0.594647239934 -0.354983887164
160645380 0.593539110321 -0.353848993905
160647135 0.593515396588 -0.354169798622
160648890 0.593293919871 -0.354335112593
160650645 0.593480741366 -0.354446247557
160652400 0.592787561378 -0.353605098652
160654155 0.592415652556 -0.353474760958
160655910 0.592368874664 -0.353974680011
160657665 0.592250706024 -0.353976849972
160659420 0.592103781548 -0.353216576322
160661175 0.591766159359 -0.352988364123
160662930 0.591776875577 -0.353782629484
160664685 0.59212727885 -0.353951144438
160666440 0.592455512188 -0.353515519783
160668195 0.59165711159 -0.353100255397
160669950 0.59186069376 -0.354023744183
160671705 0.591845494052 -0.35402285467
160673460 0.592420041169 -0.35371690094
160675215 0.591488077242 -0.353148507862
160676970 0.591638557188 -0.353877745926
160678725 0.591844311133 -0.35412401032
160680480 0.592682476037 -0.353780475948
160682235 0.591140109687 -0.353166877916
160683990 0.591503844161 -0.353908368882
160685745 0.591574595604 -0.354295910308
160687500 0.591966438824 -0.354443332812
160689255 0.591409228452 -0.353830933612
160691010 0.591411774447 -0.354259139195
160692765 0.591290483499 -0.354183413609
160694520 0.591574053871 -0.353969295155
160696275 0.591238219409 -0.353921165296
160698030 0.591257076191 -0.354093544807
160699785 0.59110858306 -0.354100393939
160701540 0.591519688861 -0.354290051293
160703295 0.590875981236 -0.354028766347
160705050 0.591164143473 -0.354431869116
160706805 0.590861142674 -0.354247863615
160708560 0.591147488651 -0.354511206453
160710315 0.590685299256 -0.353955552696
160712070 0.590928553749 -0.354529446215
160713825 0.590594438184 -0.354348211737
160715580 0.590673955766 -0.354672350872
160717335 0.590504780959 -0.354303550267
160719090 0.590857088535 -0.354646610238
160720845 0.590360384348 -0.35467837065
160722600 0.590667502986 -0.354771308787
160724355 0.590393743421 -0.354531263727
160726110 0.590369220998 -0.35464457493
160727865 0.590270561914 -0.354734446527
160729620 0.590651410107 -0.35492088993
160731375 0.590412164926 -0.354782956324
160733130 0.590349717219 -0.35465914687
160734885 0.590312430868 -0.355040064829
160736640 0.590227059057 -0.355060638737
160738395 0.590673843721 -0.355085042522
160740150 0.590136816724 -0.354659614764
160741905 0.590391136174 -0.355202197347
160743660 0.589992477612 -0.354908222989
160745415 0.590654968021 -0.355218976058
160747170 0.59013939066 -0.354819867385
160748925 0.590261556649 -0.355452988626
160750680 0.590029041248 -0.355242021675
160752435 0.590181736954 -0.355410198645
160754190 0.590026583755 -0.354990905536
160755945 0.590078150506 -0.355247410363
160757700 0.589945966151 -0.355195093394
160759455 0.590193108226 -0.355577483796
160761210 0.589918847491 -0.35516955738
160762965 0.589856850734 -0.355457937217
160764720 0.58962155596 -0.355526422648
160766475 0.58999377114 -0.355540804852
160768230 0.589855986615 -0.355337722491
160769985 0.589488626742 -0.355248979887
160771740 0.58969294672 -0.355455063152
160773495 0.589764005212 -0.355587965585
160775250 0.589811807938 -0.355560295202
160777005 0.589628407405 -0.355518292539
160778760 0.589634713855 -0.355886863175
160780515 0.589506417728 -0.355788408548
160782270 0.589795492863 -0.355707377865
160784025 0.58933007272 -0.355521884695
160785780 0.589426821244 -0.356097662327
160787535 0.58930453805 -0.355789994837
160789290 0.589664932698 -0.355992577485
160791045 0.589072893219 -0.355630159017
160792800 0.589263646087 -0.356151884621
160794555 0.589116375202 -0.356084283424
160796310 0.589299528936 -0.356213298919
160798065 0.588694770014 -0.355690014701
160799820 0.589040160285 -0.356173472931
160801575 0.588777941731 -0.35592145647
160803330 0.589128533747 -0.356372143577
160805085 0.58872085106 -0.355791791549
160806840 0.58885202105 -0.35628001074
160808595 0.588714389032 -0.356246803682
160810350 0.589083125782 -0.356518534956
160812105 0.588713335486 -0.356127225286
160813860 0.588552279585 -0.356271840268
160815615 0.588677607783 -0.356312367167
160817370 0.588637667932 -0.35651389751
160819125 0.588830073597 -0.356367944992
160820880 0.588649008611 -0.356344765411
160822635 0.588500840445 -0.35680856864
160824390 0.588554651799 -0.356717962096
160826145 0.588784392744 -0.356764231298
160827900 0.588240098423 -0.356369277345
160829655 0.588531196757 -0.356703987175
160831410 0.588216304682 -0.356729612154
160833165 0.588767893254 -0.356819596414
160834920 0.588453352963 -0.356492704839
160836675 0.588782521215 -0.357000343562
160838430 0.588616028869 -0.356882379021
160840185 0.589173492974 -0.356987180994
160841940 0.588774627714 -0.356329157631
160843695 0.589101379493 -0.356825525176
160845450 0.589097849241 -0.356601314836
160847205 0.589550842536 -0.356962838169
160848960 0.589292866643 -0.356511647691
160850715 0.589685337615 -0.356818915774
160852470 0.589486299356 -0.356816200535
160854225 0.5899439597 -0.357038132368
160855980 0.589856317085 -0.356612688528
160857735 0.59016916718 -0.356512313577
160859490 0.590121573825 -0.35678212021
160861245 0.590222641865 -0.356992327349
160863000 0.589950865218 -0.357000985763
160864755 0.589336861624 -0.356720932935
160866510 0.589367848452 -0.357232808552
160868265 0.589550630568 -0.357134724983
160870020 0.588970867297 -0.356856811376
160871775 0.588491700501 -0.357128558914
160873530 0.598393838012 -0.355811717862
160875285 0.588777214737 -0.357336892076
160877040 0.588004812974 -0.356893714248
160878795 0.587800124854 -0.356921134227
160880550 0.587592249912 -0.357725112929
160882305 0.587738346177 -0.357793725049
160884060 0.587452063341 -0.35746237338
160885815 0.587111479561 -0.357378302464
160887570 0.586825071247 -0.358033748751
160889325 0.586853778796 -0.358116255814
160891080 0.586718761213 -0.357613615966
160892835 0.586436339724 -0.357267975974
160894590 0.58649199916 -0.357857658674
160896345 0.586756366081 -0.358230517047
160898100 0.586729303392 -0.357916005098
160899855 0.586407426621 -0.357612608739
160901610 0.586265034656 -0.358033590717
160903365 0.58629987506 -0.358416354584
160905120 0.58657340654 -0.35820586186
160906875 0.586202276428 -0.357580115496
160908630 0.586043101051 -0.357944948579
160910385 0.586013902097 -0.358399779605
160912140 0.586577974902 -0.358407961952
160913895 0.58641270466 -0.357891730658
160915650 0.585902322315 -0.358176528218
160917405 0.585998282969 -0.358643207331
160919160 0.586157262945 -0.358664153408
160920915 0.586171052723 -0.358089543853
160922670 0.585879412946 -0.357938939925
160924425 0.586237413973 -0.35843637068
160926180 0.585999156191 -0.358720062303
160927935 0.585992370005 -0.35840042602
160929690 0.585720426229 -0.358269196856
160931445 0.585535963031 -0.358875717941
160933200 0.585752921022 -0.358943973611
160934955 0.585622112844 -0.358352665965
160936710 0.585497709043 -0.358126100931
160938465 0.58557700313 -0.35871995788
160940220 0.585426511114 -0.358881412169
160941975 0.585616478407 -0.358731451245
160943730 0.585276003351 -0.358336001226
160945485 0.585059315425 -0.358727397888
160947240 0.585072315866 -0.359242060922
160948995 0.585391199324 -0.358928298031
160950750 0.585220074058 -0.358407704939
160952505 0.585138876847 -0.358665435097
160954260 0.585191944264 -0.359102292173
160956015 0.585301534955 -0.359205223976
160957770 0.585129312872 -0.358802641599
160959525 0.584845539137 -0.358955975064
160961280 0.584741758121 -0.359492966889
160963035 0.585203048308 -0.359513474712
160964790 0.585026355148 -0.358735281584
160966545 0.584751755903 -0.358996720593
160968300 0.584677378735 -0.359376171848
160970055 0.585196938737 -0.359494551521
160971810 0.585000337402 -0.359165208692
160973565 0.584558607542 -0.358992950279
160975320 0.584573598066 -0.359752760576
160977075 0.584501896311 -0.359882910921
160978830 0.584689559859 -0.359366397508
160980585 0.584530428175 -0.359066567416
160982340 0.584334074174 -0.359558685671
160984095 0.584365557762 -0.359838570478
160985850 0.584574404294 -0.359545463627
160987605 0.58427887252 -0.358983822323
160989360 0.584170627148 -0.359735061095
160991115 0.583952609854 -0.360081574561
160992870 0.584355272157 -0.359784264447
160994625 0.584380581368 -0.359340685574
160996380 0.584021676713 -0.359605340134
160998135 0.583984476188 -0.359886883044
160999890 0.584122945297 -0.360014341769
161001645 0.584183391167 -0.359574750761
161003400 0.583635938163 -0.359703411268
161005155 0.583666154375 -0.360341113434
161006910 0.584019628509 -0.360259686771
161008665 0.583968883108 -0.359680987503
161010420 0.583746214859 -0.359618005156
161012175 0.583558944422 -0.360113122648
161013930 0.583852536031 -0.360367260291
161015685 0.583633587679 -0.359838372125
161017440 0.582794035145 -0.359541334038
161019195 0.583069789907 -0.360342601614
161020950 0.583438822577 -0.360437688722
161022705 0.583516430576 -0.360007418505
161024460 0.583256786903 -0.359741720315
161026215 0.583157753417 -0.360232345353
161027970 0.583258691639 -0.360526380928
161029725 0.583445814062 -0.360326870461
161031480 0.582935383558 -0.359915509003
161033235 0.582910131293 -0.360332967975
161034990 0.58328332769 -0.360625577812
161036745 0.583216931534 -0.360573733081
161038500 0.583007681025 -0.360012131879
161040255 0.582936416526 -0.360760741077
161042010 0.582844845123 -0.360317409418
161043765 0.582596948261 -0.360049901452
161045520 0.582586627561 -0.360607333107
161047275 0.582754250664 -0.361001062577
161049030 0.582784489615 -0.360627168269
161050785 0.582612399609 -0.360687720245
161052540 0.582304107572 -0.360869551187
161054295 0.582376255953 -0.360944948278
161056050 0.582612181898 -0.361041380834
161057805 0.582507960752 -0.360502776144
161059560 0.582204697004 -0.36087562066
161061315 0.582912498749 -0.361571838083
161063070 0.582554110889 -0.361198191746
161064825 0.582321539947 -0.360786981691
161066580 0.581921118181 -0.361186891438
161068335 0.581902686386 -0.361606705735
161070090 0.582197087739 -0.361515870313
161071845 0.582271020672 -0.36089171118
161073600 0.581708720291 -0.360950090667
161075355 0.581734345482 -0.361368379806
161077110 0.582136702218 -0.361559090948
161078865 0.581868602848 -0.361120375169
161080620 0.581479044681 -0.361240467912
161082375 0.58136481368 -0.361570815317
161084130 0.581589872091 -0.361687550242
161085885 0.581636079071 -0.361276478006
161087640 0.581514446208 -0.361119731262
161089395 0.581425073961 -0.361516657625
161091150 0.581388507142 -0.361693231653
161092905 0.581458195091 -0.361499584412
161094660 0.581381776857 -0.361292381276
161096415 0.581088123661 -0.361570286504
161098170 0.581145379047 -0.361972975245
161099925 0.58125623374 -0.36163051539
161101680 0.58127753249 -0.361313454941
161103435 0.580997098967 -0.361526012997
161105190 0.581015177026 -0.362017505691
161106945 0.581479455338 -0.361873480705
161108700 0.581121336808 -0.361566389016
161110455 0.580865609508 -0.361853018464
161112210 0.580797761139 -0.362209093629
161113965 0.581071783254 -0.362241750528
161115720 0.581005064571 -0.361654889939
161117475 0.580728113112 -0.361627273836
161119230 0.580717273626 -0.361998082752
161120985 0.580907858526 -0.362179075012
161122740 0.580857579756 -0.361712185026
161124495 0.580513421794 -0.361861739265
161126250 0.580360559149 -0.362454872695
161128005 0.580565841474 -0.362477426141
161129760 0.580523179934 -0.361970049453
161131515 0.580755079268 -0.3616152282
161133270 0.580369284182 -0.362211080595
161135025 0.580478172952 -0.362658412434
161136780 0.580432707025 -0.36212959069
161138535 0.580246827885 -0.362118585759
161140290 0.580094026863 -0.362457220846
161142045 0.579997557116 -0.362801869814
161143800 0.580383724876 -0.362378721004
161145555 0.580187301491 -0.36207330899
161147310 0.579995412467 -0.362309118659
161149065 0.579983099543 -0.362734982198
161150820 0.580304688268 -0.362697015813
161152575 0.580071312035 -0.362278742872
161154330 0.579704047882 -0.362704699227
161156085 0.57982149016 -0.362954557808
161157840 0.580005841658 -0.36297567709
161159595 0.579999427469 -0.362428748524
161161350 0.579665984872 -0.362489759761
161163105 0.579463551723 -0.362971399918
161164860 0.579691599304 -0.363155566168
161166615 0.579699498214 -0.362861871096
161168370 0.579354738399 -0.362696482108
161170125 0.579362170407 -0.363199091285
161171880 0.579396939542 -0.363173286047
161173635 0.579468828201 -0.362879251051
161175390 0.579300542451 -0.362707511678
161177145 0.579014560472 -0.36306113361
161178900 0.579287781565 -0.363444059412
161180655 0.57923207326 -0.363072709746
161182410 0.579047622122 -0.362878415899
161184165 0.578734567604 -0.363280839516
161185920 0.578715896367 -0.363618346323
161187675 0.578841173446 -0.363378361369
161189430 0.57894170221 -0.362852821087
161191185 0.578524885814 -0.36315427651
161192940 0.578671651947 -0.363553912817
161194695 0.578684882899 -0.363529925581
161196450 0.578734637759 -0.363215932904
161198205 0.578663270661 -0.363772143479
161199960 0.578059054825 -0.363567802025
161201715 0.578620183535 -0.36378606828
161203470 0.578629288202 -0.363177989819
161205225 0.578162394949 -0.363375800898
161206980 0.578189708029 -0.363746682098
161208735 0.578459267843 -0.363893123326
161210490 0.578244950122 -0.363367868347
161212245 0.578083132131 -0.363559981325
161214000 0.57803713397 -0.363996878833
161215755 0.57789769352 -0.363576271996
161217510 0.57777259061 -0.363998903007
161219265 0.577724881754 -0.363943161208
161221020 0.577935929155 -0.363967861353
161222775 0.577835396032 -0.363561590254
161224530 0.577717756877 -0.363862177038
161226285 0.577815996593 -0.364053121752
161228040 0.577906935391 -0.363940281979
161229795 0.577605828759 -0.363775358703
161231550 0.577517895967 -0.36418383602
161233305 0.577562883715 -0.36422643013
161235060 0.577570226187 -0.364080487348
161236815 0.577629644426 -0.364136120081
161238570 0.577441360768 -0.364002723433
161240325 0.577501065297 -0.364394493067
161242080 0.577454352762 -0.364134828722
161243835 0.577341961767 -0.36403547321
161245590 0.577289206386 -0.364181858854
161247345 0.577206254889 -0.364479987401
161249100 0.576992087623 -0.364425490288
161250855 0.577004011172 -0.364174519071
161252610 0.576908101724 -0.364157697723
161254365 0.576735827526 -0.364446497125
161256120 0.576865669901 -0.364384141118
161257875 0.576912705245 -0.364331175391
161259630 0.57681610763 -0.364186319952
161261385 0.576681957245 -0.364631974788
161263140 0.576644578269 -0.364576150928
161264895 0.576783038126 -0.364533014485
161266650 0.576545432782 -0.364359777895
161268405 0.576331891819 -0.364625403249
161270160 0.576471763815 -0.36479040282
161271915 0.576678955845 -0.364625448128
161273670 0.576448739536 -0.364623087381
161275425 0.576190370319 -0.364799500403
161277180 0.576108607458 -0.365097251106
161278935 0.576505691534 -0.36485392403
161280690 0.576420359895 -0.36464588687
161282445 0.576122853836 -0.36474151213
161284200 0.576103573843 -0.365053874885
161285955 0.576064288354 -0.36485574597
161287710 0.576158524554 -0.364881981974
161289465 0.575758083802 -0.36499433944
161291220 0.57577585229 -0.365206310492
161292975 0.575806073482 -0.36513596615
161294730 0.575933588011 -0.365051897135
161296485 0.575692829955 -0.36503047541
161298240 0.575586878623 -0.365404511817
161299995 0.575638819105 -0.365026190601
161301750 0.575681746651 -0.365201348852
161303505 0.575349920137 -0.365031334806
161305260 0.5752560793 -0.365503119758
161307015 0.575232984532 -0.365609028308
161308770 0.575383167689 -0.365249522134
161310525 0.575303704917 -0.365194175592
161312280 0.575081312723 -0.365469806301
161314035 0.575298119358 -0.365624560076
161315790 0.575371090905 -0.365569666266
161317545 0.575123937883 -0.365456927129
161319300 0.575272010553 -0.365534257695
161321055 0.575021354858 -0.365890807693
161322810 0.575215301582 -0.365673063472
161324565 0.574985351209 -0.365590487975
161326320 0.57480338677 -0.365584283294
161328075 0.574975315876 -0.365880536803
161329830 0.574855621575 -0.36572034179
161331585 0.574959733834 -0.365816273993
161333340 0.574767218119 -0.365833435221
161335095 0.574767710038 -0.366206530198
161336850 0.574535722564 -0.365940492858
161338605 0.574468314495 -0.365825497666
161340360 0.574515506665 -0.365766716115
161342115 0.574298990973 -0.366130488658
161343870 0.574333522509 -0.365777257336
161345625 0.574493158514 -0.366079924709
161347380 0.574199942431 -0.365813262438
161349135 0.574185502953 -0.366220201497
161350890 0.57417681606 -0.366110406756
161352645 0.574305708811 -0.366127201206
161354400 0.574023187478 -0.366008169304
161356155 0.574069675487 -0.36624098972
161357910 0.573947275215 -0.366288083941
161359665 0.57425858738 -0.366279841211
161361420 0.573931880444 -0.366231934
161363175 0.57364137523 -0.366316017166
161364930 0.573847029769 -0.366692444582
161366685 0.573877898833 -0.366453122484
161368440 0.573614901498 -0.366227857214
161370195 0.57363465034 -0.366356388402
161371950 0.573762688776 -0.36635513044
161373705 0.573688419145 -0.366464995186
161375460 0.573338074492 -0.366429150334
161377215 0.573138077555 -0.366397882042
161378970 0.573060194325 -0.36680872825
161380725 0.573275046133 -0.366539641166
161382480 0.573242210403 -0.366564965366
161384235 0.573055472369 -0.366352421502
161385990 0.573050514274 -0.366710951223
161387745 0.573019098852 -0.366557288291
161389500 0.573144919147 -0.3666954976
161391255 0.573008973762 -0.366491585206
161393010 0.572884361485 -0.366652643213
161394765 0.572982861297 -0.366795149366
161396520 0.572967078071 -0.36660877421
161398275 0.572907112115 -0.366696327849
161400030 0.572636050199 -0.366850049226
161401785 0.572664134321 -0.366985861082
161403540 0.572730490809 -0.366852531496
161405295 0.572519030187 -0.366947159631
161407050 0.572444572645 -0.366756390538
161408805 0.572580354312 -0.367186243336
161410560 0.572571973832 -0.36697783382
161412315 0.572445025702 -0.367089291903
161414070 0.572010006466 -0.367056296823
161415825 0.57207319091 -0.367310748038
161417580 0.57236884333 -0.367144157623
161419335 0.572221013338 -0.367113449194
161421090 0.571986250544 -0.367035916384
161422845 0.572064509847 -0.36723200481
161424600 0.572106601118 -0.367343624131
161426355 0.57196360357 -0.367181230832
161428110 0.571721705851 -0.367342394319
161429865 0.571677603909 -0.367686317194
161431620 0.571663674745 -0.367559114075
161433375 0.571762414286 -0.367289295877
161435130 0.571650266907 -0.367322994586
161436885 0.571532201953 -0.367487408137
161438640 0.571460650417 -0.367680634602
161440395 0.571651288774 -0.367581617298
161442150 0.57134551463 -0.367746542507
161443905 0.57139094285 -0.367748139145
161445660 0.571306222271 -0.367898598345
161447415 0.571258303659 -0.367552010201
161449170 0.57130140406 -0.36766865689
161450925 0.571075147443 -0.367631764074
161452680 0.571115833803 -0.367925250629
161454435 0.571187050587 -0.367669289803
161456190 0.571103146584 -0.3677889392
161457945 0.570910036222 -0.367773177655
161459700 0.570898894164 -0.368010250192
161461455 0.570701021966 -0.367587721013
161463210 0.570847653053 -0.367767701017
161464965 0.57082396769 -0.367634563855
161466720 0.570600349627 -0.368010246399
161468475 0.570642393159 -0.367934680063
161470230 0.570489894132 -0.367960425942
161471985 0.570383051848 -0.367941362514
161473740 0.570187153895 -0.368146181116
161475495 0.570173457119 -0.368080973443
161477250 0.570410947827 -0.367903913683
161479005 0.570259915434 -0.367985536076
161480760 0.570132405569 -0.368120957272
161482515 0.570144863944 -0.368388795152
161484270 0.570206816394 -0.368168779533
161486025 0.570094660201 -0.368241633511
161487780 0.569902330486 -0.368446901185
161489535 0.570013798904 -0.368561961967
161491290 0.570019565134 -0.368385597171
161493045 0.569889403214 -0.368014169317
161494800 0.569760679178 -0.368249573895
161496555 0.569633471584 -0.368637364677
161498310 0.569832281924 -0.368513380727
161500065 0.569541698018 -0.3684385098
161501820 0.569425209123 -0.368618335102
161503575 0.569283197927 -0.368901460653
161505330 0.569619356417 -0.368582924804
161507085 0.569554442796 -0.368609299737
161508840 0.569274378613 -0.368555634379
161510595 0.569262162218 -0.368809874417
161512350 0.569237324316 -0.368730416196
161514105 0.569390730659 -0.368752576437
161515860 0.568952727996 -0.368841558307
161517615 0.568935246183 -0.369073944846
161519370 0.569016181391 -0.3690780705
161521125 0.569025656359 -0.368711870354
161522880 0.569031485976 -0.368763300375
161524635 0.568780073036 -0.36893181138
161526390 0.568943426178 -0.369200386609
161528145 0.56904765788 -0.368904897392
161529900 0.568794350652 -0.368976384989
161531655 0.568594709589 -0.369078257417
161533410 0.568684337972 -0.369226496908
161535165 0.56892894106 -0.369107418183
161536920 0.568829470591 -0.36911870294
161538675 0.568572182612 -0.369002952384
161540430 0.568560039949 -0.369422475607
161542185 0.568587518734 -0.369124767493
161543940 0.567388792059 -0.368633540554
161545695 0.56811676292 -0.369432654537
161547450 0.568224081333 -0.369638722668
161549205 0.568284047397 -0.369354245935
161550960 0.568270702873 -0.369255025996
161552715 0.568075414156 -0.369270590475
161554470 0.56802874887 -0.36965724189
161556225 0.567982430106 -0.369475383467
161557980 0.567862540044 -0.369380279197
161559735 0.567654549177 -0.369354019511
161561490 0.567652682028 -0.369785668756
161563245 0.56774392611 -0.369721468501
161565000 0.567670511984 -0.369499065185
