! Calibrated averaged scanner-service zoom
# Hz S RI R 50
470000000 0.660286996501 0.147966300963
470010500 0.660781515557 0.147690974574
470021000 0.660113702339 0.148430782552
470031500 0.659882898018 0.148503042918
470042000 0.660276152595 0.148438243077
470052500 0.66025051749 0.148284903293
470063000 0.659647706912 0.148875379396
470073500 0.660012027799 0.147695702094
470084000 0.660255164229 0.148398429398
470094500 0.658779083165 0.148161835843
470105000 0.661538646871 0.149381492929
470115500 0.658558798238 0.148006562039
470126000 0.659728280203 0.146891736584
470136500 0.659616224049 0.150950688551
470147000 0.66476265792 0.149568683379
470157500 0.661345384449 0.147428684939
470168000 0.660762522593 0.147308611446
470178500 0.664536687708 0.14949246589
470189000 0.660213005616 0.146222521971
470199500 0.663599130118 0.151236940307
470210000 0.662552011497 0.148383836162
470220500 0.658024960125 0.147110616393
470231000 0.660108974083 0.149188481652
470241500 0.661275544717 0.146371013407
470252000 0.660541679759 0.152751808594
470262500 0.660565023262 0.145874542921
470273000 0.656509962569 0.150194973138
470283500 0.665312250203 0.153184582985
470294000 0.660477037966 0.1458241504
470304500 0.658081612127 0.145458322492
470315000 0.657723625586 0.147852523701
470325500 0.662350346144 0.147011259633
470336000 0.662249929189 0.14825525005
470346500 0.658363892947 0.143859871484
470357000 0.657192267628 0.145945029239
470367500 0.662261681889 0.150821775595
470378000 0.663055937572 0.143990856143
470388500 0.662146140412 0.14114839597
470399000 0.662409386607 0.148995274538
470409500 0.664226530008 0.144498198893
470420000 0.657190808797 0.146853530478
470430500 0.661253955001 0.148260658036
470441000 0.662610856244 0.142640846305
470451500 0.663141674656 0.148659320048
470462000 0.659708794552 0.141329496064
470472500 0.664567368659 0.149641941027
470483000 0.666754120505 0.143658552193
470493500 0.658688205212 0.146809152002
470504000 0.663303587748 0.142743411255
470514500 0.662753479812 0.147893700862
470525000 0.665725712795 0.147236403442
470535500 0.661628239507 0.149524194459
470546000 0.659741926121 0.148212959542
470556500 0.661556722309 0.147658113764
470567000 0.659187112796 0.14695110957
470577500 0.66259692929 0.144778543882
470588000 0.658225603458 0.146643638635
470598500 0.663733298229 0.146919177671
470609000 0.663912934369 0.150393772711
470619500 0.65829601238 0.149495143389
470630000 0.662899171691 0.144267557368
470640500 0.661329321496 0.143022037584
470651000 0.665321454712 0.144346697991
470661500 0.662317671864 0.143179198614
470672000 0.662832979026 0.142862459798
470682500 0.660949794359 0.145473313118
470693000 0.662304980474 0.150452425787
470703500 0.663805345412 0.144999424059
470714000 0.661088597364 0.146663583371
470724500 0.659642519367 0.146678864702
470735000 0.660494920352 0.142728486704
470745500 0.663395684799 0.144645658876
470756000 0.660515911572 0.14587740453
470766500 0.662024629798 0.145976709136
470777000 0.661986408534 0.146335050547
470787500 0.663126736498 0.144578255576
470798000 0.66249216832 0.145014639894
470808500 0.662825784427 0.14558360042
470819000 0.661661841042 0.145655168634
470829500 0.660216389138 0.145399846648
470840000 0.663506822187 0.146828268247
470850500 0.662592334779 0.144369407847
470861000 0.66209952182 0.144975283646
470871500 0.662095017906 0.145534886951
470882000 0.662921446128 0.144038364032
470892500 0.663490934242 0.144429884749
470903000 0.662432737518 0.145374375918
470913500 0.662592587774 0.145182946892
470924000 0.662350754092 0.145218694633
470934500 0.662671992188 0.144367172065
470945000 0.662115039935 0.144430656172
470955500 0.662742382728 0.144828550457
470966000 0.66299870617 0.145067800567
470976500 0.662630810299 0.145028348365
470987000 0.662118884609 0.145094194076
470997500 0.662343073813 0.144350569082
471008000 0.662761688742 0.144372073312
471018500 0.662409998729 0.144498507721
471029000 0.663023417586 0.14495702151
471039500 0.662163065732 0.145504184007
471050000 0.662752995949 0.14463360523
471060500 0.662453147934 0.144463556162
471071000 0.663054636149 0.144827627443
471081500 0.661925319603 0.144365371514
471092000 0.66307904963 0.144237860575
471102500 0.662605549314 0.14388697093
471113000 0.662199298786 0.145008382267
471123500 0.663203729936 0.143985582493
471134000 0.66281483787 0.14437714618
471144500 0.663172702758 0.143739124537
471155000 0.662494952371 0.143933560533
471165500 0.662820534525 0.144273022017
471176000 0.662963126849 0.144596486031
471186500 0.663466869458 0.143926074199
471197000 0.662255036476 0.143534207918
471207500 0.663374388873 0.14376445582
471218000 0.663886145322 0.14340027615
471228500 0.662304961815 0.144215003361
471239000 0.664138592026 0.158106231781
471249500 0.662944514853 0.144187604378
471260000 0.662189948478 0.144483155404
471270500 0.663171554032 0.143822845719
471281000 0.664651425841 0.143401952076
471291500 0.663557859665 0.143102732951
471302000 0.664670178727 0.143132510719
471312500 0.663673548897 0.1421897433
471323000 0.663991208741 0.14395724158
471333500 0.663906418897 0.143647072907
471344000 0.663913985227 0.143125710232
471354500 0.663691485047 0.143742548897
471365000 0.663939334635 0.143663329878
471375500 0.663798190072 0.143029208675
471386000 0.663493776169 0.142866416437
471396500 0.664040977107 0.143547875713
471407000 0.664665580433 0.14288520289
471417500 0.66472361657 0.14295030084
471428000 0.663585485994 0.143492064215
471438500 0.664500723344 0.143229323286
471449000 0.66435923188 0.142808766868
471459500 0.663110939067 0.143090732463
471470000 0.663609276561 0.142929370977
471480500 0.6643878817 0.143140934637
471491000 0.664003209286 0.142447690035
471501500 0.665221443357 0.142969764665
471512000 0.664535681532 0.142698129031
471522500 0.664590059616 0.142607586882
471533000 0.665163507179 0.143008638818
471543500 0.664867809359 0.142875385566
471554000 0.663861437189 0.142904125288
471564500 0.663548535456 0.142405274953
471575000 0.664257180002 0.142168344479
471585500 0.664628017361 0.142641179458
471596000 0.664867783556 0.142294805834
471606500 0.664370166364 0.14208625613
471617000 0.664010171615 0.142030901652
471627500 0.664728926844 0.141111466009
471638000 0.664550823521 0.1421541855
471648500 0.664210761918 0.141716262127
471659000 0.664919540149 0.141555746953
471669500 0.664576906613 0.141740544387
471680000 0.664411976254 0.1425717255
471690500 0.664473623087 0.142586547033
471701000 0.665228276457 0.141716666372
471711500 0.664922239118 0.142067930001
471722000 0.664767282495 0.142992689967
471732500 0.664346981727 0.141884053418
471743000 0.664540167457 0.141650327434
471753500 0.664732090884 0.141915451149
471764000 0.664696970176 0.142247455022
471774500 0.664993886378 0.141661829856
471785000 0.66475365026 0.141967731661
471795500 0.665521384199 0.141432313061
471806000 0.664996619467 0.141362154711
471816500 0.664809945372 0.141807012706
471827000 0.664812235297 0.141555488127
471837500 0.667615188194 0.14007110832
471848000 0.665617471168 0.140653391261
471858500 0.664965989932 0.141531790281
471869000 0.66535948948 0.141901303127
471879500 0.664912601145 0.141209644587
471890000 0.665211950132 0.141556859608
471900500 0.665264750339 0.140985872308
471911000 0.666121038878 0.141456573934
471921500 0.666231596632 0.141177720765
471932000 0.667073286018 0.141347203023
471942500 0.667149096719 0.141863451224
471953000 0.66580604501 0.14108036488
471963500 0.665544379802 0.140387835069
471974000 0.666055927139 0.141089687346
471984500 0.66579640877 0.141374795686
471995000 0.665550073806 0.141141277551
472005500 0.66576931119 0.141761192939
472016000 0.665709613875 0.141031662416
472026500 0.666151605278 0.141140453048
472037000 0.665977120756 0.141336845068
472047500 0.665039860686 0.141535708071
472058000 0.665780883454 0.14092541397
472068500 0.665460839185 0.141224413378
472079000 0.665949261466 0.141062543635
472089500 0.6665628063 0.141262103545
472100000 0.666196840863 0.140324299497
472110500 0.667917730847 0.141574447654
472121000 0.667448943805 0.141080228565
472131500 0.667703276972 0.141061991248
472142000 0.66763329478 0.139634407476
472152500 0.666877302294 0.140531202677
472163000 0.666145966776 0.140215965632
472173500 0.66633085949 0.140357088795
472184000 0.666796697711 0.140692039269
472194500 0.666505777392 0.140947473547
472205000 0.667630390106 0.140655661157
472215500 0.668489935911 0.140615562671
472226000 0.667878819755 0.140103142912
472236500 0.667411982353 0.140276032438
472247000 0.66748494998 0.140048765561
472257500 0.667412628038 0.140466487962
472268000 0.667708833128 0.139873480037
472278500 0.667382285212 0.140344386796
472289000 0.667611058599 0.140408392583
472299500 0.668233807066 0.140315363468
472310000 0.66766476424 0.140060065842
472320500 0.668065900229 0.13981506563
472331000 0.668264301293 0.139874819535
472341500 0.668374375872 0.139797403934
472352000 0.668027767564 0.139645217127
472362500 0.667436514942 0.140424052752
472373000 0.66734654437 0.139851119636
472383500 0.66721792227 0.139796587651
472394000 0.667651009394 0.139027775985
472404500 0.66733743059 0.140503447098
472415000 0.667214819677 0.139857480299
472425500 0.668012087413 0.139002295916
472436000 0.6678459563 0.139146656595
472446500 0.667817968007 0.139899888086
472457000 0.668277679416 0.139094335597
472467500 0.667996225218 0.138643033945
472478000 0.667746327753 0.138403804371
472488500 0.667724895368 0.139229657061
472499000 0.667905804042 0.139850249507
472509500 0.667161428163 0.141241648553
472520000 0.667846960475 0.139682323646
472530500 0.667301442814 0.139503404295
472541000 0.667640364297 0.139206878361
472551500 0.666696954226 0.139054273321
472562000 0.667474751085 0.138174658865
472572500 0.66604017712 0.138153961017
472583000 0.667292490674 0.137846424318
472593500 0.66881756617 0.137616957767
472604000 0.667044835371 0.139080913302
472614500 0.667392119662 0.139212944064
472625000 0.66793397628 0.138625274764
472635500 0.668006321067 0.139035182434
472646000 0.667924090878 0.138843256957
472656500 0.667246880581 0.138814263619
472667000 0.668111012454 0.138393822929
472677500 0.667762270205 0.139650393464
472688000 0.667441995507 0.139743505034
472698500 0.667442340396 0.139937922095
472709000 0.668258212416 0.139491066916
472719500 0.666542405883 0.138924110346
472730000 0.667666864163 0.139437346933
472740500 0.66791676025 0.138559297951
472751000 0.667750927584 0.138285041627
472761500 0.667916736299 0.138669392388
472772000 0.668025266977 0.138774435219
472782500 0.668076344643 0.139058505363
472793000 0.668160156705 0.138722544865
472803500 0.667784577752 0.138921676412
472814000 0.667913846586 0.139070846039
472824500 0.668304330652 0.139163516376
472835000 0.667593375246 0.139053127727
472845500 0.667918146505 0.138821512655
472856000 0.668620486703 0.139315546817
472866500 0.667844417412 0.139689907338
472877000 0.667836329379 0.138858361586
472887500 0.667510999383 0.138377354814
472898000 0.668048729131 0.139265689193
472908500 0.667690836776 0.138674010151
472919000 0.668762432482 0.138508995355
472929500 0.668984248807 0.138209885514
472940000 0.668202387203 0.139052875978
472950500 0.668902382928 0.13917895481
472961000 0.668076303587 0.138604668363
472971500 0.668814735725 0.138356432339
472982000 0.667918923458 0.138661535751
472992500 0.668155467247 0.13820637683
473003000 0.668985688684 0.138563689752
473013500 0.668610157008 0.138544304151
473024000 0.668683453748 0.138312930675
473034500 0.66903529012 0.137769339103
473045000 0.668934777562 0.138170921626
473055500 0.66968654837 0.138502975205
473066000 0.66928833834 0.138690657375
473076500 0.669974389257 0.138486394871
473087000 0.669284768335 0.138193859904
473097500 0.669217326539 0.138438299456
473108000 0.670220860667 0.138346337503
473118500 0.669379120859 0.138299873313
473129000 0.669991460097 0.13790389774
473139500 0.669213599821 0.137784946096
473150000 0.669389596129 0.137436639794
473160500 0.673557147896 0.138691040871
473171000 0.673152800969 0.137999553077
473181500 0.67370001515 0.138503864823
473192000 0.673733744469 0.137851912295
473202500 0.674332547066 0.138637613595
473213000 0.674003536273 0.138180450216
473223500 0.673955138554 0.138032491062
473234000 0.67451427092 0.138018724079
473244500 0.67386898146 0.138072353083
473255000 0.674569036015 0.137627848215
473265500 0.674272218023 0.137672241774
473276000 0.673962497904 0.13851286591
473286500 0.673508704995 0.138369575327
473297000 0.67376242711 0.137922646189
473307500 0.674069633444 0.136995724117
473318000 0.674070709674 0.136853840554
473328500 0.673991891465 0.137094886345
473339000 0.673910989503 0.137820084963
473349500 0.674284343831 0.137034551103
473360000 0.674254145118 0.13699250494
473370500 0.674830670283 0.136317770637
473381000 0.675370402517 0.136764505953
473391500 0.67510667221 0.136800072264
473402000 0.674710702854 0.136892586898
473412500 0.675073039371 0.136605305064
473423000 0.674460379869 0.136730933402
473433500 0.674117335534 0.136258299265
473444000 0.673039624507 0.136232097253
473454500 0.673195963314 0.137277536598
473465000 0.674443811842 0.136697878395
473475500 0.674208686094 0.136845851011
473486000 0.675334410084 0.136885963515
473496500 0.675021358658 0.137013313333
473507000 0.674590469861 0.136172735486
473517500 0.675310072522 0.136605296201
473528000 0.674878715036 0.136340312739
473538500 0.674297715071 0.136222657447
473549000 0.674210700804 0.135814804534
473559500 0.674570925667 0.135231821041
473570000 0.674161435613 0.136004085447
473580500 0.674592124408 0.135770064462
473591000 0.674648967609 0.135636001844
473601500 0.674731870732 0.136441619007
473612000 0.674488561991 0.13657795015
473622500 0.674324317024 0.136010426412
473633000 0.674255374777 0.136079782965
473643500 0.674932119827 0.135819501087
473654000 0.675210857545 0.135350281491
473664500 0.674586086223 0.136187044716
473675000 0.675447613942 0.13550554258
473685500 0.67461385539 0.136339791722
473696000 0.675433071961 0.135564969999
473706500 0.675675109362 0.13515499045
473717000 0.674907065578 0.135709079733
473727500 0.675312272501 0.135781700156
473738000 0.674534744112 0.13521870813
473748500 0.675417644791 0.134898786522
473759000 0.674933640326 0.135231216476
473769500 0.674962146839 0.135244381827
473780000 0.67519508155 0.13511177742
473790500 0.675853682007 0.135317735005
473801000 0.67550905052 0.134995923547
473811500 0.675937635405 0.135027638534
473822000 0.675376539847 0.134645303986
473832500 0.675590758928 0.135592499296
473843000 0.675226462271 0.134753462182
473853500 0.675670727808 0.134641934726
473864000 0.67571086266 0.13443657943
473874500 0.675730734742 0.134614648739
473885000 0.675296702593 0.134229070292
473895500 0.676647456869 0.134221484398
473906000 0.676276771172 0.134596856018
473916500 0.676088246225 0.133843848175
473927000 0.677063394292 0.133698076839
473937500 0.677261083183 0.132658766505
473948000 0.678390023063 0.131616377613
473958500 0.677689633984 0.132478772033
473969000 0.67661420958 0.133428762046
473979500 0.676217816649 0.134003667367
473990000 0.676205425141 0.134478410562
474000500 0.675559934756 0.133779297815
474011000 0.676636128939 0.133824685697
474021500 0.676205697412 0.133419956564
474032000 0.676850703775 0.133595063715
474042500 0.676657344814 0.133150134509
474053000 0.67662725679 0.132739834781
474063500 0.676513554987 0.133523499311
474074000 0.67668952795 0.133094607912
474084500 0.677374173477 0.133337255772
474095000 0.67648289204 0.133052727724
474105500 0.67707956485 0.13363241867
474116000 0.676622676593 0.132486452793
474126500 0.675790305518 0.132447869677
474137000 0.676368019482 0.132572256125
474147500 0.67712043079 0.132659274133
474158000 0.677200414086 0.131928955251
474168500 0.677436782227 0.131759953855
474179000 0.676775926196 0.13282159709
474189500 0.677150484426 0.132595132332
474200000 0.676672535301 0.13183409137
474210500 0.676680867669 0.131993244889
474221000 0.676840387037 0.131392198026
474231500 0.676689057022 0.131467003243
474242000 0.676416253456 0.132107792925
474252500 0.678225163339 0.131808035206
474263000 0.676696006898 0.131561993831
474273500 0.67637261259 0.132972155856
474284000 0.67769757714 0.131523238873
474294500 0.67884393689 0.132910393833
474305000 0.677478180738 0.133972739799
474315500 0.677971898718 0.133831747097
474326000 0.677112719744 0.131822467537
474336500 0.677734195892 0.131584847352
474347000 0.678211166052 0.132369680793
474357500 0.676490801314 0.131954840507
474368000 0.677353805509 0.131364659376
474378500 0.677793002925 0.130116189395
474389000 0.675805274159 0.129872305226
474399500 0.678428964071 0.132694291089
474410000 0.679436091128 0.129326989442
474420500 0.67697784635 0.131618557792
474431000 0.680588500269 0.13668597462
474441500 0.677763486594 0.130666237942
474452000 0.677215644995 0.131786729396
474462500 0.67851056479 0.130624853139
474473000 0.677937667368 0.132229367032
474483500 0.673855814353 0.131469548549
474494000 0.683295403861 0.136626776517
474504500 0.676804658039 0.131070024292
474515000 0.674939144223 0.130371659984
474525500 0.678975665158 0.12676042207
474536000 0.680252823943 0.130496619835
474546500 0.677236656649 0.130917878362
474557000 0.676518853434 0.130562156729
474567500 0.678160799343 0.131526106435
474578000 0.677259982884 0.130047604976
474588500 0.678221443951 0.130077927581
474599000 0.679114867587 0.129548150957
474609500 0.679046108433 0.129135115216
474620000 0.677870677555 0.130239460915
474630500 0.677510576313 0.131081781228
474641000 0.67793540188 0.130624081949
474651500 0.677446295463 0.130473039949
474662000 0.67665426946 0.13115319524
474672500 0.678891303635 0.13012001354
474683000 0.678080749397 0.129120807752
474693500 0.678176792319 0.130049267751
474704000 0.678478056168 0.130108412009
474714500 0.677471995691 0.129586641091
474725000 0.678154549671 0.129673094031
474735500 0.678464313535 0.129339458307
474746000 0.678045526666 0.129270003933
474756500 0.678576694627 0.129446274873
474767000 0.678108341389 0.128648233685
474777500 0.678015113211 0.129246790375
474788000 0.677818586079 0.129326050555
474798500 0.677382547322 0.128665288356
474809000 0.677905474573 0.129144703666
474819500 0.678065271858 0.129101607291
474830000 0.677748426585 0.129373455863
474840500 0.677601936667 0.129646805213
474851000 0.677978233946 0.128160402683
474861500 0.678300115101 0.129718416484
474872000 0.677969027158 0.12966134751
474882500 0.67790968882 0.129759484159
474893000 0.677762280746 0.129184217536
474903500 0.677657532779 0.129539756333
474914000 0.677814936776 0.129372999214
474924500 0.678187196921 0.128444754001
474935000 0.678303594214 0.129092157313
474945500 0.678631755838 0.12957999193
474956000 0.678547387484 0.129732512994
474966500 0.678437923612 0.128804739185
474977000 0.677479324309 0.128851059003
474987500 0.677468950767 0.126727980009
474998000 0.678115688153 0.12846392625
475008500 0.678112639136 0.12865503679
475019000 0.678652969429 0.128408563326
475029500 0.676147104935 0.128382065133
475040000 0.678400759468 0.127938080074
475050500 0.678121130059 0.128453399092
475061000 0.67843441395 0.128588249136
475071500 0.678406561666 0.127622346105
475082000 0.678509456727 0.128287450849
475092500 0.678197165754 0.128814449178
475103000 0.67790257349 0.128307685957
475113500 0.67847064237 0.128984613277
475124000 0.678486875791 0.128128644595
475134500 0.678718178792 0.127541159467
475145000 0.678935873502 0.128460328152
475155500 0.678878236172 0.127956835082
475166000 0.678206611406 0.127422561297
475176500 0.679244266647 0.128272134295
475187000 0.678634891164 0.128529781532
475197500 0.679079314775 0.12823056977
475208000 0.677739733985 0.127286010983
475218500 0.678748290234 0.12854722032
475229000 0.678862868258 0.128582417185
475239500 0.678021200434 0.128155986299
475250000 0.679116204496 0.127557742291
475260500 0.677558533872 0.127276455677
475271000 0.677475381801 0.12621666224
475281500 0.67772540252 0.127065067381
475292000 0.677555189315 0.127149683312
475302500 0.677284144361 0.127098818658
475313000 0.677325108228 0.127088782853
475323500 0.677646768732 0.126943084688
475334000 0.677383079433 0.127038386196
475344500 0.677662742723 0.126808075562
475355000 0.678731019254 0.127311954616
475365500 0.677797786168 0.12660305358
475376000 0.678447860162 0.12656243189
475386500 0.677654110824 0.12704400798
475397000 0.678023463768 0.126501924783
475407500 0.677062260528 0.127108624485
475418000 0.678136695427 0.127344725453
475428500 0.677283164589 0.12697378804
475439000 0.677106389127 0.127462865549
475449500 0.677059933085 0.125912802391
475460000 0.677882345384 0.126655317105
475470500 0.678116157955 0.126790591581
475481000 0.677537263178 0.125669313902
475491500 0.677809215425 0.126744977136
475502000 0.677517964119 0.126691612976
475512500 0.677666201696 0.126651154757
475523000 0.677299386796 0.126277259964
475533500 0.676978646334 0.126209181803
475544000 0.678084153576 0.126595404208
475554500 0.677236283799 0.126833581046
475565000 0.677613440328 0.126900399074
475575500 0.677706440489 0.12667151981
475586000 0.678424884278 0.126537296946
475596500 0.678313352645 0.126348102213
475607000 0.678595594542 0.126092899331
475617500 0.678927710649 0.126332047601
475628000 0.67776704056 0.12611759435
475638500 0.678036497516 0.125835934025
475649000 0.678158189975 0.125786454932
475659500 0.677448423674 0.126170124932
475670000 0.677996051698 0.125351035794
475680500 0.678251005694 0.126271111028
475691000 0.678105533773 0.126671035974
475701500 0.678445751997 0.127053903057
475712000 0.678004718221 0.125932145665
475722500 0.678314666211 0.126145115131
475733000 0.678361224807 0.125479351973
475743500 0.677680935291 0.125711627349
475754000 0.67734811184 0.126262527553
475764500 0.678852129085 0.126461441062
475775000 0.677842918621 0.125123492507
475785500 0.677858540632 0.125681638848
475796000 0.677414651123 0.126115086612
475806500 0.678585233862 0.125517696776
475817000 0.679547761342 0.125446170094
475827500 0.678246256796 0.125804900845
475838000 0.678109208147 0.125065192127
475848500 0.678494432343 0.124962686755
475859000 0.679552956603 0.125857455074
475869500 0.678852371873 0.126072642872
475880000 0.678014484263 0.12623483316
475890500 0.678003908714 0.125404584215
475901000 0.678401916242 0.125882659262
475911500 0.677872781601 0.125789815504
475922000 0.678501272471 0.125533638947
475932500 0.678953089516 0.124964292008
475943000 0.678943958431 0.125516356075
475953500 0.678627430378 0.125300721765
475964000 0.678415073587 0.125203014641
475974500 0.678212131582 0.125260282906
475985000 0.678856189896 0.124526270331
475995500 0.678757443738 0.124952960722
476006000 0.678653473471 0.12533783201
476016500 0.678635554017 0.125293832505
476027000 0.678849521306 0.125531601995
476037500 0.679475071226 0.125730313094
476048000 0.679008495579 0.125731492581
476058500 0.679013304417 0.12520805397
476069000 0.678710967202 0.125660442062
476079500 0.678518761452 0.124769621034
476090000 0.678357061768 0.124757534988
476100500 0.677970042113 0.12434693283
476111000 0.678545522551 0.123910395684
476121500 0.678586445659 0.124381026377
476132000 0.678859467405 0.124035482727
476142500 0.679206162748 0.124014802459
476153000 0.678996690925 0.124076389042
476163500 0.679377939538 0.124368652913
476174000 0.679058487132 0.123882116149
476184500 0.67916098597 0.123982847214
476195000 0.678542226464 0.124399903759
476205500 0.6789937938 0.123845541263
476216000 0.678931823979 0.124182798523
476226500 0.678746173576 0.123954934791
476237000 0.678813794657 0.123816685818
476247500 0.678805416119 0.123099328005
476258000 0.678672517791 0.124692434295
476268500 0.678736810285 0.122970966032
476279000 0.678671331127 0.123452393142
476289500 0.678980018489 0.123986673656
476300000 0.678890735041 0.123930439134
476310500 0.678669560274 0.123678175834
476321000 0.67959549316 0.124654638935
476331500 0.679134561297 0.124021046182
476342000 0.679085613307 0.124172425415
476352500 0.67942550597 0.124734278169
476363000 0.67916070978 0.123734229355
476373500 0.679678126667 0.123675583434
476384000 0.679581312191 0.122912064522
476394500 0.67883564958 0.123730207254
476405000 0.679324930057 0.12371782459
476415500 0.679496690648 0.124058072504
476426000 0.679412998627 0.122975874398
476436500 0.679352708683 0.123266766023
476447000 0.680216426947 0.123384939929
476457500 0.679734848532 0.123341393572
476468000 0.680212846082 0.123321298585
476478500 0.680029522192 0.123243727052
476489000 0.679644554251 0.123206691938
476499500 0.678724931693 0.121677035074
476510000 0.679030457455 0.123086987759
476520500 0.679720732778 0.123130454335
476531000 0.679677845594 0.123437689608
476541500 0.679610498671 0.123559779216
476552000 0.679542584127 0.123085758029
476562500 0.679484767445 0.123267132903
476573000 0.679930172143 0.123191959962
476583500 0.680121573948 0.124130605715
476594000 0.680162752511 0.123513517118
476604500 0.680299504156 0.122962725248
476615000 0.681687964598 0.123227027705
476625500 0.679532055413 0.124176042434
476636000 0.677683541639 0.143312802445
476646500 0.677892283978 0.12387310116
476657000 0.67205951851 0.128608864073
476667500 0.672930402532 0.126201664598
476678000 0.676726713352 0.125351229688
476688500 0.678756995275 0.123890055199
476699000 0.679960961469 0.122804334276
476709500 0.680809533154 0.123831273409
476720000 0.679930318012 0.122942902089
476730500 0.680327599575 0.122812128227
476741000 0.679612370521 0.122411136546
476751500 0.679175807542 0.122501348262
476762000 0.680330308271 0.122309331684
476772500 0.680651407829 0.122733129314
476783000 0.679910421634 0.122852574586
476793500 0.679144659658 0.121752552393
476804000 0.680181864796 0.12231264544
476814500 0.680046766575 0.122374078265
476825000 0.680071226858 0.122189256993
476835500 0.680013930319 0.121303548589
476846000 0.680300102166 0.122052352292
476856500 0.680934305906 0.121776599263
476867000 0.68101457191 0.121758164014
476877500 0.681314668993 0.121514322992
476888000 0.680919054087 0.122196840133
476898500 0.680197735992 0.122029123417
476909000 0.680658345751 0.122144958755
476919500 0.680715754547 0.121281124538
476930000 0.680547728463 0.121564526204
476940500 0.680658150274 0.121528571442
476951000 0.681051750298 0.121370021214
476961500 0.679943508514 0.121822838399
476972000 0.681120929075 0.121801073199
476982500 0.679894504264 0.122457919519
476993000 0.680310942636 0.122380577081
477003500 0.67994704562 0.12156912838
477014000 0.679874161698 0.121993587663
477024500 0.680187400466 0.122431367541
477035000 0.680438706035 0.122105605602
477045500 0.680853028248 0.121709113905
477056000 0.680221387775 0.122117287821
477066500 0.680395893797 0.121797207428
477077000 0.681142121425 0.121956188759
477087500 0.680349808352 0.121636549154
477098000 0.680298014937 0.121618956742
477108500 0.680801200069 0.121453118757
477119000 0.680480386738 0.121345930404
477129500 0.680114556734 0.121205527668
477140000 0.680194481306 0.121541362371
477150500 0.680181374769 0.121398759951
477161000 0.679966735575 0.121278454396
477171500 0.680514515707 0.121151894372
477182000 0.680159942676 0.121333621532
477192500 0.679907716675 0.121366131613
477203000 0.680355623694 0.121229506916
477213500 0.68083763352 0.120926199683
477224000 0.681035189056 0.120672271696
477234500 0.681361752679 0.121000340105
477245000 0.680508406423 0.120682817149
477255500 0.681078242008 0.120852463423
477266000 0.680843067929 0.120444099282
477276500 0.680533941015 0.120625426486
477287000 0.680872700497 0.120787940325
477297500 0.680925714235 0.120604318588
477308000 0.680893379937 0.121036742699
477318500 0.680598215321 0.121050887954
477329000 0.679996768297 0.120503198107
477339500 0.680310482177 0.120596227899
477350000 0.680818394546 0.120563218989
477360500 0.68103980474 0.119942084016
477371000 0.680840021046 0.120254807379
477381500 0.681815700229 0.120778408885
477392000 0.681459262509 0.119790085326
477402500 0.678030854011 0.116888171117
477413000 0.68069832599 0.120441594485
477423500 0.680202781324 0.120565166391
477434000 0.679435648615 0.120828374375
477444500 0.681178095333 0.120442883263
477455000 0.68140813077 0.119532481979
477465500 0.681581438786 0.121310846793
477476000 0.680366610473 0.117645359736
477486500 0.679985121983 0.120736927657
477497000 0.681504064266 0.119374898141
477507500 0.679402500058 0.119025697959
477518000 0.681385134089 0.120563463112
477528500 0.680753688923 0.11909543289
477539000 0.680860437202 0.11965372449
477549500 0.680759049153 0.120304272087
477560000 0.680966377576 0.118565669751
477570500 0.682626515852 0.121631174831
477581000 0.680649894961 0.121097725922
477591500 0.681315433885 0.11738974839
477602000 0.682474674072 0.121714247644
477612500 0.682954894146 0.119174972257
477623000 0.681593013894 0.117615701696
477633500 0.680340612156 0.119956010657
477644000 0.680217919406 0.119217811634
477654500 0.680349338408 0.119703225736
477665000 0.683653293103 0.120086496481
477675500 0.681031591659 0.117433560052
477686000 0.680520293714 0.118850572068
477696500 0.682727684031 0.119493672004
477707000 0.681750832148 0.118683462876
477717500 0.680421897908 0.119539651794
477728000 0.681581326608 0.120127097092
477738500 0.682965660626 0.113911212463
477749000 0.682403334713 0.119709199499
477759500 0.680642991883 0.118671356764
477770000 0.681539622472 0.121213691893
477780500 0.681732929804 0.119004230266
477791000 0.679831643468 0.119061804779
477801500 0.682705016837 0.119382957146
477812000 0.68168153889 0.118519076082
477822500 0.682957254654 0.120034607024
477833000 0.681816658952 0.119177688856
477843500 0.681810601674 0.118025660307
477854000 0.681854674317 0.117629873586
477864500 0.682403791074 0.117560850543
477875000 0.682021847517 0.118302934325
477885500 0.682726046116 0.119059646081
477896000 0.681269302502 0.1188235324
477906500 0.681994235338 0.118494930452
477917000 0.68088089939 0.117821626911
477927500 0.681534531108 0.11882532463
477938000 0.681428658087 0.118581682497
477948500 0.680371747464 0.117103368637
477959000 0.681702825083 0.118660388149
477969500 0.681509807142 0.118707427992
477980000 0.680995685494 0.117853526976
477990500 0.680805642972 0.118790053863
478001000 0.682263839771 0.119026704233
478011500 0.680730610017 0.11719787767
478022000 0.682051088534 0.118785886917
478032500 0.684355086717 0.117779002142
478043000 0.682724599156 0.11821282838
478053500 0.683925564438 0.119013627902
478064000 0.678464284433 0.118533107764
478074500 0.682818335053 0.11680737859
478085000 0.683094586855 0.117879614193
478095500 0.682160355085 0.119550649412
478106000 0.679072795199 0.124551037985
478116500 0.681696751925 0.117833978503
478127000 0.684183790971 0.116367135824
478137500 0.680178576968 0.119237450267
478148000 0.675925093128 0.118577165129
478158500 0.685548300847 0.119852992951
478169000 0.682657109541 0.120986571642
478179500 0.679952171539 0.12081168502
478190000 0.680551133618 0.118253669783
478200500 0.680960244994 0.120675792475
478211000 0.672390706325 0.118197706878
478221500 0.672419676326 0.122967055299
478232000 0.668362201902 0.124244890826
478242500 0.679140342554 0.1134658651
478253000 0.684060696709 0.114601215677
478263500 0.685946318666 0.120248978558
478274000 0.678001380473 0.122466455976
478284500 0.676349888796 0.101099163499
478295000 0.681212960999 0.120492733753
478305500 0.669759020502 0.121183909176
478316000 0.689091539861 0.128698633411
478326500 0.676003536722 0.13159990567
478337000 0.696327759244 0.118198205302
478347500 0.69696693801 0.105903649022
478358000 0.688142290185 0.12356539609
478368500 0.66337983173 0.107033797268
478379000 0.672850699802 0.111251651767
478389500 0.692423517791 0.113208165343
478400000 0.686056671578 0.118752694457
478410500 0.686899621246 0.116665359012
478421000 0.681685213021 0.118114544572
478431500 0.685904717925 0.112487610222
478442000 0.674986185053 0.12405382837
478452500 0.684486627693 0.116368860114
478463000 0.68609363588 0.124481561515
478473500 0.680504401261 0.110467589162
478484000 0.686717574648 0.114689742416
478494500 0.65591956063 0.124511308274
478505000 0.672189421721 0.107961649691
478515500 0.689124749361 0.111688645965
478526000 0.677203410919 0.138047477218
478536500 0.676731883068 0.113818917872
478547000 0.692090932383 0.121818082039
478557500 0.693248228429 0.0967102621878
478568000 0.702606791771 0.107835681206
478578500 0.692713206487 0.116764273902
478589000 0.700683040988 0.123843569608
478599500 0.675799152709 0.115362752583
478610000 0.69422461565 0.0984623860229
478620500 0.683138901255 0.11050729011
478631000 0.69214873622 0.120267980476
478641500 0.686928107961 0.122145243276
478652000 0.677322755309 0.114076334722
478662500 0.674631005191 0.115965475894
478673000 0.679714436529 0.124869427216
478683500 0.69049768649 0.107904177355
478694000 0.679943081789 0.117851360115
478704500 0.694274704103 0.136997329296
478715000 0.685097658262 0.106511970592
478725500 0.69340916395 0.107870405039
478736000 0.689812656438 0.116722425977
478746500 0.684556441472 0.115738593343
478757000 0.685974679382 0.109849285167
478767500 0.676816491283 0.114992102797
478778000 0.684807785882 0.11416821932
478788500 0.682623923007 0.109078356652
478799000 0.681983660562 0.121473035326
478809500 0.685153500673 0.116645717505
478820000 0.683013898466 0.11563002613
478830500 0.68157045428 0.116441123282
478841000 0.675995899918 0.120125108873
478851500 0.682359864115 0.120195437716
478862000 0.682497213007 0.115927449172
478872500 0.681654562607 0.12077823275
478883000 0.680262693272 0.11229448824
478893500 0.684360181512 0.119596764737
478904000 0.68741175042 0.113463565204
478914500 0.685089106588 0.117000488835
478925000 0.682100661561 0.116850391574
478935500 0.683186760584 0.112360850453
478946000 0.683971693267 0.115486173491
478956500 0.683607842104 0.117863737185
478967000 0.684025825407 0.11685646086
478977500 0.6835245358 0.116540864564
478988000 0.683522639876 0.11619403042
478998500 0.683738243761 0.116159667897
479009000 0.682929055015 0.116206004504
479019500 0.683363423896 0.116470408298
479030000 0.68363976402 0.115412283152
479040500 0.683324991291 0.115486551454
479051000 0.683638380738 0.116156090415
479061500 0.684663505366 0.113883608471
479072000 0.683073228938 0.116188777588
479082500 0.683046949662 0.1154866918
479093000 0.68379262865 0.115189666436
479103500 0.684398527344 0.116038982472
479114000 0.684159519762 0.115730051568
479124500 0.684714293915 0.11561857679
479135000 0.682457896916 0.114949378929
479145500 0.682828490908 0.113747231558
479156000 0.683648868846 0.116351800957
479166500 0.683616505836 0.115256149185
479177000 0.682486871771 0.116610371938
479187500 0.682836748027 0.115279475955
479198000 0.682689464937 0.116519425141
479208500 0.685144754899 0.116860233655
479219000 0.684896051172 0.115902623292
479229500 0.683720119366 0.113998703269
479240000 0.682023609813 0.116001012732
479250500 0.683182031941 0.116611894006
479261000 0.683826314794 0.116335087771
479271500 0.683246924338 0.115282295175
479282000 0.685087493463 0.115081825685
479292500 0.682993618698 0.115189426054
479303000 0.684016435409 0.116758270148
479313500 0.68562717859 0.114961967919
479324000 0.684359976107 0.115154465446
479334500 0.684590874232 0.115207054601
479345000 0.684705867963 0.114620032431
479355500 0.685400938828 0.113723067451
479366000 0.681980875464 0.114095195043
479376500 0.684861725557 0.115198760031
479387000 0.682771626399 0.116500877255
479397500 0.68445347202 0.115414400757
479408000 0.682411619204 0.114750952424
479418500 0.68436307385 0.11474952128
479429000 0.681999944618 0.113412778197
479439500 0.683298217319 0.1147846943
479450000 0.683757728528 0.114273848364
479460500 0.684951587399 0.112824880825
479471000 0.683358649727 0.113413222697
479481500 0.685928963831 0.114901269017
479492000 0.684400547289 0.113333863113
479502500 0.685349493185 0.114005337922
479513000 0.684071079535 0.115213767534
479523500 0.684055738843 0.116070459564
479534000 0.684775161079 0.11466632073
479544500 0.683474064706 0.114398621544
479555000 0.683534838442 0.114045555709
479565500 0.683639064902 0.115188661289
479576000 0.683903771802 0.114374764062
479586500 0.684172507189 0.114869833994
479597000 0.683686030473 0.114859486033
479607500 0.685475212371 0.114145068196
479618000 0.68465282477 0.114801800278
479628500 0.684959693883 0.11477302607
479639000 0.684949987272 0.11323269055
479649500 0.68548201465 0.114189886015
479660000 0.683615995031 0.114648510383
479670500 0.683117291567 0.11514098537
479681000 0.683366837037 0.114096813561
479691500 0.684601367377 0.114503767606
479702000 0.68393463871 0.114018730607
479712500 0.684390527048 0.114829697104
479723000 0.685025442203 0.114513836985
479733500 0.684618729011 0.114061207394
479744000 0.685797056473 0.114230002022
479754500 0.68525879053 0.113362860729
479765000 0.684794022824 0.113797523912
479775500 0.684834341743 0.113343027799
479786000 0.68476359449 0.114623129769
479796500 0.684486908021 0.11319765997
479807000 0.685257817398 0.11343692139
479817500 0.685380228713 0.113015940931
479828000 0.685465098475 0.113562339193
479838500 0.6850413503 0.113052172635
479849000 0.684765687621 0.112978582874
479859500 0.684955383392 0.113643237836
479870000 0.685797336023 0.113358196958
479880500 0.685523267751 0.113435033841
479891000 0.684819595106 0.11262832641
479901500 0.684980091497 0.112074616449
479912000 0.684874341199 0.112055532755
479922500 0.684294286318 0.111732730084
479933000 0.68546410743 0.111982573957
479943500 0.685261687072 0.113770818386
479954000 0.685966207469 0.114644888855
479964500 0.685576202109 0.114213815887
479975000 0.684914355571 0.112329537322
479985500 0.684527471894 0.113370433618
479996000 0.684357246579 0.112904012615
480006500 0.685637911452 0.112807801199
480017000 0.684966637514 0.113660645338
480027500 0.685148105174 0.112511182692
480038000 0.684606079864 0.112418424819
480048500 0.685887792176 0.113342770442
480059000 0.685685972122 0.112435128538
480069500 0.685645810317 0.113634776679
480080000 0.684758819968 0.113415801487
480090500 0.684980476403 0.11326268024
480101000 0.684374333504 0.111943685096
480111500 0.684842241063 0.112870142166
480122000 0.685288619709 0.112135840558
480132500 0.685502009445 0.112590628023
480143000 0.685491829135 0.112862539746
480153500 0.685151073372 0.112647414291
480164000 0.686335908414 0.113308002749
480174500 0.685589311057 0.112578918306
480185000 0.685900801594 0.112343936931
480195500 0.685341015285 0.111800789819
480206000 0.685387874823 0.112838709414
480216500 0.686594055348 0.11251477534
480227000 0.685125761283 0.112435848949
480237500 0.68558606923 0.110582640024
480248000 0.685504657184 0.111688465051
480258500 0.685960836695 0.11225706771
480269000 0.688706408837 0.103120142916
480279500 0.68596227062 0.112880813488
480290000 0.686241873442 0.112346849471
480300500 0.685903522417 0.111963357338
480311000 0.686847910211 0.112333968648
480321500 0.686233629664 0.111912735231
480332000 0.686613961112 0.111911316936
480342500 0.686134030457 0.111725044436
480353000 0.686176052003 0.112877790624
480363500 0.686343738449 0.112027824643
480374000 0.686531711067 0.112326140619
480384500 0.68731165747 0.112724131731
480395000 0.686973057064 0.112664188574
480405500 0.686797005708 0.112659968191
480416000 0.68666896851 0.112067173018
480426500 0.686446972632 0.111969445404
480437000 0.686190863672 0.112352187737
480447500 0.686026435813 0.112669259533
480458000 0.685788258017 0.112814578675
480468500 0.686054855564 0.112314966264
480479000 0.686378824431 0.111961966761
480489500 0.685766929908 0.111314418465
480500000 0.686279074713 0.111084397787
480510500 0.687098978543 0.111611744568
480521000 0.685865072063 0.111580887847
480531500 0.686891620448 0.11152282242
480542000 0.686436828579 0.111288103175
480552500 0.686656309794 0.110895033129
480563000 0.686456283375 0.111907090809
480573500 0.685171837783 0.111340566186
480584000 0.68632700115 0.111641464235
480594500 0.68680125805 0.111623252747
480605000 0.687083443535 0.111075411735
480615500 0.687073422003 0.111135347876
480626000 0.686484042251 0.110882236439
480636500 0.686237739166 0.111226947838
480647000 0.685810355708 0.110564536963
480657500 0.686838981448 0.112750188244
480668000 0.686514434463 0.112058144905
480678500 0.685966132024 0.112457169344
480689000 0.687060336302 0.111655576866
480699500 0.687401071553 0.111467330652
480710000 0.688237143478 0.111497877871
480720500 0.687082693595 0.112176356236
480731000 0.68714105433 0.109658744506
480741500 0.685856380615 0.110703892265
480752000 0.686922198071 0.111168647211
480762500 0.685969647598 0.11122099484
480773000 0.68567108393 0.110944277728
480783500 0.687750889109 0.110851375024
480794000 0.686499183791 0.110464255622
480804500 0.686896125498 0.110335227233
480815000 0.68741856688 0.11056572521
480825500 0.687050535105 0.110068344108
480836000 0.687264554732 0.110423670355
480846500 0.686112805113 0.111207846139
480857000 0.687113165452 0.110780578961
480867500 0.686638185217 0.110794796337
480878000 0.687000269865 0.108384234496
480888500 0.686625483703 0.110829831824
480899000 0.686951674733 0.110913270957
480909500 0.686675153715 0.110961751752
480920000 0.687070908997 0.110854196062
480930500 0.687029470117 0.110723736847
480941000 0.687029185992 0.11081637024
480951500 0.686919429027 0.109949860516
480962000 0.686978765356 0.109967598618
480972500 0.685840217534 0.111006034434
480983000 0.684284443453 0.113101237495
480993500 0.684036738854 0.113197193663
481004000 0.683891975427 0.111970963199
481014500 0.686093835252 0.110372285898
481025000 0.686878016118 0.109923332198
481035500 0.687498154498 0.110506489498
481046000 0.687656039264 0.11006512406
481056500 0.687972643229 0.109577879079
481067000 0.688032914001 0.110229079559
481077500 0.687618919578 0.110736981439
481088000 0.687075931053 0.10971248035
481098500 0.687764796575 0.110713810767
481109000 0.687672889114 0.110219325434
481119500 0.68794361327 0.108890724091
481130000 0.688381587629 0.109664911879
481140500 0.687802215345 0.110280963796
481151000 0.687485697438 0.10977213639
481161500 0.687517837528 0.109524678519
481172000 0.685912241451 0.110819674805
481182500 0.688716425868 0.109847106382
481193000 0.689764499188 0.110351520674
481203500 0.688900309263 0.110467849654
481214000 0.687759134426 0.108522421043
481224500 0.688899705633 0.110307890715
481235000 0.688083678602 0.1102031851
481245500 0.687471369266 0.110694813566
481256000 0.689549292573 0.111010193774
481266500 0.689254007287 0.110169459905
481277000 0.689255035438 0.111212430366
481287500 0.688243816434 0.109647507219
481298000 0.690499203768 0.107835576175
481308500 0.688751359726 0.109210083801
481319000 0.687066533113 0.108066423399
481329500 0.689448973316 0.10926443146
481340000 0.689474695219 0.108402526206
481350500 0.689197851378 0.109062681367
481361000 0.68804696174 0.109390620874
481371500 0.689168937137 0.10905819463
481382000 0.689104959662 0.109650396266
481392500 0.688608245891 0.109216515225
481403000 0.688086190789 0.109103249444
481413500 0.689133346346 0.10939877808
481424000 0.688715616109 0.109587766914
481434500 0.688457915394 0.110041332604
481445000 0.688333123241 0.108413152116
481455500 0.688564103321 0.10861668117
481466000 0.687594572703 0.108097122545
481476500 0.689398784936 0.108523394224
481487000 0.688715567006 0.107402968342
481497500 0.689898440557 0.107635145803
481508000 0.689191195415 0.106963530137
481518500 0.688837633753 0.108020457521
481529000 0.689940937889 0.108123512231
481539500 0.687865917038 0.108991127995
481550000 0.688317734978 0.109210993418
481560500 0.688198596797 0.107453485781
481571000 0.68844303068 0.108674013869
481581500 0.688776948483 0.1084697247
481592000 0.688570252047 0.108722104023
481602500 0.688666951882 0.106710160352
481613000 0.688722605142 0.108234730555
481623500 0.68825455948 0.107527457033
481634000 0.688530568012 0.107951692283
481644500 0.687691368057 0.109082592897
481655000 0.690156834108 0.108074904018
481665500 0.690031668682 0.106969769787
481676000 0.689272636372 0.108289501702
481686500 0.68934688164 0.107129668419
481697000 0.686991083156 0.107714075775
481707500 0.686473601665 0.105423237366
481718000 0.687077699075 0.106265390343
481728500 0.688384971324 0.10785780749
481739000 0.68845822179 0.107524108124
481749500 0.687406623399 0.107603941392
481760000 0.686947404854 0.109325714821
481770500 0.689006536827 0.106051664262
481781000 0.691275012375 0.106865012136
481791500 0.69080000152 0.108040814127
481802000 0.690771949704 0.108971968012
481812500 0.687748889549 0.109239684349
481823000 0.690256926264 0.108468696068
481833500 0.688119291265 0.109423327037
481844000 0.689272865481 0.10722664237
481854500 0.688253258206 0.107918028882
481865000 0.68972042571 0.107149476414
481875500 0.689654570258 0.108850429276
481886000 0.689028420087 0.10922261549
481896500 0.688188473811 0.106704464076
481907000 0.690333621704 0.106500955565
481917500 0.689822050932 0.107218835534
481928000 0.689089072344 0.107152527959
481938500 0.688589227443 0.105322639963
481949000 0.687979416175 0.107010658955
481959500 0.688225184767 0.109583977643
481970000 0.6854172854 0.106184284073
481980500 0.687308338792 0.107190190594
481991000 0.689625646683 0.107282303569
482001500 0.690344682031 0.108189133046
482012000 0.689918206926 0.106935923625
482022500 0.690029632693 0.108455316813
482033000 0.691475372386 0.107621840968
482043500 0.689722530006 0.107232404152
482054000 0.689836739813 0.111602235292
482064500 0.693829655924 0.10744352095
482075000 0.693042328918 0.108751901598
482085500 0.683072600859 0.0985198000371
482096000 0.689222360043 0.106383555579
482106500 0.68876208017 0.109240990337
482117000 0.687902738791 0.103879515292
482127500 0.690279734585 0.105914883542
482138000 0.688925334408 0.110356208562
482148500 0.689157537678 0.105092176118
482159000 0.68428733867 0.107449898432
482169500 0.689601157254 0.108345593851
482180000 0.695443445547 0.112020131448
482190500 0.68791996799 0.105044608285
482201000 0.691999866144 0.108118024114
482211500 0.685221375405 0.107072194343
482222000 0.694960104883 0.105042222887
482232500 0.689576936101 0.105627582048
482243000 0.692069664588 0.109614851562
482253500 0.693133431318 0.1118561279
482264000 0.685673437645 0.109892469158
482274500 0.689301543256 0.103134793359
482285000 0.698428193063 0.0951000129999
482295500 0.685177830421 0.103821537725
482306000 0.692601337302 0.104488112008
482316500 0.687766242683 0.107442159869
482327000 0.694542307693 0.0997277411956
482337500 0.687847784824 0.0983879951552
482348000 0.689961913584 0.108925630174
482358500 0.683607646208 0.107835196572
482369000 0.688554324912 0.106668087793
482379500 0.688887139964 0.0978331685684
482390000 0.692230180323 0.106172298958
482400500 0.695766275962 0.103935750483
482411000 0.683993800229 0.118080762398
482421500 0.687559863602 0.0992419234033
482432000 0.682744855563 0.115614667707
482442500 0.699095348728 0.109939513437
482453000 0.686273417901 0.100482215322
482463500 0.682455367139 0.105817710749
482474000 0.685587417736 0.114705449065
482484500 0.685590931864 0.116017497131
482495000 0.67413884455 0.117232799128
482505500 0.685230511326 0.0901322340893
482516000 0.686922144668 0.107818290064
482526500 0.695117327737 0.110395334943
482537000 0.688251875836 0.0894655160872
482547500 0.692587558567 0.100307229044
482558000 0.694502664101 0.103025648645
482568500 0.682009089455 0.101293442752
482579000 0.691436305401 0.114283391122
482589500 0.687183800893 0.107493009428
482600000 0.677117018546 0.0936253445245
482610500 0.684190975404 0.0964043688082
482621000 0.68889010309 0.0959006870768
482631500 0.679866146653 0.0981966752734
482642000 0.692529776715 0.105600995729
482652500 0.670757850833 0.0966555966564
482663000 0.698746355554 0.110922708022
482673500 0.6908778209 0.110659701067
482684000 0.694350959555 0.10185513196
482694500 0.694160213339 0.0949322261632
482705000 0.687280612319 0.100395353811
482715500 0.682598488464 0.111374517786
482726000 0.691293030225 0.101735562627
482736500 0.699425557473 0.109082663724
482747000 0.690387641276 0.104590160559
482757500 0.694412849424 0.110013902505
482768000 0.687664206581 0.105555737404
482778500 0.689115471421 0.110644655996
482789000 0.687536004019 0.0997016357988
482799500 0.695820467864 0.104947825018
482810000 0.692422272874 0.100880968909
482820500 0.687917740077 0.104910074331
482831000 0.693835124453 0.105762054175
482841500 0.696329408766 0.105874038052
482852000 0.693476904643 0.104793707263
482862500 0.692053918084 0.103331008238
482873000 0.691418234688 0.103357957038
482883500 0.690222143691 0.110058397156
482894000 0.689331696722 0.105989608402
482904500 0.69061768028 0.106593191655
482915000 0.689747596077 0.107371740727
482925500 0.691824672005 0.104710675627
482936000 0.691068247227 0.103390658636
482946500 0.691980977562 0.105711469508
482957000 0.693361265447 0.103998040882
482967500 0.692995474904 0.103442752799
482978000 0.691106391092 0.103824490415
482988500 0.691700070384 0.10187681521
482999000 0.693289253942 0.102657056081
483009500 0.693599689066 0.101697452364
483020000 0.693505167397 0.10301588031
483030500 0.691443934571 0.10378293418
483041000 0.691143919788 0.103236987707
483051500 0.691990728155 0.10322978111
483062000 0.691493682947 0.105563561612
483072500 0.692051089766 0.103094924947
483083000 0.691006054338 0.106204002066
483093500 0.692217359949 0.103782596829
483104000 0.690460079817 0.104014793962
483114500 0.690602461817 0.102297632408
483125000 0.691608703315 0.104425701667
483135500 0.691462930256 0.104990378127
483146000 0.692854515051 0.102890983538
483156500 0.691365228489 0.103873853969
483167000 0.692826750518 0.103049523769
483177500 0.692494613039 0.103922872233
483188000 0.690888110993 0.103129770512
483198500 0.690218408149 0.101780444706
483209000 0.694955741625 0.103802495446
483219500 0.693376988661 0.101915859925
483230000 0.69248169351 0.102035889622
483240500 0.692959879821 0.104110859349
483251000 0.693484506375 0.104692551449
483261500 0.693643548819 0.103669737893
483272000 0.691358776306 0.102519285909
483282500 0.692077573938 0.102905495456
483293000 0.691011375162 0.10140336867
483303500 0.691552693356 0.100983081998
483314000 0.692021817024 0.102703245074
483324500 0.691947450751 0.104306830959
483335000 0.691174306791 0.104235286293
483345500 0.690314688589 0.103536013041
483356000 0.693120784731 0.104227341862
483366500 0.69404739052 0.103331560741
483377000 0.691661956957 0.1039179607
483387500 0.6911816044 0.103756418602
483398000 0.690638834673 0.102470376974
483408500 0.693961972984 0.101829586033
483419000 0.691347331712 0.100185015296
483429500 0.693324340461 0.104254671465
483440000 0.693385976705 0.103500627411
483450500 0.69434665787 0.102762620912
483461000 0.692183587214 0.101731286777
483471500 0.691453320384 0.103254466268
483482000 0.693307273437 0.102277325829
483492500 0.694187579385 0.101937789696
483503000 0.692656607035 0.102742613874
483513500 0.69296897197 0.101785013421
483524000 0.692551156648 0.102840221798
483534500 0.691066531526 0.102611975367
483545000 0.692312150943 0.101720858069
483555500 0.693441046567 0.102091170925
483566000 0.692393325786 0.102059663008
483576500 0.692475390481 0.102081785549
483587000 0.692359364318 0.102261315122
483597500 0.693063614925 0.102270361603
483608000 0.693043121959 0.102008763753
483618500 0.69225376169 0.10206301856
483629000 0.693048471959 0.101040050004
483639500 0.69289737929 0.101807644016
483650000 0.693057124402 0.102432892885
483660500 0.692304031726 0.10255887568
483671000 0.692312424324 0.10164639373
483681500 0.692963123935 0.102014450336
483692000 0.693218457368 0.101101336257
483702500 0.692035399123 0.100935508335
483713000 0.6923273659 0.100682708377
483723500 0.693120834269 0.101027258635
483734000 0.692684691068 0.100849111242
483744500 0.692630003812 0.100985307862
483755000 0.693022346746 0.101623691651
483765500 0.692952157392 0.101438079602
483776000 0.693079499593 0.10167636364
483786500 0.693608064971 0.100144984181
483797000 0.693143315405 0.100564048691
483807500 0.693179182642 0.100498454898
483818000 0.693442139123 0.101269316023
483828500 0.693276154549 0.101801025631
483839000 0.693418745061 0.101430111829
483849500 0.692990047789 0.100116875653
483860000 0.692130580559 0.100232329034
483870500 0.692453343746 0.0992990420204
483881000 0.693098626284 0.0995553992478
483891500 0.692071437508 0.101114032165
483902000 0.692446930677 0.100758618293
483912500 0.693241950159 0.100385409769
483923000 0.693314771027 0.10091959241
483933500 0.694065456378 0.100467888882
483944000 0.693508102042 0.1015603545
483954500 0.693902183085 0.101042029884
483965000 0.693028224616 0.101215735032
483975500 0.692556343198 0.100897942192
483986000 0.692724577398 0.100345247582
483996500 0.69337148212 0.100256553523
484007000 0.693322221497 0.100623740548
484017500 0.693442712076 0.100255699068
484028000 0.693786647501 0.100105722177
484038500 0.693264651745 0.100419437383
484049000 0.693322151196 0.101355224812
484059500 0.692764546096 0.100377656015
484070000 0.693015007452 0.100011052369
484080500 0.692598319441 0.100184460881
484091000 0.6925569133 0.0998299987891
484101500 0.692503734179 0.100317820885
484112000 0.692654941998 0.100180001374
484122500 0.692670530325 0.100694012786
484133000 0.692306757453 0.100650608735
484143500 0.69308608101 0.100660489122
484154000 0.692818103237 0.100195509502
484164500 0.693248876457 0.100164881232
484175000 0.693023133334 0.10080221002
484185500 0.693083751033 0.100594625661
484196000 0.693000567288 0.100052980163
484206500 0.693502067866 0.100286942306
484217000 0.693783140939 0.100643628098
484227500 0.694267789572 0.100099752463
484238000 0.694530208403 0.100501193608
484248500 0.695443892999 0.100142833409
484259000 0.694197910732 0.100113169042
484269500 0.693856154905 0.100170455644
484280000 0.694197713201 0.100079098164
484290500 0.694151387771 0.100244900711
484301000 0.694371051151 0.0995725962147
484311500 0.693412820592 0.100536537134
484322000 0.694358806761 0.100478137478
484332500 0.693803264288 0.0996843830936
484343000 0.695178504118 0.099359121243
484353500 0.694836050708 0.0999576400702
484364000 0.694713204686 0.0997173332362
484374500 0.694492213647 0.100852375639
484385000 0.695051634035 0.100001495174
484395500 0.694280188782 0.10086125476
484406000 0.693959048086 0.100471781129
484416500 0.694835484012 0.10027725661
484427000 0.694975232793 0.10082257196
484437500 0.695317775122 0.100172214396
484448000 0.695231715804 0.10032834137
484458500 0.694190279553 0.100484254355
484469000 0.694490643002 0.100365916177
484479500 0.695062771164 0.100910189016
484490000 0.694539208677 0.100519887066
484500500 0.694614522876 0.100081219148
484511000 0.6947371649 0.10137905478
484521500 0.694889518697 0.100450649708
484532000 0.694923635682 0.100740759345
484542500 0.695313079329 0.100064920629
484553000 0.695434119946 0.0996503749034
484563500 0.695286412615 0.0998562651714
484574000 0.694891702473 0.100136725808
484584500 0.694561940884 0.100705661022
484595000 0.694606110569 0.101171107165
484605500 0.694661645934 0.101155799911
484616000 0.694213823539 0.101562288756
484626500 0.694754500844 0.100931657842
484637000 0.694199292396 0.100652436228
484647500 0.694790255009 0.10048234132
484658000 0.695321430564 0.100460581659
484668500 0.69607646212 0.100609462878
484679000 0.695479303889 0.100338073472
484689500 0.695761392036 0.101293460694
484700000 0.695194673851 0.100606380037
484710500 0.694024401658 0.104054814625
484721000 0.693902566686 0.103398756024
484731500 0.694153134277 0.102985569676
484742000 0.694314346786 0.10334121265
484752500 0.694049033475 0.10293077313
484763000 0.694290099245 0.102706173008
484773500 0.694711578564 0.102845297474
484784000 0.693833036935 0.102651822591
484794500 0.694262663999 0.102173100895
484805000 0.694127147583 0.102436362123
484815500 0.694573548655 0.102348952067
484826000 0.694509623736 0.10277952045
484836500 0.694624504657 0.10285365917
484847000 0.694333203853 0.102012486829
484857500 0.69423285578 0.102810389805
484868000 0.693464250202 0.10277894963
484878500 0.693146556242 0.103144925037
484889000 0.693693843382 0.102927160589
484899500 0.69486295017 0.102905905218
484910000 0.695350660081 0.103058949301
484920500 0.694548060024 0.103222342184
484931000 0.694436508189 0.103428879814
484941500 0.6947159048 0.103275659653
484952000 0.694210295013 0.103174755461
484962500 0.693899510173 0.103884799776
484973000 0.693359766471 0.103443888057
484983500 0.692530897656 0.103565615377
484994000 0.693234888951 0.103365127041
485004500 0.693806830801 0.102653070209
485015000 0.695323120889 0.102166557232
485025500 0.695139407759 0.102501653451
485036000 0.695181565209 0.1027002898
485046500 0.695201229053 0.102639923879
485057000 0.695073281001 0.102808380442
485067500 0.69464297649 0.102461395678
485078000 0.694840250593 0.102905938536
485088500 0.694274683013 0.102235634075
485099000 0.693822082184 0.102136852787
485109500 0.693690121275 0.101708507418
485120000 0.694765349856 0.102945504694
485130500 0.695045713773 0.102531733088
485141000 0.695005278867 0.10278379639
485151500 0.695035107906 0.101478457773
485162000 0.694414540911 0.102039414123
485172500 0.694344584553 0.102063619251
485183000 0.694744617225 0.102443823695
485193500 0.694534601082 0.10242547805
485204000 0.69529747607 0.102349774608
485214500 0.695360610086 0.102792086538
485225000 0.694880614073 0.102025761553
485235500 0.694924979427 0.101464891694
485246000 0.695346461743 0.100826047042
485256500 0.695075481068 0.101541924871
485267000 0.694915389528 0.101858337429
485277500 0.694980962239 0.101791730423
485288000 0.695217596499 0.101278324129
485298500 0.695683209701 0.101744521291
485309000 0.695322272294 0.102289259123
485319500 0.695977818119 0.101790196303
485330000 0.695473018451 0.101741347586
485340500 0.69575193196 0.101042233876
485351000 0.695758582676 0.101546763403
485361500 0.69504369995 0.101414414235
485372000 0.695437904693 0.101118886102
485382500 0.69565708051 0.100902099543
485393000 0.695151443398 0.101349959168
485403500 0.695265859274 0.101330889978
485414000 0.6953809644 0.100538455522
485424500 0.696636541606 0.101466772719
485435000 0.6956880012 0.100616402035
485445500 0.696873757333 0.0990872319482
485456000 0.69773380274 0.100249727009
485466500 0.693782012184 0.101728742115
485477000 0.693960006916 0.102367726319
485487500 0.697917675184 0.102955930388
485498000 0.690120814039 0.101911199985
485508500 0.697996104682 0.100527152998
485519000 0.692971302507 0.100549946648
485529500 0.696353012283 0.100801097218
485540000 0.69655551892 0.100016889446
485550500 0.695770731413 0.100424976062
485561000 0.694052619693 0.100957857309
485571500 0.695262173097 0.10045002749
485582000 0.698717370202 0.0991740481065
485592500 0.694191187223 0.0998606238359
485603000 0.696702525419 0.10315421652
485613500 0.698476157695 0.103309739657
485624000 0.692934023099 0.0978876095641
485634500 0.696952010961 0.104829311578
485645000 0.691537296198 0.0989513387853
485655500 0.691806989853 0.098650895982
485666000 0.699014476583 0.102182354217
485676500 0.696676418145 0.0983859388859
485687000 0.698866965523 0.100866846454
485697500 0.696528206754 0.10170260318
485708000 0.694763979752 0.100918778188
485718500 0.699197797258 0.0975007615991
485729000 0.694071885062 0.100846826497
485739500 0.695882978852 0.10085856835
485750000 0.69567763819 0.10157357115
485760500 0.697066457377 0.0971113309793
485771000 0.697984395452 0.0983052137843
485781500 0.698523611226 0.103307498422
485792000 0.700438989341 0.0968043801084
485802500 0.69751397187 0.100612666642
485813000 0.695308368686 0.0993275211239
485823500 0.699337817893 0.0997228183475
485834000 0.696502582794 0.101387301735
485844500 0.69712845929 0.101454424229
485855000 0.696474910239 0.0991993509455
485865500 0.699125704784 0.0976978163694
485876000 0.692271884948 0.0973511390916
485886500 0.696278512441 0.0982704488294
485897000 0.697220404557 0.100850709218
485907500 0.696698688674 0.100068779393
485918000 0.696394750184 0.099962491139
485928500 0.696948040369 0.0993216288639
485939000 0.694006500499 0.100293505468
485949500 0.697109349037 0.0993396291708
485960000 0.697030798479 0.0990072198312
485970500 0.69571572989 0.0998620314565
485981000 0.697721295296 0.0974234649566
485991500 0.6978328524 0.10084632242
486002000 0.697086239042 0.099444676278
486012500 0.697575535524 0.0989125457698
486023000 0.696503325704 0.0992538932546
486033500 0.698919232305 0.102942891672
486044000 0.697653045802 0.0990695478939
486054500 0.696130432582 0.0962768983113
486065000 0.698172496877 0.098994476922
486075500 0.697235199072 0.0987912574583
486086000 0.696374703911 0.101921578735
486096500 0.697868535157 0.0995851646452
486107000 0.694993598245 0.0998397676052
486117500 0.697061659155 0.0985451472855
486128000 0.698999805604 0.0996174720331
486138500 0.69695967042 0.0993231936207
486149000 0.697712821612 0.0945926387223
486159500 0.697535303962 0.0992303482098
486170000 0.697470029257 0.0986574903146
486180500 0.697551536003 0.098697221636
486191000 0.688170713873 0.100669777862
486201500 0.695259402199 0.098470803997
486212000 0.709174936706 0.102137888567
486222500 0.696981108387 0.109508010309
486233000 0.695081896947 0.0890453926835
486243500 0.696516940299 0.0919802389533
486254000 0.696559887821 0.0993491564355
486264500 0.693755965647 0.096994632603
486275000 0.696325202657 0.0981978948191
486285500 0.688070049402 0.0953263319913
486296000 0.702415751449 0.100330486998
486306500 0.699461170071 0.0934646246732
486317000 0.695793566282 0.0960669137768
486327500 0.699309957836 0.0933663503307
486338000 0.69655829797 0.101851773062
486348500 0.686629009094 0.0848969915804
486359000 0.703826654178 0.100558762504
486369500 0.689785214424 0.0882009080543
486380000 0.689511245413 0.113700742735
486390500 0.729456076933 0.0913619813534
486401000 0.697744319618 0.112434690997
486411500 0.708961299534 0.110927128055
486422000 0.646763154509 0.116826365103
486432500 0.7195383371 0.0836854154948
486443000 0.700352299637 0.100201722741
486453500 0.69274299089 0.104287945113
486464000 0.689053700039 0.100003626064
486474500 0.687345147955 0.0926841107142
486485000 0.7093506258 0.100649812651
486495500 0.685889105656 0.0928932489839
486506000 0.697177450475 0.0944319496068
486516500 0.700349071966 0.0914009582672
486527000 0.699458036012 0.0997041934385
486537500 0.704108416875 0.090526102714
486548000 0.717520276976 0.101029592253
486558500 0.694546767223 0.102969108295
486569000 0.682366965027 0.0876281074994
486579500 0.705832030002 0.101455234371
486590000 0.697985271434 0.0842203243331
486600500 0.693336715077 0.0967911606667
486611000 0.704926341481 0.0967178615321
486621500 0.716181742615 0.0783702822087
486632000 0.702449264937 0.0967038088599
486642500 0.702449321295 0.0969928554403
486653000 0.698780890626 0.105300521032
486663500 0.701763259879 0.0839752638595
486674000 0.698650102662 0.0966871010235
486684500 0.705748418147 0.101727346968
486695000 0.695548862739 0.0970266493433
486705500 0.71336239833 0.0794154494875
486716000 0.697867199016 0.0973200882064
486726500 0.697102753527 0.0966652708735
486737000 0.687039527303 0.107755541891
486747500 0.698360917042 0.0994346996045
486758000 0.69148096186 0.0922488171699
486768500 0.698115956512 0.0968813266208
486779000 0.698510159336 0.0970492349032
486789500 0.672963697558 0.0954539500239
486800000 0.699586155532 0.0852994686731
486810500 0.698887936268 0.0976057935756
486821000 0.699362526425 0.0975142586979
486831500 0.710849082239 0.092609119365
486842000 0.69854396625 0.0968838346948
486852500 0.699406949597 0.0967760476772
486863000 0.696735451571 0.0976482975537
486873500 0.699343568379 0.096775780977
486884000 0.699111004848 0.0968461451158
486894500 0.698816027163 0.0963469865489
486905000 0.699225105555 0.0964443784841
486915500 0.699343732987 0.096641886781
486926000 0.69907769326 0.0971034049481
486936500 0.699603597783 0.0966673760734
486947000 0.699737554936 0.0968050108231
486957500 0.699114012751 0.0960584881499
486968000 0.699392447842 0.0953868988967
486978500 0.698561686707 0.096688337922
486989000 0.698989931877 0.0966598491913
486999500 0.699823031497 0.0966174253098
487010000 0.699659206055 0.0963051515718
487020500 0.699004530171 0.0971949165416
487031000 0.69901387393 0.0970423105378
487041500 0.699967274181 0.0972516273979
487052000 0.700057223095 0.0970003220282
487062500 0.69986333902 0.0966437881974
487073000 0.700363687428 0.0971724061544
487083500 0.699323415043 0.0965998034599
487094000 0.701260905603 0.0969014532721
487104500 0.701287330205 0.0959689722969
487115000 0.698512677679 0.0949047554401
487125500 0.697666314428 0.0942184923275
487136000 0.69914637714 0.0951742767728
487146500 0.700010663904 0.096158443002
487157000 0.701709828601 0.0953482545254
487167500 0.698241670572 0.0941489562781
487178000 0.700389515629 0.0958421219934
487188500 0.696569680705 0.0968411153954
487199000 0.699551312257 0.0958249335736
487209500 0.699040722751 0.0965183621923
487220000 0.696109994549 0.0958601314996
487230500 0.699897575474 0.0974542752669
487241000 0.697728334814 0.0969634173797
487251500 0.699817418006 0.095261764566
487262000 0.701029659344 0.0956918241032
487272500 0.698873963609 0.0978977276715
487283000 0.699111552005 0.0948966482143
487293500 0.697815707985 0.096574164616
487304000 0.700278071921 0.094963106179
487314500 0.698350289709 0.095675349524
487325000 0.699932181628 0.0964548646128
487335500 0.700686172239 0.0965131696877
487346000 0.700981422948 0.095530520762
487356500 0.699128724827 0.0946522853717
487367000 0.700554144907 0.0980631046952
487377500 0.699587362189 0.098807115859
487388000 0.698253320819 0.0940607713315
487398500 0.69964265471 0.0934451654265
487409000 0.699716964414 0.0960550777826
487419500 0.697833772064 0.0953650253903
487430000 0.702520906328 0.0943125455588
487440500 0.701488869506 0.096049194753
487451000 0.698757064559 0.0957997676469
487461500 0.700497526121 0.0949971571583
487472000 0.700699325923 0.0943431582806
487482500 0.704141539428 0.0931757320794
487493000 0.70698670363 0.0781387101327
487503500 0.702028658258 0.0956118201678
487514000 0.702777272996 0.0966203783593
487524500 0.698779531438 0.0969908077644
487535000 0.701283219476 0.0942335694232
487545500 0.701234633097 0.0952015041554
487556000 0.700573250407 0.0961052104888
487566500 0.701226121287 0.0936306792645
487577000 0.701006685522 0.0936652349757
487587500 0.700921600914 0.0943880094244
487598000 0.700419943703 0.0947089201029
487608500 0.700811893745 0.0941451045365
487619000 0.699993955338 0.0945554376544
487629500 0.700278293836 0.0945854417015
487640000 0.700367429888 0.0937367453865
487650500 0.700444366742 0.0947632675646
487661000 0.700712923826 0.094226280749
487671500 0.700274325118 0.095017289775
487682000 0.699839032265 0.0941546371707
487692500 0.700520268155 0.0936677009355
487703000 0.700648285463 0.0936590930672
487713500 0.699962082272 0.0933960898722
487724000 0.700211501956 0.0939107641596
487734500 0.700199379269 0.0938924039221
487745000 0.700310582497 0.0938881456939
487755500 0.700017068212 0.0934969566559
487766000 0.700246962546 0.0942155234592
487776500 0.700523258711 0.0936435032471
487787000 0.700406260769 0.0943790499012
487797500 0.700729028124 0.0939395607333
487808000 0.699878787038 0.0940004305825
487818500 0.700750114532 0.0935074525653
487829000 0.701058583158 0.0937843851041
487839500 0.700238603304 0.09265441121
487850000 0.700221039184 0.0929257157263
487860500 0.699618757229 0.0931111084885
487871000 0.699450791738 0.0933740508253
487881500 0.699964543679 0.093298302797
487892000 0.700050311809 0.0932086562193
487902500 0.701370525803 0.0922123052397
487913000 0.700141101829 0.0925605394212
487923500 0.700262529805 0.092935120093
487934000 0.700742483612 0.0927380940269
487944500 0.700368598096 0.0920521123934
487955000 0.700231380219 0.0924484559198
487965500 0.69967848615 0.0929030674861
487976000 0.7000920071 0.093140571715
487986500 0.700587524984 0.0928714342509
487997000 0.699846413593 0.0936551544197
488007500 0.700178991765 0.0929646895551
488018000 0.699800131301 0.0932448776062
488028500 0.700310684942 0.0930836399138
488039000 0.699593387666 0.0932782323864
488049500 0.699925523039 0.0928513782156
488060000 0.700181001317 0.0928402766921
488070500 0.699909336449 0.0928165122467
488081000 0.700292803044 0.0930987371377
488091500 0.700383823228 0.0930259266176
488102000 0.700576502027 0.0923407332197
488112500 0.700990008189 0.0927980992528
488123000 0.700351272262 0.093097800328
488133500 0.700412408408 0.0926084115763
488144000 0.700218670961 0.0931314739465
488154500 0.699840789951 0.0927383815106
488165000 0.700048449401 0.0923806347
488175500 0.699401640487 0.0926598417255
488186000 0.699728481246 0.0927966562891
488196500 0.700337966391 0.0925295573461
488207000 0.700272630942 0.0922861415191
488217500 0.700539621656 0.0925777661966
488228000 0.700938903863 0.0919327220047
488238500 0.700474865972 0.0921417085794
488249000 0.700071924999 0.0917327193775
488259500 0.700356553153 0.0918929477194
488270000 0.700170429948 0.0921977776859
488280500 0.700409424848 0.0921190247922
488291000 0.700461899683 0.0918496802747
488301500 0.700550355846 0.0916485882197
488312000 0.701012907071 0.0915510330252
488322500 0.701490801132 0.0916568195127
488333000 0.701276781465 0.0920250209238
488343500 0.701390952069 0.092052991858
488354000 0.701231807498 0.0915377906405
488364500 0.70030245153 0.0918506724605
488375000 0.70086614327 0.0917642157969
488385500 0.700564380309 0.0916288720802
488396000 0.701009035325 0.0917080176486
488406500 0.700800425666 0.0913907426143
488417000 0.700583031341 0.0916211929902
488427500 0.701038647026 0.0912727034156
488438000 0.700834390025 0.0916414991386
488448500 0.701157744656 0.0912464229907
488459000 0.70149193188 0.0913770824649
488469500 0.700907966096 0.0913222826834
488480000 0.70056270324 0.0914212518858
488490500 0.701061233972 0.0912148440994
488501000 0.701355102913 0.091486449547
488511500 0.701129794541 0.0916898107692
488522000 0.700883036512 0.0920236469024
488532500 0.70098694691 0.09188596459
488543000 0.701191252215 0.0911172352865
488553500 0.700809053363 0.0912743556502
488564000 0.700801823972 0.0915794901902
488574500 0.701001994971 0.0914734460095
488585000 0.701305724315 0.0911430900952
488595500 0.70145001882 0.0908008430168
488606000 0.70167218257 0.0912458833817
488616500 0.701734470794 0.0906206456064
488627000 0.701504183905 0.0908904119337
488637500 0.701808475858 0.0906403905373
488648000 0.702312759098 0.0902163385087
488658500 0.70148250843 0.0905268782319
488669000 0.700941396002 0.0909556079299
488679500 0.701427065905 0.0902038041161
488690000 0.701172034593 0.0907150727829
488700500 0.701701963362 0.0911735368305
488711000 0.701229126119 0.0907252879964
488721500 0.701329567836 0.0902516992072
488732000 0.701602947555 0.0904594561652
488742500 0.701160890065 0.0904483637087
488753000 0.701820094663 0.090387000476
488763500 0.701449791842 0.0899591916554
488774000 0.701494969606 0.0899204164482
488784500 0.701837749218 0.0904664885102
488795000 0.7016342098 0.0901422666703
488805500 0.701159946427 0.0898831634764
488816000 0.702054608649 0.089978445302
488826500 0.701910051513 0.090002326649
488837000 0.701451084071 0.0905140051021
488847500 0.701299762838 0.0898034666651
488858000 0.700749901111 0.0896816041033
488868500 0.700873371772 0.0900400416166
488879000 0.701631210109 0.0902743655088
488889500 0.70198224245 0.0904362575888
488900000 0.702527864794 0.0898753950739
488910500 0.70170933559 0.0888240786392
488921000 0.701839093148 0.0881161900332
488931500 0.701508256867 0.0892697089473
488942000 0.701169292645 0.0880410117247
488952500 0.696473345146 0.0881761805222
488963000 0.701433759567 0.0882716048409
488973500 0.701597169214 0.0888893570637
488984000 0.701710228384 0.0882694837253
488994500 0.70163224394 0.0882910627519
489005000 0.701712623576 0.0878485196452
489015500 0.701688669702 0.0885462619548
489026000 0.701929510766 0.0882407514319
489036500 0.701289636829 0.0888757823921
489047000 0.701901415553 0.0882110528748
489057500 0.701417848337 0.0881544600389
489068000 0.701495193486 0.0880896745245
489078500 0.701617037021 0.0875031032177
489089000 0.701457995055 0.0876255858036
489099500 0.701905747419 0.0878878643509
489110000 0.701724289015 0.0872604788136
489120500 0.701383627357 0.0869342992173
489131000 0.701106185769 0.0872265302386
489141500 0.701853557269 0.0875632521163
489152000 0.702040500151 0.0876644781314
489162500 0.70156686739 0.0873850887763
489173000 0.70164157833 0.0875152913445
489183500 0.701715736589 0.0871898962738
489194000 0.701700437341 0.0873319543224
489204500 0.701980049468 0.0868950464911
489215000 0.701721861116 0.087311438383
489225500 0.701617336437 0.0871436561681
489236000 0.70173415365 0.0854807354159
489246500 0.702407441676 0.0871733771924
489257000 0.701929504516 0.086756378299
489267500 0.701630100369 0.0867355595411
489278000 0.702169176957 0.0862484390736
489288500 0.701229138697 0.0867253011127
489299000 0.701652469777 0.0864376942231
489309500 0.702132655818 0.086825116526
489320000 0.701776957354 0.0873859847977
489330500 0.701890971924 0.087498251441
489341000 0.701980631628 0.0869302179635
489351500 0.701412327189 0.0869052161497
489362000 0.702100063294 0.0863653316198
489372500 0.700559398362 0.0853831860737
489383000 0.701890404618 0.0861760077697
489393500 0.701933185131 0.0860392018178
489404000 0.702127209092 0.0855388341449
489414500 0.701689431927 0.0859363422286
489425000 0.702024617561 0.0852770644315
489435500 0.702355630339 0.0848486616077
489446000 0.702278916249 0.0857865824206
489456500 0.702702837001 0.0854345420989
489467000 0.702612743854 0.085700711746
489477500 0.702589120778 0.0854277584599
489488000 0.702980039903 0.0859890660559
489498500 0.702744781096 0.0855933984222
489509000 0.702231254402 0.0851438989302
489519500 0.703710653813 0.0844240336939
489530000 0.703126277174 0.0865002387356
489540500 0.70228753785 0.0851050763358
489551000 0.702045523084 0.0835356106603
489561500 0.700608397102 0.0850095798784
489572000 0.704493844299 0.0832439546177
489582500 0.701475519701 0.0866137647174
489593000 0.703806055774 0.0853099944832
489603500 0.704705732419 0.0846803601235
489614000 0.703596508643 0.0848848931748
489624500 0.702196485209 0.0860987453932
489635000 0.702971836685 0.0856852502056
489645500 0.704533484031 0.0837960843692
489656000 0.70500491038 0.0934597570209
489666500 0.701541938763 0.0838636264026
489677000 0.70412915273 0.0847108105755
489687500 0.70281303653 0.084374708418
489698000 0.703453460966 0.0853646811071
489708500 0.70592306953 0.0851024221433
489719000 0.70444573511 0.0838900610557
489729500 0.701958284295 0.0856951921301
489740000 0.703962383192 0.0837279740137
489750500 0.702814428889 0.0839839910346
489761000 0.701243993355 0.0849779854816
489771500 0.704505140679 0.0847942900976
489782000 0.70491495086 0.0855348685714
489792500 0.70300153962 0.0839916829573
489803000 0.70536056181 0.0813823443022
489813500 0.704826749985 0.0842047565415
489824000 0.703584222606 0.084331371527
489834500 0.70300894092 0.0851984336389
489845000 0.702935300365 0.0847218476723
489855500 0.704648608893 0.0842311860294
489866000 0.703667354357 0.0822221485761
489876500 0.70368547078 0.0843480762093
489887000 0.703714239538 0.0827254696136
489897500 0.702647403475 0.0832091037032
489908000 0.703719315776 0.0837953136803
489918500 0.703426464867 0.083503859367
489929000 0.704231229755 0.085244223236
489939500 0.703871635475 0.0835000560502
489950000 0.703957708106 0.0853545047613
489960500 0.702071501167 0.0833774093621
489971000 0.703903209493 0.0815381393886
489981500 0.70325441446 0.0819101663634
489992000 0.703334168123 0.0823215719591
490002500 0.702510061091 0.0819865871038
490013000 0.702928889978 0.0826425553914
490023500 0.702481994039 0.0824824918093
490034000 0.702950607323 0.0824177637038
490044500 0.703450024619 0.0823277979246
490055000 0.70291219666 0.0821319612979
490065500 0.702726368191 0.0815986663533
490076000 0.703465634372 0.0806550092859
490086500 0.703852324293 0.0811080183313
490097000 0.704173071667 0.0813164423981
490107500 0.702594070986 0.0813299596306
490118000 0.703175852228 0.08183574144
490128500 0.702688004625 0.0814922831771
490139000 0.702631298828 0.0818450458928
490149500 0.702793320672 0.0818069499423
490160000 0.703118679651 0.081816749668
490170500 0.702662058865 0.0819960099713
490181000 0.70433821623 0.0812588059011
490191500 0.700626630351 0.0811809202785
490202000 0.70354616482 0.0812674190694
490212500 0.702902332693 0.0807606946333
490223000 0.701644688971 0.0812277478253
490233500 0.703335435709 0.0829912398886
490244000 0.703587752113 0.0798697848808
490254500 0.703642135143 0.0805387997892
490265000 0.698475987365 0.0839217562701
490275500 0.705133750606 0.0803389043214
490286000 0.699695140915 0.0760030152223
490296500 0.704007570004 0.0805064188938
490307000 0.704060588011 0.0828067399427
490317500 0.703292919191 0.0779075326654
490328000 0.702623685488 0.0803727367326
490338500 0.69265257608 0.0878256268113
490349000 0.707796875461 0.082938199915
490359500 0.703859444224 0.0875376657296
490370000 0.701108778844 0.0807670537985
490380500 0.693569802711 0.0745262945164
490391000 0.69635525196 0.0760690496041
490401500 0.707002322883 0.0831811760844
490412000 0.70510990233 0.0792909668153
490422500 0.712822110272 0.0736309542334
490433000 0.694641996432 0.0797110393451
490443500 0.708327219138 0.0751696848653
490454000 0.707399096312 0.0804243516032
490464500 0.709350186701 0.0901841414584
490475000 0.690610131066 0.0774867783777
490485500 0.714273397522 0.0775312582201
490496000 0.698056125939 0.0837195677488
490506500 0.707141433282 0.0878204396334
490517000 0.703454474197 0.0820420473413
490527500 0.694167893717 0.0740803798605
490538000 0.701837775303 0.089003781223
490548500 0.694788366014 0.0725976699387
490559000 0.697865478809 0.0891468276135
490569500 0.700022768387 0.0766256702303
490580000 0.710544675453 0.0749492049893
490590500 0.707997398431 0.0894919954085
490601000 0.702243246933 0.0773853249919
490611500 0.702869561466 0.0860561433247
490622000 0.707049510206 0.0841701106705
490632500 0.710076636462 0.082147311385
490643000 0.69875011428 0.0767502141627
490653500 0.699237776141 0.0783403009245
490664000 0.700308177099 0.0784338588597
490674500 0.701800399457 0.0777288172144
490685000 0.702733903059 0.0824078427627
490695500 0.697853705996 0.0792136070705
490706000 0.707104999519 0.0818808070952
490716500 0.703311904174 0.0804093362721
490727000 0.699177915384 0.0758487861091
490737500 0.703270467112 0.0807840887145
490748000 0.702778695029 0.0800852296813
490758500 0.701277667302 0.0781860869839
490769000 0.704901483442 0.0817243754171
490779500 0.704224955573 0.0792924611868
490790000 0.704378812677 0.0800546544244
490800500 0.702937423702 0.0785837020405
490811000 0.704938880407 0.0776465927734
490821500 0.704737468079 0.0789300147125
490832000 0.704068492191 0.0790674613039
490842500 0.702913768279 0.0785452794951
490853000 0.70345303093 0.0782793802046
490863500 0.702341176682 0.0776652677918
490874000 0.70657750366 0.0802735365334
490884500 0.704275971512 0.0790827803411
490895000 0.70364850282 0.0794123887186
490905500 0.703817606711 0.0776949657767
490916000 0.704009684669 0.079153745037
490926500 0.703781023849 0.0791765305759
490937000 0.704190451445 0.0793659084153
490947500 0.704610492365 0.0786164884794
490958000 0.70432036311 0.0788278375885
490968500 0.704355053229 0.0789485364329
490979000 0.703849686254 0.0788843917514
490989500 0.703913668445 0.079141605896
491000000 0.7033095616 0.078233822979
491010500 0.702781053727 0.077298262737
491021000 0.703532924156 0.0789980060691
491031500 0.704507162762 0.0782488889433
491042000 0.704544496761 0.0774955507629
491052500 0.704304270589 0.0791448375505
491063000 0.702689006249 0.079194990762
491073500 0.70409471136 0.0788906535462
491084000 0.703055114292 0.0786839930633
491094500 0.703720170081 0.0800762567013
491105000 0.70407687537 0.0817093761783
491115500 0.703191995574 0.0781480234099
491126000 0.701898833913 0.0797501956254
491136500 0.703821314224 0.0792940531913
491147000 0.702655198211 0.0777260444272
491157500 0.703108769198 0.0788755871067
491168000 0.702899755746 0.0792790060016
491178500 0.704454571149 0.0783199482469
491189000 0.703396146241 0.0784155322769
491199500 0.702243559707 0.0806024040529
491210000 0.703939151865 0.0785646893326
491220500 0.703173304668 0.0786654200659
491231000 0.70350827073 0.077871455909
491241500 0.703637156849 0.0785649845241
491252000 0.704645302999 0.0786708475608
491262500 0.702984453657 0.0772218882502
491273000 0.70312712953 0.0788719147491
491283500 0.703339154371 0.0777292539877
491294000 0.702849975484 0.0774644410964
491304500 0.703742310666 0.0781436419115
491315000 0.703438203233 0.0787083815396
491325500 0.702662976809 0.0774646163475
491336000 0.702995320713 0.0772367768052
491346500 0.702033410924 0.0771852692432
491357000 0.703286902228 0.0789180243749
491367500 0.702870054592 0.0773456845189
491378000 0.704143200769 0.0768486017019
491388500 0.704294168824 0.0782654679738
491399000 0.702942737395 0.0772058787441
491409500 0.704158860805 0.0764107402513
491420000 0.702713214676 0.0766616811062
491430500 0.703757623526 0.0774164559053
491441000 0.703883920136 0.0776005900737
491451500 0.704043946584 0.0790771439394
491462000 0.703899830784 0.0781356433394
491472500 0.70430050664 0.076802969801
491483000 0.704360370667 0.077258499146
491493500 0.704411023911 0.07693182213
491504000 0.704327271024 0.0771751940581
491514500 0.703754274456 0.0771942949962
491525000 0.705069332682 0.0769915270511
491535500 0.704485772266 0.0779011462328
491546000 0.703616327602 0.0773210609465
491556500 0.70375674085 0.0774384989589
491567000 0.704358386301 0.0773827242928
491577500 0.704457146444 0.0774238028528
491588000 0.704056680159 0.0772054893321
491598500 0.703819979511 0.0767243148609
491609000 0.704525460059 0.0770307782849
491619500 0.703944577047 0.0773315163979
491630000 0.704116198223 0.0769629988946
491640500 0.704165431871 0.0767716866762
491651000 0.703510735992 0.0769171080866
491661500 0.702927999192 0.0772190932296
491672000 0.703733908863 0.0767739268935
491682500 0.704398629028 0.0767857722756
491693000 0.704267559015 0.0770303308061
491703500 0.704118965345 0.0777610409015
491714000 0.701145953221 0.077120780231
491724500 0.703817895451 0.0776627670793
491735000 0.704162336263 0.0769587897752
491745500 0.702804608758 0.0774145973903
491756000 0.704883288006 0.0766510033359
491766500 0.70430876589 0.0767703539934
491777000 0.704215371525 0.0769703578658
491787500 0.703505470199 0.0766724264651
491798000 0.704243651019 0.0773170510691
491808500 0.704015765548 0.0765730999428
491819000 0.704704021908 0.0764366419916
491829500 0.704117140875 0.0765794430757
491840000 0.704636640537 0.0764897056144
491850500 0.703932544914 0.0765661626064
491861000 0.704306530964 0.0772239440186
491871500 0.703862832495 0.0771277578218
491882000 0.704606072502 0.0769550254197
491892500 0.704800962618 0.0765352051392
491903000 0.704729236292 0.07636371698
491913500 0.704609312169 0.0763602362244
491924000 0.704601886447 0.076597321063
491934500 0.704354947939 0.0762220428911
491945000 0.704340216456 0.0760466682274
491955500 0.703788598338 0.0759517584378
491966000 0.703894853383 0.0768679626007
491976500 0.703664644631 0.0765596268348
491987000 0.704496157141 0.076304292383
491997500 0.704842794244 0.0759821488381
492008000 0.705707762103 0.0771517359848
492018500 0.704558742038 0.0765089421028
492029000 0.70409897408 0.0768028120906
492039500 0.704926827449 0.0761012129302
492050000 0.704589838039 0.0766702986564
492060500 0.703312077085 0.0773875131718
492071000 0.704252625008 0.0775165494137
492081500 0.70389457396 0.0764300658067
492092000 0.70394867726 0.0763707480053
492102500 0.704077070498 0.0766027130591
492113000 0.703643180879 0.0767241436504
492123500 0.703996500589 0.0766797702388
492134000 0.702624895867 0.075076580661
492144500 0.70459664088 0.0767347006219
492155000 0.704675360766 0.0760626865241
492165500 0.704722486672 0.0759552465253
492176000 0.705244015095 0.0757032891367
492186500 0.705041560549 0.0758879827013
492197000 0.70392356014 0.0757607064735
492207500 0.704191147017 0.076397473556
492218000 0.704257672987 0.0757604898539
492228500 0.704617008049 0.0767507150607
492239000 0.704090341268 0.0755663406387
492249500 0.704106854435 0.0754836142342
492260000 0.704240198429 0.0754929975599
492270500 0.703703899593 0.0759709791083
492281000 0.704397211379 0.075974728199
492291500 0.704350253137 0.0756378876879
492302000 0.703857005299 0.0753445001437
492312500 0.704371386254 0.0753878368295
492323000 0.704235284028 0.0751049850509
492333500 0.703879020814 0.0754001566311
492344000 0.703653485039 0.074989860466
492354500 0.70449463204 0.0749194517546
492365000 0.704597822397 0.0756281735151
492375500 0.704856553067 0.0754018802573
492386000 0.704875915136 0.0750160143604
492396500 0.704856640223 0.0748589645463
492407000 0.705132617885 0.075338260557
492417500 0.705521284758 0.0753818348228
492428000 0.705510554434 0.0760267108586
492438500 0.704531555554 0.0764473220245
492449000 0.704777771648 0.0759884949765
492459500 0.705688077755 0.076000842562
492470000 0.704973910005 0.0754113130838
492480500 0.705966276948 0.075822877343
492491000 0.705091772816 0.0748942608112
492501500 0.704951699865 0.0750522776875
492512000 0.70515644747 0.0750783221654
492522500 0.704473907306 0.075758923276
492533000 0.70544986017 0.0753569117583
492543500 0.704727234269 0.0765058215021
492554000 0.704672161285 0.0755000683367
492564500 0.705214194354 0.0764768278286
492575000 0.704963939353 0.0755562826315
492585500 0.70525567005 0.075330774645
492596000 0.704563987321 0.0757177231977
492606500 0.700563043795 0.076005837159
492617000 0.704470466295 0.0752866843264
492627500 0.704785418528 0.0745729696346
492638000 0.705811519356 0.0750538844892
492648500 0.705010553443 0.0754176436095
492659000 0.704682884881 0.0757441580896
492669500 0.704832287326 0.0753708138849
492680000 0.705033648948 0.0747880148122
492690500 0.704809447247 0.0765654958194
492701000 0.70481886074 0.0751383137851
492711500 0.704340653938 0.0762417853688
492722000 0.704467184073 0.0757894597516
492732500 0.704714039904 0.0756072863713
492743000 0.704401980634 0.074846972307
492753500 0.704480136997 0.0753206293536
492764000 0.704607721831 0.0745759687155
492774500 0.705055515333 0.0741447294265
492785000 0.705272505455 0.0741286072385
492795500 0.70541258489 0.0745092553585
492806000 0.706942569732 0.0765196253205
492816500 0.704821514929 0.0755129575585
492827000 0.704413668811 0.0752393068824
492837500 0.704899612536 0.0746995190999
492848000 0.70502533322 0.0749112186597
492858500 0.704213805142 0.0749486206462
492869000 0.705057596193 0.0746109986382
492879500 0.705001382241 0.0747308410814
492890000 0.704832514417 0.0753247532547
492900500 0.705105356074 0.0745224771541
492911000 0.704372264198 0.0738724174962
492921500 0.704972674403 0.0746848972873
492932000 0.705390625564 0.0749917895264
492942500 0.705896513479 0.0752732050716
492953000 0.705315369226 0.0749936097238
492963500 0.705541556508 0.0748132553397
492974000 0.705605667049 0.0751014187754
492984500 0.705551424963 0.0743944624642
492995000 0.705382612808 0.0745839454976
493005500 0.70497910885 0.0740882159514
493016000 0.705790897695 0.0741959597763
493026500 0.704874846422 0.0735585610155
493037000 0.705446563294 0.073555115206
493047500 0.705586836784 0.0743941706666
493058000 0.704638992135 0.073925650174
493068500 0.705832634872 0.0721230677071
493079000 0.705603780886 0.0745110824003
493089500 0.705406647297 0.0744937531721
493100000 0.705439435452 0.0741830687253
493110500 0.70719358204 0.0738817123466
493121000 0.705848319486 0.0734009219188
493131500 0.70641047589 0.0741156981674
493142000 0.706645817559 0.0733752803334
493152500 0.706587372171 0.0736331315364
493163000 0.706849346528 0.0734262117174
493173500 0.707251530988 0.0738183915329
493184000 0.706609707222 0.0738786743601
493194500 0.706340405259 0.0737536856584
493205000 0.706329169065 0.0735697196978
493215500 0.706133528531 0.0729017892768
493226000 0.706103995583 0.0736199687441
493236500 0.706924744277 0.0747525175434
493247000 0.70627379257 0.0734905783148
493257500 0.706089044211 0.0735286743926
493268000 0.706008671293 0.0724911335744
493278500 0.70638522834 0.0728203190592
493289000 0.706782023052 0.0741350066596
493299500 0.707210844999 0.0732183305977
493310000 0.707243439639 0.073270003388
493320500 0.706365174659 0.0728756708242
493331000 0.706384266288 0.0732393423141
493341500 0.706088542275 0.0728819387091
493352000 0.705582490564 0.0727188502626
493362500 0.706345195635 0.0727623100568
493373000 0.706276626076 0.073050809788
493383500 0.706900034329 0.0728406190708
493394000 0.70750940851 0.072984767861
493404500 0.707450998715 0.0732777507151
493415000 0.707010493652 0.0734904615621
493425500 0.706836882891 0.0734360617809
493436000 0.706905526164 0.0731005290296
493446500 0.707647440304 0.0732730136116
493457000 0.707322489358 0.0721005413585
493467500 0.707392216286 0.0728091068119
493478000 0.706677479635 0.0733004694633
493488500 0.707122331223 0.0729730378008
493499000 0.705936493503 0.0738238361436
493509500 0.706816118842 0.0743332014407
493520000 0.707807158981 0.0721369846868
493530500 0.706282842272 0.0720598463151
493541000 0.706909538349 0.0716952889331
493551500 0.707586252969 0.0732271498939
493562000 0.707683693671 0.0736902073628
493572500 0.70749362203 0.0730855552385
493583000 0.705992173077 0.0724791170728
493593500 0.706616787913 0.073305815845
493604000 0.70730774673 0.0732836901193
493614500 0.706157222136 0.0739941446593
493625000 0.706892296062 0.073755269342
493635500 0.707312210178 0.0734718965941
493646000 0.708027833896 0.0724502849717
493656500 0.707438178915 0.0733147643708
493667000 0.706462926083 0.0721904125363
493677500 0.707155037698 0.0719168426576
493688000 0.708474775827 0.0722701603266
493698500 0.707263058981 0.072787569164
493709000 0.707564975155 0.0726528640417
493719500 0.707536877592 0.0728144322454
493730000 0.706870514265 0.0727052512063
493740500 0.707324629182 0.0720921685458
493751000 0.708877071611 0.0722851097861
493761500 0.708207886336 0.0731659214506
493772000 0.708885303632 0.0731201936151
493782500 0.707240212249 0.0731046918945
493793000 0.707698812267 0.0737297711943
493803500 0.707705108512 0.0721823803344
493814000 0.70837369058 0.0721369925574
493824500 0.707265289299 0.0724188632816
493835000 0.707013250168 0.0721774069339
493845500 0.708412177482 0.0719758712678
493856000 0.706903295694 0.0719270439414
493866500 0.708307183296 0.0723664961992
493877000 0.708205520353 0.0720101544496
493887500 0.707296123634 0.0718230304302
493898000 0.708145995854 0.073352631997
493908500 0.707454995127 0.072278588818
493919000 0.707311328297 0.0720954427651
493929500 0.708125369244 0.0712861399191
493940000 0.70771895835 0.0723392619223
493950500 0.708117120241 0.072179951334
493961000 0.707967617973 0.0721141537774
493971500 0.710055320326 0.0729734581502
493982000 0.711706871341 0.0730767088097
493992500 0.71095984234 0.0725927545237
494003000 0.709700524741 0.0710113192247
494013500 0.709223434617 0.0720009321935
494024000 0.708321058667 0.0726905620766
494034500 0.70916469664 0.073304666786
494045000 0.708793303218 0.0721251757068
494055500 0.708110855165 0.071188481206
494066000 0.708023035846 0.0719670435118
494076500 0.70822055846 0.0719454666894
494087000 0.708032821355 0.0716987658718
494097500 0.706891670534 0.0725870253841
494108000 0.707540818189 0.0742762737337
494118500 0.708036926914 0.0718062210679
494129000 0.705277096481 0.0729077754377
494139500 0.709667260867 0.0736259683315
494150000 0.709008549475 0.0718894830553
494160500 0.704769488191 0.0676880724607
494171000 0.709367019993 0.0707022704339
494181500 0.706052173793 0.0703464624108
494192000 0.708913745448 0.0734192867107
494202500 0.707282705242 0.0730890524893
494213000 0.70628655304 0.0725816080195
494223500 0.707593786615 0.071297938329
494234000 0.713087821678 0.067047203394
494244500 0.710290206285 0.0718380360456
494255000 0.70355796295 0.0639774567655
494265500 0.70877914931 0.070146503093
494276000 0.709293909501 0.0718707809322
494286500 0.712723284143 0.0737633843857
494297000 0.707926223825 0.0700067169542
494307500 0.710940391329 0.0734094193473
494318000 0.706620616888 0.0747221255449
494328500 0.708474600489 0.0782192128255
494339000 0.706933447387 0.0717963675748
494349500 0.706655723516 0.0741296473106
494360000 0.701860570004 0.071339679065
494370500 0.700283601757 0.0750423972001
494381000 0.71088814852 0.0718670387536
494391500 0.710439842418 0.0708176862228
494402000 0.708628055397 0.0721520718949
494412500 0.705263314847 0.062351335849
494423000 0.707342015764 0.0731968956785
494433500 0.711207127642 0.0754870175169
494444000 0.717944023972 0.071918884122
494454500 0.710960259896 0.0674832904638
494465000 0.709533685739 0.0682067403672
494475500 0.711155017554 0.0742927177178
494486000 0.702359234529 0.0692030954344
494496500 0.708840680595 0.0774961008256
494507000 0.711745591489 0.0588616330399
494517500 0.703718261932 0.0641531902934
494528000 0.702033987458 0.0660593746962
494538500 0.714185832146 0.0637365465437
494549000 0.712170668816 0.0651865788006
494559500 0.711920600195 0.0630734922241
494570000 0.708756283563 0.0647358001787
494580500 0.710141945271 0.0686964078246
494591000 0.706852218812 0.0670842102543
494601500 0.712226841959 0.0715715180815
494612000 0.711727046326 0.0710676342425
494622500 0.707365665422 0.067221034254
494633000 0.714313630246 0.0754688413427
494643500 0.708456395827 0.0681222523226
494654000 0.710540016524 0.0611724338116
494664500 0.70816165074 0.0733550802508
494675000 0.711205860002 0.0659028494002
494685500 0.710856141361 0.0676829017333
494696000 0.714334912395 0.0738504808418
494706500 0.711930205053 0.0754045346971
494717000 0.710412296002 0.0624016127503
494727500 0.697621296783 0.0715980752753
494738000 0.705774780001 0.0762246531019
494748500 0.709803228733 0.0687242210483
494759000 0.709018142515 0.0676996142769
494769500 0.706122094904 0.0690220688533
494780000 0.706185699373 0.0748437250095
494790500 0.709197721646 0.0723331845227
494801000 0.713922475859 0.0648970730186
494811500 0.709589812636 0.0710366574016
494822000 0.707589783579 0.0670036142736
494832500 0.711254060131 0.0691384852936
494843000 0.708949987513 0.0686236907039
494853500 0.712764032977 0.0701956481216
494864000 0.709101515331 0.0672218690564
494874500 0.71355054537 0.0700082340054
494885000 0.711168174463 0.0691962541768
494895500 0.7083201465 0.0694965189356
494906000 0.707941679865 0.0684871052444
494916500 0.709033171374 0.0691011420005
494927000 0.708399147424 0.0684864520258
494937500 0.708437101866 0.0677846269173
494948000 0.709411714745 0.0680883451158
494958500 0.709499830134 0.0683155652621
494969000 0.709937485137 0.0686137225771
494979500 0.708271978872 0.0700151687327
494990000 0.709673010651 0.0679812537693
495000500 0.70916760627 0.0687032299277
495011000 0.710401886793 0.068620396274
495021500 0.710040933037 0.068963956104
495032000 0.710001317918 0.0691663273711
495042500 0.710334477505 0.0684420526968
495053000 0.709305646305 0.068835600647
495063500 0.709978891867 0.0685107147472
495074000 0.710727456435 0.0680650793965
495084500 0.710990525019 0.0689206177611
495095000 0.710107699367 0.0682400045253
495105500 0.709869455934 0.0670140095669
495116000 0.70985493117 0.0681470653731
495126500 0.70940752263 0.0686485895456
495137000 0.710234894605 0.0687549723408
495147500 0.709298524082 0.0672295023204
495158000 0.709179498403 0.0700134769911
495168500 0.710193309282 0.0688091372886
495179000 0.710422543226 0.0682370571719
495189500 0.709756340146 0.0670697322634
495200000 0.709388489879 0.0671803021854
495210500 0.710131326842 0.0677920072316
495221000 0.709494399527 0.0692345117633
495231500 0.710411537197 0.0675365700645
495242000 0.710094795311 0.068039884284
495252500 0.711878411642 0.0684074857372
495263000 0.709825528782 0.0689557479607
495273500 0.711076596064 0.0688281579649
495284000 0.710174666738 0.0685804813981
495294500 0.710458042085 0.0669058828591
495305000 0.710595989108 0.0682969648949
495315500 0.710144957596 0.0684461256804
495326000 0.71090803832 0.0677798064842
495336500 0.710399337844 0.0678460413896
495347000 0.711315990501 0.068170788855
495357500 0.70920064317 0.0673043990134
495368000 0.712617046602 0.069228913413
495378500 0.710550037951 0.0684622862317
495389000 0.709889360529 0.0692122664861
495399500 0.709790857999 0.0678091908892
495410000 0.710622542179 0.0688414410287
495420500 0.711858416168 0.0675893964164
495431000 0.710053370743 0.0684486831553
495441500 0.710757294131 0.0677156986687
495452000 0.710185130137 0.0652858717759
495462500 0.711496935262 0.0652151052246
495473000 0.710267414994 0.0661384938779
495483500 0.710864505765 0.0659118886178
495494000 0.710559048279 0.06742905596
495504500 0.71012026753 0.0663910764842
495515000 0.710942040465 0.0670342061522
495525500 0.710519895981 0.0666531955638
495536000 0.710513152271 0.0661111780865
495546500 0.711122475151 0.0665346576144
495557000 0.711256001952 0.0668259371554
495567500 0.710239590083 0.0667817916999
495578000 0.710346429725 0.0664628347664
495588500 0.710709156839 0.066665547547
495599000 0.710813475204 0.0672099359635
495609500 0.7097721957 0.0669182226288
495620000 0.71076891001 0.0669014297313
495630500 0.710761874027 0.0669186353083
495641000 0.71080437044 0.0669201876427
495651500 0.710679693395 0.067347522884
495662000 0.710473709994 0.067293890065
495672500 0.711253857069 0.066468812007
495683000 0.710769200988 0.0661050754737
495693500 0.711512205493 0.0665435747327
495704000 0.711167935351 0.0666008390304
495714500 0.711459439648 0.0669437522731
495725000 0.71166725135 0.0664774180317
495735500 0.711072397502 0.0661522518083
495746000 0.711039142766 0.0660679571978
495756500 0.710827591297 0.0659580147549
495767000 0.711086515395 0.0664590760654
495777500 0.711245971817 0.0659479715006
495788000 0.710879924383 0.0664545208017
495798500 0.711442192429 0.0662566628238
495809000 0.710518555984 0.0662750511412
495819500 0.710718045275 0.0660441559073
495830000 0.710924942669 0.0662548664436
495840500 0.711587141069 0.0659122849872
495851000 0.71103501088 0.0658499182736
495861500 0.711043716791 0.0658903503569
495872000 0.710751965226 0.0665127995323
495882500 0.710907975242 0.0672095368109
495893000 0.712084343743 0.0678048496889
495903500 0.710653955233 0.0657571321071
495914000 0.711429577434 0.0653001784315
495924500 0.711111068098 0.0648732727373
495935000 0.711586186174 0.0652736048168
495945500 0.711481629434 0.0652976287279
495956000 0.71143274056 0.0656585796278
495966500 0.711006568842 0.0654996560599
495977000 0.71085694423 0.0652584174171
495987500 0.711404628706 0.0658591590723
495998000 0.71148939853 0.0655719718405
496008500 0.711199363785 0.0655912651371
496019000 0.711206215952 0.065316904247
496029500 0.711007134952 0.0656922558961
496040000 0.71116301891 0.0653851070567
496050500 0.711513953119 0.0653796666542
496061000 0.711407189004 0.0655380390162
496071500 0.711882257458 0.0652274559031
496082000 0.711381517218 0.0658622738497
496092500 0.711735181475 0.0654314981455
496103000 0.711724458112 0.0656814811303
496113500 0.711606705289 0.065294178784
496124000 0.711415980036 0.0652842732885
496134500 0.711926792243 0.0652138728051
496145000 0.711445796203 0.0652227477648
496155500 0.711647577498 0.065619264627
496166000 0.712352867602 0.0656003812243
496176500 0.711071508611 0.0650087225228
496187000 0.711484651797 0.0645002183007
496197500 0.711721550014 0.0646788009281
496208000 0.71213607518 0.0617132418709
496218500 0.711284168535 0.0650228822727
496229000 0.71139257944 0.0650552468674
496239500 0.711768617893 0.064491829754
496250000 0.711924769186 0.0645527168907
496260500 0.712663300431 0.0649355972604
496271000 0.712088196557 0.0644571118421
496281500 0.712377674216 0.0649097302899
496292000 0.711854148728 0.0641582751359
496302500 0.711183621234 0.0646784359679
496313000 0.710849258588 0.0637690332927
496323500 0.713083797943 0.0649911816889
496334000 0.712093348326 0.0643550419393
496344500 0.712383769306 0.0647868573327
496355000 0.712612681746 0.064777615072
496365500 0.711911195516 0.0644168048017
496376000 0.712006989623 0.0644982972593
496386500 0.712652278548 0.0636017767875
496397000 0.71381654706 0.0640275738695
496407500 0.713936417516 0.0636477998127
496418000 0.713004288039 0.0642139781879
496428500 0.7123589617 0.063863856214
496439000 0.711938209847 0.0641545555619
496449500 0.711919471329 0.0638586173503
496460000 0.711788038905 0.0640244027482
496470500 0.712164340244 0.0635265825143
496481000 0.711764741547 0.0639831998193
496491500 0.711423324424 0.0630251248844
496502000 0.712338310179 0.0628318014935
496512500 0.711848356655 0.0632706450641
496523000 0.711599620313 0.063132931761
496533500 0.71234032534 0.0632529238663
496544000 0.712110658308 0.0636184895675
496554500 0.712760917281 0.0635620635812
496565000 0.712609690043 0.0630635942673
496575500 0.712261231702 0.0635058078999
496586000 0.712832144093 0.0639268867961
496596500 0.71193152245 0.0641058406049
496607000 0.711869568839 0.0637996059309
496617500 0.712459527028 0.0641258086196
496628000 0.712074753916 0.063838543107
496638500 0.712065445905 0.0637690396347
496649000 0.711743453919 0.0634688916628
496659500 0.712332050718 0.0631023357265
496670000 0.712265821399 0.0630774620276
496680500 0.711585888513 0.0633630228096
496691000 0.711811345385 0.0629489106811
496701500 0.712183400206 0.0630152741281
496712000 0.712018604493 0.0629692060331
496722500 0.712036383462 0.0635093045988
496733000 0.71228679146 0.0633983055327
496743500 0.712494900202 0.0630415036681
496754000 0.711995962949 0.0633598000505
496764500 0.711527548508 0.0644021276607
496775000 0.711195324231 0.0652889122522
496785500 0.711299926368 0.0639025717515
496796000 0.713076469722 0.0636186095915
496806500 0.712739186072 0.0626539946993
496817000 0.712560269823 0.0629577632146
496827500 0.712846072009 0.062176130594
496838000 0.712828351275 0.0621620626464
496848500 0.712680525212 0.0623326708701
496859000 0.712417344478 0.06192593332
496869500 0.712699348903 0.0622822802804
496880000 0.71235856159 0.0622873691162
496890500 0.712466312001 0.0621597586818
496901000 0.71252504418 0.0623087896554
496911500 0.712447761989 0.0619438505111
496922000 0.712247592715 0.0622234611379
496932500 0.713047257408 0.0620935435744
496943000 0.713158193976 0.0622701276632
496953500 0.713208597054 0.0624893690581
496964000 0.712811902377 0.0623363047689
496974500 0.712612018946 0.0625354753798
496985000 0.712587963652 0.0621884533077
496995500 0.712921720523 0.0618275363562
497006000 0.713238080105 0.0620912603533
497016500 0.712967837296 0.0620029252861
497027000 0.712900790608 0.0615795909287
497037500 0.712599449611 0.0621612364561
497048000 0.714327243553 0.0514977058119
497058500 0.712936182344 0.0613145087716
497069000 0.712758827515 0.0618629003624
497079500 0.713022920009 0.0616222222667
497090000 0.713540284219 0.0617847479994
497100500 0.713711696267 0.0618629559804
497111000 0.713997460266 0.0621378953824
497121500 0.713548495438 0.0624470922041
497132000 0.713658035009 0.0614823793034
497142500 0.713385180763 0.0610077452489
497153000 0.713205517351 0.0610355803305
497163500 0.713195213212 0.0619104681761
497174000 0.71296085501 0.0624992699047
497184500 0.713536573816 0.0619062900293
497195000 0.713692465977 0.061408453157
497205500 0.713527279098 0.0610084269687
497216000 0.713402851673 0.0608808651985
497226500 0.713264788116 0.0612294193424
497237000 0.717970171575 0.0657294189769
497247500 0.713787377544 0.0607942671115
497258000 0.714001502131 0.0605822101058
497268500 0.713121185628 0.0612670563433
497279000 0.713741191413 0.0612059073949
497289500 0.71286328347 0.0609096475947
497300000 0.713393190237 0.0612156046139
497310500 0.713799580194 0.061728364105
497321000 0.713615085665 0.0618020576526
497331500 0.713566001461 0.0616446952362
497342000 0.713631011057 0.0607839630601
497352500 0.713048656076 0.0611828872382
497363000 0.713523649053 0.0615308823095
497373500 0.714189266476 0.0610788212997
497384000 0.713831058862 0.0617275983306
497394500 0.714287681773 0.0612082506784
497405000 0.713673298767 0.0615797700073
497415500 0.713634283517 0.0618230280238
497426000 0.713719614719 0.0617171283258
497436500 0.714325951304 0.0614082648631
497447000 0.714023568627 0.0613210519726
497457500 0.713447524868 0.0613420464324
497468000 0.713787577049 0.0612833840805
497478500 0.713750000849 0.0614510909674
497489000 0.714203876859 0.0612360209372
497499500 0.713873491973 0.0613324439062
497510000 0.714434461697 0.0615192908228
497520500 0.714802677313 0.061250452078
497531000 0.714693440265 0.0611513328347
497541500 0.715025446562 0.0606727091013
497552000 0.714127684723 0.0610531203895
497562500 0.714605520567 0.0607470342868
497573000 0.713599997081 0.0607828264323
497583500 0.713741030821 0.0605135062197
497594000 0.714132577568 0.0614406734486
497604500 0.714299162036 0.0612168882945
497615000 0.713873297028 0.0613518608757
497625500 0.71431569957 0.0614947883122
497636000 0.714315788998 0.0607829215452
497646500 0.71451895432 0.0609639385534
497657000 0.714475815597 0.0609571211407
497667500 0.714638804278 0.0606929651444
497678000 0.715257383769 0.0604860786471
497688500 0.7141173896 0.0608275257182
497699000 0.714274918631 0.0614039119673
497709500 0.714269881108 0.0603407994939
497720000 0.714067435523 0.060465036942
497730500 0.713879473977 0.0607546449956
497741000 0.714160498447 0.0605786242014
497751500 0.715028720445 0.0602710203266
497762000 0.714536637782 0.060449272253
497772500 0.714448829363 0.0609252594991
497783000 0.714148999657 0.060879941276
497793500 0.714121958694 0.0600788858782
497804000 0.714059925106 0.0598654202017
497814500 0.714720006144 0.0602558419509
497825000 0.714982917054 0.0599864066969
497835500 0.714879002456 0.0595905574067
497846000 0.714797209495 0.0606571736213
497856500 0.714700778502 0.0600362825482
497867000 0.714701944863 0.0600231704851
497877500 0.714626692323 0.0599523864646
497888000 0.714257906331 0.0600407727113
497898500 0.714691082787 0.0595247433119
497909000 0.715046933061 0.0592879444364
497919500 0.714713006529 0.0599439427055
497930000 0.714228110595 0.0596211678472
497940500 0.714913048236 0.0596927003531
497951000 0.715090458949 0.0597866509073
497961500 0.715168377535 0.0600615060652
497972000 0.71522127867 0.0597530771365
497982500 0.715766661623 0.0601410115788
497993000 0.715288111552 0.0597280049998
498003500 0.714851357094 0.0590953385907
498014000 0.714658075965 0.0594836673225
498024500 0.715002356958 0.0589837275358
498035000 0.714721671893 0.0593546881123
498045500 0.714985864664 0.0589099922624
498056000 0.71495312799 0.0598953361601
498066500 0.714227628271 0.0602334750721
498077000 0.715320854062 0.0600662361615
498087500 0.714703041513 0.0595845008003
498098000 0.71455241221 0.0604285477708
498108500 0.714546605126 0.0594445711113
498119000 0.71506157238 0.0590627109781
498129500 0.715347046517 0.0592059993783
498140000 0.714772740225 0.0587517235677
498150500 0.714814314084 0.0591116787943
498161000 0.714623533588 0.0585815219356
498171500 0.71444075788 0.0589139703227
498182000 0.714830768014 0.0592841642868
498192500 0.715071367099 0.0588789645242
498203000 0.714998660047 0.059254478994
498213500 0.715167453415 0.0594291790084
498224000 0.714453880659 0.0593128889454
498234500 0.714726954789 0.0589634615973
498245000 0.714454300805 0.058498648682
498255500 0.715404831936 0.0584777267557
498266000 0.715396001364 0.0586835690184
498276500 0.714273272775 0.0585634872195
498287000 0.713144212542 0.0569543961331
498297500 0.717215451489 0.0579863309181
498308000 0.714480740524 0.0601057457006
498318500 0.730003632798 0.0652208615144
498329000 0.71879731716 0.0758700975086
498339500 0.713689163586 0.0656347954653
498350000 0.715218925768 0.0606304323526
498360500 0.716288768033 0.0595995542701
498371000 0.716423771272 0.0586356868725
498381500 0.715930829345 0.0571797813117
498392000 0.716200410729 0.0581552601122
498402500 0.716494325684 0.0590225375148
498413000 0.717146323682 0.0591678194066
498423500 0.716746091678 0.058370738967
498434000 0.717060708303 0.0581468140932
498444500 0.717222896014 0.0575359504892
498455000 0.717188112057 0.0578987899604
498465500 0.715800448971 0.058418709365
498476000 0.716597211244 0.059148684358
498486500 0.716448906135 0.0584254718587
498497000 0.71914913217 0.0586556312078
498507500 0.717238515144 0.0574383165975
498518000 0.718262943659 0.056921232613
498528500 0.718125448161 0.0575204011007
498539000 0.716299329218 0.0584771303065
498549500 0.716247793464 0.0568721086556
498560000 0.717489887465 0.0578173001948
498570500 0.716711586866 0.0583864844961
498581000 0.718566996735 0.0568734568881
498591500 0.717256338662 0.0597548566859
498602000 0.718941369121 0.0572666965864
498612500 0.716728827567 0.0583914510986
498623000 0.717951425506 0.0572947942152
498633500 0.716596543277 0.0589400814795
498644000 0.717830444516 0.0599883127028
498654500 0.718880080614 0.0558529287821
498665000 0.718010013231 0.0548616888323
498675500 0.717916267805 0.057415616805
498686000 0.718659800711 0.0551121727967
498696500 0.717879446464 0.0588391949141
498707000 0.716316403657 0.0566441848532
498717500 0.717606087259 0.0578209702061
498728000 0.718578533033 0.0581159383899
498738500 0.720216695744 0.0555453927437
498749000 0.714962438722 0.0568858335123
498759500 0.716204127579 0.0565985382872
498770000 0.719628433648 0.0582319477926
498780500 0.719412887897 0.0594949743592
498791000 0.719547324689 0.0606441803235
498801500 0.719171639684 0.0584628018733
498812000 0.717000527674 0.0570619521495
498822500 0.717428135694 0.0581830101827
498833000 0.717801723987 0.0566692265977
498843500 0.718271549477 0.0574991573293
498854000 0.717332805712 0.0576686720404
498864500 0.718120382201 0.0558735329231
498875000 0.716354245063 0.0565104764239
498885500 0.718242741497 0.0551927683335
498896000 0.719079130872 0.0565362379252
498906500 0.717277489633 0.0569316286005
498917000 0.716955002228 0.0575384041994
498927500 0.717956371363 0.0565428174626
498938000 0.717428487945 0.0571411537319
498948500 0.717859207841 0.058126892068
498959000 0.716690804604 0.057538654532
498969500 0.717708762404 0.0577590302777
498980000 0.718106478806 0.0566735629797
498990500 0.718235594388 0.0566495329507
499001000 0.717085574173 0.0559176919476
499011500 0.718516211592 0.0566524790489
499022000 0.71863991269 0.0574226452025
499032500 0.717739464327 0.0561225203634
499043000 0.716965607379 0.0575433342018
499053500 0.718596865847 0.056743313739
499064000 0.719041340607 0.0569072995896
499074500 0.719248574774 0.0586907787001
499085000 0.717409478347 0.0571520363212
499095500 0.715137145449 0.0539557867315
499106000 0.7168368003 0.0568257033629
499116500 0.718926049573 0.0560817073672
499127000 0.71995344324 0.0519706012689
499137500 0.716691390936 0.0545710251092
499148000 0.71466522511 0.0519857687642
499158500 0.717835884814 0.0554938037253
499169000 0.71831581532 0.0576829460932
499179500 0.716644630851 0.0524786759623
499190000 0.714834422516 0.0593031404504
499200500 0.715154932661 0.0572015599225
499211000 0.720013364665 0.0564310596665
499221500 0.717958998017 0.0522686594368
499232000 0.721463023276 0.0559831556222
499242500 0.720969003909 0.0622326525489
499253000 0.713158116513 0.0539211099911
499263500 0.719055875208 0.0550374544432
499274000 0.714168117826 0.057017884422
499284500 0.711464316032 0.0537851530647
499295000 0.717473248803 0.0512328108502
499305500 0.711023090701 0.0581552597771
499316000 0.711728044521 0.0638174861204
499326500 0.71504890994 0.0550401301144
499337000 0.715892770383 0.059843324991
499347500 0.712475066008 0.0538807303158
499358000 0.723484170861 0.0588739956282
499368500 0.715673444342 0.0609968881907
499379000 0.722310971013 0.0612852341402
499389500 0.715384641973 0.0586078976604
499400000 0.712801743957 0.0590063966071
499410500 0.716535713606 0.0542964000379
499421000 0.724653857408 0.058876346507
499431500 0.715212152616 0.0515396094739
499442000 0.719045852823 0.0573851738433
499452500 0.72001331181 0.0619653380505
499463000 0.718075983034 0.0537416051339
499473500 0.718733713781 0.0577712030742
499484000 0.716765658782 0.0570696476276
499494500 0.713169064853 0.0547219385254
499505000 0.713738720978 0.059162741603
499515500 0.716958948298 0.056893611917
499526000 0.716370127357 0.0553983164778
499536500 0.717534957515 0.0451062784433
499547000 0.728655008453 0.0510995031264
499557500 0.722147014298 0.0543516697914
499568000 0.713313350214 0.0500202974501
499578500 0.719344994245 0.0576273541515
499589000 0.72190295094 0.0609961474701
499599500 0.728411184799 0.0555810636759
499610000 0.70910097811 0.0529572606997
499620500 0.717959725167 0.0571169572444
499631000 0.717705684027 0.0564637788067
499641500 0.725303346138 0.061084289063
499652000 0.716538131684 0.0473971715332
499662500 0.718122479833 0.0534709051495
499673000 0.717737090779 0.0587814471181
499683500 0.716920387964 0.0549516593226
499694000 0.720623485174 0.0492789893576
499704500 0.722488327376 0.0558940251039
499715000 0.711843271457 0.0581736290555
499725500 0.716827968525 0.0571708366893
499736000 0.715893472307 0.0454270759343
499746500 0.715721652412 0.055914483872
499757000 0.72025216777 0.0538669132804
499767500 0.715793978267 0.0523533613042
499778000 0.72041341685 0.0582282042984
499788500 0.715219605774 0.0545992794745
499799000 0.715204745113 0.0541206025573
499809500 0.71761896282 0.0525039809342
499820000 0.722150565134 0.0566604964593
499830500 0.722872611159 0.0535903729818
499841000 0.719662334253 0.0532578381805
499851500 0.720012554479 0.0532073888552
499862000 0.721366627763 0.0548495094181
499872500 0.71772350454 0.0530861226623
499883000 0.720903230066 0.0524670532108
499893500 0.720835975743 0.0548366440779
499904000 0.719770744773 0.0520087948005
499914500 0.720215627037 0.0535397523506
499925000 0.719679016139 0.0536175704245
499935500 0.719304061687 0.0532390759411
499946000 0.721484868381 0.053397400935
499956500 0.71935380629 0.05232465169
499967000 0.720338010716 0.0517545438677
499977500 0.720325163066 0.0524118973148
499988000 0.720503715106 0.0523240225131
499998500 0.720664584644 0.0527851337436
500009000 0.719614044351 0.0532091833028
500019500 0.720259339674 0.0522981290626
500030000 0.719217436696 0.0527765992928
500040500 0.720453911515 0.0527076114945
500051000 0.720567981538 0.0533119623606
500061500 0.720438871778 0.0532939527092
500072000 0.720699833912 0.0528167594545
500082500 0.720408571467 0.0534262255492
500093000 0.720302594244 0.0510952403475
500103500 0.72045391694 0.0526706077133
500114000 0.720917918584 0.0526821672663
500124500 0.721161811363 0.0527992566024
500135000 0.720085129781 0.0533398879802
500145500 0.720185653715 0.0538101049011
500156000 0.720202273914 0.0517965811028
500166500 0.720302845878 0.0526320695714
500177000 0.721330628787 0.0523456509082
500187500 0.720704330732 0.0523703982922
500198000 0.720771175844 0.0527557578705
500208500 0.720057631064 0.0524967487324
500219000 0.72180047881 0.0533390228205
500229500 0.720095473842 0.0526648678267
500240000 0.720529430197 0.052580471977
500250500 0.720834329806 0.0526756094564
500261000 0.720084250617 0.0528129981149
500271500 0.722054006983 0.0516405209465
500282000 0.718675224557 0.0533166576011
500292500 0.719623435206 0.0524911646817
500303000 0.721457025522 0.0522877895067
500313500 0.719388835439 0.0521060763084
500324000 0.720226314908 0.0522379989771
500334500 0.721419540882 0.0527154326149
500345000 0.719931557983 0.0525972947738
500355500 0.719761945283 0.0524766992414
500366000 0.72026981653 0.0510766699
500376500 0.721491644806 0.0505689290782
500387000 0.721664697453 0.0508992305772
500397500 0.72030240251 0.0514204643413
500408000 0.721045253367 0.0504322020553
500418500 0.72110065303 0.0523081838275
500429000 0.720745258652 0.0528043049386
500439500 0.721207666071 0.052522704515
500450000 0.720685933087 0.0519045723177
500460500 0.721086536112 0.0519469200331
500471000 0.7206383969 0.051189092559
500481500 0.721118044345 0.0502247308901
500492000 0.721628202581 0.0512627821201
500502500 0.72153492284 0.0509871437376
500513000 0.721415251884 0.051687389047
500523500 0.721829974554 0.0512123064102
500534000 0.72155181679 0.0516083037496
500544500 0.721448064255 0.0511238350286
500555000 0.721510664321 0.0505819647184
500565500 0.721801193751 0.051019401799
500576000 0.721729285847 0.0506719554125
500586500 0.721959595172 0.0509424735717
500597000 0.722077289107 0.051330529935
500607500 0.721681330107 0.0506636437356
500618000 0.721729527434 0.0509076612667
500628500 0.721987985561 0.0511966524202
500639000 0.721618845645 0.0508378250475
500649500 0.721546631128 0.0506391590915
500660000 0.721321427454 0.0506892885408
500670500 0.721490270918 0.050360483787
500681000 0.721538773064 0.0499106576402
500691500 0.721953792405 0.0509423511483
500702000 0.720912799419 0.0504500113256
500712500 0.721272684665 0.0500780199858
500723000 0.721617715027 0.0502071330524
500733500 0.722496845831 0.0501793207778
500744000 0.721952267445 0.0505099839528
500754500 0.721840973926 0.0501073091764
500765000 0.722158804501 0.0496402681611
500775500 0.722241657835 0.0502663984926
500786000 0.722151999611 0.0498248878785
500796500 0.721843594971 0.049435500789
500807000 0.721938545029 0.0492956244725
500817500 0.721973412685 0.049461699775
500828000 0.72250070031 0.0497434661707
500838500 0.722555861954 0.0502506522998
500849000 0.723343574317 0.0503716668704
500859500 0.722239844884 0.0499415176596
500870000 0.722318567092 0.0502496002785
500880500 0.722333513174 0.0498560361007
500891000 0.72192191718 0.0500667863814
500901500 0.721890503977 0.0494492789783
500912000 0.72197430313 0.0497736622348
500922500 0.72244023128 0.0492244814907
500933000 0.722296885541 0.0493012952748
500943500 0.721903212873 0.0488868543088
500954000 0.722036952787 0.0493236210587
500964500 0.722105676244 0.04964109156
500975000 0.722072097336 0.0498257304179
500985500 0.722279848145 0.0488803740691
500996000 0.722366387938 0.0494838069488
501006500 0.721950553255 0.0493415932395
501017000 0.72249863593 0.0494353184079
501027500 0.722688360003 0.0494382412794
501038000 0.722221992174 0.0494031951752
501048500 0.722732282675 0.0499475113199
501059000 0.722633933978 0.0495274133861
501069500 0.722086039133 0.0491355347216
501080000 0.720946882731 0.0486530468653
501090500 0.72117657805 0.0484249961956
501101000 0.721949566495 0.0484644682894
501111500 0.722724897177 0.0488074771631
501122000 0.722834734121 0.0485612164464
501132500 0.722974912165 0.0489954489762
501143000 0.722668726772 0.048378852817
501153500 0.722790189152 0.0485021558697
501164000 0.722683619276 0.0486832220466
501174500 0.723172291412 0.0487797588399
501185000 0.722940935839 0.0491412531438
501195500 0.723212012587 0.0482120609162
501206000 0.722434532989 0.0481887671577
501216500 0.722021642947 0.048714933138
501227000 0.72260348163 0.0482163127413
501237500 0.722397185527 0.0480308396567
501248000 0.722294720293 0.048347453052
501258500 0.722805870406 0.0482849554973
501269000 0.722673693176 0.0481791054402
501279500 0.722759350426 0.0482822658447
501290000 0.723121268698 0.0477257844159
501300500 0.722578510095 0.0478731373343
501311000 0.722629910502 0.0479101590586
501321500 0.722932628172 0.0478858069157
501332000 0.722601075675 0.0475245104153
501342500 0.722773047708 0.047490520603
501353000 0.722358657041 0.0476845934853
501363500 0.722908665116 0.0479007133129
501374000 0.722915356252 0.0477170548396
501384500 0.722920249352 0.047732428395
501395000 0.724050387015 0.0472849444154
501405500 0.721880027992 0.0478001616062
501416000 0.722821320069 0.0516428578231
501426500 0.722149110887 0.0466927078627
501437000 0.722102282104 0.0467517197437
501447500 0.721616086653 0.0479447335601
501458000 0.722880199544 0.0442323785773
501468500 0.722901316165 0.0478290579284
501479000 0.723348077011 0.0477074410059
501489500 0.722952109269 0.0472933511957
501500000 0.723308991563 0.0473306436096
501510500 0.722706950896 0.0482490873019
501521000 0.72353698159 0.0479290469909
501531500 0.723191718766 0.047881991193
501542000 0.723659493801 0.047700869553
501552500 0.723014439478 0.0476766771192
501563000 0.723929685712 0.0477470221785
501573500 0.723880433294 0.0478530885276
501584000 0.723779486893 0.047822144372
501594500 0.724033567263 0.0479775204002
501605000 0.723354212532 0.047475735877
501615500 0.722972556359 0.0477356808615
501626000 0.723490026934 0.0478373414204
501636500 0.722836164187 0.0475088086145
501647000 0.72274383282 0.0472481050348
501657500 0.723272721558 0.0475126071397
501668000 0.723199365107 0.0475992532565
501678500 0.723505885983 0.0482389367889
501689000 0.722511250527 0.0500452843482
501699500 0.723208582168 0.0491622623141
501710000 0.723267267364 0.0489082251543
501720500 0.72347429554 0.0484684114579
501731000 0.723292630002 0.0481810281124
501741500 0.723072961764 0.0471020992243
501752000 0.72336639963 0.0464850340009
501762500 0.723286507036 0.0469879522735
501773000 0.723753370549 0.0472679244633
501783500 0.724100212115 0.0474302426406
501794000 0.724448004248 0.0467134080035
501804500 0.723706115711 0.0465969758312
501815000 0.723472095876 0.0464701404219
501825500 0.723779517416 0.0473667819751
501836000 0.72426169855 0.0474686627603
501846500 0.723963624803 0.0473320834245
501857000 0.723793451707 0.0469916290736
501867500 0.723385631679 0.0469242352206
501878000 0.723069256461 0.0467484373023
501888500 0.723386548226 0.046402062204
501899000 0.723012645562 0.0466589196768
501909500 0.722434715128 0.0472333490239
501920000 0.722945882047 0.046433198381
501930500 0.723318769059 0.0465124574121
501941000 0.723874941297 0.0466338367192
501951500 0.724444832705 0.0469867955967
501962000 0.723862371204 0.0466771538824
501972500 0.723367458135 0.0461668417257
501983000 0.723289028113 0.0458807680429
501993500 0.723609031662 0.0460574218863
502004000 0.723670236807 0.0456325707474
502014500 0.72369984058 0.046336849758
502025000 0.723542289331 0.0466172771923
502035500 0.723316326809 0.0470326781442
502046000 0.723025086517 0.0469625255748
502056500 0.723759810626 0.0468742738321
502067000 0.723887978106 0.0459867146924
502077500 0.723585977199 0.0461030460819
502088000 0.723521408978 0.0458016099272
502098500 0.723752498342 0.0460578909126
502109000 0.723480006442 0.0458617355734
502119500 0.723547589116 0.0462451858597
502130000 0.723094312614 0.0461497149007
502140500 0.723051641561 0.0460625523315
502151000 0.722905292719 0.0456894560874
502161500 0.72292178802 0.0455345760903
502172000 0.723093213175 0.0459109824452
502182500 0.723451726277 0.0461033353377
502193000 0.723805094289 0.045835268953
502203500 0.723788186278 0.0458959185832
502214000 0.723449075112 0.0453866568107
502224500 0.724065079951 0.0454310402955
502235000 0.723684628235 0.0454332146003
502245500 0.723588471603 0.045432979776
502256000 0.723376604817 0.0460543614671
502266500 0.72354060507 0.0465585881854
502277000 0.723057608918 0.045845218734
502287500 0.723063163191 0.0459971742936
502298000 0.723780057874 0.0461511564323
502308500 0.723314587082 0.0461306696211
502319000 0.723159545194 0.0452552867174
502329500 0.723599688308 0.0454388761611
502340000 0.724157624468 0.044950349699
502350500 0.723580876884 0.0459733901393
502361000 0.724224690268 0.0456048299392
502371500 0.724062206475 0.0460047612502
502382000 0.72360350299 0.046057458515
502392500 0.723309177237 0.0455725572459
502403000 0.723508439504 0.0450478253729
502413500 0.723192458363 0.044547895176
502424000 0.723800364429 0.0452677274386
502434500 0.723610896168 0.0449297724842
502445000 0.723795685552 0.0452247995076
502455500 0.723016527822 0.0448663731923
502466000 0.723315118736 0.0446741493466
502476500 0.723276788289 0.0449210773781
502487000 0.724031611712 0.0448657077903
502497500 0.723559214359 0.0444861825112
502508000 0.723433381675 0.0447579664636
502518500 0.723210245959 0.0447410388341
502529000 0.723225400246 0.0449420706932
502539500 0.724056970583 0.0447087891812
502550000 0.723527766721 0.0454211436945
502560500 0.722077333963 0.0462735574838
502571000 0.722218127807 0.0447188688326
502581500 0.722187557831 0.0450240765671
502592000 0.722090617113 0.0455281359641
502602500 0.721790626691 0.0444598214957
502613000 0.721122932557 0.0450834394946
502623500 0.721947398224 0.0441136973487
502634000 0.721852333888 0.0449426305236
502644500 0.722412186559 0.0442095249056
502655000 0.722857621936 0.0469344924931
502665500 0.722446457902 0.0439947345585
502676000 0.722337047863 0.0442088533833
502686500 0.721821773328 0.0440096609832
502697000 0.72226456988 0.0443609026388
502707500 0.722276762718 0.0444652807714
502718000 0.722448436532 0.044586674475
502728500 0.721772059088 0.0443433361699
502739000 0.72298731311 0.0436628705633
502749500 0.72178692289 0.0442258746274
502760000 0.722216684992 0.0443347924733
502770500 0.722210020495 0.0438087437
502781000 0.722418040418 0.0443398659174
502791500 0.72198256111 0.0437763858678
502802000 0.721966877979 0.0444876590492
502812500 0.721526063322 0.0443457534782
502823000 0.721254083401 0.0441021178832
502833500 0.72235823818 0.0441514942725
502844000 0.722851404548 0.0442532715343
502854500 0.722237793838 0.0442141686135
502865000 0.721615738302 0.0431300910128
502875500 0.721719930025 0.0438030562751
502886000 0.721477164399 0.0443107079899
502896500 0.721522402922 0.0438010115013
502907000 0.721773071671 0.0443408118884
502917500 0.721948479921 0.0435792398022
502928000 0.721506233922 0.0439253598941
502938500 0.720961461013 0.0435261711652
502949000 0.72230733198 0.0439744633033
502959500 0.722687121938 0.0439782091763
502970000 0.722086494171 0.0434242522605
502980500 0.721863456311 0.0433118775591
502991000 0.722510564609 0.0424365512979
503001500 0.722127993028 0.0431716486251
503012000 0.722548632586 0.0436933830606
503022500 0.721733797583 0.0432142017751
503033000 0.722020874246 0.0427296888611
503043500 0.721634637853 0.0431433194824
503054000 0.721531820028 0.0428891475117
503064500 0.721630947819 0.0434420824276
503075000 0.721315329466 0.0439549430481
503085500 0.721526222241 0.0435169277313
503096000 0.720942579226 0.0418572971918
503106500 0.721590438104 0.0430404665765
503117000 0.720665618843 0.0450479072606
503127500 0.720446372292 0.042032517135
503138000 0.721332078441 0.0432136795071
503148500 0.722019999764 0.0421158334057
503159000 0.722136909978 0.0387401605669
503169500 0.718605122535 0.0431399809857
503180000 0.718684234217 0.0447908651971
503190500 0.722083084663 0.0432865776215
503201000 0.720447042178 0.0418838695969
503211500 0.722278458944 0.0406179490648
503222000 0.719079366181 0.0421659980028
503232500 0.72640339201 0.0453090905127
503243000 0.72108703515 0.0391608600363
503253500 0.72423924394 0.0438421645859
503264000 0.72305519432 0.0478946904343
503274500 0.71739089703 0.0439299703629
503285000 0.721889160836 0.0454179280437
503295500 0.723691654621 0.0449391971002
503306000 0.717845795521 0.0424896433191
503316500 0.728032097936 0.0449635398118
503327000 0.720165746135 0.044789279791
503337500 0.719830037866 0.0435993211897
503348000 0.719243750678 0.0421894170026
503358500 0.717863180089 0.0411321226924
503369000 0.719384300044 0.042426687572
503379500 0.720749827519 0.0408527814696
503390000 0.718769831033 0.0458882018499
503400500 0.72096121528 0.0413740670277
503411000 0.725257607194 0.042355692678
503421500 0.717830883939 0.0414861472681
503432000 0.723529932671 0.0454154632748
503442500 0.715514004449 0.0478261049415
503453000 0.712766078697 0.0463161827004
503463500 0.723198758746 0.0452069510879
503474000 0.718900920001 0.0416764772819
503484500 0.718408725002 0.0445243157481
503495000 0.719913074683 0.0337729502714
503505500 0.71866131833 0.0418456553135
503516000 0.717325333692 0.0416646748022
503526500 0.719922801629 0.039573178786
503537000 0.719799951281 0.0428214446634
503547500 0.721871627387 0.03827867912
503558000 0.721118230259 0.04175216872
503568500 0.716443208485 0.044419599422
503579000 0.720305423224 0.0412110287116
503589500 0.724656872647 0.0400672588582
503600000 0.719562973448 0.0367457578139
503610500 0.723913904037 0.0428761725523
503621000 0.716968628417 0.0428963084354
503631500 0.719192718865 0.045274091299
503642000 0.718641273223 0.0414444572128
503652500 0.719386412405 0.0436553032147
503663000 0.713943258893 0.0381262483179
503673500 0.714478085199 0.0451941330459
503684000 0.721816087288 0.0396628264218
503694500 0.722962902966 0.0427453166394
503705000 0.717042969408 0.0383784162738
503715500 0.717813588661 0.0466548601046
503726000 0.716933061135 0.0464117772887
503736500 0.717855819796 0.0460569016492
503747000 0.718486880749 0.0410533795337
503757500 0.720056647385 0.0407670019865
503768000 0.722865979354 0.04348611777
503778500 0.721041251797 0.0401941262315
503789000 0.717637102381 0.0430315720859
503799500 0.721255012274 0.0420724969471
503810000 0.721007406669 0.0420479994344
503820500 0.719586565452 0.0420384104786
503831000 0.718774200636 0.0423867337199
503841500 0.720109664569 0.0417560235068
503852000 0.720262684135 0.040251650366
503862500 0.716463903338 0.0419051553391
503873000 0.719436282593 0.0397213649427
503883500 0.72027160161 0.0414685288933
503894000 0.720625002382 0.0421124261004
503904500 0.720959741476 0.0419728873851
503915000 0.720121505588 0.0427442760618
503925500 0.719963544747 0.0425936462542
503936000 0.719733183402 0.0413502448081
503946500 0.719649857002 0.0414600008209
503957000 0.719404552874 0.0416517592029
503967500 0.719005522613 0.0415207174576
503978000 0.718904658627 0.0420855960164
503988500 0.71917696029 0.0416718785608
503999000 0.719095963131 0.0420256703075
504009500 0.720007087869 0.0416722500292
504020000 0.720015903021 0.0415830958602
504030500 0.719703200401 0.0418200682131
504041000 0.71947174894 0.0419690086798
504051500 0.720217695846 0.0418465975144
504062000 0.720360115203 0.0424046003517
504072500 0.719470811565 0.0414963513288
504083000 0.719149492232 0.0419404159995
504093500 0.71933136648 0.042177704952
504104000 0.718801648888 0.0416303176274
504114500 0.719925483242 0.0416476519636
504125000 0.71996095677 0.0417103742032
504135500 0.719764523496 0.0417263635832
504146000 0.720006860674 0.0419010340623
504156500 0.719368272375 0.0411357844571
504167000 0.719658245042 0.041253893975
504177500 0.718904906527 0.0420873611583
504188000 0.719389804925 0.0413404635533
504198500 0.719676188618 0.0419011412146
504209000 0.719962275913 0.0411886304348
504219500 0.718751334022 0.0412341151059
504230000 0.71985535538 0.0422884884169
504240500 0.719680736588 0.041633109809
504251000 0.719623848281 0.0419914471712
504261500 0.719992176932 0.0413017763164
504272000 0.719958821926 0.041084066344
504282500 0.719386052211 0.0413519173007
504293000 0.719430972426 0.0414772582172
504303500 0.719700959979 0.0411793363442
504314000 0.719945418959 0.0413734916145
504324500 0.719344751985 0.0414118224573
504335000 0.720218166671 0.041403613643
504345500 0.719034869082 0.0408512572309
504356000 0.719730040515 0.040747819975
504366500 0.719625197096 0.0411209047762
504377000 0.720109237447 0.0412561258834
504387500 0.720115453445 0.040422496801
504398000 0.72027191266 0.040659796741
504408500 0.720256790733 0.0410991416214
504419000 0.720061906161 0.0407281533824
504429500 0.719605939661 0.0411452328131
504440000 0.719895164571 0.0411246127203
504450500 0.719362409883 0.0411690138446
504461000 0.71985719816 0.0407988844696
504471500 0.719955936644 0.0415751920084
504482000 0.719924522751 0.0410215988231
504492500 0.718754021268 0.0414048109573
504503000 0.716316105633 0.0417302652135
504513500 0.717640047377 0.0412503693175
504524000 0.718117032748 0.0406418714091
504534500 0.719032452197 0.0409889483452
504545000 0.719017096863 0.0399571916334
504555500 0.719659182879 0.0403823136761
504566000 0.719738150178 0.0402191217482
504576500 0.719760065094 0.0404552356763
504587000 0.719297360049 0.0409038958952
504597500 0.719211452775 0.0403089020703
504608000 0.719226040184 0.04025853401
504618500 0.719373572025 0.0402684392507
504629000 0.718842642001 0.0403458922503
504639500 0.719257687663 0.0401437135177
504650000 0.719114637527 0.0406258719925
504660500 0.718860819496 0.0394810260049
504671000 0.718065743078 0.0395075720562
504681500 0.718185853043 0.0398392802921
504692000 0.718070834462 0.0391867085529
504702500 0.718727803724 0.0397014155879
504713000 0.71862847214 0.0400015620746
504723500 0.719163874315 0.0397676054862
504734000 0.719036245954 0.0400178503087
504744500 0.719240375836 0.0395777169856
504755000 0.718432547387 0.0397006416381
504765500 0.718324471801 0.0398110841329
504776000 0.718992507914 0.0399198997507
504786500 0.718857494712 0.0393139465158
504797000 0.719378743418 0.0394913282402
504807500 0.71925786312 0.0390688889949
504818000 0.718935593368 0.0392748439292
504828500 0.718457650718 0.0394730299297
504839000 0.71890158189 0.0394399512251
504849500 0.718513456317 0.0392238039132
504860000 0.719058411796 0.039821544968
504870500 0.718705679834 0.0391111605418
504881000 0.718497296984 0.038919916841
504891500 0.71827314462 0.0392072942247
504902000 0.71843349945 0.039559040189
504912500 0.718279544646 0.039750564115
504923000 0.71850866507 0.0396078006566
504933500 0.718694619211 0.0398724863017
504944000 0.718995820718 0.04024606254
504954500 0.718757591892 0.0395387500066
504965000 0.718504204102 0.039524213353
504975500 0.718671138671 0.0394836347057
504986000 0.719367049704 0.0381479727297
504996500 0.718806528532 0.0390100877648
505007000 0.719143793337 0.0389958122164
505017500 0.718370531116 0.0389143472725
505028000 0.719531385142 0.0390698573131
505038500 0.718785949649 0.038949499586
505049000 0.718867373185 0.0388692612814
505059500 0.71846984585 0.0384829935967
505070000 0.718813401083 0.0396736127059
505080500 0.718720509451 0.0397323002008
505091000 0.716324622815 0.0399546714116
505101500 0.718996354818 0.0392103916747
505112000 0.719053171654 0.0384714789694
505122500 0.71949138589 0.0383354846825
505133000 0.718939386057 0.0398517492287
505143500 0.719277378175 0.0399737607068
505154000 0.71942410276 0.0388696506071
505164500 0.71975013114 0.0337935274602
505175000 0.718879679118 0.0387870625254
505185500 0.718698788601 0.0388288439958
505196000 0.718001000534 0.0390153954675
505206500 0.718180224664 0.039165814111
505217000 0.719172935542 0.0391520294099
505227500 0.718413766923 0.039207559609
505238000 0.718265878201 0.0390558614682
505248500 0.718786320497 0.0387331066679
505259000 0.719025672992 0.0385559865529
505269500 0.718366796187 0.0388297935377
505280000 0.71888273932 0.0387444664178
505290500 0.718901282591 0.0393827964293
505301000 0.718614152255 0.0389675201508
505311500 0.718839239362 0.0383185675061
505322000 0.718986568462 0.0383708933172
505332500 0.71879789331 0.0384077340873
505343000 0.719492350407 0.0389177089411
505353500 0.718981266915 0.0384831587919
505364000 0.719052574317 0.0386742056016
505374500 0.718679549107 0.0380531703721
505385000 0.71883010118 0.0381226215074
505395500 0.719112331353 0.0378374407622
505406000 0.719214295413 0.0379716942575
505416500 0.719647982102 0.0383784074691
505427000 0.719411132399 0.0382373099234
505437500 0.719365330699 0.0384806032276
505448000 0.719577197798 0.0384473750736
505458500 0.71873231619 0.0389837971981
505469000 0.719398153959 0.0382400721966
505479500 0.719223108885 0.0382938791988
505490000 0.719278812693 0.0383439614462
505500500 0.719084737887 0.0376837923508
505511000 0.719531302894 0.0379869400037
505521500 0.718608358869 0.037506074779
505532000 0.717289542603 0.0386469304639
505542500 0.717503603053 0.0371163249858
505553000 0.71666354089 0.0382823945306
505563500 0.718814937375 0.037939796634
505574000 0.719642400204 0.0381142757705
505584500 0.718953624209 0.037547323292
505595000 0.71902657308 0.0372695157564
505605500 0.718945491955 0.0376505220221
505616000 0.719397725996 0.0373383776138
505626500 0.718747795808 0.0370140628791
505637000 0.719172674273 0.0375395133758
505647500 0.719067708467 0.0372701752105
505658000 0.718885535652 0.0383652371438
505668500 0.718780128573 0.0380783906722
505679000 0.718988555337 0.0383019419064
505689500 0.718723226165 0.0383657408715
505700000 0.718941334109 0.0381334363996
505710500 0.719338564975 0.0390105864148
505721000 0.719411838199 0.0379645977997
505731500 0.71946715622 0.0383410807821
505742000 0.719366577412 0.0381572715991
505752500 0.718974315161 0.038436636997
505763000 0.718940692347 0.0391141224066
505773500 0.718714307076 0.0386705823526
505784000 0.718565595407 0.0393461000366
505794500 0.718327490459 0.0386508114749
505805000 0.718475142277 0.0382739664086
505815500 0.718914549645 0.0381830409469
505826000 0.718595079182 0.0382331990396
505836500 0.718624562588 0.0383884487578
505847000 0.718709694769 0.0385167953329
505857500 0.718896174571 0.0387846490333
505868000 0.718374500341 0.0384955445249
505878500 0.718959068814 0.0386198626986
505889000 0.71884191965 0.0383159232381
505899500 0.718632316534 0.0386253826481
505910000 0.718521377351 0.0388481123095
505920500 0.718475362494 0.0389550791155
505931000 0.719344186174 0.0392841988708
505941500 0.719360535425 0.0387495718123
505952000 0.71923768966 0.0385892737767
505962500 0.719090211339 0.038562398507
505973000 0.718555658717 0.0385274973246
505983500 0.718844973689 0.0380115960205
505994000 0.718542147263 0.0377776371028
506004500 0.718608729665 0.0375356065178
506015000 0.718850557972 0.0377307687898
506025500 0.719242571124 0.0375788957087
506036000 0.719909422464 0.037678708788
506046500 0.719386064892 0.03763263852
506057000 0.719747803976 0.0376591417135
506067500 0.719196011784 0.0377133929066
506078000 0.71906352425 0.0379070219926
506088500 0.718803315491 0.0380842491661
506099000 0.719194826969 0.0381777969677
506109500 0.719055012596 0.0388470180636
506120000 0.718826744531 0.0386737563348
506130500 0.718731917123 0.0382344342797
506141000 0.718904821183 0.0380729284995
506151500 0.719003430223 0.0370888334776
506162000 0.719030657336 0.0376022769834
506172500 0.719377457823 0.0374802577415
506183000 0.719313814452 0.0378424273506
506193500 0.718947378188 0.0372658002228
506204000 0.718895754947 0.0372288900703
506214500 0.718716151842 0.0370994907963
506225000 0.719395070843 0.0373586301999
506235500 0.719228543647 0.0376492765721
506246000 0.71888070634 0.0374676188657
506256500 0.718908801039 0.0369082088646
506267000 0.718700626939 0.0372863302457
506277500 0.71855664959 0.0367553773347
506288000 0.718897826281 0.0377605500836
506298500 0.718580953498 0.0377915503512
506309000 0.718661438064 0.0371762206779
506319500 0.7182082775 0.037159566225
506330000 0.717629324231 0.0374329555907
506340500 0.717469209741 0.0374044996963
506351000 0.718235773624 0.0369965648243
506361500 0.718608619875 0.0371089669887
506372000 0.718605401716 0.0367690060436
506382500 0.718807835598 0.0367337086681
506393000 0.718625939061 0.0367107940155
506403500 0.718702829431 0.0356241447323
506414000 0.718388458422 0.036895948667
506424500 0.718232128501 0.0367924165019
506435000 0.718608942095 0.036348371841
506445500 0.713116410496 0.0384798693993
506456000 0.718362199101 0.0371026949769
506466500 0.718212092079 0.0365624374234
506477000 0.717622545255 0.0366870827836
506487500 0.718127908634 0.0363594494698
506498000 0.718245501787 0.0360839196032
506508500 0.718412648147 0.0362561953562
506519000 0.717144851999 0.0335967668415
506529500 0.718752549931 0.0354844532899
506540000 0.718128660281 0.0363147703687
506550500 0.718408229941 0.0362331759553
506561000 0.718226059655 0.0368940190298
506571500 0.718653050769 0.0364459976858
506582000 0.718579683928 0.036683338431
506592500 0.718739073143 0.0363090288825
506603000 0.718025779431 0.0362797965757
506613500 0.718068748224 0.0364188325145
506624000 0.718414084923 0.0368614417734
506634500 0.717785924734 0.0360893608831
506645000 0.718749696289 0.036492131616
506655500 0.718529658261 0.0362823638527
506666000 0.718589368078 0.0364761994798
506676500 0.71848051784 0.0368603805701
506687000 0.717804131745 0.0365705147675
506697500 0.718933551291 0.0359310793795
506708000 0.718356210486 0.0363837688966
506718500 0.718724249216 0.0357003294028
506729000 0.717527612019 0.0365920467115
506739500 0.719367555359 0.0357171269187
506750000 0.718650774155 0.0360365181639
506760500 0.719407830699 0.034160721974
506771000 0.719724223611 0.0351275178078
506781500 0.719688444184 0.0360478999658
506792000 0.719708667247 0.0353475272174
506802500 0.719039845397 0.0341634713214
506813000 0.719046635947 0.0345083319725
506823500 0.719191089861 0.0347743059638
506834000 0.718883868233 0.0333854938009
506844500 0.718848253098 0.0354120861134
506855000 0.718624734541 0.0349198188437
506865500 0.718745793641 0.0344576547371
506876000 0.719271475174 0.034736549358
506886500 0.719041882638 0.0347914878138
506897000 0.719323017389 0.0344900524799
506907500 0.719134517744 0.0346346562982
506918000 0.718510087097 0.0342177215803
506928500 0.718114948709 0.0348957211855
506939000 0.718836907727 0.0342650278413
506949500 0.719336564458 0.0339144782326
506960000 0.719419739045 0.0337675080858
506970500 0.719139673965 0.0339925990452
506981000 0.719506787368 0.03342347173
506991500 0.719074931117 0.0344768624472
507002000 0.719627204001 0.0318223051714
507012500 0.719738721941 0.0340439813203
507023000 0.7203723971 0.0337812750327
507033500 0.719991928375 0.0337266501206
507044000 0.719387458674 0.0341654781381
507054500 0.719409014215 0.034640497593
507065000 0.7202291697 0.0346918437014
507075500 0.719809301374 0.0346128956462
507086000 0.720004033874 0.034514831638
507096500 0.719526873499 0.0337890095287
507107000 0.719223475903 0.0335311957551
507117500 0.720105973349 0.0329651392625
507128000 0.719151107489 0.0328009183858
507138500 0.719486687019 0.0335749717473
507149000 0.719117902032 0.0342493323062
507159500 0.719342354801 0.0354461728835
507170000 0.719588319733 0.0341219297743
507180500 0.719547639392 0.0340858854247
507191000 0.719448627739 0.033656774234
507201500 0.7217269249 0.0343812772404
507212000 0.720075756727 0.0336558085911
507222500 0.717600794103 0.0342871887399
507233000 0.720220540512 0.0330900933009
507243500 0.720218124957 0.0369735054917
507254000 0.718742892986 0.0341163260507
507264500 0.719517101824 0.0346799376687
507275000 0.718314111727 0.0341529827993
507285500 0.722005332182 0.0329565506367
507296000 0.721390317259 0.0328027769216
507306500 0.720027461949 0.0351386071139
507317000 0.719070296822 0.0331936799614
507327500 0.718440302999 0.0350691868966
507338000 0.71952154397 0.032230795965
507348500 0.719061787325 0.0321823631442
507359000 0.718608515212 0.0330889619992
507369500 0.719228991343 0.0338331511911
507380000 0.72014705712 0.035338004598
507390500 0.716328284415 0.033438324923
507401000 0.721013021079 0.0340223034952
507411500 0.718672074197 0.0350360333608
507422000 0.717975417702 0.0323909280821
507432500 0.717145970632 0.0322061160258
507443000 0.720323788182 0.0317999258176
507453500 0.717118840961 0.0319423355675
507464000 0.718504787067 0.0303118181777
507474500 0.719386179811 0.031706630766
507485000 0.718636735009 0.0327188323094
507495500 0.718728019522 0.0343840418137
507506000 0.719006501643 0.0318043635241
507516500 0.72185019451 0.0309870964708
507527000 0.718073143895 0.0318179340945
507537500 0.719466249029 0.030036245653
507548000 0.715241516032 0.0356061384353
507558500 0.718901162133 0.0353313641076
507569000 0.719759381793 0.033389696854
507579500 0.720371995767 0.0346966547431
507590000 0.717928934796 0.0343263767488
507600500 0.722090844442 0.0332431333263
507611000 0.719520668409 0.0318232511172
507621500 0.716755263304 0.0328800805803
507632000 0.721216649979 0.0340789232008
507642500 0.722346127221 0.0337872554911
507653000 0.718929900241 0.0317182340284
507663500 0.719428549907 0.032864148723
507674000 0.719874913835 0.032013100224
507684500 0.718167392287 0.0324278463561
507695000 0.720129144975 0.0324867949467
507705500 0.719846268764 0.0301220927793
507716000 0.717832937958 0.033920040383
507726500 0.720040888052 0.0302440211511
507737000 0.718245251293 0.0309971590258
507747500 0.717367609826 0.0313738889058
507758000 0.719735164279 0.0308161880634
507768500 0.719823402076 0.0333012032465
507779000 0.719858952045 0.0313248161055
507789500 0.719508464909 0.0319623109658
507800000 0.719542829224 0.0316839176403
507810500 0.719209823326 0.0324355322773
507821000 0.718461517336 0.0328661223391
507831500 0.719749643823 0.031772709319
507842000 0.719993913572 0.03236528389
507852500 0.720078911597 0.0316974379983
507863000 0.720056804406 0.0308988406826
507873500 0.719966666154 0.0299903532697
507884000 0.718975907809 0.031985735428
507894500 0.719005354621 0.0322209019118
507905000 0.720027720012 0.0316646477271
507915500 0.720091118558 0.0317348094853
507926000 0.719536693119 0.0311683176199
507936500 0.720787388765 0.031909984239
507947000 0.720879580626 0.0313793377295
507957500 0.719649270425 0.031405253924
507968000 0.719485606297 0.0315476525305
507978500 0.719381004656 0.0320747821237
507989000 0.719196531142 0.0327529124011
507999500 0.719315673442 0.0328619093972
508010000 0.719630912468 0.0321634209402
508020500 0.718781870259 0.031681675845
508031000 0.719326828302 0.0317459607362
508041500 0.718934948136 0.031686072512
508052000 0.719113826083 0.031211513527
508062500 0.718783147921 0.0314586490607
508073000 0.719339756386 0.0309899087427
508083500 0.719524583182 0.0316810947641
508094000 0.718884277362 0.0307316270286
508104500 0.718858989257 0.0325279111477
508115000 0.719556352806 0.0315098452714
508125500 0.719379513223 0.0313548867682
508136000 0.720013265744 0.031017434433
508146500 0.71907073998 0.0312752978627
508157000 0.719985305575 0.0311608910844
508167500 0.719786869183 0.0317696363682
508178000 0.720496016209 0.0308768520866
508188500 0.719590809349 0.0315955687343
508199000 0.720539453226 0.0314306812538
508209500 0.720649309448 0.0315807519823
508220000 0.720063380001 0.0304775728796
508230500 0.720433155482 0.0315461689143
508241000 0.720298108291 0.0309553027227
508251500 0.72016053074 0.0310257573451
508262000 0.719620053979 0.0302500896242
508272500 0.718645032119 0.0302284688159
508283000 0.720025591017 0.0310448579359
508293500 0.719788268646 0.032273467852
508304000 0.720740581036 0.0307997388928
508314500 0.720848715807 0.0315118665726
508325000 0.719364581908 0.0303942294041
508335500 0.720824766016 0.0317518391816
508346000 0.72065664332 0.0311981573101
508356500 0.72055754154 0.031165236278
508367000 0.720844117447 0.0310112000016
508377500 0.720914892044 0.0317232085584
508388000 0.720409413127 0.0317308278342
508398500 0.720249956281 0.0309135749843
508409000 0.720621548635 0.0302144769796
508419500 0.720038406588 0.0317959878906
508430000 0.720598791316 0.0312449989683
508440500 0.719276099996 0.0311352271726
508451000 0.719928678934 0.0314537266727
508461500 0.720291807004 0.0307117935959
508472000 0.720303277122 0.0304140307608
508482500 0.720671299865 0.0310247469269
508493000 0.720240781708 0.0305447305008
508503500 0.719107141229 0.030630406809
508514000 0.719530137605 0.0303934062586
508524500 0.719010632647 0.0303410462068
508535000 0.720395592536 0.0315617314361
508545500 0.71972826172 0.0312343688964
508556000 0.719243122751 0.0308176112907
508566500 0.719508419493 0.0307111145125
508577000 0.719800311475 0.0305553501337
508587500 0.71921292927 0.0300197294782
508598000 0.719780156923 0.0305914042123
508608500 0.719604663972 0.030835182152
508619000 0.719566089144 0.0309493910174
508629500 0.719111422499 0.030931783789
508640000 0.719852146292 0.0304482622423
508650500 0.719840711918 0.0313148382773
508661000 0.719587123666 0.0311733901882
508671500 0.719285107682 0.0309670894051
508682000 0.718778717119 0.0299479255248
508692500 0.719163680664 0.0298838501174
508703000 0.719854254515 0.0295587124696
508713500 0.719740344824 0.0302157075074
508724000 0.719267382161 0.0305151044043
508734500 0.7190992123 0.0307947397367
508745000 0.719448121334 0.031123767811
508755500 0.719930064101 0.030683839699
508766000 0.720456557132 0.0310890054197
508776500 0.720550041665 0.0307685304447
508787000 0.720134500441 0.0301371333681
508797500 0.72008089487 0.030702461358
508808000 0.720001803367 0.0301731005946
508818500 0.720191501802 0.0305044036955
508829000 0.719739799739 0.0302630296152
508839500 0.719875953006 0.0297763184248
508850000 0.719362292531 0.0297019381842
508860500 0.720314846284 0.0303376890855
508871000 0.720563182608 0.0297232569595
508881500 0.71989716973 0.0306384053141
508892000 0.720010597983 0.0301375887841
508902500 0.721473381906 0.0311740723898
508913000 0.720324637549 0.0304588364269
508923500 0.719860951472 0.0309650567529
508934000 0.720762080113 0.0305524387263
508944500 0.719941879253 0.0299507128771
508955000 0.720076041629 0.0307227111763
508965500 0.720410558899 0.0301302336302
508976000 0.720665119656 0.0301540317288
508986500 0.720600141464 0.0306029098123
508997000 0.720849254417 0.0305779049829
509007500 0.720407131589 0.0304769108693
509018000 0.721065616495 0.0303925935204
509028500 0.720386728887 0.0301325276973
509039000 0.720401749204 0.03052619444
509049500 0.719694520109 0.0299687030847
509060000 0.720000427328 0.0297973334319
509070500 0.720334679823 0.0303260528217
509081000 0.72073902917 0.0301254543059
509091500 0.720332386891 0.030037671588
509102000 0.720530814316 0.0300786731859
509112500 0.72017602794 0.0303924029361
509123000 0.720565242789 0.030287123469
509133500 0.720649771661 0.0294620473749
509144000 0.714420202424 0.038404302773
509154500 0.720732376713 0.0321421096508
509165000 0.720947817096 0.0122102133749
509175500 0.721944908407 0.0327965097397
509186000 0.721318787097 0.031508809037
509196500 0.720147754548 0.0296286319036
509207000 0.720473830621 0.0296233303895
509217500 0.72056861336 0.029701735452
509228000 0.720564902248 0.0295837317391
509238500 0.720640098414 0.0297898726238
509249000 0.721119900869 0.0297497646397
509259500 0.720512030329 0.0294976642693
509270000 0.720245427999 0.029932311107
509280500 0.720190427903 0.0292865570394
509291000 0.719971018052 0.0294025814564
509301500 0.719935073206 0.0297207817545
509312000 0.720787020466 0.029567946212
509322500 0.721053465678 0.0295220853419
509333000 0.721060831811 0.0290975043401
509343500 0.720624264621 0.0290515627057
509354000 0.721056518183 0.0288900849081
509364500 0.719932035991 0.0283978261208
509375000 0.720627305011 0.0290820980818
509385500 0.720246031926 0.0285017429043
509396000 0.720162999018 0.0294074899793
509406500 0.720518631075 0.0293511799226
509417000 0.720173140608 0.0292404720952
509427500 0.720251622667 0.0294382040812
509438000 0.720129345898 0.0296393515403
509448500 0.720875155798 0.0291526640116
509459000 0.720741855355 0.0297069425411
509469500 0.720469586272 0.0295723278451
509480000 0.720118116175 0.0288581024852
509490500 0.720539319781 0.0285260260022
509501000 0.720840810775 0.0287060338697
509511500 0.720973292697 0.028589789666
509522000 0.720732564265 0.0285202169886
509532500 0.720560506234 0.0289746998872
509543000 0.72070288884 0.0294230315929
509553500 0.720767023811 0.0290202794915
509564000 0.720531008718 0.0290584181333
509574500 0.720646461648 0.0288541403455
509585000 0.720425503767 0.0281874854617
509595500 0.720704319617 0.028586318022
509606000 0.720513427085 0.0287231172227
509616500 0.720715185745 0.0288966359034
509627000 0.720241718886 0.0289314646676
509637500 0.720704000841 0.0289302427333
509648000 0.721146977388 0.0289870659177
509658500 0.720854616731 0.0288284423755
509669000 0.721210120928 0.0286378452142
509679500 0.721336246195 0.0292115315448
509690000 0.720838492835 0.0291237861738
509700500 0.720616074437 0.0290063991955
509711000 0.720903291642 0.0289052138283
509721500 0.721078208316 0.0292146055639
509732000 0.720990497173 0.0294333125635
509742500 0.720918305762 0.0293221298204
509753000 0.720478665041 0.0285940094904
509763500 0.719497990917 0.028257957902
509774000 0.718032757539 0.0276403440743
509784500 0.720915185159 0.0281042192541
509795000 0.721032755506 0.0286131732405
509805500 0.720540322413 0.0285205548772
509816000 0.721305354568 0.0278916278272
509826500 0.720818366588 0.0282813192477
509837000 0.720574196866 0.0288894283979
509847500 0.720701742204 0.0292787708525
509858000 0.719580315215 0.0296835663702
509868500 0.719776176995 0.0288760200809
509879000 0.719942617162 0.0282429091784
509889500 0.719589038832 0.0282456707978
509900000 0.719732389515 0.0287429142946
509910500 0.720118571435 0.029322097871
509921000 0.719499572144 0.0285620298576
509931500 0.72003710325 0.0285628691036
509942000 0.72024073676 0.0285807508185
509952500 0.720511417652 0.0283680053728
509963000 0.720000267036 0.0280161318454
509973500 0.720035767089 0.0279764661089
509984000 0.720403494977 0.0278900159303
509994500 0.719439110472 0.0285989040462
510005000 0.719510215478 0.0282734587083
510015500 0.720530096373 0.0281948445199
510026000 0.720516159617 0.0285663574158
510036500 0.720750568081 0.0282980160238
510047000 0.720716356722 0.0285400638039
510057500 0.720167567363 0.0292453450577
510068000 0.71999246731 0.028761810625
510078500 0.720342632812 0.0286579450125
510089000 0.72000877493 0.0279622805355
510099500 0.720066047493 0.0284936068082
510110000 0.71960642213 0.0280375629309
510120500 0.720469826364 0.0278035672337
510131000 0.720074240271 0.0282778667035
510141500 0.720768468825 0.0287683787192
510152000 0.720588006659 0.0283617982369
510162500 0.721146843758 0.0279759813057
510173000 0.721038142911 0.0281944104801
510183500 0.720531806336 0.0279202982453
510194000 0.720017397996 0.0277931517395
510204500 0.720167077021 0.0281613876963
510215000 0.720069878172 0.0279512131793
510225500 0.720825385781 0.0280362423359
510236000 0.720578324613 0.0284587230838
510246500 0.720523799847 0.0285014860356
510257000 0.720456230303 0.0284302548751
510267500 0.720615357396 0.0282934041074
510278000 0.720333968778 0.0284622381646
510288500 0.720523941603 0.0274872673782
510299000 0.720050196277 0.0285227498436
510309500 0.720914978114 0.0276632624409
510320000 0.720280646839 0.0276814945618
510330500 0.72059715576 0.0275555620931
510341000 0.719933298027 0.0283047920728
510351500 0.720819104492 0.0279566353439
510362000 0.720702104934 0.0279814781273
510372500 0.720320552922 0.0273369666727
510383000 0.720856487912 0.0275951106718
510393500 0.721035817624 0.0274542079411
510404000 0.720715127767 0.0275602365879
510414500 0.720685003327 0.0280231943828
510425000 0.720941822851 0.0279526782033
510435500 0.72096343308 0.0278844641438
510446000 0.720285437338 0.0277446821566
510456500 0.720981376841 0.0277704646974
510467000 0.720331139199 0.0283175609319
510477500 0.720316567559 0.0272304315742
510488000 0.720246386749 0.0279741600268
510498500 0.720692822998 0.0281246466817
510509000 0.720241106377 0.027441734452
510519500 0.72022324484 0.0277574016564
510530000 0.720090086752 0.0282628151241
510540500 0.720606061881 0.0278454981897
510551000 0.720848762851 0.0281580817499
510561500 0.721204406974 0.0275972698882
510572000 0.721268340351 0.0271035153876
510582500 0.720819222649 0.0275059497714
510593000 0.721199861483 0.0279820505722
510603500 0.720625480723 0.0272775227783
510614000 0.720300047426 0.0276293327384
510624500 0.720517965173 0.0278069880705
510635000 0.72046930381 0.027977344218
510645500 0.721074152187 0.0278208989217
510656000 0.720616466821 0.0277518176928
510666500 0.720890460091 0.027110276886
510677000 0.720791458575 0.02733673872
510687500 0.72113881786 0.0278096822706
510698000 0.720393636406 0.0270207878008
510708500 0.721227326464 0.0272292785169
510719000 0.721062819887 0.0268860993221
510729500 0.72044023033 0.0272389537241
510740000 0.720647067574 0.0271170429288
510750500 0.721124259615 0.0270992708931
510761000 0.720670751936 0.0272896030769
510771500 0.720790070648 0.0272040122667
510782000 0.721175642951 0.0269198096999
510792500 0.721337559319 0.0278459753681
510803000 0.723254609128 0.0259683955569
510813500 0.720555585616 0.0268919678723
510824000 0.72064958073 0.0267891848762
510834500 0.720198016993 0.0273784825195
510845000 0.720124224005 0.0269843040211
510855500 0.720654074275 0.0272039239316
510866000 0.721808112362 0.0276206781893
510876500 0.720862198115 0.0267107912253
510887000 0.721307308945 0.0268613085237
510897500 0.721422089485 0.0268267369646
510908000 0.72135825846 0.027092292858
510918500 0.720849580953 0.0270388749575
510929000 0.720913158002 0.027004383116
510939500 0.721469581375 0.0266076081844
510950000 0.721448369799 0.0265773612576
510960500 0.719299301864 0.0274275863822
510971000 0.72068745678 0.0266843205335
510981500 0.721189588599 0.0269776967487
510992000 0.721132949243 0.0271319611935
511002500 0.721071104557 0.0265776266534
511013000 0.721278830672 0.0268930231699
511023500 0.720951164032 0.0263225624431
511034000 0.720772996353 0.0256985111108
511044500 0.720920006682 0.0265373437746
511055000 0.721168107282 0.0268995908669
511065500 0.721057290602 0.0274568518683
511076000 0.721037613245 0.0276103597925
511086500 0.721183673394 0.0274120173635
511097000 0.721629813999 0.0275358404688
511107500 0.720337913907 0.0275800657459
511118000 0.720896027194 0.0272119614365
511128500 0.720228819154 0.0268653047892
511139000 0.720929023094 0.0262239018527
511149500 0.7205292858 0.0263066186748
511160000 0.72090029456 0.026842159233
511170500 0.721251040424 0.0264687291181
511181000 0.721587738016 0.0273429922911
511191500 0.721478966359 0.0280642586819
511202000 0.721767199267 0.0290492597452
511212500 0.722237226246 0.028638701338
511223000 0.721255669836 0.0276154756315
511233500 0.720835847172 0.0266403977438
511244000 0.72079729263 0.0260388625272
511254500 0.721534076763 0.0262895286858
511265000 0.721944926956 0.0259172726367
511275500 0.721197613316 0.0260822941663
511286000 0.721685009465 0.0265704719803
511296500 0.7212490604 0.0265393342963
511307000 0.721239469114 0.0263975381322
511317500 0.72142447933 0.0264268977535
511328000 0.721207224546 0.0261322355719
511338500 0.720886523993 0.0268585518724
511349000 0.721232983666 0.0262757306886
511359500 0.721033182889 0.0258659892083
511370000 0.721199080308 0.0264767523712
511380500 0.721460193654 0.026124603895
511391000 0.721700037336 0.0266951301893
511401500 0.721181694705 0.0268857259582
511412000 0.721389684805 0.0272092035688
511422500 0.721311529665 0.0271859097756
511433000 0.722466327174 0.0267327517656
511443500 0.722581152899 0.0273550729063
511454000 0.721519297547 0.0253330657977
511464500 0.721021008235 0.0257836045401
511475000 0.722336125363 0.0251064456177
511485500 0.721909543728 0.0265225356357
511496000 0.721747528704 0.0257192525035
511506500 0.721889297785 0.0265705117724
511517000 0.721899163035 0.0258597735066
511527500 0.72096632363 0.0274081218211
511538000 0.721980101983 0.0271484686557
511548500 0.720546044212 0.0267524944575
511559000 0.721984635005 0.0266505808721
511569500 0.721783240581 0.0253053011228
511580000 0.722265396785 0.0245247956523
511590500 0.722104946935 0.0251798567937
511601000 0.722412208322 0.0248465871189
511611500 0.721453250893 0.0253053286395
511622000 0.721563696259 0.0258938054759
511632500 0.722264683387 0.026964233552
511643000 0.72218893035 0.0247312055585
511653500 0.72189650484 0.0263730229396
511664000 0.720085158433 0.0265643926482
511674500 0.720939621278 0.0269663216105
511685000 0.721747885255 0.0257351249043
511695500 0.720680560415 0.0257075110068
511706000 0.721998219836 0.0253234047422
511716500 0.7215996279 0.0255941487236
511727000 0.722932989932 0.026202586663
511737500 0.721139859298 0.0250331685794
511748000 0.722288158788 0.0254080050954
511758500 0.721790486381 0.025154947514
511769000 0.722818469437 0.0244353085317
511779500 0.721422113127 0.0252293171487
511790000 0.721175422696 0.0252618067886
511800500 0.722799400754 0.0263757157958
511811000 0.721841038918 0.0251850885944
511821500 0.721894221177 0.0255419225026
511832000 0.721695035434 0.0254909951453
511842500 0.721143718316 0.0247216801549
511853000 0.722061850573 0.025018818252
511863500 0.720976022676 0.0267750990031
511874000 0.721414886359 0.0256836431584
511884500 0.722612907661 0.0251710610044
511895000 0.721743119263 0.0252996466116
511905500 0.722279136431 0.0252597773657
511916000 0.721513461591 0.0249202635304
511926500 0.721752484433 0.0253131596774
511937000 0.721369807215 0.0255543218325
511947500 0.722257518807 0.0254892953638
511958000 0.722512792846 0.0254581491261
511968500 0.722109723599 0.0256110772223
511979000 0.722519780644 0.0260547682566
511989500 0.722196459582 0.0252636927636
512000000 0.721491892359 0.0257363476836
