! Calibrated averaged scanner-service zoom
# Hz S RI R 50
976000000 0.347923251451 -0.311649910588
976004000 0.341529002564 -0.303181118094
976008000 0.348135190892 -0.305438976117
976012000 0.342907838455 -0.310100941749
976016000 0.345101289866 -0.308402697817
976020000 0.343585033719 -0.30945042153
976024000 0.345718181259 -0.309290559403
976028000 0.344477292163 -0.308705006662
976032000 0.345817869834 -0.307662031858
976036000 0.347889354826 -0.305426866371
976040000 0.345117621141 -0.304617076518
976044000 0.346210892736 -0.309144669977
976048000 0.347240722472 -0.306878019466
976052000 0.346008837512 -0.311905050635
976056000 0.347343512253 -0.309811496345
976060000 0.349393237133 -0.31380865662
976064000 0.348343923616 -0.307299736598
976068000 0.349810952674 -0.306406158655
976072000 0.344884094839 -0.313810298255
976076000 0.353376059831 -0.304706748375
976080000 0.350617682056 -0.308879716366
976084000 0.352735483776 -0.309492878222
976088000 0.355274464428 -0.307297139684
976092000 0.347922250604 -0.30848765209
976096000 0.345160700663 -0.303987368369
976100000 0.348506429839 -0.309622733263
976104000 0.349819453171 -0.305072247861
976108000 0.344426683124 -0.305490162428
976112000 0.346799114027 -0.312469662108
976116000 0.339930680914 -0.305361264261
976120000 0.347781522513 -0.309328763791
976124000 0.345559956131 -0.305952317914
976128000 0.3463492876 -0.30720542179
976132000 0.343839605221 -0.305392304959
976136000 0.344526651112 -0.313460997283
976140000 0.349430238526 -0.309244563365
976144000 0.347579612649 -0.314294733322
976148000 0.347645494381 -0.308130435085
976152000 0.351345057639 -0.30534897472
976156000 0.34914928412 -0.308496292522
976160000 0.352610135519 -0.310345725946
976164000 0.346773182246 -0.306274410348
976168000 0.345776899354 -0.30640316498
976172000 0.352744677256 -0.304484106316
976176000 0.348155721742 -0.306915223107
976180000 0.351495638716 -0.302960867254
976184000 0.348191854283 -0.308117116278
976188000 0.345062560965 -0.310346083718
976192000 0.35138302463 -0.309778751939
976196000 0.345998321469 -0.309197997824
976200000 0.342955481808 -0.308804108292
976204000 0.348243387918 -0.30938486553
976208000 0.347127362402 -0.308590078481
976212000 0.347096416574 -0.301533385886
976216000 0.348022152546 -0.308406506687
976220000 0.342770671665 -0.303200445596
976224000 0.344708196526 -0.305069137107
976228000 0.349414490798 -0.298104148284
976232000 0.344099977265 -0.30837488548
976236000 0.345156865806 -0.306993517456
976240000 0.347548972153 -0.303045794258
976244000 0.343155915662 -0.305695310875
976248000 0.342665703995 -0.302353318395
976252000 0.349956348423 -0.310101712007
976256000 0.346027284796 -0.306125183277
976260000 0.336666787008 -0.303429569658
976264000 0.342485092803 -0.307994080692
976268000 0.337543370572 -0.306652046701
976272000 0.342511143456 -0.304626431744
976276000 0.337263655263 -0.307315548728
976280000 0.341466784168 -0.310957899817
976284000 0.347181409713 -0.309685352694
976288000 0.347285322737 -0.300141045851
976292000 0.345998914145 -0.311981942283
976296000 0.344805168837 -0.307170695111
976300000 0.345553535413 -0.308642907368
976304000 0.343249060332 -0.310761427417
976308000 0.344357500841 -0.305497549302
976312000 0.345872623781 -0.309268061289
976316000 0.350495492415 -0.304885609969
976320000 0.340964974646 -0.316072405755
976324000 0.352717803126 -0.314644337975
976328000 0.347566530012 -0.309781888822
976332000 0.346166235201 -0.313525006797
976336000 0.340147043624 -0.301439731494
976340000 0.341758541083 -0.304129672195
976344000 0.339175485445 -0.30598864222
976348000 0.350349178451 -0.304821167896
976352000 0.3512729355 -0.304277806524
976356000 0.351791983766 -0.303449614927
976360000 0.346932447084 -0.309013560302
976364000 0.344683970723 -0.303066731002
976368000 0.353570090241 -0.311610065225
976372000 0.346129114206 -0.306698554501
976376000 0.34707111994 -0.312452500065
976380000 0.341697391942 -0.303636245474
976384000 0.345529047561 -0.32144428592
976388000 0.356282160967 -0.297095536086
976392000 0.344725894998 -0.310681467358
976396000 0.356733871485 -0.315344246223
976400000 0.360665031274 -0.309655606685
976404000 0.383743871544 -0.281078593753
976408000 0.323298024575 -0.313337508383
976412000 0.335693816155 -0.287493143627
976416000 0.33874103418 -0.314538708204
976420000 0.329353430758 -0.28364425727
976424000 0.330659916975 -0.325196220128
976428000 0.362580320706 -0.342409262413
976432000 0.341268261702 -0.340787311238
976436000 0.342751160313 -0.317407434823
976440000 0.364282963529 -0.317619407027
976444000 0.349596387229 -0.309028534918
976448000 0.352278965166 -0.314573888597
976452000 0.359992780974 -0.315947228161
976456000 0.349362375184 -0.305147702707
976460000 0.342813153164 -0.310813841105
976464000 0.360284812012 -0.306383108303
976468000 0.33937067568 -0.307372507183
976472000 0.350453062706 -0.310928968573
976476000 0.344920175126 -0.307135569819
976480000 0.35375257682 -0.32030850078
976484000 0.343840202591 -0.31817517294
976488000 0.338540307071 -0.307034965954
976492000 0.343972919122 -0.322502000307
976496000 0.342710702852 -0.316413797941
976500000 0.34386725048 -0.307286879821
976504000 0.3395195979 -0.319244919477
976508000 0.352767093844 -0.313640558482
976512000 0.34486400529 -0.311359364968
976516000 0.344252856342 -0.308366407062
976520000 0.350858822738 -0.319268308732
976524000 0.346957593909 -0.305698174494
976528000 0.34766593272 -0.310117124678
976532000 0.347412732576 -0.311360866602
976536000 0.347275448558 -0.303288881925
976540000 0.346847874745 -0.311395153293
976544000 0.347652596844 -0.30307261439
976548000 0.34680659488 -0.311989683934
976552000 0.34737521093 -0.30700345583
976556000 0.332601952653 -0.303746452154
976560000 0.338561345616 -0.309456901969
976564000 0.358073931325 -0.297948861348
976568000 0.350280009046 -0.317800964864
976572000 0.342519168501 -0.304071678096
976576000 0.33541312833 -0.306643858144
976580000 0.332307991476 -0.279157281369
976584000 0.352628692091 -0.299017962552
976588000 0.336730706835 -0.307489108255
976592000 0.348597719941 -0.307668400327
976596000 0.347791314039 -0.310709402852
976600000 0.346997241663 -0.326272022752
976604000 0.342529007951 -0.310098968851
976608000 0.337061159069 -0.295712555892
976612000 0.348725467101 -0.316040272852
976616000 0.340567243206 -0.315436042488
976620000 0.338260647527 -0.306481292605
976624000 0.347056469048 -0.309904591009
976628000 0.350190764583 -0.307422952301
976632000 0.353962767603 -0.310886139276
976636000 0.346403252606 -0.310092411561
976640000 0.342796742603 -0.310169810585
976644000 0.348802421133 -0.31736157438
976648000 0.340691263308 -0.315762367839
976652000 0.345676891628 -0.317543853688
976656000 0.345979359159 -0.314828598749
976660000 0.347801785837 -0.310276281325
976664000 0.341795492103 -0.311438697383
976668000 0.340567997662 -0.308587703855
976672000 0.344779609256 -0.312163967602
976676000 0.343900628837 -0.311451279892
976680000 0.345653372769 -0.306189316815
976684000 0.345550498523 -0.304734062812
976688000 0.34335373662 -0.313069263838
976692000 0.34582982368 -0.308023065891
976696000 0.347944523515 -0.306548481125
976700000 0.345251693065 -0.305645396132
976704000 0.344280814514 -0.308761621453
976708000 0.349366108476 -0.308270671764
976712000 0.340717959781 -0.31104505943
976716000 0.344082803909 -0.306364905093
976720000 0.347132167755 -0.310495017703
976724000 0.346978501078 -0.313532940614
976728000 0.342891036623 -0.313791567138
976732000 0.34506405065 -0.312633777813
976736000 0.348138927113 -0.311736478483
976740000 0.341383573116 -0.307249067879
976744000 0.34741394015 -0.315233137726
976748000 0.345064723803 -0.31090371697
976752000 0.345869467447 -0.310071615543
976756000 0.343720283236 -0.312185680104
976760000 0.344134954781 -0.311809308224
976764000 0.3466850105 -0.31229048606
976768000 0.346117389151 -0.309578735724
976772000 0.347892696576 -0.31127163809
976776000 0.347303918754 -0.308141134949
976780000 0.350983154322 -0.314499442985
976784000 0.350576569691 -0.309340341171
976788000 0.351525516414 -0.311854861201
976792000 0.349422388204 -0.310349830289
976796000 0.350428413663 -0.309352550143
976800000 0.346641638307 -0.306437962435
976804000 0.346914660385 -0.309677780321
976808000 0.349905146163 -0.310775847571
976812000 0.34530233507 -0.30924863423
976816000 0.347583898647 -0.307765807357
976820000 0.345088643415 -0.311395673787
976824000 0.34372484225 -0.309140034911
976828000 0.348833552022 -0.30757911973
976832000 0.350692492736 -0.310526178984
976836000 0.350454638171 -0.307056058151
976840000 0.34772999489 -0.30833238987
976844000 0.349916114599 -0.308707733336
976848000 0.3461109345 -0.30829595068
976852000 0.348298769741 -0.309338407608
976856000 0.347192011722 -0.308705460275
976860000 0.345915667705 -0.308571957068
976864000 0.3470865726 -0.309780460208
976868000 0.346691853691 -0.306189423773
976872000 0.345499853453 -0.31320068745
976876000 0.34586772976 -0.311571613431
976880000 0.349053282547 -0.309520730784
976884000 0.346275338584 -0.311681301789
976888000 0.346210160281 -0.313071565062
976892000 0.345617758981 -0.315036348304
976896000 0.348956817365 -0.312935402817
976900000 0.347148559608 -0.314294481396
976904000 0.349286134069 -0.310372243569
976908000 0.345357411695 -0.314338724355
976912000 0.346848509172 -0.309604068149
976916000 0.342664361677 -0.310778733187
976920000 0.345046750753 -0.309095744925
976924000 0.350825254352 -0.307595341153
976928000 0.342789262265 -0.305984464443
976932000 0.346942138567 -0.307070264449
976936000 0.343609473743 -0.307313500131
976940000 0.343762493314 -0.307518820794
976944000 0.342228922123 -0.310318807618
976948000 0.346468441491 -0.310904038004
976952000 0.341962081554 -0.31028771151
976956000 0.344174575215 -0.312790174865
976960000 0.343571832441 -0.311922700191
976964000 0.34289155764 -0.311795867154
976968000 0.34341764885 -0.315286923681
976972000 0.346654189141 -0.315166821061
976976000 0.343858385311 -0.310908405132
976980000 0.345304522983 -0.313106368626
976984000 0.347197569667 -0.313651670126
976988000 0.344387084594 -0.312762060393
976992000 0.345647682255 -0.312912269513
976996000 0.345596231472 -0.316721457443
977000000 0.343956591544 -0.311045679338
977004000 0.343720559269 -0.314360721192
977008000 0.346353036434 -0.313340307718
977012000 0.342967289398 -0.308310195529
977016000 0.349031203143 -0.31599419275
977020000 0.34514275101 -0.313722115574
977024000 0.342146805581 -0.3087144593
977028000 0.344095343216 -0.315512424151
977032000 0.345354901598 -0.309994812735
977036000 0.343116057889 -0.315265771328
977040000 0.347392454101 -0.312946925336
977044000 0.345609069986 -0.310447308163
977048000 0.347350608216 -0.314539045711
977052000 0.345501456269 -0.31128492943
977056000 0.347008007579 -0.313884548361
977060000 0.346241283999 -0.313950938991
977064000 0.349856316114 -0.3151061665
977068000 0.34894335947 -0.309950605531
977072000 0.34841303622 -0.311854380892
977076000 0.349423687201 -0.313193025569
977080000 0.34968687482 -0.311681194041
977084000 0.346752425896 -0.318148090828
977088000 0.351720542882 -0.309578490641
977092000 0.347513921352 -0.31211946962
977096000 0.343872224177 -0.308706668398
977100000 0.353032190447 -0.310005547826
977104000 0.352253824028 -0.311951225966
977108000 0.347141426981 -0.315430249717
977112000 0.348886410634 -0.31488163901
977116000 0.348466861913 -0.307125219517
977120000 0.348942146221 -0.314371417804
977124000 0.355522696659 -0.311351189017
977128000 0.35039600951 -0.309978070145
977132000 0.35262394922 -0.317899626503
977136000 0.347738319896 -0.309842534354
977140000 0.353743242382 -0.311789736294
977144000 0.349452579733 -0.315333561585
977148000 0.347131076783 -0.315348448115
977152000 0.347097597181 -0.314758184357
977156000 0.349095753328 -0.319610399723
977160000 0.351932654981 -0.316031186345
977164000 0.34999960532 -0.31496218384
977168000 0.351226174997 -0.314352082792
977172000 0.343905031544 -0.317628908234
977176000 0.345690305745 -0.314986776986
977180000 0.345815223786 -0.319411435768
977184000 0.34552292013 -0.317119416673
977188000 0.34672126109 -0.31470094818
977192000 0.347120425987 -0.314085952674
977196000 0.353834651987 -0.317748270075
977200000 0.346959633008 -0.308949847052
977204000 0.352017890562 -0.310900065345
977208000 0.352207977904 -0.317501540434
977212000 0.345097016467 -0.314033336528
977216000 0.34612959787 -0.311553449429
977220000 0.350442104521 -0.313784196377
977224000 0.34425867902 -0.313094219148
977228000 0.348864366608 -0.30849465707
977232000 0.348572791663 -0.310859247053
977236000 0.350022696834 -0.313548229825
977240000 0.343455956829 -0.301326235497
977244000 0.349809289988 -0.309342999868
977248000 0.338432207037 -0.309725698322
977252000 0.34289399014 -0.311775621803
977256000 0.345447966755 -0.311107110869
977260000 0.352410902447 -0.310758844599
977264000 0.350555283979 -0.314946578034
977268000 0.344235138158 -0.312866329265
977272000 0.346137957738 -0.310319494152
977276000 0.340560689139 -0.317483673208
977280000 0.349423575279 -0.314113240841
977284000 0.346407237475 -0.313538798161
977288000 0.341826332072 -0.311566999646
977292000 0.353314978552 -0.31464156266
977296000 0.346413335136 -0.305978405419
977300000 0.348795405603 -0.307233990625
977304000 0.347708245149 -0.316748771096
977308000 0.345923639894 -0.31237569514
977312000 0.332326717419 -0.311318399828
977316000 0.346430593744 -0.317250764315
977320000 0.349189607564 -0.31797155993
977324000 0.347767693659 -0.317693142043
977328000 0.342431675444 -0.316100664838
977332000 0.346122074126 -0.315900347837
977336000 0.346222493304 -0.311904416879
977340000 0.348847589633 -0.307978632371
977344000 0.355944097476 -0.321654356015
977348000 0.343637911824 -0.310631818957
977352000 0.345786982881 -0.309054896371
977356000 0.345025710701 -0.318439778949
977360000 0.34183322343 -0.304600224824
977364000 0.35216480275 -0.318336293518
977368000 0.341634970992 -0.31891271558
977372000 0.352184051342 -0.311225921524
977376000 0.355614840064 -0.31681685464
977380000 0.349540379226 -0.316962464211
977384000 0.355046895688 -0.314923507906
977388000 0.351096620674 -0.304305430963
977392000 0.34770617039 -0.317902129044
977396000 0.35165440364 -0.316068134697
977400000 0.339032425605 -0.318258668185
977404000 0.345767606115 -0.312073855822
977408000 0.348933331085 -0.312107224764
977412000 0.346543436707 -0.313017720984
977416000 0.351254993179 -0.316151331888
977420000 0.347963372882 -0.313626833947
977424000 0.349990197906 -0.315913142557
977428000 0.341837833796 -0.311229171405
977432000 0.348125628364 -0.315318711649
977436000 0.345873578425 -0.317141864188
977440000 0.344666908905 -0.313464142921
977444000 0.35368157541 -0.315113877035
977448000 0.356083886231 -0.312227246661
977452000 0.353141989467 -0.318484855063
977456000 0.345230049573 -0.315453309124
977460000 0.353621096226 -0.316426629455
977464000 0.358721273914 -0.308324140538
977468000 0.344734091855 -0.30838161659
977472000 0.348767888968 -0.312290936401
977476000 0.346577565333 -0.311182689452
977480000 0.340199523483 -0.307563742476
977484000 0.345200467546 -0.309923285579
977488000 0.341561609751 -0.317223722078
977492000 0.339727943079 -0.313899761757
977496000 0.348002862125 -0.312100066021
977500000 0.355221588081 -0.315365923193
977504000 0.341764216214 -0.311346014364
977508000 0.350107202088 -0.318938092596
977512000 0.342967916442 -0.312052701383
977516000 0.354719574543 -0.315074799148
977520000 0.340019039647 -0.31321708224
977524000 0.346226852217 -0.313459427004
977528000 0.346787485408 -0.313780404007
977532000 0.342052207238 -0.309305617863
977536000 0.336393239165 -0.310298369943
977540000 0.338349369722 -0.305373782956
977544000 0.342528310184 -0.306332937458
977548000 0.354366946776 -0.311943227727
977552000 0.346537784901 -0.31207471753
977556000 0.354162561745 -0.330553057317
977560000 0.351309055363 -0.312937199933
977564000 0.336105647528 -0.314002492513
977568000 0.357269800916 -0.320005096237
977572000 0.302428593745 -0.324273940075
977576000 0.344574320055 -0.32547659478
977580000 0.341839961028 -0.294053479002
977584000 0.335901039742 -0.310247075962
977588000 0.364166994286 -0.325469070721
977592000 0.361532307112 -0.30141492544
977596000 0.351289558192 -0.310357102051
977600000 0.349010604829 -0.31306920376
977604000 0.344316116998 -0.318318814808
977608000 0.341337536151 -0.309829449306
977612000 0.332937922393 -0.311870695854
977616000 0.349223530532 -0.323118804095
977620000 0.339331497447 -0.317180661236
977624000 0.337128904326 -0.312179860164
977628000 0.337044503296 -0.312029138665
977632000 0.350486172983 -0.315936026746
977636000 0.344522323108 -0.320461240281
977640000 0.345831820549 -0.31910899379
977644000 0.349363763352 -0.317542640845
977648000 0.349452435699 -0.315816746537
977652000 0.34141749244 -0.321597652844
977656000 0.348958710995 -0.320011062867
977660000 0.340873319666 -0.32056432366
977664000 0.346909316689 -0.327952236802
977668000 0.339241986545 -0.318275297364
977672000 0.345357139666 -0.319735774048
977676000 0.352596954684 -0.317777091422
977680000 0.343672351378 -0.30706135013
977684000 0.343242285616 -0.318394592673
977688000 0.343891274058 -0.312303129905
977692000 0.34146843417 -0.314251278621
977696000 0.341546978197 -0.312334386462
977700000 0.344421188303 -0.305296013631
977704000 0.345428233201 -0.318990264078
977708000 0.343350683885 -0.312371053664
977712000 0.339735513571 -0.309482804668
977716000 0.344375837092 -0.319044717728
977720000 0.348237105568 -0.315513609307
977724000 0.345930278151 -0.324534613921
977728000 0.342668918141 -0.325159400314
977732000 0.343810774448 -0.329244939283
977736000 0.337491576219 -0.336387152894
977740000 0.375244894457 -0.301181575578
977744000 0.341902583314 -0.305482592112
977748000 0.333310972896 -0.333543828371
977752000 0.325591596884 -0.302730466396
977756000 0.352441652583 -0.318355225022
977760000 0.33299547255 -0.307438357948
977764000 0.32584673132 -0.328725560075
977768000 0.344689404592 -0.308070077364
977772000 0.347838696385 -0.311033452971
977776000 0.343921896267 -0.316431121462
977780000 0.347996741836 -0.319764711324
977784000 0.348366956344 -0.326678911599
977788000 0.342238394771 -0.321227358031
977792000 0.352572212812 -0.318489609985
977796000 0.34538518482 -0.314810823271
977800000 0.348467920476 -0.316936617547
977804000 0.342030359801 -0.3107631612
977808000 0.348253592224 -0.316262096035
977812000 0.348883876951 -0.316282425565
977816000 0.349464841369 -0.315049748761
977820000 0.346896776561 -0.318733033473
977824000 0.348601635089 -0.311176929091
977828000 0.345536662518 -0.316458141948
977832000 0.347713092143 -0.31009530718
977836000 0.345420270774 -0.314588748741
977840000 0.343215870529 -0.319513209683
977844000 0.343624240216 -0.315830095685
977848000 0.341440175463 -0.315746632228
977852000 0.336724458127 -0.321071978406
977856000 0.347884053844 -0.316963858758
977860000 0.343995440082 -0.312461231951
977864000 0.346356191536 -0.319436492817
977868000 0.340254502336 -0.317745363643
977872000 0.34934090624 -0.315745418297
977876000 0.345018476527 -0.317253060775
977880000 0.342248307555 -0.31876452886
977884000 0.34127803881 -0.316213067998
977888000 0.343517860338 -0.315905678206
977892000 0.340163786404 -0.31142165805
977896000 0.350802829965 -0.316631718673
977900000 0.347776996066 -0.315991463338
977904000 0.349916531432 -0.316100987217
977908000 0.347137776696 -0.319847839509
977912000 0.348552362443 -0.315563776433
977916000 0.34342645456 -0.315153375241
977920000 0.346854475432 -0.313464277631
977924000 0.347419149302 -0.316255252653
977928000 0.345566249757 -0.313935403891
977932000 0.343364954047 -0.314987246887
977936000 0.345599005577 -0.314462661573
977940000 0.342974769781 -0.319384407106
977944000 0.344659971561 -0.313544075565
977948000 0.342068830629 -0.315594383836
977952000 0.34878564276 -0.315046397438
977956000 0.346127561167 -0.314974995338
977960000 0.345887537684 -0.31730249822
977964000 0.347056778394 -0.317375896279
977968000 0.345702573745 -0.314991193443
977972000 0.343778135589 -0.313209717245
977976000 0.344722201826 -0.313627893275
977980000 0.346340821497 -0.316486847332
977984000 0.347178817343 -0.319355411267
977988000 0.348019113503 -0.318238567599
977992000 0.346095259801 -0.321359778395
977996000 0.349596581381 -0.318329296156
978000000 0.345913926614 -0.318481847418
978004000 0.346830211293 -0.316257591042
978008000 0.345062168905 -0.316387178719
978012000 0.34712411976 -0.317695011999
978016000 0.349845745642 -0.319139669364
978020000 0.347766694104 -0.317673792869
978024000 0.347972642978 -0.316693492872
978028000 0.348438598422 -0.318564160547
978032000 0.340175693417 -0.320726600968
978036000 0.34600302574 -0.320096179116
978040000 0.341445465964 -0.315134427829
978044000 0.345680085019 -0.316327635208
978048000 0.342841445979 -0.320055232929
978052000 0.345090285174 -0.31386646945
978056000 0.345211621808 -0.315931644087
978060000 0.342495101723 -0.31557010735
978064000 0.344150979576 -0.320791836768
978068000 0.346567254478 -0.313493377358
978072000 0.345234165164 -0.318577348246
978076000 0.344748761139 -0.314694930518
978080000 0.347626697711 -0.31545930146
978084000 0.343362171567 -0.31004439854
978088000 0.342521761965 -0.312961088802
978092000 0.342826784852 -0.315650112998
978096000 0.346221864977 -0.314091896748
978100000 0.343188440255 -0.31301460456
978104000 0.342223666352 -0.316643955851
978108000 0.343892529893 -0.313502198976
978112000 0.343542887104 -0.314966626168
978116000 0.339388029197 -0.313580617359
978120000 0.339924788137 -0.315405002028
978124000 0.341823100394 -0.319548119739
978128000 0.342219612975 -0.314855591611
978132000 0.346243193514 -0.314443090404
978136000 0.343034251472 -0.317668010003
978140000 0.344694277137 -0.31761509322
978144000 0.345591807963 -0.316598148801
978148000 0.343873645242 -0.314407374293
978152000 0.343909513167 -0.318772131761
978156000 0.347393754488 -0.316404391351
978160000 0.349298741801 -0.315380252356
978164000 0.344948826738 -0.312686323112
978168000 0.344523405911 -0.312752850522
978172000 0.35108804217 -0.319543467298
978176000 0.346556434106 -0.320350999815
978180000 0.348526316283 -0.320080176855
978184000 0.345688537361 -0.31877218582
978188000 0.347373121601 -0.318474995861
978192000 0.351520237525 -0.320267408935
978196000 0.350821090736 -0.318474680265
978200000 0.348608996531 -0.321296947547
978204000 0.344412789829 -0.319945265471
978208000 0.3470167163 -0.32097420039
978212000 0.3490878444 -0.322646784632
978216000 0.345344964747 -0.323040140514
978220000 0.346653606268 -0.325086677362
978224000 0.350104386904 -0.326885802224
978228000 0.346182056912 -0.320193707464
978232000 0.352250083716 -0.321178415293
978236000 0.348602322563 -0.325238141379
978240000 0.353539476329 -0.321427298484
978244000 0.348978998159 -0.321058118006
978248000 0.353901923579 -0.314239214967
978252000 0.346019883267 -0.319185374614
978256000 0.347302691038 -0.317545350666
978260000 0.339023279129 -0.312283585461
978264000 0.346136037188 -0.314409782619
978268000 0.346198948844 -0.312585935907
978272000 0.345856593561 -0.311250964363
978276000 0.345081019411 -0.310891442168
978280000 0.350245949659 -0.316380124137
978284000 0.346441190466 -0.31625802777
978288000 0.347620602677 -0.311400266382
978292000 0.350074738202 -0.313891817901
978296000 0.351901488796 -0.315982651668
978300000 0.345625538281 -0.320220030582
978304000 0.346099220623 -0.322183142221
978308000 0.347428724028 -0.317006673401
978312000 0.346285848533 -0.315723126862
978316000 0.345269487028 -0.311880096835
978320000 0.34754433232 -0.31733141572
978324000 0.350479066296 -0.317064986443
978328000 0.345492234656 -0.316193482969
978332000 0.34177446184 -0.31697076392
978336000 0.347528525054 -0.316175085329
978340000 0.341647983429 -0.32265375331
978344000 0.345129596952 -0.313465742989
978348000 0.345926833969 -0.316917822194
978352000 0.341939314367 -0.313047025101
978356000 0.342287081034 -0.316377135911
978360000 0.350569705939 -0.318645597027
978364000 0.346407900849 -0.32018879139
978368000 0.348585456267 -0.316470386594
978372000 0.343985415493 -0.319482448101
978376000 0.34713519841 -0.318839264154
978380000 0.345571713202 -0.3197731456
978384000 0.348713443521 -0.321267714105
978388000 0.34582289142 -0.31493256758
978392000 0.355649507873 -0.320714588742
978396000 0.352800953319 -0.315910033027
978400000 0.341888539629 -0.313634382415
978404000 0.348098740749 -0.314083557517
978408000 0.349275091113 -0.320280810286
978412000 0.342523581252 -0.319262169696
978416000 0.348308248245 -0.314207128597
978420000 0.346571687243 -0.317553842535
978424000 0.338560461868 -0.318938980819
978428000 0.346926630363 -0.312915311101
978432000 0.350896043352 -0.313504432599
978436000 0.349864330513 -0.31354871213
978440000 0.349949209206 -0.321531147944
978444000 0.34186063723 -0.321252510016
978448000 0.344699438809 -0.324371446916
978452000 0.35643369373 -0.31888644524
978456000 0.353651452505 -0.31011406761
978460000 0.347043198373 -0.321280963454
978464000 0.339090156727 -0.314884258669
978468000 0.353696449876 -0.315080105074
978472000 0.348423777914 -0.315786876165
978476000 0.348577454685 -0.32439918651
978480000 0.332679168238 -0.314795563759
978484000 0.343142528134 -0.317179054348
978488000 0.342824942133 -0.311030589775
978492000 0.338888740171 -0.319238630156
978496000 0.34855629402 -0.327743258249
978500000 0.349320801266 -0.316887417877
978504000 0.34076776281 -0.325509266168
978508000 0.343192389613 -0.317965241237
978512000 0.355225771238 -0.311232356872
978516000 0.342802113009 -0.318461864132
978520000 0.350917341125 -0.311362159007
978524000 0.347845284971 -0.324016053967
978528000 0.349909406627 -0.312737342014
978532000 0.347378320684 -0.320322477191
978536000 0.342793312237 -0.312366721125
978540000 0.350046693563 -0.320935635618
978544000 0.339771095377 -0.321647454324
978548000 0.352428760161 -0.313596189809
978552000 0.347759894553 -0.322669268642
978556000 0.347829983289 -0.324688704545
978560000 0.335776061973 -0.31265893244
978564000 0.340685388748 -0.321929785587
978568000 0.350763850796 -0.319607549919
978572000 0.34495219372 -0.321935762098
978576000 0.344746695803 -0.309243108723
978580000 0.347584270989 -0.321838634264
978584000 0.341140330578 -0.314850051909
978588000 0.333660260993 -0.326472609522
978592000 0.352522373079 -0.31222215839
978596000 0.351510528451 -0.324411155802
978600000 0.348598611828 -0.312628615737
978604000 0.347790145662 -0.320217050428
978608000 0.349410062814 -0.314953520992
978612000 0.340433087685 -0.321528983402
978616000 0.351327551607 -0.323049796701
978620000 0.338738940442 -0.312418135384
978624000 0.346073511545 -0.318847179538
978628000 0.345205074744 -0.32877660726
978632000 0.340972011541 -0.316827592299
978636000 0.344519894237 -0.31457195838
978640000 0.336602735004 -0.325755998796
978644000 0.361011660612 -0.320131242191
978648000 0.343727100264 -0.313769287521
978652000 0.344092942213 -0.31502392093
978656000 0.3354939988 -0.319626929277
978660000 0.338925154831 -0.315315011533
978664000 0.348500113008 -0.328926055434
978668000 0.353534821643 -0.31852168917
978672000 0.339333990932 -0.318705898652
978676000 0.341988141281 -0.308354272562
978680000 0.35608510952 -0.325893038356
978684000 0.342044460142 -0.30886328986
978688000 0.346077333954 -0.305848215998
978692000 0.345591079579 -0.31905485806
978696000 0.349730800135 -0.322817946932
978700000 0.342149526627 -0.31433394706
978704000 0.344953739355 -0.324900846227
978708000 0.339886809059 -0.316274061013
978712000 0.352223655901 -0.318549831549
978716000 0.334715927583 -0.325686096398
978720000 0.341256082358 -0.31264044597
978724000 0.342183197151 -0.3393397958
978728000 0.31317268731 -0.335035681417
978732000 0.35543150503 -0.322235240577
978736000 0.316178297166 -0.287473570701
978740000 0.294112716924 -0.313799726185
978744000 0.337834921747 -0.3501598839
978748000 0.342472947596 -0.340657234443
978752000 0.371167365539 -0.365815331063
978756000 0.362633652914 -0.324547761245
978760000 0.35404085473 -0.317411495002
978764000 0.326159064552 -0.329951086321
978768000 0.339953126796 -0.314165011451
978772000 0.349646762764 -0.307950322794
978776000 0.347448627822 -0.319596991029
978780000 0.344128782313 -0.316036323515
978784000 0.359676725971 -0.318059750679
978788000 0.350435680969 -0.320483808417
978792000 0.344297016395 -0.31865225173
978796000 0.338064777278 -0.330472081327
978800000 0.342764308981 -0.319367881907
978804000 0.343711858978 -0.309444545897
978808000 0.345680850128 -0.302908136191
978812000 0.346670256392 -0.311529937039
978816000 0.345620690156 -0.319644397764
978820000 0.347412181209 -0.31902634386
978824000 0.335761919071 -0.319047631324
978828000 0.344543638898 -0.310560567009
978832000 0.342944686013 -0.320073255483
978836000 0.344604467569 -0.317745462813
978840000 0.344979078025 -0.32172027954
978844000 0.342882089359 -0.319648373148
978848000 0.347537514602 -0.326705831613
978852000 0.34712847608 -0.311983746195
978856000 0.351621169937 -0.329465041382
978860000 0.364059542674 -0.333130577614
978864000 0.342689131708 -0.321414409524
978868000 0.339582351355 -0.313325403029
978872000 0.351634229062 -0.331229792644
978876000 0.337536090117 -0.330336082714
978880000 0.33724985558 -0.317584958195
978884000 0.341941185194 -0.316471202973
978888000 0.348131054175 -0.341072619656
978892000 0.355845663277 -0.319787019038
978896000 0.352820472048 -0.333433384538
978900000 0.329831956017 -0.298233141289
978904000 0.376607914291 -0.319434649855
978908000 0.370175394 -0.299046118174
978912000 0.349836357928 -0.29190260297
978916000 0.329072695288 -0.36250535235
978920000 0.365294977631 -0.324950266225
978924000 0.321359344112 -0.329556272226
978928000 0.358721784305 -0.311075431973
978932000 0.348299521627 -0.316454600587
978936000 0.331659337975 -0.332957218941
978940000 0.354328417039 -0.313788868745
978944000 0.344710118195 -0.315194798133
978948000 0.339370165048 -0.316541665618
978952000 0.345945036701 -0.323825633949
978956000 0.341344046078 -0.331286387426
978960000 0.347007359125 -0.331598350698
978964000 0.346461005891 -0.317049001895
978968000 0.350647282113 -0.313552053258
978972000 0.346579014857 -0.310613392434
978976000 0.349574210371 -0.320930298847
978980000 0.342818758529 -0.323897523414
978984000 0.345676583155 -0.321514690392
978988000 0.344059863026 -0.319139678686
978992000 0.354245121031 -0.324019684944
978996000 0.34612030291 -0.317753145651
979000000 0.348656736105 -0.318459781551
979004000 0.344979460512 -0.32258189567
979008000 0.33925546327 -0.319588934625
979012000 0.3468387512 -0.325312493694
979016000 0.347324460442 -0.315033106834
979020000 0.345065023767 -0.317743192042
979024000 0.350548528036 -0.323685128121
979028000 0.347584885191 -0.322979062443
979032000 0.342461287014 -0.322275120593
979036000 0.346953216489 -0.320928001185
979040000 0.348110360258 -0.319040666504
979044000 0.345599846857 -0.319415332111
979048000 0.352734337983 -0.319517266925
979052000 0.347678088121 -0.320899750624
979056000 0.350843674117 -0.317269012843
979060000 0.349224337805 -0.323540683286
979064000 0.347487317411 -0.326353890499
979068000 0.351804770295 -0.323599216224
979072000 0.348795253197 -0.320695368601
979076000 0.344083972861 -0.326968883942
979080000 0.339422579793 -0.320879736087
979084000 0.346014091024 -0.323981737012
979088000 0.340201129601 -0.324593101124
979092000 0.344196783506 -0.323103935009
979096000 0.342017116946 -0.322175135061
979100000 0.344491330709 -0.320107848064
979104000 0.344663945078 -0.310987786854
979108000 0.344642849175 -0.322914118477
979112000 0.343741947471 -0.322546356662
979116000 0.345580324384 -0.321427423149
979120000 0.34083770291 -0.321189129583
979124000 0.345988076624 -0.320248246058
979128000 0.345545689019 -0.324612818907
979132000 0.342627914881 -0.319856349956
979136000 0.344262292043 -0.322986931456
979140000 0.344717466623 -0.325574518318
979144000 0.345304975937 -0.321203682964
979148000 0.343065247762 -0.319166799032
979152000 0.341153127612 -0.317746170172
979156000 0.34253235575 -0.318483691244
979160000 0.345492511012 -0.31889603359
979164000 0.342014121593 -0.318482563347
979168000 0.344293858663 -0.325318037232
979172000 0.344795951072 -0.320416757061
979176000 0.341434188837 -0.319191100851
979180000 0.344887535569 -0.322019055386
979184000 0.348792106204 -0.319032301433
979188000 0.347233223269 -0.320404117044
979192000 0.350928553781 -0.317525503735
979196000 0.347388680506 -0.321956061554
979200000 0.346718095521 -0.322336682343
979204000 0.343241670205 -0.320448175035
979208000 0.350140752414 -0.324285141745
979212000 0.347464506859 -0.319366003083
979216000 0.347696889314 -0.319594475765
979220000 0.345306109156 -0.327700782398
979224000 0.340624724736 -0.319233093052
979228000 0.348729510838 -0.325262110265
979232000 0.3469093031 -0.32609131185
979236000 0.345558464049 -0.328581590343
979240000 0.343450779142 -0.323488991952
979244000 0.343696860312 -0.325476391053
979248000 0.343313774071 -0.325075955137
979252000 0.345472753932 -0.319266038727
979256000 0.342683433861 -0.32478043506
979260000 0.342549883221 -0.323034784168
979264000 0.344765978818 -0.322830652258
979268000 0.346001980043 -0.321048597622
979272000 0.341455726712 -0.325326759128
979276000 0.345773125039 -0.326089876678
979280000 0.348613408562 -0.324479040115
979284000 0.346906920787 -0.323938540376
979288000 0.346116640587 -0.326188665774
979292000 0.343913800822 -0.32285076938
979296000 0.34485562402 -0.316124427021
979300000 0.343792686665 -0.325373899789
979304000 0.342742293833 -0.321641681724
979308000 0.343705390101 -0.324926899531
979312000 0.345619641487 -0.321409715847
979316000 0.34170944095 -0.321343796631
979320000 0.346061042936 -0.323470738758
979324000 0.347162487982 -0.321578683888
979328000 0.347165227001 -0.32075716473
979332000 0.345264311152 -0.319915381523
979336000 0.34583983837 -0.323100103333
979340000 0.34026815181 -0.324539722593
979344000 0.345799208346 -0.321861441749
979348000 0.344681604818 -0.322017718658
979352000 0.342383582579 -0.322916192263
979356000 0.345528921644 -0.323930557101
979360000 0.345008559392 -0.327702913191
979364000 0.34738660924 -0.326800734966
979368000 0.346354867518 -0.324145777369
979372000 0.341496420084 -0.323836305636
979376000 0.343747793222 -0.325685965243
979380000 0.338168428274 -0.324119452729
979384000 0.345679054215 -0.320185346815
979388000 0.344564059007 -0.323062335322
979392000 0.346718651708 -0.321386241898
979396000 0.347406367295 -0.323197602438
979400000 0.341449140391 -0.321413923876
979404000 0.343357666335 -0.31942722773
979408000 0.344920682679 -0.320191722379
979412000 0.342334315391 -0.317855798384
979416000 0.339013587529 -0.325824168373
979420000 0.341017050635 -0.318360598297
979424000 0.342946071001 -0.31757865511
979428000 0.345068341489 -0.320960862965
979432000 0.343893991971 -0.317955294125
979436000 0.344537392826 -0.318314820245
979440000 0.34535699081 -0.321210121987
979444000 0.34753193646 -0.326009123625
979448000 0.34306949267 -0.319507115643
979452000 0.345347738171 -0.324051355636
979456000 0.350688757885 -0.318717851512
979460000 0.346202863968 -0.32217141359
979464000 0.350669108141 -0.326441037919
979468000 0.342726975921 -0.317698047805
979472000 0.348201211903 -0.326676753197
979476000 0.346408254382 -0.326605109047
979480000 0.353207744354 -0.318446369956
979484000 0.346755974535 -0.321487430923
979488000 0.344432996249 -0.319801327468
979492000 0.347580895017 -0.326214840928
979496000 0.343738666776 -0.321331214171
979500000 0.336784247195 -0.317223585139
979504000 0.343660405538 -0.321543092084
979508000 0.344598186783 -0.318177559692
979512000 0.341741317084 -0.326709985758
979516000 0.342992064945 -0.321649816342
979520000 0.345921436086 -0.312865802163
979524000 0.342830310222 -0.318128280588
979528000 0.342998073269 -0.32202185688
979532000 0.340261711876 -0.32535057591
979536000 0.348336958524 -0.325886659143
979540000 0.33466023747 -0.325931359254
979544000 0.344685884117 -0.319684055402
979548000 0.342588202493 -0.331818432061
979552000 0.336788195383 -0.327277862021
979556000 0.340205804299 -0.324222893243
979560000 0.344355258789 -0.327269930578
979564000 0.34538953564 -0.331105186814
979568000 0.345273209592 -0.32960560296
979572000 0.35247907434 -0.327328232891
979576000 0.346811005548 -0.328352788469
979580000 0.341282089622 -0.337138892485
979584000 0.345137868033 -0.321705226368
979588000 0.337557714775 -0.329802810425
979592000 0.335432675784 -0.329591307597
979596000 0.344923124219 -0.328165599082
979600000 0.345244070895 -0.322593883368
979604000 0.334828310668 -0.320869052482
979608000 0.348342686089 -0.329623408909
979612000 0.34934506023 -0.326042618322
979616000 0.352065273539 -0.324272866625
979620000 0.345689253972 -0.326750663061
979624000 0.346754265232 -0.315106333762
979628000 0.355681356489 -0.317283298178
979632000 0.347287670927 -0.321699449624
979636000 0.347553993766 -0.320205886611
979640000 0.345625575818 -0.319745509622
979644000 0.341561022475 -0.3181887043
979648000 0.344194135405 -0.320971289117
979652000 0.3464304238 -0.318857600123
979656000 0.345120577692 -0.326965547112
979660000 0.341588959654 -0.331316360522
979664000 0.352073417074 -0.321231844077
979668000 0.352456180154 -0.313519814649
979672000 0.341087617946 -0.328249215165
979676000 0.346535744976 -0.324505870493
979680000 0.346063777891 -0.327467869217
979684000 0.342667942292 -0.330059389601
979688000 0.345367983353 -0.335654002533
979692000 0.342560691895 -0.329680148366
979696000 0.34672551705 -0.317973657281
979700000 0.343039247587 -0.32658126205
979704000 0.340723729899 -0.324243040963
979708000 0.345310919044 -0.32449881299
979712000 0.339195366942 -0.325586214305
979716000 0.345188203632 -0.321042859696
979720000 0.341794346051 -0.327690271521
979724000 0.356820428276 -0.317594198642
979728000 0.344093643899 -0.321798668458
979732000 0.341753739855 -0.320398907263
979736000 0.345228577664 -0.319875383412
979740000 0.342534982113 -0.318959911486
979744000 0.350111933707 -0.318814742386
979748000 0.34553232839 -0.335829238043
979752000 0.350582434481 -0.325929602444
979756000 0.338385427781 -0.329501220482
979760000 0.343170851811 -0.3270900984
979764000 0.346877484927 -0.328543572793
979768000 0.345733403865 -0.319098334685
979772000 0.354537415479 -0.324829818742
979776000 0.346355363058 -0.326156299416
979780000 0.346300368618 -0.30876962858
979784000 0.341906713742 -0.317706109577
979788000 0.342676807404 -0.320413110826
979792000 0.349516772757 -0.316239713991
979796000 0.349681444195 -0.322746213529
979800000 0.354453646328 -0.326939480392
979804000 0.352439369305 -0.319857137711
979808000 0.352648255948 -0.326546040513
979812000 0.346006537715 -0.316491299511
979816000 0.351354976197 -0.325312497565
979820000 0.347666789528 -0.321757890099
979824000 0.343220208543 -0.335340923897
979828000 0.342438861847 -0.333436373688
979832000 0.34413568356 -0.330562354873
979836000 0.340193382019 -0.331080814044
979840000 0.351532111701 -0.327603174596
979844000 0.347640243453 -0.331462301845
979848000 0.343312800541 -0.320644349034
979852000 0.345521818574 -0.323918273633
979856000 0.350057795628 -0.324513586124
979860000 0.334647725259 -0.317686466835
979864000 0.360515400915 -0.316117596154
979868000 0.349065142289 -0.34177518479
979872000 0.339736116333 -0.312984553124
979876000 0.333785055145 -0.314600171587
979880000 0.344940051372 -0.321372314647
979884000 0.34683223105 -0.313303920761
979888000 0.357272804062 -0.315528228504
979892000 0.336958599927 -0.313476344003
979896000 0.343947994999 -0.322960331389
979900000 0.360859733164 -0.32413261408
979904000 0.356805263475 -0.29968342385
979908000 0.327316643251 -0.321469317408
979912000 0.336326122853 -0.350632037195
979916000 0.348856613497 -0.31576326601
979920000 0.330825992089 -0.327400367373
979924000 0.340690843486 -0.339430039245
979928000 0.333353744964 -0.328291871678
979932000 0.340526950818 -0.32867170559
979936000 0.337128821765 -0.321091657637
979940000 0.342248777571 -0.328993229882
979944000 0.333900619561 -0.334756843084
979948000 0.337409138383 -0.34112545953
979952000 0.342816684125 -0.324172498083
979956000 0.342317575991 -0.324433365866
979960000 0.344878433211 -0.310789074191
979964000 0.355287794073 -0.331958429396
979968000 0.346815343119 -0.334443413606
979972000 0.33579966733 -0.327152284179
979976000 0.34960021247 -0.329919782512
979980000 0.346551535875 -0.3322737278
979984000 0.336018962642 -0.330663246597
979988000 0.347423183335 -0.330550488825
979992000 0.3325956105 -0.337473075032
979996000 0.344290299634 -0.330847901447
980000000 0.335594400985 -0.319054047007
