! Calibrated three-pass averaged EFHW harmonic sweep
# Hz S RI R 50
27500000 0.236367256205 0.542533284044
27501000 0.236431174228 0.542382255971
27502000 0.2366137469 0.541824946409
27503000 0.236880063117 0.541209455575
27504000 0.237392399762 0.54123741356
27505000 0.237559759939 0.541141661906
27506000 0.237656062159 0.541090417927
27507000 0.237954510888 0.540213176354
27508000 0.238288239413 0.53998916543
27509000 0.238553676619 0.540353366018
27510000 0.238711695128 0.54024378767
27511000 0.238859754976 0.540053509184
27512000 0.23895196246 0.539244036676
27513000 0.239420145607 0.539013144851
27514000 0.239817653389 0.53900729825
27515000 0.239915917872 0.538960411756
27516000 0.240091657093 0.538513504258
27517000 0.240395485013 0.53771396435
27518000 0.240804125372 0.538003883546
27519000 0.241032033262 0.538133449945
27520000 0.241077896193 0.538010484509
27521000 0.241230879061 0.537496894415
27522000 0.241477481156 0.53686413277
27523000 0.242014561179 0.536863171124
27524000 0.24218103088 0.536771874257
27525000 0.242296214482 0.536717202247
27526000 0.242504220907 0.535849001179
27527000 0.242882925257 0.535558490612
27528000 0.243212836191 0.53588832593
27529000 0.243354896001 0.535853978473
27530000 0.24348929038 0.53567445953
27531000 0.243540679645 0.534846463155
27532000 0.243998879312 0.534599051588
27533000 0.244427767163 0.534589972653
27534000 0.244522873304 0.534502411213
27535000 0.244679782486 0.534161209707
27536000 0.244943880233 0.533241170446
27537000 0.245354549477 0.533510386501
27538000 0.245597294963 0.533655481572
27539000 0.245741536083 0.533530586392
27540000 0.245829370935 0.533060865576
27541000 0.246015184673 0.532372735492
27542000 0.246550355463 0.532352603161
27543000 0.24679147487 0.532258993023
27544000 0.246831302616 0.532221627732
27545000 0.247056692634 0.531357849632
27546000 0.247404889463 0.531007309379
27547000 0.247754367985 0.531359024416
27548000 0.24793765702 0.531321661679
27549000 0.248039547728 0.531158627599
27550000 0.24810071873 0.530345462004
27551000 0.248474432875 0.530030196151
27552000 0.248936761249 0.530013813384
27553000 0.249070787732 0.529928127405
27554000 0.249196131272 0.529635060499
27555000 0.249387222814 0.528697656158
27556000 0.249869483629 0.528876641593
27557000 0.250124376334 0.529082458426
27558000 0.25024006259 0.528962746553
27559000 0.250324151719 0.528513562808
27560000 0.250467068292 0.527811245885
27561000 0.251031050523 0.527715608314
27562000 0.251315503328 0.527638938329
27563000 0.251364631453 0.527647097492
27564000 0.251585191614 0.526815456746
27565000 0.251872645548 0.526373086671
27566000 0.252284414888 0.526725590779
27567000 0.252502960018 0.526664819231
27568000 0.252601564898 0.526549570655
27569000 0.252588439379 0.525735521229
27570000 0.25295427444 0.525349735215
27571000 0.253485556837 0.525323612321
27572000 0.253609517254 0.52525953219
27573000 0.253749297651 0.524988690359
27574000 0.253907846366 0.523992090521
27575000 0.254371992549 0.524136326379
27576000 0.254664246059 0.524346905795
27577000 0.254779116947 0.52425102049
27578000 0.254863586923 0.523820851217
27579000 0.254954041959 0.523049549538
27580000 0.255534772644 0.52296610244
27581000 0.255830957182 0.522877298611
27582000 0.25590263832 0.522863599353
27583000 0.256073328491 0.522078690564
27584000 0.25632645776 0.521508913536
27585000 0.256815424142 0.521872371403
27586000 0.257012075856 0.521853139707
27587000 0.257147765751 0.521713908684
27588000 0.257126850302 0.520909523658
27589000 0.257457156426 0.520426160015
27590000 0.257992609844 0.520302996453
27591000 0.258128424258 0.520133789234
27592000 0.258220162868 0.519851612936
27593000 0.258359874686 0.518758067275
27594000 0.2587952341 0.518838682256
27595000 0.25912326954 0.519041159775
27596000 0.259272365673 0.518936892736
27597000 0.259343890604 0.518495164771
27598000 0.259347806753 0.517649043645
27599000 0.259906472718 0.517537475942
27600000 0.260239054607 0.517429924688
27601000 0.26035144307 0.518074269372
27602000 0.260319342485 0.51739864302
27603000 0.260693887718 0.51731171568
27604000 0.261024094953 0.516833713394
27605000 0.261226550636 0.516764846892
27606000 0.261527188419 0.516728284526
27607000 0.261567724358 0.515841779996
27608000 0.26200030013 0.516027589725
27609000 0.262120805327 0.515750356533
27610000 0.262402470644 0.515608424548
27611000 0.262627869692 0.515188001855
27612000 0.262617167064 0.514552672963
27613000 0.263072558775 0.514321597126
27614000 0.263273520953 0.513858411167
27615000 0.263491582745 0.514068287239
27616000 0.263673644132 0.513333817334
27617000 0.263841448638 0.513075461144
27618000 0.264233822301 0.51318024421
27619000 0.264369877653 0.512864204352
27620000 0.264681699498 0.512854478198
27621000 0.264604189812 0.51216321471
27622000 0.264956471899 0.511978783257
27623000 0.265346394205 0.511522599064
27624000 0.26553274394 0.511386940341
27625000 0.265808758996 0.511406211504
27626000 0.265784764136 0.510404566063
27627000 0.266206180132 0.510479922991
27628000 0.26631300068 0.510228425687
27629000 0.266567739517 0.510052602065
27630000 0.266795004552 0.509765391483
27631000 0.266746051875 0.509177189511
27632000 0.267242055509 0.509015795131
27633000 0.267394820118 0.508562498276
27634000 0.267670098505 0.508816115291
27635000 0.267818253253 0.508178721692
27636000 0.267955886799 0.507832753706
27637000 0.268388984477 0.507952718286
27638000 0.268495421557 0.507646356379
27639000 0.268817208322 0.507597029087
27640000 0.268749441823 0.50689673675
27641000 0.269034496564 0.506743790505
27642000 0.269422110014 0.506306081301
27643000 0.269589802508 0.506111884151
27644000 0.269870491695 0.506240643821
27645000 0.269840170979 0.505312284843
27646000 0.270269852194 0.505457002177
27647000 0.270414249602 0.505232172152
27648000 0.270690380107 0.505129628217
27649000 0.270968796836 0.504870441181
27650000 0.270753684646 0.504202109303
27651000 0.271338994581 0.504052614252
27652000 0.271514948424 0.503595797947
27653000 0.271776765405 0.503810545535
27654000 0.271949002244 0.503193032502
27655000 0.272002716794 0.502745423672
27656000 0.27249279174 0.502897049106
27657000 0.272548462805 0.502603655468
27658000 0.272883952043 0.502575613699
27659000 0.272833056412 0.501903168019
27660000 0.273109218499 0.501721774537
27661000 0.273517946991 0.501295968261
27662000 0.273662660889 0.501041222563
27663000 0.274004761186 0.50125717608
27664000 0.273886365043 0.500358330178
27665000 0.274356853245 0.500447153504
27666000 0.274510690833 0.500241186696
27667000 0.27475874723 0.500083349056
27668000 0.275058834619 0.499872677017
27669000 0.274919486737 0.499213683249
27670000 0.275388107154 0.499124374531
27671000 0.275569286492 0.498633715034
27672000 0.275862743117 0.498815406209
27673000 0.275992909554 0.498303843348
27674000 0.276045018296 0.497789291893
27675000 0.276559256141 0.497952201437
27676000 0.276649631521 0.497679135368
27677000 0.2769775187 0.49767745675
27678000 0.276934715281 0.497010643809
27679000 0.277158360128 0.496781401549
27680000 0.277584044175 0.496394559691
27681000 0.2777809845 0.496143642946
27682000 0.278087617371 0.496387367559
27683000 0.278061560422 0.495502878382
27684000 0.278432528566 0.49562683127
27685000 0.278633470323 0.495521269487
27686000 0.278941131829 0.495355867444
27687000 0.279293238461 0.495222931855
27688000 0.27906821599 0.494541441997
27689000 0.27950891419 0.494425309393
27690000 0.279723921391 0.493982172132
27691000 0.280034942195 0.494164666842
27692000 0.280178161232 0.493745898514
27693000 0.280092593583 0.493167394255
27694000 0.28067031039 0.493373741908
27695000 0.28070678302 0.493079958398
27696000 0.281056101464 0.493087102472
27697000 0.281000749008 0.492515630528
27698000 0.281159924815 0.492215874468
27699000 0.281619830125 0.491824360732
27700000 0.281714737323 0.491514667766
27701000 0.282019555676 0.491206764202
27702000 0.282327304105 0.491323018904
27703000 0.282309601048 0.490720873627
27704000 0.282479461022 0.490470926831
27705000 0.282701597153 0.490323086015
27706000 0.283075754368 0.490246619488
27707000 0.283306872473 0.490104890524
27708000 0.283194125136 0.489571822431
27709000 0.283452319644 0.489227499002
27710000 0.283691820749 0.488731747421
27711000 0.284048109869 0.4888878986
27712000 0.284178062533 0.488576612623
27713000 0.284160226154 0.488073771277
27714000 0.284541455902 0.487908269876
27715000 0.284740044328 0.487757997543
27716000 0.285101207758 0.48767897338
27717000 0.285123564473 0.487296869316
27718000 0.285114463723 0.486960324436
27719000 0.285489201616 0.486473484956
27720000 0.285755428013 0.486283759206
27721000 0.286097029217 0.486381964377
27722000 0.286093389121 0.485826717405
27723000 0.286251267587 0.4855428822
27724000 0.286468298058 0.485364165133
27725000 0.286826304244 0.485316475678
27726000 0.287088183955 0.48516535208
27727000 0.286958746882 0.484656415468
27728000 0.287157357623 0.484332237345
27729000 0.287406936382 0.48380957852
27730000 0.287774518067 0.48393489215
27731000 0.287912964233 0.483689396126
27732000 0.287876696494 0.48307842954
27733000 0.288222984287 0.482973146133
27734000 0.288397576952 0.482811376546
27735000 0.288794833044 0.482732765667
27736000 0.288822222819 0.482363136184
27737000 0.288788033301 0.482020861368
27738000 0.289126548286 0.481481478322
27739000 0.289406778071 0.481239697315
27740000 0.289750948647 0.48139669853
27741000 0.289737343214 0.480842387925
27742000 0.289886265278 0.480530689985
27743000 0.290084489273 0.480376372477
27744000 0.290449126857 0.480276038078
27745000 0.290750063149 0.480110683038
27746000 0.290620544645 0.479607231961
27747000 0.290782357198 0.479288709661
27748000 0.291030539961 0.478775949896
27749000 0.291394429277 0.47888616934
27750000 0.291571677061 0.478688232185
27751000 0.291437700804 0.478026279169
27752000 0.291815970555 0.477914780272
27753000 0.29200436062 0.477759530348
27754000 0.29237818266 0.477697501908
27755000 0.292403132254 0.477313414322
27756000 0.292381744571 0.476953563611
27757000 0.292684191305 0.476422817862
27758000 0.292932233746 0.476141459754
27759000 0.293326525541 0.476310927621
27760000 0.293320900863 0.47580174298
27761000 0.293376853952 0.475454963189
27762000 0.293659754996 0.475298435526
27763000 0.293985598979 0.475154930425
27764000 0.294343374329 0.475016312813
27765000 0.294162932256 0.474540133108
27766000 0.294274795728 0.474222466194
27767000 0.294474993339 0.473660720593
27768000 0.294886158991 0.47372217209
27769000 0.295109404147 0.473569758639
27770000 0.295002517412 0.472928111292
27771000 0.295285266664 0.472822828923
27772000 0.295429968934 0.472642652951
27773000 0.29584484758 0.472552671298
27774000 0.29591401955 0.472218535498
27775000 0.295790317976 0.471841971228
27776000 0.296116403955 0.471295198874
27777000 0.296335804764 0.470979034364
27778000 0.296771577657 0.471109534357
27779000 0.29675835821 0.470660466909
27780000 0.296825783233 0.470250364928
27781000 0.29707239579 0.470133340922
27782000 0.297381108843 0.469964475223
27783000 0.297789398233 0.469830898048
27784000 0.297575831336 0.469342845673
27785000 0.29770041044 0.469072910951
27786000 0.297877951053 0.468499624756
27787000 0.298331685743 0.468482021806
27788000 0.298576227019 0.468383435386
27789000 0.29842570751 0.467740885598
27790000 0.298700340031 0.467573097307
27791000 0.298869509897 0.467385998532
27792000 0.299306274647 0.467367194888
27793000 0.299404954287 0.466984582816
27794000 0.299230414695 0.466614785612
27795000 0.299539155237 0.466110756099
27796000 0.299730618467 0.465689526453
27797000 0.300202554405 0.465815276225
27798000 0.30016688355 0.465381191579
27799000 0.300194508318 0.465016981219
27800000 0.30045758249 0.464839002059
27801000 0.300710727744 0.464615122981
27802000 0.301080147508 0.464480765595
27803000 0.301232865857 0.464320281108
27804000 0.301527986574 0.464044116718
27805000 0.30153653316 0.463727383122
27806000 0.301671849802 0.463510166372
27807000 0.301870552477 0.463003055942
27808000 0.302128392494 0.462930126463
27809000 0.302416777342 0.462794657869
27810000 0.302402191067 0.462316390826
27811000 0.302736043193 0.462229145135
27812000 0.302848147231 0.462060803605
27813000 0.303201539003 0.46190877509
27814000 0.303241876391 0.461595546422
27815000 0.303229138192 0.461239715685
27816000 0.303628157488 0.460883919836
27817000 0.303680051852 0.46045307249
27818000 0.304037414098 0.460438745379
27819000 0.304065004058 0.460008597242
27820000 0.304169319718 0.459683626995
27821000 0.30452147117 0.459434882134
27822000 0.304542309615 0.459103935995
27823000 0.304820179957 0.458725749031
27824000 0.304707297003 0.458145364382
27825000 0.304749983423 0.457836353879
27826000 0.304879073123 0.457278382295
27827000 0.305284524402 0.457188044485
27828000 0.305399119187 0.457051385192
27829000 0.305447699891 0.456607299846
27830000 0.305711838101 0.456510778674
27831000 0.30585142936 0.456351088207
27832000 0.30625552575 0.456245334895
27833000 0.306335460428 0.455913084358
27834000 0.306271131078 0.455564152583
27835000 0.306652130967 0.455259638589
27836000 0.306753044596 0.454813740992
27837000 0.307113447835 0.45473939959
27838000 0.307123340658 0.454460240843
27839000 0.307199658726 0.454068854177
27840000 0.307497148174 0.453888280349
27841000 0.307577255639 0.453640753712
27842000 0.307872582113 0.453358381097
27843000 0.307836088928 0.452983370448
27844000 0.307857679934 0.452638150195
27845000 0.308129944064 0.452117765423
27846000 0.308294267212 0.451956680316
27847000 0.308522868226 0.451864190664
27848000 0.308497954731 0.451300895799
27849000 0.308792859558 0.451182262728
27850000 0.308956544351 0.450983666369
27851000 0.309306943143 0.450836521539
27852000 0.309384697009 0.450507486902
27853000 0.309300912451 0.450081890532
27854000 0.309649073154 0.449797034706
27855000 0.309637364694 0.449205259399
27856000 0.310065348967 0.449189391274
27857000 0.309987321649 0.448945635552
27858000 0.310054029559 0.448490272994
27859000 0.310517719084 0.44840072026
27860000 0.310571885306 0.448209116883
27861000 0.310911878029 0.447920079119
27862000 0.310833044031 0.447555054502
27863000 0.31087780364 0.44729178574
27864000 0.311095594256 0.44676256221
27865000 0.311252796716 0.446572797988
27866000 0.311577847696 0.446364910162
27867000 0.311477617117 0.445922784773
27868000 0.31172848237 0.445746022508
27869000 0.311879066778 0.445503953219
27870000 0.312234089263 0.445332998021
27871000 0.312325816269 0.445020715673
27872000 0.312229160666 0.444604135877
27873000 0.312552605416 0.444260580021
27874000 0.312557840142 0.443747949922
27875000 0.312982144357 0.443674267936
27876000 0.313016209024 0.443442160669
27877000 0.313012617179 0.443026657564
27878000 0.313424516157 0.442846645739
27879000 0.313466554546 0.442626340974
27880000 0.313826790593 0.442339568731
27881000 0.313760001157 0.442001376465
27882000 0.313791111598 0.441717954962
27883000 0.31400879928 0.441189514315
27884000 0.314177574573 0.440967092338
27885000 0.314465613177 0.440770640187
27886000 0.314377615442 0.440365852569
27887000 0.314640585924 0.440176741084
27888000 0.314775480853 0.439942200404
27889000 0.315087430071 0.439779226972
27890000 0.315209790961 0.439466573999
27891000 0.315135865517 0.439065105777
27892000 0.315388307132 0.438708871566
27893000 0.315408276954 0.438188606456
27894000 0.315854120092 0.438120349384
27895000 0.315861329239 0.43788451453
27896000 0.315827961104 0.437461348161
27897000 0.316281834986 0.437293602935
27898000 0.316366038168 0.437066055871
27899000 0.316733834515 0.436827710722
27900000 0.316629702429 0.436494861127
27901000 0.316721585779 0.436363801386
27902000 0.316800977586 0.436110926606
27903000 0.31682601206 0.435516300944
27904000 0.317254802584 0.435402420821
27905000 0.317430065584 0.435203083195
27906000 0.317333635236 0.434783132133
27907000 0.317624925526 0.434548855884
27908000 0.317722749275 0.434378736705
27909000 0.31817411442 0.434206693088
27910000 0.318162647451 0.433863912609
27911000 0.318104695604 0.433546944773
27912000 0.318406961491 0.433146088067
27913000 0.318392612406 0.432712715549
27914000 0.318902497197 0.43267552873
27915000 0.318824992599 0.432385718357
27916000 0.318891604002 0.432106375442
27917000 0.319195504328 0.431910168695
27918000 0.319366003185 0.431718766279
27919000 0.31973470924 0.431417828199
27920000 0.319606245918 0.431139695309
27921000 0.319670929729 0.430848328388
27922000 0.319753220383 0.430299425824
27923000 0.320119173604 0.430166129234
27924000 0.320356841876 0.429965417979
27925000 0.32022638539 0.429554944465
27926000 0.320475400909 0.429386424925
27927000 0.320594154361 0.429181095602
27928000 0.321063306603 0.428986415176
27929000 0.321067401732 0.428683946828
27930000 0.320997274175 0.42836589341
27931000 0.3212392081 0.42798243113
27932000 0.3212238043 0.427515198188
27933000 0.321755844012 0.427492144386
27934000 0.321700411295 0.427187874619
27935000 0.321705366838 0.426897326397
27936000 0.322009753682 0.42669480052
27937000 0.322173904028 0.426463680174
27938000 0.32256929048 0.426155129182
27939000 0.322424468201 0.425853177497
27940000 0.322447999364 0.425681456649
27941000 0.322507855117 0.425082680499
27942000 0.322827511154 0.42490486967
27943000 0.323107166048 0.424713124414
27944000 0.322950020389 0.424305453008
27945000 0.323177360967 0.424124353469
27946000 0.323302494558 0.423930578634
27947000 0.323694114772 0.423722645988
27948000 0.323751565703 0.423405344471
27949000 0.323588759915 0.423077994487
27950000 0.323849687954 0.422706295742
27951000 0.323778855283 0.422204696391
27952000 0.324322386839 0.422184279625
27953000 0.324237733158 0.421900753295
27954000 0.324245044245 0.421574862893
27955000 0.324541696993 0.42134787039
27956000 0.324663517051 0.42116606022
27957000 0.325057522656 0.420842176105
27958000 0.324891374236 0.420535332866
27959000 0.324896510705 0.420356311347
27960000 0.324983006965 0.419790604042
27961000 0.325258983734 0.419560018873
27962000 0.325589725164 0.419387480847
27963000 0.325415678086 0.418985154536
27964000 0.325623877407 0.418811722492
27965000 0.325676441106 0.418638493559
27966000 0.326164980956 0.418376653598
27967000 0.3261808949 0.418067309652
27968000 0.326034200529 0.417742963129
27969000 0.326245481286 0.417355240539
27970000 0.326172911917 0.416877577615
27971000 0.326736728084 0.416837829497
27972000 0.326662368755 0.416509761717
27973000 0.326633448442 0.416232384908
27974000 0.326930032839 0.415953609108
27975000 0.327071280562 0.41574550538
27976000 0.327489737124 0.415477293202
27977000 0.327267471563 0.415133407439
27978000 0.327314281184 0.415008683589
27979000 0.327372985737 0.41436580245
27980000 0.327613247113 0.414122659557
27981000 0.327988405988 0.41394458532
27982000 0.327843223679 0.41364734038
27983000 0.327928400269 0.413412216559
27984000 0.328058761224 0.413220203055
27985000 0.328418380291 0.412951859471
27986000 0.328546150228 0.412616897932
27987000 0.328374963546 0.412290934727
27988000 0.328556279683 0.411943939709
27989000 0.32844313562 0.411426341327
27990000 0.328961563691 0.411364415075
27991000 0.328967344303 0.411115543837
27992000 0.328845668191 0.410740620097
27993000 0.329236769899 0.410431848638
27994000 0.329300345546 0.410249721099
27995000 0.329693115316 0.410032086525
27996000 0.329571433812 0.409626537763
27997000 0.329562519458 0.409489293236
27998000 0.329630601889 0.408945333548
27999000 0.329784787741 0.40858550497
28000000 0.330202196197 0.408385101164
28001000 0.330573251462 0.408356172037
28002000 0.329947436035 0.40779229083
28003000 0.330076674499 0.407544808469
28004000 0.330432616882 0.40738298836
28005000 0.330797050266 0.40706501411
28006000 0.331172441669 0.40676007474
28007000 0.330546670895 0.406677846957
28008000 0.330652445545 0.406118560026
28009000 0.330865387652 0.405571954526
28010000 0.331388215371 0.405512849242
28011000 0.331579167564 0.405269481958
28012000 0.330936971681 0.404893951413
28013000 0.331313837572 0.404752291606
28014000 0.33168260883 0.404403956439
28015000 0.332175538321 0.404144031017
28016000 0.33194486656 0.403823783799
28017000 0.331633379413 0.403618707399
28018000 0.331729120633 0.402977577388
28019000 0.332101777645 0.402683616844
28020000 0.332740704392 0.40262855673
28021000 0.332132945315 0.402157465631
28022000 0.332137754009 0.401903586746
28023000 0.332509863841 0.401718389092
28024000 0.332887501623 0.401365007883
28025000 0.333271460914 0.40107350633
28026000 0.332677256779 0.400946299302
28027000 0.332738745205 0.400390597959
28028000 0.332876255871 0.399777081186
28029000 0.333399588592 0.399691248618
28030000 0.333627483463 0.399325720756
28031000 0.332849434118 0.398850300837
28032000 0.333163847978 0.398583264081
28033000 0.333434916407 0.398130061628
28034000 0.333898940764 0.397826984224
28035000 0.333732730508 0.397504400731
28036000 0.333332440737 0.397395253827
28037000 0.333393304138 0.396808895339
28038000 0.333834548588 0.396433853438
28039000 0.334497652808 0.39647592921
28040000 0.33394216754 0.396035448211
28041000 0.333878436442 0.395814551259
28042000 0.334306228442 0.39562671005
28043000 0.334716110802 0.395301615487
28044000 0.335120351935 0.395084833706
28045000 0.334522361153 0.394956752193
28046000 0.334541354813 0.394471307845
28047000 0.334631471636 0.393890552423
28048000 0.335155154288 0.39372370499
28049000 0.335456948409 0.393475585789
28050000 0.334711864903 0.393149649953
28051000 0.335022785127 0.392913630816
28052000 0.335307065598 0.392517274949
28053000 0.335771027503 0.392192992952
28054000 0.335660465679 0.391917893105
28055000 0.335174360731 0.391785874404
28056000 0.33520581497 0.391211873827
28057000 0.335619392831 0.390764430215
28058000 0.336261671279 0.390748994874
28059000 0.335725688586 0.390295917154
28060000 0.335529529797 0.39006620933
28061000 0.335931396364 0.389881968619
28062000 0.336331841142 0.3894697282
28063000 0.336737769357 0.389178522724
28064000 0.336151751286 0.389140743048
28065000 0.33617415071 0.38865768198
28066000 0.3362583304 0.388039230741
28067000 0.336760306478 0.387877394166
28068000 0.337140129025 0.387692534932
28069000 0.336369751639 0.38743098481
28070000 0.336691096223 0.387168837925
28071000 0.33696781358 0.38680681783
28072000 0.337455810664 0.386474178779
28073000 0.33745474236 0.386159435266
28074000 0.336911528757 0.386167547194
28075000 0.336954766859 0.385571788071
28076000 0.337299240354 0.385063958711
28077000 0.337981060713 0.385077785098
28078000 0.337521678475 0.384646797256
28079000 0.337201213556 0.384428199449
28080000 0.337626289051 0.384239813022
28081000 0.337998555755 0.383812574389
28082000 0.338446681979 0.383535405787
28083000 0.337855843387 0.383454323652
28084000 0.337836014091 0.383054619069
28085000 0.337868274693 0.382408215881
28086000 0.338369006597 0.382203854025
28087000 0.338809642207 0.38200082141
28088000 0.33801655715 0.38178469289
28089000 0.338316670631 0.381526242647
28090000 0.338582499478 0.381168077012
28091000 0.339052710546 0.3808271976
28092000 0.339125485391 0.380491275141
28093000 0.338586562023 0.38052794415
28094000 0.338584629637 0.379972052792
28095000 0.338907491182 0.379437722612
28096000 0.339653467049 0.379461930151
28097000 0.33921769859 0.379006948209
28098000 0.338849198557 0.378820289843
28099000 0.339299899839 0.378632370441
28100000 0.339686141739 0.378180131622
28101000 0.339542703371 0.377959225541
28102000 0.340038380576 0.377545869239
28103000 0.339797914808 0.377401694426
28104000 0.339656211786 0.377228866663
28105000 0.339492782733 0.376640420239
28106000 0.339908924467 0.376289720837
28107000 0.340402742149 0.376023589139
28108000 0.340081197403 0.375837461995
28109000 0.339983177862 0.375554300978
28110000 0.340140971646 0.375358874297
28111000 0.340622316631 0.374937252902
28112000 0.340854698727 0.374569179716
28113000 0.340484845322 0.374517977456
28114000 0.340354419623 0.374177684364
28115000 0.340383035478 0.373632950416
28116000 0.341068437145 0.373424143479
28117000 0.341135534041 0.373194270099
28118000 0.340656553487 0.372984139003
28119000 0.34087645078 0.372758262626
28120000 0.341222855062 0.372463513267
28121000 0.341682665989 0.372117196361
28122000 0.341558283146 0.37198531139
28123000 0.341407878087 0.37189209114
28124000 0.341308343171 0.371393190315
28125000 0.341646635452 0.370993590029
28126000 0.342287085113 0.370798554075
28127000 0.341953886373 0.37064583681
28128000 0.341850029458 0.370445134381
28129000 0.342072266401 0.370267826673
28130000 0.342496604422 0.369859619642
28131000 0.342782090217 0.369486585537
28132000 0.342385514743 0.369431058719
28133000 0.3422901362 0.369147412767
28134000 0.342243270652 0.368654356891
28135000 0.342876761888 0.368397966841
28136000 0.342994303202 0.368138353646
28137000 0.34253640411 0.367956425302
28138000 0.34262445293 0.367690818576
28139000 0.34290544564 0.367424414972
28140000 0.343390991395 0.366995608651
28141000 0.343255091015 0.36681307529
28142000 0.343052640904 0.366762141414
28143000 0.342834680972 0.366191494567
28144000 0.343184193535 0.365750366245
28145000 0.343723952545 0.365504980471
28146000 0.343414323758 0.365316077881
28147000 0.343296137538 0.365166064893
28148000 0.343493598469 0.364921289634
28149000 0.343869812314 0.364491699226
28150000 0.344205655402 0.364077401865
28151000 0.343818709918 0.36404617994
28152000 0.343684890786 0.363764946251
28153000 0.343576695589 0.363260199835
28154000 0.344257061954 0.362968068195
28155000 0.344365671563 0.362717066319
28156000 0.343912474526 0.362568650809
28157000 0.343918406211 0.362301436571
28158000 0.344193642867 0.362010808956
28159000 0.344722516299 0.361580156255
28160000 0.344585844423 0.361332442844
28161000 0.344348955119 0.361325629703
28162000 0.344133723764 0.360795076241
28163000 0.344372075919 0.360301281269
28164000 0.344977510549 0.360029847797
28165000 0.344729732156 0.359870336654
28166000 0.344508424689 0.359660087046
28167000 0.344713198544 0.359471141167
28168000 0.345096924264 0.358998921653
28169000 0.345408998835 0.358536172117
28170000 0.345057087369 0.358526398979
28171000 0.34499311464 0.358309894354
28172000 0.344797473035 0.357834228693
28173000 0.345404562478 0.357449456793
28174000 0.345582090763 0.357163268016
28175000 0.345110100551 0.357066237141
28176000 0.345114152925 0.3568437879
28177000 0.345383243969 0.356571945656
28178000 0.345847894277 0.356074425882
28179000 0.345810218085 0.355832149076
28180000 0.345476798879 0.355880948654
28181000 0.345312808116 0.355320646838
28182000 0.345468176922 0.354899721729
28183000 0.34612690069 0.354543384183
28184000 0.345846056981 0.354418513601
28185000 0.34566284406 0.354273844265
28186000 0.34580475877 0.354051546525
28187000 0.346211256605 0.353555951228
28188000 0.346552189349 0.353103188787
28189000 0.346189863618 0.353086941628
28190000 0.346118634586 0.352889839023
28191000 0.345903417238 0.352402973404
28192000 0.34647175339 0.351952944019
28193000 0.346740569675 0.351677259875
28194000 0.346193409495 0.351604179115
28195000 0.346230412893 0.351368442368
28196000 0.346457180868 0.351120356462
28197000 0.346948040534 0.350629904799
28198000 0.346903682768 0.350353306102
28199000 0.346564166025 0.350426291396
28200000 0.34640425141 0.349928030495
28201000 0.347301804704 0.349312037585
28202000 0.346230862138 0.349456556946
28203000 0.346601183587 0.348972506455
28204000 0.347071245668 0.348221359039
28205000 0.347431003653 0.348078806937
28206000 0.347168845923 0.347895829939
28207000 0.346293513026 0.348038154704
28208000 0.347019623233 0.347437913118
28209000 0.347491675707 0.346850802921
28210000 0.347864521322 0.346698472154
28211000 0.347249814597 0.346703894846
28212000 0.346747425204 0.346665345591
28213000 0.347483690963 0.345892654185
28214000 0.34776083785 0.345427773545
28215000 0.3480747795 0.34525253751
28216000 0.34718973912 0.345375385369
28217000 0.347105172281 0.34512678017
28218000 0.347786010091 0.344387712261
28219000 0.348107361137 0.344049209288
28220000 0.348294532216 0.34389806696
28221000 0.347237271452 0.344082229875
28222000 0.34750421174 0.343677746001
28223000 0.348008688638 0.342855219965
28224000 0.348330576487 0.342603681185
28225000 0.348156204565 0.342470988163
28226000 0.347202486819 0.342672796234
28227000 0.347890296802 0.342079876815
28228000 0.348329435901 0.341423204777
28229000 0.348766483165 0.341256402366
28230000 0.348184187989 0.341239110685
28231000 0.347575117528 0.341264767937
28232000 0.348275812419 0.340424315525
28233000 0.348534828538 0.3398617903
28234000 0.348872855876 0.339690790757
28235000 0.348014385594 0.339801456576
28236000 0.347841611821 0.339593845585
28237000 0.348544545605 0.338793363161
28238000 0.348812030202 0.33836243299
28239000 0.348930300285 0.338107018631
28240000 0.347911788573 0.338305434614
28241000 0.348032565213 0.337882219256
28242000 0.348505317792 0.336991873202
28243000 0.348832643875 0.336694480252
28244000 0.348634072815 0.336486318504
28245000 0.347571642177 0.336738877829
28246000 0.348174622399 0.336102220301
28247000 0.34864083539 0.335387622067
28248000 0.349023310291 0.335163203411
28249000 0.348542930375 0.335183096219
28250000 0.347899470415 0.335315118992
28251000 0.348554460926 0.334474016308
28252000 0.348814913484 0.333846296872
28253000 0.34919037374 0.333737126451
28254000 0.348379506872 0.333847492583
28255000 0.348141076147 0.333736933818
28256000 0.348850521942 0.33287250958
28257000 0.34909435307 0.332471073122
28258000 0.349350061827 0.332254207064
28259000 0.348379563268 0.33257128368
28260000 0.348481915336 0.332235417075
28261000 0.348938215423 0.331389581064
28262000 0.349289446313 0.330998398514
28263000 0.349210150736 0.330850797242
28264000 0.348203859987 0.331185277417
28265000 0.348725133992 0.330563761191
28266000 0.349199951644 0.329802592011
28267000 0.349556921469 0.329588890663
28268000 0.349162269252 0.329598226388
28269000 0.34845222868 0.329788522095
28270000 0.349040737781 0.328927928639
28271000 0.349275785502 0.328225620974
28272000 0.349654632383 0.32802615466
28273000 0.348907375554 0.328115845916
28274000 0.348438030896 0.327990232272
28275000 0.349024342024 0.326930659285
28276000 0.349102855338 0.326382918399
28277000 0.349366557174 0.326094242806
28278000 0.34836265902 0.326405521878
28279000 0.348368802389 0.326141541906
28280000 0.348902147777 0.325204942071
28281000 0.349226713497 0.324842002932
28282000 0.349220809907 0.324695355139
28283000 0.348235615772 0.325119512905
28284000 0.348679090524 0.32458578232
28285000 0.349174892898 0.323749132582
28286000 0.349551540792 0.323524718721
28287000 0.34926303069 0.323503912691
28288000 0.348433032611 0.323850482993
28289000 0.348997642657 0.322995527298
28290000 0.349220830735 0.322241996636
28291000 0.349587349172 0.322052910922
28292000 0.348981197915 0.322213016193
28293000 0.348502581258 0.32231432988
28294000 0.349240711123 0.321374948139
28295000 0.349506299614 0.320898399831
28296000 0.349837619572 0.320655191385
28297000 0.348981907408 0.321038259503
28298000 0.348958628695 0.320870390409
28299000 0.349460731572 0.319914314912
28300000 0.349768992156 0.319526216947
28301000 0.349092505002 0.319113086385
28302000 0.349783084775 0.318741826602
28303000 0.348925126041 0.318878812951
28304000 0.349060455673 0.31863466828
28305000 0.349383912612 0.318258964126
28306000 0.349584653958 0.317696903376
28307000 0.349816334918 0.317157710913
28308000 0.349318763946 0.31768075937
28309000 0.349334727741 0.317107441063
28310000 0.349031909596 0.316574979143
28311000 0.349627371054 0.316153752747
28312000 0.349706095812 0.315724536542
28313000 0.348992926155 0.316083549905
28314000 0.349527167621 0.315685868783
28315000 0.349470717947 0.31520837344
28316000 0.349904628941 0.314608413273
28317000 0.349592643327 0.314584441498
28318000 0.349314556953 0.314792007475
28319000 0.349135049741 0.314185602509
28320000 0.349201852756 0.313662590272
28321000 0.349983557097 0.313190882197
28322000 0.349178138111 0.313356941226
28323000 0.349218643329 0.313189276935
28324000 0.34959993006 0.312791879152
28325000 0.349762106364 0.312259430181
28326000 0.350005867488 0.311699583505
28327000 0.349422878728 0.312204129397
28328000 0.349506674558 0.311666998658
28329000 0.349184401516 0.311120547003
28330000 0.349745287086 0.310687213497
28331000 0.349909038962 0.310263649998
28332000 0.349212688613 0.310700066096
28333000 0.349635177518 0.310199457191
28334000 0.349617280169 0.309845366495
28335000 0.35002251709 0.309199231342
28336000 0.349774451296 0.309007355493
28337000 0.349505917949 0.309391990671
28338000 0.349363927329 0.308816389696
28339000 0.349377828159 0.308256090521
28340000 0.350196323022 0.307765904459
28341000 0.34946110279 0.307914450478
28342000 0.349422496213 0.307832114872
28343000 0.349814252261 0.307430252194
28344000 0.349937808451 0.306867622
28345000 0.350209792778 0.306313165659
28346000 0.349741535137 0.306801638756
28347000 0.349798411584 0.306328486399
28348000 0.349512141783 0.305812533993
28349000 0.350013414767 0.305385143339
28350000 0.350256063816 0.304919812876
28351000 0.349534710436 0.305421498598
28352000 0.35007414573 0.304902560044
28353000 0.349922466661 0.30454230408
28354000 0.350375266739 0.303998107314
28355000 0.350214460281 0.303714239695
28356000 0.34994409568 0.30418334485
28357000 0.349819168032 0.303665873659
28358000 0.34978244355 0.303072768439
28359000 0.35062907243 0.302599933707
28360000 0.349973916872 0.302723503991
28361000 0.349781137074 0.302832044781
28362000 0.350282135731 0.302374592659
28363000 0.350352904147 0.301820158207
28364000 0.350672320543 0.301180538593
28365000 0.350177753763 0.301769051556
28366000 0.350184227788 0.301318758437
28367000 0.349872210989 0.300796249221
28368000 0.350298764599 0.300318133735
28369000 0.350636176325 0.299870380907
28370000 0.349901459296 0.30039230559
28371000 0.350325172211 0.299856467739
28372000 0.350314332042 0.299493986938
28373000 0.350653810247 0.29890789758
28374000 0.350496164535 0.298600552808
28375000 0.350243610459 0.299144578801
28376000 0.350120338267 0.298633163962
28377000 0.349974717457 0.298067323894
28378000 0.350780242604 0.29749192395
28379000 0.350196141205 0.297557942062
28380000 0.349953503952 0.29777396225
28381000 0.350399194962 0.297315690628
28382000 0.350429947529 0.296699934895
28383000 0.350748015511 0.296090722557
28384000 0.350278235228 0.296622076817
28385000 0.350267064487 0.296260434815
28386000 0.349963226336 0.295744478243
28387000 0.350310413657 0.295224436549
28388000 0.350667945184 0.294759597388
28389000 0.349929826243 0.295309981291
28390000 0.350337430143 0.294807849125
28391000 0.350371554998 0.294437152975
28392000 0.350646437402 0.293860808517
28393000 0.350535860137 0.293467010979
28394000 0.350257211152 0.294097670655
28395000 0.350182795024 0.293499304664
28396000 0.349896745092 0.29300156682
28397000 0.350712198268 0.292391968207
28398000 0.350199985403 0.292409093879
28399000 0.349932314423 0.29272580084
28400000 0.350389175863 0.292220747457
28401000 0.350692140471 0.291307537829
28402000 0.35035577061 0.291201480079
28403000 0.350322410098 0.290841820038
28404000 0.350450251077 0.290655772984
28405000 0.35063377798 0.290169391887
28406000 0.350356026678 0.289984532232
28407000 0.350371379108 0.289997837058
28408000 0.350519646418 0.289441404444
28409000 0.350215191183 0.289253653077
28410000 0.350530834732 0.288731615618
28411000 0.350522239928 0.288737326653
28412000 0.350343355977 0.288639193532
28413000 0.350351997231 0.288098643887
28414000 0.350446754751 0.287912799661
28415000 0.350481736663 0.287506737751
28416000 0.350133642367 0.287409376069
28417000 0.350465020616 0.287285164567
28418000 0.350247442874 0.286882956189
28419000 0.35024761095 0.286534731915
28420000 0.350546291512 0.286289292469
28421000 0.350219712714 0.28624657105
28422000 0.350157330982 0.285890151645
28423000 0.350259710653 0.28569635599
28424000 0.350426121897 0.285146827893
28425000 0.350131083335 0.284985072501
28426000 0.350146007358 0.284985143365
28427000 0.350323955618 0.284464642397
28428000 0.349969233476 0.28426796823
28429000 0.350264243633 0.283704578802
28430000 0.350291150268 0.283702198852
28431000 0.350093330252 0.283609209491
28432000 0.350105370221 0.283035452818
28433000 0.350185428472 0.282909895792
28434000 0.350182440877 0.28245374391
28435000 0.349890980426 0.282376674656
28436000 0.350235036106 0.282251688363
28437000 0.350014135487 0.281812282127
28438000 0.349939596845 0.281550066385
28439000 0.350258787177 0.281187621819
28440000 0.349930170902 0.281194360349
28441000 0.349879551948 0.280850615793
28442000 0.3499237682 0.280630002234
28443000 0.350065461095 0.280110392921
28444000 0.349886989021 0.279914084353
28445000 0.34981139557 0.279915574549
28446000 0.349977031448 0.279444717058
28447000 0.349629119072 0.279244025294
28448000 0.349880363 0.278674923203
28449000 0.349942129246 0.278664464605
28450000 0.349709839708 0.278583981086
28451000 0.349692274333 0.277985602638
28452000 0.349785919191 0.277861333485
28453000 0.349789053321 0.277333018487
28454000 0.349453579364 0.277321637214
28455000 0.349829846873 0.277171095212
28456000 0.349556366082 0.276693380365
28457000 0.349493142551 0.276474392835
28458000 0.349793362464 0.276085496663
28459000 0.349513565168 0.276072069334
28460000 0.349385187979 0.275780651468
28461000 0.349439626788 0.275533888205
28462000 0.349534406464 0.275035910626
28463000 0.349316429409 0.274801499297
28464000 0.349221421843 0.274836370117
28465000 0.349436712708 0.274385696883
28466000 0.349086852715 0.274133146518
28467000 0.349318524496 0.27357490627
28468000 0.34940124339 0.273499545194
28469000 0.349110457041 0.273458160042
28470000 0.349079210379 0.272821161802
28471000 0.349215166662 0.272682088515
28472000 0.34921351714 0.272130626762
28473000 0.348867600431 0.272108072271
28474000 0.349149545416 0.271970853045
28475000 0.34889098898 0.271411609832
28476000 0.348591905203 0.2710775606
28477000 0.348754902997 0.27066509394
28478000 0.34846043558 0.270569833682
28479000 0.348312434341 0.27028591395
28480000 0.34823657732 0.269973603077
28481000 0.34829710372 0.269462047844
28482000 0.348026735604 0.269219576813
28483000 0.347904595913 0.26923317196
28484000 0.348153046631 0.268840707245
28485000 0.347823878506 0.268625988981
28486000 0.347952804319 0.268086617563
28487000 0.348167691874 0.267970919625
28488000 0.347899290883 0.267998306285
28489000 0.347763008393 0.267414462326
28490000 0.347948157126 0.26727374488
28491000 0.347934183748 0.266717414268
28492000 0.347619464305 0.266722399907
28493000 0.347844748844 0.266592297638
28494000 0.34767346729 0.266077312843
28495000 0.347471915377 0.265898761476
28496000 0.347728945319 0.265419895729
28497000 0.347520709919 0.265441924487
28498000 0.347438586612 0.265253371548
28499000 0.347418882764 0.2648482104
28500000 0.347492833431 0.264522204015
28501000 0.34662982253 0.263084171763
28502000 0.346397179574 0.263857283878
28503000 0.34641101639 0.263304063924
28504000 0.346101384214 0.26284391234
28505000 0.346329052112 0.262076284059
28506000 0.346095651185 0.261940244673
28507000 0.346003005603 0.262632631134
28508000 0.345984174387 0.262163758243
28509000 0.345769388576 0.261482767113
28510000 0.346348588338 0.260677117649
28511000 0.345995813298 0.261000059584
28512000 0.345885999349 0.261396611327
28513000 0.345910124311 0.260764751258
28514000 0.345750647802 0.260117845772
28515000 0.345994064286 0.259391351279
28516000 0.345709030557 0.260180987892
28517000 0.34566749587 0.259918149846
28518000 0.345448574338 0.259418327903
28519000 0.345717605517 0.258711890997
28520000 0.345854569748 0.258187735739
28521000 0.345658490213 0.259040840347
28522000 0.345728985954 0.258534807564
28523000 0.345475895409 0.258088729052
28524000 0.345625403669 0.257348415926
28525000 0.345449412217 0.257084272521
28526000 0.345444042154 0.25787003313
28527000 0.345443791759 0.257387668451
28528000 0.345161227334 0.256813026757
28529000 0.345712509499 0.255918532941
28530000 0.345413594373 0.256221132261
28531000 0.34533751684 0.256669531621
28532000 0.345405522861 0.25609711432
28533000 0.345206440179 0.255440709559
28534000 0.345435220582 0.25466708371
28535000 0.34516925075 0.25550073283
28536000 0.345207679869 0.255303915854
28537000 0.34500263582 0.254870785708
28538000 0.345164234145 0.254121981438
28539000 0.34537683061 0.253557081003
28540000 0.345165947452 0.254452926905
28541000 0.345200830118 0.254004337022
28542000 0.344973068591 0.253556471931
28543000 0.345050147474 0.252836115187
28544000 0.344957950377 0.252464448461
28545000 0.344923824509 0.253355822399
28546000 0.344903212837 0.252808256999
28547000 0.344573558678 0.252334689488
28548000 0.34507075791 0.251422132745
28549000 0.344803801935 0.251632660567
28550000 0.344728787135 0.25219109924
28551000 0.344804879444 0.251615535256
28552000 0.344511153011 0.250976701858
28553000 0.344701925125 0.250167033947
28554000 0.344472378877 0.250844301546
28555000 0.34449274458 0.250858869239
28556000 0.344285720261 0.250334103526
28557000 0.344349952491 0.249620008543
28558000 0.344561646463 0.248953981035
28559000 0.344438590139 0.249832951385
28560000 0.344409456238 0.249428351371
28561000 0.34418653064 0.248982104118
28562000 0.344218589636 0.248240735609
28563000 0.344123112283 0.247823347846
28564000 0.344151196086 0.24870088574
28565000 0.344144794049 0.24814104238
28566000 0.343774026715 0.247735914428
28567000 0.344254970703 0.246758128767
28568000 0.344036008927 0.24684954837
28569000 0.344072924446 0.247536429584
28570000 0.344155256257 0.246986109133
28571000 0.343827873742 0.246322694753
28572000 0.344008572403 0.245503398489
28573000 0.34379523677 0.246172443535
28574000 0.343845622678 0.246313648611
28575000 0.343701139511 0.245802453531
28576000 0.343698229941 0.245049089292
28577000 0.34392902862 0.244348122886
28578000 0.343843907707 0.245288294394
28579000 0.343836067171 0.244934615332
28580000 0.343655683802 0.244443357232
28581000 0.343618178038 0.243753144834
28582000 0.343570465715 0.243292473325
28583000 0.343653649077 0.244185176179
28584000 0.343581297557 0.243645201446
28585000 0.343175087877 0.243292734308
28586000 0.343575543406 0.242343972431
28587000 0.343393532432 0.242312328821
28588000 0.34339719715 0.24307055995
28589000 0.343463970403 0.242541774922
28590000 0.343076707692 0.241939721079
28591000 0.343184896778 0.241083796019
28592000 0.342987901164 0.241629942261
28593000 0.343063074682 0.241920496332
28594000 0.342882158586 0.241384427178
28595000 0.342768160392 0.24065323243
28596000 0.343026688943 0.239840187594
28597000 0.342933715673 0.240771024533
28598000 0.342874171768 0.240479132027
28599000 0.342676728418 0.240003545601
28600000 0.342560213528 0.239331332802
28601000 0.342125497643 0.238828252
28602000 0.342017890879 0.238491353767
28603000 0.34216090662 0.239331099414
28604000 0.34205959853 0.238891137234
28605000 0.341643440492 0.23836699662
28606000 0.341912222764 0.237374749161
28607000 0.341767685334 0.237536284334
28608000 0.341792367251 0.238210487246
28609000 0.341785013803 0.237624954446
28610000 0.341353531424 0.236974412035
28611000 0.341374144297 0.236143514995
28612000 0.341295109086 0.236811256146
28613000 0.341352024521 0.236897288952
28614000 0.341072021518 0.236427903795
28615000 0.340965091765 0.2355946353
28616000 0.341083444338 0.234904003304
28617000 0.34112619576 0.235806733065
28618000 0.340993660101 0.235561050272
28619000 0.340747473249 0.235008798301
28620000 0.340596572034 0.234246051809
28621000 0.340483673294 0.233883425855
28622000 0.340700251375 0.234733932461
28623000 0.340564454619 0.234278199273
28624000 0.340088646214 0.233855997434
28625000 0.340313324887 0.232834004728
28626000 0.34020742313 0.232862776834
28627000 0.340289147226 0.23361587747
28628000 0.34025036221 0.233062503643
28629000 0.339777728072 0.232433935127
28630000 0.339786172459 0.231541270618
28631000 0.339665294735 0.232137389296
28632000 0.3397943474 0.232378105441
28633000 0.339535182596 0.231897687955
28634000 0.339342160007 0.231080130165
28635000 0.339456359071 0.230310545633
28636000 0.339512291766 0.231169070518
28637000 0.339353370632 0.230982955171
28638000 0.339124787859 0.230432981133
28639000 0.338898604056 0.22970624331
28640000 0.338762120459 0.229192785156
28641000 0.338997304432 0.230059033582
28642000 0.338855423169 0.229596469542
28643000 0.338306134269 0.229188858925
28644000 0.338411187481 0.228106881454
28645000 0.338190670457 0.22800698154
28646000 0.338283813139 0.22877006075
28647000 0.338100217179 0.22821278571
28648000 0.337504783606 0.227663745341
28649000 0.33744076184 0.226761242559
28650000 0.337294183064 0.227247044936
28651000 0.337450879515 0.227611529143
28652000 0.337214238689 0.227172108035
28653000 0.3369337738 0.226399266035
28654000 0.336979930025 0.225527185641
28655000 0.337112137563 0.226330651203
28656000 0.33699810708 0.226339823666
28657000 0.336793143254 0.225773863955
28658000 0.336604310017 0.225112555781
28659000 0.336559724627 0.224582433242
28660000 0.336977733077 0.225545572297
28661000 0.336895789799 0.225138609271
28662000 0.3364617108 0.22480328245
28663000 0.336551517693 0.223898882521
28664000 0.336536773251 0.223709610125
28665000 0.336834944575 0.224585569142
28666000 0.336781135836 0.224104529319
28667000 0.336253433541 0.223587017638
28668000 0.336217447632 0.222705139432
28669000 0.336172392758 0.223160018353
28670000 0.336484283091 0.223625559682
28671000 0.336294020589 0.223132139945
28672000 0.335903762704 0.222440726107
28673000 0.336031602412 0.22155684933
28674000 0.336204969091 0.222316793139
28675000 0.336158039898 0.222414136492
28676000 0.33594132832 0.221895015495
28677000 0.335625859745 0.221219804219
28678000 0.335535998697 0.220621307135
28679000 0.335957481798 0.221560495806
28680000 0.335818031763 0.221212948439
28681000 0.335299805115 0.22092515596
28682000 0.335367817595 0.219924540857
28683000 0.335249946303 0.219661430389
28684000 0.335658789526 0.220546213566
28685000 0.335556863873 0.22008841618
28686000 0.335008302852 0.219647403269
28687000 0.334908326409 0.218711801042
28688000 0.334818218351 0.219042669386
28689000 0.335238776592 0.219586334068
28690000 0.335035408482 0.219130714637
28691000 0.334617632102 0.218470180327
28692000 0.334707843597 0.217536084911
28693000 0.334856603218 0.218257051126
28694000 0.33493290877 0.218403331827
28695000 0.334679967773 0.217868849905
28696000 0.334286995425 0.217233264747
28697000 0.334184571491 0.216619605189
28698000 0.334598707611 0.217501251856
28699000 0.334501028473 0.217223357665
28700000 0.334061215623 0.216908813102
28701000 0.334566245711 0.217072680374
28702000 0.334172369863 0.215762222792
28703000 0.334061687176 0.215759339889
28704000 0.334384083364 0.215711845928
28705000 0.334425727525 0.216445033362
28706000 0.334017800956 0.215710896958
28707000 0.333560447861 0.214717120776
28708000 0.333586472081 0.214907248955
28709000 0.333689713215 0.214836138599
28710000 0.333862703947 0.215307958486
28711000 0.333299378978 0.214246189014
28712000 0.332569969123 0.213483950049
28713000 0.33285454574 0.213536080123
28714000 0.332657795769 0.213746723626
28715000 0.332516231168 0.214235274749
28716000 0.332223083158 0.213021330657
28717000 0.331737753474 0.212585358763
28718000 0.332130024114 0.212728041395
28719000 0.332348566541 0.212962513163
28720000 0.332125629259 0.213009174079
28721000 0.331640140671 0.211744620432
28722000 0.331463476591 0.211657248351
28723000 0.331876929588 0.211623977938
28724000 0.331944363456 0.212282890969
28725000 0.331516609723 0.211724480013
28726000 0.330995667482 0.21068526562
28727000 0.331021041502 0.210846992975
28728000 0.331243132726 0.210832589115
28729000 0.331474472969 0.211296286396
28730000 0.330992319406 0.210377288693
28731000 0.330425927163 0.209618888538
28732000 0.330833851364 0.209662910524
28733000 0.330765224881 0.209810102715
28734000 0.330717564573 0.210369297166
28735000 0.330292335102 0.209179168858
28736000 0.329813451995 0.208738783363
28737000 0.33021909687 0.208844107235
28738000 0.330388297076 0.209079099733
28739000 0.330216573302 0.209209701452
28740000 0.329662891615 0.207971470063
28741000 0.329374262165 0.207775109324
28742000 0.329841919541 0.207738573904
28743000 0.32999474954 0.208413024657
28744000 0.329510061467 0.207973113484
28745000 0.328918225548 0.206876158378
28746000 0.328886353243 0.207020681127
28747000 0.32914560843 0.206959175462
28748000 0.329480310721 0.207415678416
28749000 0.328946303875 0.206582807956
28750000 0.328324876991 0.205775336173
28751000 0.328734612113 0.205811232872
28752000 0.328667326344 0.205896197659
28753000 0.328698332013 0.206472185595
28754000 0.328239822709 0.205346103197
28755000 0.327657302024 0.204884542298
28756000 0.32809481301 0.204966521237
28757000 0.328266863975 0.205098046082
28758000 0.328167957717 0.205369444828
28759000 0.327570051158 0.204093428441
28760000 0.327208439866 0.203906241339
28761000 0.327725981948 0.20383172502
28762000 0.32786965918 0.204446494732
28763000 0.327500852153 0.204156629114
28764000 0.326846383696 0.203013510569
28765000 0.326756331528 0.203109740457
28766000 0.327087460173 0.203045717336
28767000 0.327495933901 0.203513047721
28768000 0.326909223291 0.20275363633
28769000 0.326244732996 0.201936952267
28770000 0.326605932105 0.201996317312
28771000 0.326583215536 0.201997648422
28772000 0.326699619941 0.202624224465
28773000 0.32618322816 0.201537785901
28774000 0.325546211774 0.200992219602
28775000 0.325925448888 0.201093636828
28776000 0.326102750424 0.201163601575
28777000 0.326112812573 0.201478903527
28778000 0.325440220719 0.200296594064
28779000 0.325014629663 0.200027899701
28780000 0.325527408561 0.199891237897
28781000 0.325704492167 0.200455314711
28782000 0.325317086557 0.200325240925
28783000 0.324602700948 0.199166177369
28784000 0.324411115051 0.199229110795
28785000 0.324773869036 0.199130807004
28786000 0.325169320801 0.199507684697
28787000 0.324510535668 0.198909294788
28788000 0.323689397044 0.198050555976
28789000 0.323883987951 0.198090518834
28790000 0.32390746103 0.19807096331
28791000 0.324052159707 0.198684647602
28792000 0.323297681852 0.197697229865
28793000 0.322377678299 0.197111930692
28794000 0.322607685294 0.197222272094
28795000 0.322690921404 0.197235435716
28796000 0.322814041763 0.19761233645
28797000 0.322080246267 0.196487701446
28798000 0.32160894585 0.196224785414
28799000 0.322100530219 0.196066011444
28800000 0.322217814219 0.196588693375
28801000 0.322472852606 0.196723132496
28802000 0.321979682566 0.196330995581
28803000 0.321212500404 0.19539577171
28804000 0.321242761611 0.195516826974
28805000 0.321595513864 0.195438730386
28806000 0.322059053515 0.195817950784
28807000 0.321431120228 0.195029441856
28808000 0.320709656428 0.194380179987
28809000 0.321196656052 0.194331179912
28810000 0.321241059573 0.194432903767
28811000 0.321412595949 0.195016533421
28812000 0.320729851861 0.193944124185
28813000 0.320035285297 0.193593503808
28814000 0.320375204225 0.193544667715
28815000 0.320512949974 0.193676182452
28816000 0.320434806839 0.193926009738
28817000 0.319613480167 0.192820130162
28818000 0.319268521634 0.192691875582
28819000 0.319796709361 0.192544641789
28820000 0.320169228757 0.193109782817
28821000 0.319765537345 0.192943792279
28822000 0.318896986569 0.191957674126
28823000 0.318918943061 0.192098602321
28824000 0.319273121565 0.191976847146
28825000 0.319848356569 0.192407137424
28826000 0.319176337258 0.191741140461
28827000 0.318330083676 0.191133851129
28828000 0.318749979771 0.19109665605
28829000 0.318804502545 0.191183535139
28830000 0.319064007081 0.191746093696
28831000 0.318343823502 0.190807109602
28832000 0.317669178313 0.190455535028
28833000 0.31816473313 0.190494713754
28834000 0.318356959684 0.190505810689
28835000 0.318403210489 0.190860288038
28836000 0.317553412159 0.189823980488
28837000 0.317069547112 0.189676827316
28838000 0.317591321952 0.189460023448
28839000 0.317927274287 0.189962014425
28840000 0.31754161081 0.189947828187
28841000 0.316633297358 0.188902703895
28842000 0.316514809484 0.189081876414
28843000 0.316882503007 0.188866761061
28844000 0.317412600436 0.189266781341
28845000 0.316703175754 0.188735572494
28846000 0.315844733831 0.188071952833
28847000 0.316131420649 0.188035676981
28848000 0.316194625353 0.187965948709
28849000 0.31653054444 0.188608086121
28850000 0.315742173641 0.187758461875
28851000 0.314938663866 0.187375090064
28852000 0.315418502097 0.187350385415
28853000 0.315583196929 0.187329626957
28854000 0.315806298996 0.187704502845
28855000 0.314843423086 0.186731726602
28856000 0.314306573872 0.186573695358
28857000 0.31479837108 0.18635527602
28858000 0.315108445292 0.186742846732
28859000 0.314819715598 0.186809939526
28860000 0.313819335451 0.185795455205
28861000 0.313588636498 0.185920453692
28862000 0.313967328348 0.185719545803
28863000 0.314544850569 0.186014092751
28864000 0.313843656608 0.185638941715
28865000 0.312840122652 0.184899955681
28866000 0.313035579256 0.184902208762
28867000 0.313099322113 0.184792100977
28868000 0.313333092086 0.185374993234
28869000 0.312380561449 0.184631230978
28870000 0.311412508084 0.184286565581
28871000 0.311786802027 0.184311401602
28872000 0.311873354275 0.184241007062
28873000 0.312157615146 0.184634945129
28874000 0.311089172342 0.183759914881
28875000 0.310454802988 0.183653430558
28876000 0.310949976637 0.18338161265
28877000 0.3112770402 0.183826969605
28878000 0.311021765525 0.183957096356
28879000 0.310007807908 0.183019349973
28880000 0.30972729051 0.183121297991
28881000 0.31014723705 0.182906832709
28882000 0.310796221973 0.183105427111
28883000 0.310200836526 0.182909902431
28884000 0.309176215606 0.182140615509
28885000 0.309386532931 0.182161176377
28886000 0.309604321257 0.182007167415
28887000 0.310203684968 0.182513217435
28888000 0.309429234784 0.181815844459
28889000 0.308622734187 0.181420114265
28890000 0.309084916501 0.181338637337
28891000 0.309415819338 0.181140700119
28892000 0.310018941449 0.181431612885
28893000 0.309181137639 0.180565541245
28894000 0.308697327402 0.180382483295
28895000 0.309304690644 0.180048906602
28896000 0.309631679522 0.180396036966
28897000 0.309644923945 0.180658801817
28898000 0.308634404876 0.179760271895
28899000 0.308260562864 0.179868476073
28900000 0.308777150678 0.179618892953
28901000 0.306042777101 0.179446939895
28902000 0.306642593736 0.179399974332
28903000 0.307411166081 0.18004243119
28904000 0.306275590735 0.179296792047
28905000 0.305459698889 0.178901740154
28906000 0.30545332841 0.17850201412
28907000 0.306192826537 0.178951893685
28908000 0.306847910745 0.178901556054
28909000 0.305613339363 0.178451476182
28910000 0.304868614951 0.1782522988
28911000 0.305293835552 0.177741111132
28912000 0.306296101206 0.178349608745
28913000 0.30643669811 0.178437014546
28914000 0.305385773649 0.177359988467
28915000 0.305074001846 0.177119295522
28916000 0.305620935077 0.176963588812
28917000 0.306771840285 0.177305532677
28918000 0.305997984009 0.176966527924
28919000 0.304731960336 0.176852615074
28920000 0.304554398729 0.176530115149
28921000 0.305188800111 0.17637383924
28922000 0.306049541694 0.176971408573
28923000 0.304924079626 0.176372131177
28924000 0.303992783708 0.175957586134
28925000 0.303827707104 0.175628236582
28926000 0.30433896584 0.175929905376
28927000 0.304895849028 0.175933033185
28928000 0.303528976957 0.175658467788
28929000 0.302575971458 0.175644610228
28930000 0.302792206001 0.175106763747
28931000 0.303713250612 0.175692238214
28932000 0.303893274227 0.175914455325
28933000 0.302599769115 0.175034306756
28934000 0.302135333275 0.174758042414
28935000 0.302567615927 0.174584873176
28936000 0.30373243687 0.174898582288
28937000 0.303074503717 0.174623780587
28938000 0.301746885939 0.174582086244
28939000 0.301465104512 0.174354670856
28940000 0.302091755978 0.174098801961
28941000 0.303039062338 0.174618926607
28942000 0.301857351596 0.174157191304
28943000 0.300881095386 0.173800743363
28944000 0.300721838836 0.173495537266
28945000 0.30139229283 0.173684044869
28946000 0.302199925384 0.173634468517
28947000 0.300873848415 0.17339194434
28948000 0.299965093474 0.173452862238
28949000 0.300134584561 0.172919137671
28950000 0.301038194401 0.173338996065
28951000 0.301315606984 0.173606643573
28952000 0.299977696595 0.172824329329
28953000 0.299369538763 0.172652878279
28954000 0.299740161406 0.172395053335
28955000 0.300847840421 0.172651401075
28956000 0.30035918943 0.172432793921
28957000 0.298957443126 0.172475541536
28958000 0.298564972714 0.172269855815
28959000 0.299157479263 0.171830454159
28960000 0.300179224228 0.172398378192
28961000 0.299108493296 0.172059626423
28962000 0.298016934911 0.171687441045
28963000 0.297841732929 0.171372432644
28964000 0.298488195229 0.171445973725
28965000 0.299338101364 0.17138426445
28966000 0.298043295667 0.171197517806
28967000 0.297082418801 0.171351795692
28968000 0.297123893563 0.170807381017
28969000 0.297996061121 0.171097923129
28970000 0.298436888766 0.171408390748
28971000 0.297057860792 0.170690873514
28972000 0.296341134191 0.170540090994
28973000 0.296589244565 0.170197351381
28974000 0.297695617101 0.170479298103
28975000 0.297239927953 0.17023571867
28976000 0.295727165573 0.170340454324
28977000 0.295278207997 0.170243162822
28978000 0.295741659581 0.169744922371
28979000 0.296835218491 0.170247768518
28980000 0.29582678577 0.170000057829
28981000 0.29467416218 0.1696776583
28982000 0.294400352405 0.169363481641
28983000 0.295092211392 0.169338337838
28984000 0.295977034405 0.169236578567
28985000 0.29473815043 0.169089863204
28986000 0.293673203662 0.169352547581
28987000 0.293611835935 0.168870394128
28988000 0.294470207608 0.168988406245
28989000 0.295115446867 0.169257872704
28990000 0.293624012453 0.168667580916
28991000 0.29288571158 0.168602369971
28992000 0.293082089971 0.168236241018
28993000 0.294179739109 0.168404995347
28994000 0.294064893474 0.168255789938
28995000 0.292533692612 0.168394697712
28996000 0.292022257488 0.168318035055
28997000 0.292409281241 0.167691753009
28998000 0.293500739542 0.168125800224
28999000 0.292374840529 0.168036851541
29000000 0.290971801754 0.167802530232
29001000 0.291752892801 0.16756317362
29002000 0.291905104317 0.167695795333
29003000 0.292365058701 0.16807312106
29004000 0.290967510866 0.167086922424
29005000 0.290889448614 0.167486092297
29006000 0.291053776728 0.167053249357
29007000 0.291545371756 0.166802434573
29008000 0.291292382128 0.167029011684
29009000 0.289914179626 0.167003019769
29010000 0.290353540061 0.167129468477
29011000 0.290056410038 0.166619282877
29012000 0.290843284113 0.167090846708
29013000 0.290094094966 0.16664088145
29014000 0.289057509895 0.166536477921
29015000 0.289449620003 0.16641529828
29016000 0.289159364177 0.165976038038
29017000 0.290035366247 0.166201981999
29018000 0.288895265707 0.165966599478
29019000 0.288180958371 0.166432069608
29020000 0.288552840632 0.165855430463
29021000 0.288593873242 0.165993988001
29022000 0.289184665028 0.166422668823
29023000 0.287781577197 0.165477104784
29024000 0.287603628526 0.165831776579
29025000 0.287732868996 0.16536248931
29026000 0.288160675226 0.165139951141
29027000 0.28807546 0.165314114946
29028000 0.286626863199 0.165353499386
29029000 0.286954166192 0.165487805634
29030000 0.286617318926 0.16495999344
29031000 0.287401059303 0.165354831903
29032000 0.286496115069 0.165098189921
29033000 0.285114623438 0.164964453697
29034000 0.285482831179 0.164978575463
29035000 0.285080169318 0.164594989583
29036000 0.28595407144 0.164569241712
29037000 0.284929146975 0.164437973449
29038000 0.28410554551 0.16497338699
29039000 0.284491450891 0.164418271537
29040000 0.284423692474 0.164450252623
29041000 0.285217165177 0.164841384463
29042000 0.283828651209 0.163990008427
29043000 0.283551058997 0.164405623621
29044000 0.283765003656 0.163961273972
29045000 0.284139732148 0.163642692407
29046000 0.284258950284 0.163856434026
29047000 0.282873686764 0.16393912461
29048000 0.283144641543 0.164113385131
29049000 0.282959006604 0.163532602759
29050000 0.283784640471 0.163866314025
29051000 0.283242212385 0.163676969122
29052000 0.282011651489 0.163437267666
29053000 0.282505965773 0.163474120765
29054000 0.282116631487 0.163046806333
29055000 0.283015344294 0.162990435838
29056000 0.282035893812 0.162947330486
29057000 0.281233228693 0.163545585864
29058000 0.2815800998 0.163032157943
29059000 0.281413018962 0.162966871632
29060000 0.28235061362 0.163316791638
29061000 0.280913364443 0.162633243334
29062000 0.280565115409 0.163071000344
29063000 0.280809108166 0.162597486762
29064000 0.281027035819 0.162262195205
29065000 0.281293549481 0.162479042949
29066000 0.279901307968 0.162636073405
29067000 0.280037949112 0.162869085133
29068000 0.279903339184 0.162289424393
29069000 0.28063958226 0.162552933046
29070000 0.280209634713 0.162466392789
29071000 0.278840500624 0.162269207749
29072000 0.279294718483 0.162365001321
29073000 0.278913215193 0.161922298428
29074000 0.279713827756 0.161694634817
29075000 0.278819375591 0.161810360361
29076000 0.2779244152 0.162414244087
29077000 0.278327346348 0.161947698548
29078000 0.278044707227 0.161837388192
29079000 0.279028642201 0.162111955051
29080000 0.277608940873 0.161533310001
29081000 0.277143150902 0.161996438554
29082000 0.277381783361 0.161542762052
29083000 0.27743900932 0.161232017029
29084000 0.277822211102 0.16138825694
29085000 0.276287495253 0.161659592273
29086000 0.276211080446 0.162038492282
29087000 0.276026566099 0.161560051946
29088000 0.276600620152 0.161764189301
29089000 0.276312704013 0.161882172912
29090000 0.274797884326 0.16172292266
29091000 0.275178138658 0.161863951128
29092000 0.274791552911 0.161495297456
29093000 0.275547743821 0.161253259534
29094000 0.274744796927 0.161483660053
29095000 0.273815095351 0.162173090734
29096000 0.274233305884 0.161719797248
29097000 0.273850950562 0.161610668315
29098000 0.274847983546 0.161871342634
29099000 0.273534395637 0.161410444523
29100000 0.2730649855 0.16191915346
29101000 0.274766926454 0.160598366008
29102000 0.274889977316 0.160630117738
29103000 0.274151161431 0.160291753275
29104000 0.274611971733 0.160350598892
29105000 0.274519870736 0.160081939076
29106000 0.274197908455 0.160428073786
29107000 0.273973309835 0.160472161284
29108000 0.273536308544 0.160411123298
29109000 0.274159020771 0.160454374859
29110000 0.2736650354 0.160064621659
29111000 0.273455066865 0.160092848791
29112000 0.272977660819 0.160007908385
29113000 0.272812125495 0.159721911344
29114000 0.273249247143 0.15960872835
29115000 0.272584839864 0.159870232971
29116000 0.272628674405 0.160035611251
29117000 0.271980544244 0.159919635748
29118000 0.272190290486 0.160023781371
29119000 0.27238916448 0.159633462114
29120000 0.271627913116 0.1597348471
29121000 0.271713280872 0.159733243619
29122000 0.270950924901 0.159454165695
29123000 0.271383429003 0.159457108927
29124000 0.271370762087 0.159130959418
29125000 0.270945690833 0.159579913583
29126000 0.270929392304 0.159647747369
29127000 0.27046539429 0.159589125363
29128000 0.271086752465 0.159618555834
29129000 0.270693136368 0.159114055201
29130000 0.2705425506 0.159189695486
29131000 0.270182387074 0.159178550206
29132000 0.269997555714 0.158865193636
29133000 0.270510772581 0.158762875933
29134000 0.269966416516 0.159016542628
29135000 0.27000485322 0.159189502482
29136000 0.269470653653 0.159203036083
29137000 0.269676406518 0.159200914613
29138000 0.269898430292 0.158888516933
29139000 0.269087702305 0.158943937296
29140000 0.269221287888 0.159001339205
29141000 0.268440935211 0.158837904137
29142000 0.26881637386 0.158790352588
29143000 0.26884542759 0.158471703889
29144000 0.268441599399 0.158879002646
29145000 0.268419275987 0.158978355806
29146000 0.267936358532 0.15899153922
29147000 0.268524410315 0.159005804582
29148000 0.268142279677 0.158583390356
29149000 0.267844908294 0.158693622488
29150000 0.267570209948 0.158696535622
29151000 0.267208949851 0.15839629655
29152000 0.267746463574 0.158315067497
29153000 0.267251597315 0.158515800877
29154000 0.267254644401 0.15873212945
29155000 0.266734738586 0.15880406045
29156000 0.266816261452 0.158834852581
29157000 0.267115011931 0.158475513431
29158000 0.266260115387 0.158584384962
29159000 0.266404536964 0.158583504418
29160000 0.265584873945 0.158512027096
29161000 0.265958987388 0.158398643303
29162000 0.265936557269 0.158115368922
29163000 0.265522045619 0.158622600811
29164000 0.265527620069 0.158675458855
29165000 0.265013982825 0.15871175552
29166000 0.265558049876 0.158808592239
29167000 0.265242128891 0.158285061081
29168000 0.264887779748 0.158415574135
29169000 0.264677974282 0.158511760875
29170000 0.264190116933 0.158259695189
29171000 0.264754659692 0.158152435252
29172000 0.264227243071 0.158271662151
29173000 0.264218443812 0.158513989681
29174000 0.26373864843 0.158643766138
29175000 0.263751924705 0.158654064677
29176000 0.264048411807 0.158311923968
29177000 0.26321638102 0.158454944094
29178000 0.263222640399 0.158499279517
29179000 0.26236303362 0.158496542184
29180000 0.262586751914 0.158394718966
29181000 0.26256287523 0.158133512344
29182000 0.262057645865 0.158727840881
29183000 0.261956125866 0.158801640535
29184000 0.261223325473 0.158977294597
29185000 0.261577819203 0.15910882568
29186000 0.261206264274 0.158713777437
29187000 0.260749900209 0.158966791782
29188000 0.2606383565 0.159047363524
29189000 0.260084361937 0.158801777174
29190000 0.260655913324 0.158642002535
29191000 0.260267109535 0.158750223762
29192000 0.260302817115 0.158951466619
29193000 0.259863481517 0.159146515355
29194000 0.259857369328 0.159135427322
29195000 0.26025456212 0.158819516
29196000 0.259477084654 0.158953112081
29197000 0.259470271531 0.158978451251
29198000 0.25878514146 0.159025074652
29199000 0.258940487499 0.158914165414
29200000 0.258987908022 0.158585299374
29201000 0.258527053153 0.159011611238
29202000 0.259428989246 0.158272225523
29203000 0.259932324774 0.157829485169
29204000 0.258870126146 0.159008201367
29205000 0.258384947331 0.159669524039
29206000 0.257837863249 0.159217470884
29207000 0.259294896354 0.158366405935
29208000 0.25902108807 0.158159490996
29209000 0.257539693926 0.158982615626
29210000 0.257044486193 0.159394078533
29211000 0.256825897617 0.158942073623
29212000 0.258137090286 0.157846558726
29213000 0.257390717904 0.158548886377
29214000 0.256679692276 0.159938699063
29215000 0.256159471008 0.159817864173
29216000 0.256400557125 0.159234619826
29217000 0.257517356254 0.158415215063
29218000 0.255973534909 0.158931603824
29219000 0.255451752879 0.159891024908
29220000 0.254876410731 0.159695043201
29221000 0.255613440006 0.158932029245
29222000 0.25622542685 0.158344089178
29223000 0.255239998589 0.159564675373
29224000 0.254826243863 0.160357964818
29225000 0.254216351194 0.159957331046
29226000 0.25554200543 0.159096856349
29227000 0.255459905248 0.158754788666
29228000 0.254090930648 0.159640794108
29229000 0.253687280373 0.160108800991
29230000 0.253477508552 0.159657959267
29231000 0.254732815235 0.15841377984
29232000 0.254168402326 0.159040607092
29233000 0.253503592385 0.160500668521
29234000 0.252993086045 0.160483538231
29235000 0.253144906445 0.159860033799
29236000 0.254301801468 0.158855297594
29237000 0.252859169333 0.159417084991
29238000 0.25236036572 0.160440910905
29239000 0.251784832508 0.160377995966
29240000 0.252292401719 0.159595672628
29241000 0.252915434705 0.158865563385
29242000 0.251856351568 0.160172761948
29243000 0.251402293199 0.161207527689
29244000 0.250728918153 0.160895343495
29245000 0.251886903486 0.159935058834
29246000 0.252052400638 0.159441416269
29247000 0.250701709749 0.160398974596
29248000 0.25032896064 0.160961408504
29249000 0.250075394463 0.16056828696
29250000 0.251240263784 0.159229231416
29251000 0.250880190065 0.159707246734
29252000 0.250245418403 0.161251601877
29253000 0.249805378812 0.16137001018
29254000 0.249792900855 0.160752124631
29255000 0.250972287748 0.159611159734
29256000 0.249687620491 0.16018390572
29257000 0.249169446425 0.16129418742
29258000 0.248640709672 0.161273010346
29259000 0.248998675307 0.160489028091
29260000 0.249732191013 0.159617827839
29261000 0.248884034946 0.160856463641
29262000 0.248639517324 0.161922762141
29263000 0.247913168278 0.161635724041
29264000 0.248889604958 0.160713860633
29265000 0.249108361311 0.160138132965
29266000 0.247845584655 0.1611317233
29267000 0.247554061392 0.161823914586
29268000 0.247153075716 0.161508290353
29269000 0.248214802853 0.160107173807
29270000 0.247985810792 0.160441382526
29271000 0.247429520906 0.162016594248
29272000 0.247003783527 0.16228071752
29273000 0.246882012595 0.161702192669
29274000 0.248022079558 0.160405144353
29275000 0.246892990499 0.160978052429
29276000 0.246348323796 0.162166244276
29277000 0.245830850319 0.162233399505
29278000 0.246088968044 0.161462856287
29279000 0.246845895771 0.160472553738
29280000 0.246079364039 0.161709538922
29281000 0.245888735838 0.162851056543
29282000 0.245201033783 0.16267361164
29283000 0.24598761113 0.161735097165
29284000 0.24625142204 0.161038008946
29285000 0.245037063775 0.162080057833
29286000 0.244795975929 0.162870197524
29287000 0.244318982627 0.162619818696
29288000 0.245242901055 0.161243669984
29289000 0.245190810941 0.161354667822
29290000 0.244675231193 0.163003934283
29291000 0.244268852099 0.1633935766
29292000 0.244052208019 0.162901377829
29293000 0.245150303112 0.161487927947
29294000 0.244155095217 0.162019793141
29295000 0.243610449659 0.163283955324
29296000 0.243191325221 0.163445877016
29297000 0.243305173607 0.162701405653
29298000 0.244009219547 0.161547782024
29299000 0.243357797711 0.162794692078
29300000 0.243326034919 0.16399998783
29301000 0.243103802036 0.163920028248
29302000 0.242406521694 0.163907777503
29303000 0.2429379963 0.162931903599
29304000 0.243435486184 0.162061568037
29305000 0.242183390598 0.163140139608
29306000 0.24204925095 0.164098158695
29307000 0.241494165078 0.164037939754
29308000 0.242136530182 0.16264978265
29309000 0.242174909818 0.162449154133
29310000 0.241861267164 0.164050366507
29311000 0.241617893224 0.16467785352
29312000 0.241121269131 0.164457400055
29313000 0.242116701332 0.162979609362
29314000 0.241511598916 0.163087014449
29315000 0.240922022221 0.16438468817
29316000 0.240532351693 0.164788749263
29317000 0.240483809886 0.164297538463
29318000 0.241246150112 0.162788860682
29319000 0.240815737587 0.163715435034
29320000 0.240730539115 0.165138773903
29321000 0.240087211257 0.165207643046
29322000 0.24045775925 0.164291064881
29323000 0.241003233679 0.163218738208
29324000 0.239877610209 0.164305167206
29325000 0.239803202735 0.165321698795
29326000 0.239275593252 0.165306249088
29327000 0.239790180977 0.163931121737
29328000 0.239907703601 0.163575849411
29329000 0.239606718848 0.165216644942
29330000 0.239475629418 0.165938823711
29331000 0.238974048211 0.165780567106
29332000 0.239850378409 0.16422023458
29333000 0.239315074596 0.164249677647
29334000 0.238800615669 0.165596887117
29335000 0.238475860285 0.166083513461
29336000 0.23829335494 0.165680317046
29337000 0.238974669178 0.164105081818
29338000 0.23862845535 0.164909055052
29339000 0.238662847468 0.166382605692
29340000 0.238040392767 0.166585359219
29341000 0.238250987164 0.165772693466
29342000 0.238805094144 0.164516053526
29343000 0.237716684109 0.165603701201
29344000 0.237681728425 0.166723743902
29345000 0.237193575937 0.166814908479
29346000 0.237530066042 0.165460433625
29347000 0.237685576992 0.16495843909
29348000 0.237468436756 0.166603184456
29349000 0.237429887694 0.16738951931
29350000 0.236860449223 0.167303205057
29351000 0.237561699022 0.165774555305
29352000 0.237158497083 0.16570555199
29353000 0.236697588765 0.167099036381
29354000 0.23644679084 0.167624437832
29355000 0.236210078668 0.167396787966
29356000 0.236800998395 0.165719339415
29357000 0.236492490489 0.166359181121
29358000 0.236630832026 0.167927753402
29359000 0.236105481689 0.168196208274
29360000 0.236148953448 0.167486214232
29361000 0.236708585175 0.166068473386
29362000 0.23573064934 0.167097290995
29363000 0.23576210648 0.168277057238
29364000 0.235262092462 0.168434987508
29365000 0.235488528051 0.167135394103
29366000 0.235679269735 0.166463667235
29367000 0.235530267964 0.168064733778
29368000 0.235632190321 0.168929659705
29369000 0.235031714472 0.168879628859
29370000 0.235601149621 0.167353360238
29371000 0.235297872739 0.167183017701
29372000 0.234874018829 0.16857992561
29373000 0.234744675818 0.169185997031
29374000 0.234423908105 0.168993501913
29375000 0.234865754913 0.167276866903
29376000 0.234715847108 0.167782767525
29377000 0.234946734951 0.169325459475
29378000 0.234527505778 0.169742274867
29379000 0.234468200727 0.169127021279
29380000 0.234973712052 0.167575914193
29381000 0.234096589829 0.168577314592
29382000 0.234199265757 0.16979639192
29383000 0.23375671744 0.170031906398
29384000 0.233849649922 0.168814614392
29385000 0.234055785966 0.168017196125
29386000 0.233931821119 0.16953265787
29387000 0.234130444173 0.170538009273
29388000 0.233537841926 0.170576805259
29389000 0.233893015178 0.169091857853
29390000 0.233673363044 0.168794194957
29391000 0.233292859467 0.170270060281
29392000 0.233250343209 0.170962958967
29393000 0.232907118919 0.170881204995
29394000 0.233159316633 0.169147922301
29395000 0.232991409241 0.169547927758
29396000 0.233323968853 0.171147375535
29397000 0.232972127954 0.171600403215
29398000 0.23275063975 0.171146856565
29399000 0.23318281097 0.169462984086
29400000 0.232407980352 0.170376998374
29401000 0.232268137277 0.171144310044
29402000 0.232269882386 0.172051316084
29403000 0.232148937182 0.17150293939
29404000 0.231870116949 0.171194041706
29405000 0.232083027867 0.170863968201
29406000 0.231840410867 0.171953005389
29407000 0.232118101042 0.172590043728
29408000 0.231724429401 0.172003635359
29409000 0.231790974083 0.171513866618
29410000 0.231907147 0.171575892054
29411000 0.231294626878 0.172667039931
29412000 0.23152908519 0.172863085001
29413000 0.231265508491 0.17243429592
29414000 0.231082338341 0.17172258097
29415000 0.231173482449 0.172216720066
29416000 0.231279069947 0.173398948115
29417000 0.231174607995 0.173047184551
29418000 0.23097865796 0.172905358478
29419000 0.231271505015 0.172233680838
29420000 0.230877785659 0.172995427688
29421000 0.23087887679 0.173916313199
29422000 0.230774621991 0.173415161629
29423000 0.230465445619 0.17317520479
29424000 0.230660101261 0.172754190557
29425000 0.230514061097 0.173871342586
29426000 0.230859156692 0.174566742034
29427000 0.230410936267 0.174033117525
29428000 0.230398300737 0.173601284634
29429000 0.230596261062 0.173561375186
29430000 0.23004866433 0.174714965593
29431000 0.230300840602 0.174993786145
29432000 0.23004716532 0.17453676546
29433000 0.229740475183 0.173894474279
29434000 0.22984724578 0.174290184627
29435000 0.229981604215 0.175480287619
29436000 0.229926400276 0.17527805187
29437000 0.229631439319 0.175145730871
29438000 0.229820872641 0.174467644412
29439000 0.229456096679 0.175251120356
29440000 0.22942341842 0.176255382252
29441000 0.229279162751 0.175835970381
29442000 0.228946307028 0.175653476378
29443000 0.229015697575 0.175174831105
29444000 0.228944090185 0.176264201892
29445000 0.229266109052 0.177059190328
29446000 0.228820655763 0.176546139696
29447000 0.228745562094 0.176211997828
29448000 0.228959171216 0.176085367587
29449000 0.228424044299 0.177212174812
29450000 0.228719655494 0.177606138785
29451000 0.228404455293 0.177150605524
29452000 0.227997614703 0.176619438999
29453000 0.228110022255 0.176956032691
29454000 0.228264251233 0.17819282729
29455000 0.228253648198 0.178158219958
29456000 0.227942480132 0.177996382968
29457000 0.228046567561 0.177312609114
29458000 0.227821441883 0.177969714978
29459000 0.227793689372 0.179026383249
29460000 0.227682419896 0.178645206868
29461000 0.227394758579 0.178474702712
29462000 0.227330688497 0.17794675733
29463000 0.227378206512 0.178963768846
29464000 0.227709380936 0.179743730979
29465000 0.227354891207 0.179297527523
29466000 0.227136644391 0.178984295981
29467000 0.227377538163 0.178776207638
29468000 0.226953497243 0.179945517937
29469000 0.227278025892 0.18034757711
29470000 0.226912563516 0.179993854538
29471000 0.226536893426 0.179466912028
29472000 0.226675293884 0.179640771303
29473000 0.226904996103 0.180810959534
29474000 0.226952380964 0.180831604765
29475000 0.226656047803 0.180714431981
29476000 0.226559295687 0.179939772688
29477000 0.226378748832 0.180555339843
29478000 0.226386529067 0.18165218469
29479000 0.226313372911 0.181459596149
29480000 0.22602265311 0.181299495726
29481000 0.225838791609 0.180735967905
29482000 0.225965362227 0.181707668213
29483000 0.226319136732 0.182557850944
29484000 0.226101608945 0.18211729324
29485000 0.225768989231 0.181815215125
29486000 0.225792641807 0.181651576087
29487000 0.225575430361 0.18269299875
29488000 0.22602906832 0.183195936651
29489000 0.225697065685 0.182743703702
29490000 0.225303291053 0.182306204416
29491000 0.225236221802 0.182504463513
29492000 0.225554023255 0.183678600801
29493000 0.225722741388 0.183697050968
29494000 0.22532839024 0.183452561031
29495000 0.225157486901 0.182878301249
29496000 0.225194391551 0.183341832688
29497000 0.22524289756 0.184403255655
29498000 0.22522577357 0.184217424216
29499000 0.224843889917 0.184100396991
29500000 0.224561490601 0.183480419985
29501000 0.22467471415 0.183431598065
29502000 0.224447264578 0.183743739185
29503000 0.225356942175 0.185106868431
29504000 0.225321879909 0.185679557953
29505000 0.224835443288 0.185250682367
29506000 0.224477565838 0.18381964757
29507000 0.224348300204 0.184927475835
29508000 0.224866052301 0.186205648271
29509000 0.224604017534 0.186758822194
29510000 0.224159208286 0.185930950633
29511000 0.223683858683 0.185050769125
29512000 0.224017796036 0.186373319195
29513000 0.224783470652 0.187327970044
29514000 0.224405985436 0.187578376343
29515000 0.223880168281 0.186315187033
29516000 0.223630486335 0.185926419088
29517000 0.224078739209 0.187370831153
29518000 0.224455969096 0.188123774572
29519000 0.224136247625 0.188202197152
29520000 0.223540312028 0.186642092782
29521000 0.223307774017 0.186918671229
29522000 0.224230282444 0.188251343738
29523000 0.224346381757 0.188818498009
29524000 0.223913898041 0.188538691216
29525000 0.223433543909 0.187066917996
29526000 0.223428877262 0.187885869464
29527000 0.224119910866 0.189071143854
29528000 0.22401675482 0.189513842845
29529000 0.223541647581 0.1887434305
29530000 0.222984894967 0.187698787716
29531000 0.223392402766 0.188901832853
29532000 0.224286967242 0.189867830045
29533000 0.223939666793 0.190121465829
29534000 0.223382903419 0.189005705684
29535000 0.223080874813 0.188455729414
29536000 0.223569134779 0.189903926493
29537000 0.224088646579 0.190547881363
29538000 0.223789340542 0.190718847547
29539000 0.223150266706 0.189258864837
29540000 0.222867097671 0.18943061108
29541000 0.223838856071 0.190677893341
29542000 0.224104690579 0.191294622425
29543000 0.223653757275 0.191155373898
29544000 0.223093090137 0.18970060215
29545000 0.223091275203 0.190355417108
29546000 0.223867036785 0.191565784741
29547000 0.223850481873 0.192029449308
29548000 0.223430742776 0.191407969699
29549000 0.222728376953 0.190319477733
29550000 0.223066488508 0.191453559646
29551000 0.224102633815 0.192394321283
29552000 0.223833382808 0.192709052755
29553000 0.223164540009 0.191748648428
29554000 0.22281669651 0.191114884519
29555000 0.223318443208 0.192504341463
29556000 0.224028184666 0.193180285133
29557000 0.223682170223 0.193438079564
29558000 0.222947367695 0.192097480959
29559000 0.222630633089 0.192172140283
29560000 0.223672422804 0.193387038944
29561000 0.224038476809 0.193977478426
29562000 0.223608290839 0.19392489142
29563000 0.222907624512 0.192568569564
29564000 0.222908934051 0.193070956222
29565000 0.223746022873 0.1942462531
29566000 0.223864053787 0.194742992238
29567000 0.223400020755 0.194309661293
29568000 0.22258889867 0.193071043564
29569000 0.222942820158 0.194087596454
29570000 0.224100647667 0.194982166059
29571000 0.223935649087 0.195338319254
29572000 0.223204928183 0.194436834226
29573000 0.22276524991 0.193671685518
29574000 0.223385546606 0.194971635346
29575000 0.224163868236 0.195650875708
29576000 0.223909462563 0.195895758373
29577000 0.22313413597 0.194634096584
29578000 0.222752481753 0.194619502802
29579000 0.223844024577 0.195704407766
29580000 0.224377389355 0.196291685811
29581000 0.223964685148 0.196330511177
29582000 0.223146955594 0.195013290316
29583000 0.223095160381 0.195365281855
29584000 0.224040697166 0.196495464327
29585000 0.224247131047 0.196964094531
29586000 0.223867788279 0.196650652464
29587000 0.222918930555 0.195418206416
29588000 0.223205416714 0.19632728345
29589000 0.224450554923 0.197180224171
29590000 0.22435924209 0.197546655023
29591000 0.223604208763 0.196770899327
29592000 0.223095787444 0.195826209494
29593000 0.223771565547 0.196982816628
29594000 0.224692165565 0.19763098005
29595000 0.224478878086 0.197926104373
29596000 0.22362186556 0.196824960761
29597000 0.223202431423 0.196729381153
29598000 0.224323715326 0.197779553097
29599000 0.224990597823 0.198352418373
29600000 0.224657179764 0.198481820182
29601000 0.223992013944 0.199107115533
29602000 0.223967040359 0.199073884405
29603000 0.223872571842 0.199206006155
29604000 0.224121282957 0.199266911217
29605000 0.223797461145 0.199400693494
29606000 0.223969452728 0.199785269968
29607000 0.224025405396 0.199690623374
29608000 0.223598888523 0.199844847694
29609000 0.22388352811 0.199925388154
29610000 0.2240205509 0.200049987888
29611000 0.224015390824 0.200117848021
29612000 0.224230262559 0.20029268849
29613000 0.224122784649 0.200251628289
29614000 0.224087053722 0.200400079393
29615000 0.224277290835 0.200617149696
29616000 0.224113223642 0.200746570195
29617000 0.224273645297 0.200973853315
29618000 0.224174161034 0.20106229541
29619000 0.223994188118 0.201077354412
29620000 0.224473385231 0.201462769102
29621000 0.224475736636 0.201479927431
29622000 0.224389614374 0.201645350363
29623000 0.224660466617 0.201672611115
29624000 0.224318426744 0.201861295638
29625000 0.224593143026 0.202274819841
29626000 0.224627384353 0.202234355593
29627000 0.224188657891 0.202412202496
29628000 0.22454646316 0.202552906846
29629000 0.224588372551 0.202685345863
29630000 0.224648570331 0.202871206463
29631000 0.224820606745 0.203003705421
29632000 0.224695065623 0.203058007424
29633000 0.22474484305 0.203232088861
29634000 0.22488805297 0.203467503756
29635000 0.224672633596 0.20362489372
29636000 0.224917596531 0.203901207325
29637000 0.224757240953 0.203993917452
29638000 0.224574601751 0.204016325029
29639000 0.225080275489 0.204392782719
29640000 0.225045124135 0.204434849405
29641000 0.225067741316 0.204699372777
29642000 0.225228526188 0.20468815946
29643000 0.224912647586 0.204928763776
29644000 0.225222483135 0.205377928034
29645000 0.22512379205 0.205403712315
29646000 0.224735878807 0.205740501177
29647000 0.225072079889 0.205935562804
29648000 0.225090333348 0.206133170838
29649000 0.225151618902 0.206430700539
29650000 0.225354544042 0.206549259675
29651000 0.225147930786 0.20665308862
29652000 0.225305754348 0.206827163259
29653000 0.225412817935 0.206981224247
29654000 0.225279068659 0.207222026921
29655000 0.225524105934 0.207405018795
29656000 0.22531964671 0.2075271068
29657000 0.225198030193 0.207560016191
29658000 0.225713620679 0.207851429902
29659000 0.225646507672 0.207918739701
29660000 0.225764528547 0.208170279326
29661000 0.225911726743 0.208197267465
29662000 0.2255705943 0.208399105197
29663000 0.226008449014 0.208780538647
29664000 0.225952282375 0.208790435567
29665000 0.225641279187 0.209056068785
29666000 0.22597731494 0.209242812045
29667000 0.225983347941 0.2093306935
29668000 0.22614606165 0.209547554331
29669000 0.226286378029 0.209644128735
29670000 0.226074756977 0.209782109742
29671000 0.22628166004 0.209949670588
29672000 0.22633371749 0.210163097933
29673000 0.226247981854 0.210438159011
29674000 0.226485436648 0.210572725534
29675000 0.226230113318 0.210760451058
29676000 0.22622144361 0.210841390748
29677000 0.226649435402 0.211104042422
29678000 0.22663350002 0.211208381746
29679000 0.226799072175 0.211421699729
29680000 0.226827921073 0.211441865055
29681000 0.226546722652 0.211660018221
29682000 0.227011769413 0.212051971245
29683000 0.226910252125 0.21206208573
29684000 0.226700879604 0.212353198712
29685000 0.226980133853 0.212490899974
29686000 0.226861913918 0.212596105442
29687000 0.227094909322 0.212892322031
29688000 0.227152400181 0.21301957928
29689000 0.22688276578 0.21333441196
29690000 0.227194136636 0.213587555614
29691000 0.227157005957 0.213816565771
29692000 0.227163604461 0.214131382316
29693000 0.227329763866 0.214364452695
29694000 0.227094954839 0.214662552672
29695000 0.22708448247 0.214810034114
29696000 0.227525912301 0.215012917931
29697000 0.227462912079 0.215133641028
29698000 0.227717982851 0.215351704042
29699000 0.227722818182 0.215369982688
29700000 0.227408554015 0.215599954391
29701000 0.228013331191 0.215144963328
29702000 0.2291453425 0.215448377171
29703000 0.228917627894 0.215805808404
29704000 0.227677713592 0.215216817444
29705000 0.227263429852 0.215399004585
29706000 0.228667884556 0.216098438347
29707000 0.229370916612 0.216355211694
29708000 0.228931469164 0.216601265553
29709000 0.227372939438 0.215988239478
29710000 0.227781769474 0.216526465781
29711000 0.229389866991 0.216985087727
29712000 0.229657474958 0.217353589845
29713000 0.229018782543 0.217459491722
29714000 0.227541684073 0.217068588181
29715000 0.228217964287 0.218021070774
29716000 0.229790202615 0.21830482735
29717000 0.229710963942 0.218834677068
29718000 0.228827683103 0.218750251577
29719000 0.227819853876 0.218568181988
29720000 0.22895506968 0.219219379401
29721000 0.230184008204 0.219383343604
29722000 0.230004783079 0.219798829955
29723000 0.228804915454 0.219372311134
29724000 0.228284368438 0.219467089508
29725000 0.22967408054 0.220111102717
29726000 0.230507922181 0.220375952069
29727000 0.230188796792 0.220751997643
29728000 0.228618473302 0.220324467329
29729000 0.228874113987 0.22075055206
29730000 0.230516310176 0.221072122009
29731000 0.230911954259 0.221376731161
29732000 0.23035540022 0.221515990051
29733000 0.22886754923 0.221096978665
29734000 0.229497446279 0.221779759242
29735000 0.231178616176 0.221858941587
29736000 0.231227617558 0.222221070392
29737000 0.230468762239 0.22216150487
29738000 0.229310415664 0.221926517634
29739000 0.230448590042 0.222499825381
29740000 0.231779380041 0.222516452665
29741000 0.231647427652 0.222945945896
29742000 0.23054531245 0.222612909922
29743000 0.229927801801 0.222685860174
29744000 0.231292659766 0.223236191346
29745000 0.232274232507 0.223309719202
29746000 0.232028680815 0.223652706113
29747000 0.23049981611 0.223282030493
29748000 0.230600349684 0.223630508755
29749000 0.232263199611 0.223897511765
29750000 0.232790705233 0.22411229781
29751000 0.232361059834 0.224346569925
29752000 0.23076087616 0.224023650453
29753000 0.231369603896 0.22463411415
29754000 0.233071008943 0.224670924402
29755000 0.233215016547 0.225018909915
29756000 0.232491206321 0.225066736443
29757000 0.231294315674 0.224907746331
29758000 0.232374685038 0.225437371378
29759000 0.233815754122 0.2254001593
29760000 0.233730230168 0.225812282245
29761000 0.232738757763 0.225625246052
29762000 0.231941555429 0.225736500169
29763000 0.233251529179 0.226148618259
29764000 0.234290588522 0.226190707122
29765000 0.234156423365 0.226542373511
29766000 0.232713778237 0.226339644977
29767000 0.232642859381 0.226601754257
29768000 0.234280659424 0.226815177839
29769000 0.234878148641 0.226934049304
29770000 0.234545908061 0.227232134621
29771000 0.232946098713 0.2270556607
29772000 0.233420703524 0.227583931038
29773000 0.235147453974 0.227546651127
29774000 0.23541982394 0.22782688829
29775000 0.234740376752 0.227969579197
29776000 0.233472158119 0.22790903897
29777000 0.234496336773 0.228341472119
29778000 0.235984575159 0.228179617533
29779000 0.235963018242 0.228597751845
29780000 0.235061346625 0.228530957721
29781000 0.234185922798 0.228621975613
29782000 0.23542026074 0.229009559719
29783000 0.236588661106 0.228905283232
29784000 0.236490854316 0.229265718278
29785000 0.235137814363 0.229171798589
29786000 0.234933118639 0.229430879952
29787000 0.236518002039 0.22953056507
29788000 0.23721865411 0.229555391172
29789000 0.236952886297 0.229854486348
29790000 0.235309261091 0.229799075826
29791000 0.235761602593 0.23023758795
29792000 0.237453856453 0.230084409365
29793000 0.237821077392 0.230295415684
29794000 0.237212949929 0.230497123897
29795000 0.235860934357 0.230551142194
29796000 0.236835245704 0.230940519406
29797000 0.238393558454 0.230602049697
29798000 0.238414485295 0.231036416928
29799000 0.237632764274 0.231062140947
29800000 0.236635195438 0.231239328014
29801000 0.23753907709 0.23218207498
29802000 0.238129973946 0.232293492142
29803000 0.238345911066 0.232351539004
29804000 0.238657160715 0.232613613904
29805000 0.238475217613 0.232573436406
29806000 0.238274019329 0.23297129344
29807000 0.238833708441 0.232917723946
29808000 0.239082310714 0.233049705157
29809000 0.239268086364 0.233353186565
29810000 0.238910206467 0.233321094931
29811000 0.2389936652 0.233667184635
29812000 0.239273703898 0.233819280922
29813000 0.239757099641 0.233945866781
29814000 0.239780196856 0.234033131839
29815000 0.239361574264 0.234314433078
29816000 0.240022591052 0.234381494599
29817000 0.240255782154 0.234299413298
29818000 0.240608982366 0.23466912485
29819000 0.240515821143 0.234715807719
29820000 0.240169844764 0.234998189215
29821000 0.240726069638 0.235062724384
29822000 0.240957198779 0.235090441305
29823000 0.241319939071 0.23538278795
29824000 0.241148629018 0.235338838212
29825000 0.240890394886 0.235748999873
29826000 0.241453839426 0.235666440946
29827000 0.241748178752 0.235750204611
29828000 0.241953011017 0.236047704942
29829000 0.241687669568 0.236031537106
29830000 0.241682453724 0.236423060113
29831000 0.24200253404 0.236552169934
29832000 0.242498256034 0.236613870971
29833000 0.242580938302 0.236745842309
29834000 0.242221797007 0.236905042792
29835000 0.242783940972 0.237076802349
29836000 0.243026386646 0.236954379089
29837000 0.243378745416 0.23726997001
29838000 0.24332285987 0.237309948515
29839000 0.242952252115 0.23767695421
29840000 0.243619392728 0.23768889259
29841000 0.243780181131 0.237704395296
29842000 0.244199731758 0.237972412704
29843000 0.244046220991 0.237916278228
29844000 0.243820578083 0.238367473852
29845000 0.244400928101 0.238268125509
29846000 0.24463138705 0.23828159967
29847000 0.244913805795 0.238616369705
29848000 0.244708808347 0.238616192396
29849000 0.244660461594 0.239034190911
29850000 0.244915145644 0.239124650092
29851000 0.245452994741 0.239175441879
29852000 0.245569332354 0.239262269489
29853000 0.245214591467 0.239466536152
29854000 0.24573306847 0.23960843257
29855000 0.245997569971 0.239514729065
29856000 0.2463881003 0.239803635271
29857000 0.246422293561 0.239827690768
29858000 0.246061042712 0.240228472345
29859000 0.246719643698 0.2402240468
29860000 0.246890419125 0.240227013226
29861000 0.247339137053 0.240456658465
29862000 0.247245626069 0.240462235199
29863000 0.246965108625 0.240952170267
29864000 0.247642377391 0.240786380428
29865000 0.2478560763 0.24078399785
29866000 0.248166940595 0.241115385631
29867000 0.247975597031 0.241120733015
29868000 0.247896528982 0.241584776819
29869000 0.248219818891 0.241616829521
29870000 0.248712812955 0.241672598744
29871000 0.248912783659 0.241755045274
29872000 0.248573623179 0.24201073512
29873000 0.248978271634 0.242194728561
29874000 0.249304945364 0.242088338795
29875000 0.249724648782 0.24230296245
29876000 0.249748635098 0.242472444671
29877000 0.24941656523 0.242830878894
29878000 0.25003072268 0.242880354216
29879000 0.250201520007 0.242877521552
29880000 0.250621983631 0.243093973779
29881000 0.25057993516 0.243151882347
29882000 0.250291168304 0.243639069456
29883000 0.25098550961 0.243494095136
29884000 0.251213887096 0.243442855407
29885000 0.251533743028 0.243745696025
29886000 0.251360374765 0.243800655387
29887000 0.251232851783 0.244271880378
29888000 0.251609696501 0.244308519049
29889000 0.25205511039 0.244319090646
29890000 0.252296506858 0.244463603644
29891000 0.252007889236 0.244680227954
29892000 0.252336365277 0.244896966259
29893000 0.252654822513 0.244848129299
29894000 0.253074248341 0.24499070514
29895000 0.253143310665 0.245161430765
29896000 0.252816695308 0.245522778078
29897000 0.253406318264 0.245600149216
29898000 0.253590197086 0.245597375236
29899000 0.2540490574 0.245788887107
29900000 0.254030817979 0.245869044028
29901000 0.254978620205 0.245906359668
29902000 0.254635870434 0.246438474427
29903000 0.254665479224 0.24668857515
29904000 0.254393443387 0.246848226172
29905000 0.255132961067 0.24702321305
29906000 0.255769472814 0.24659582729
29907000 0.25553376477 0.247119425792
29908000 0.255233518469 0.247518826939
29909000 0.255368083485 0.247590888798
29910000 0.256284510439 0.247478560205
29911000 0.256408503838 0.247359113152
29912000 0.256479929779 0.247824224807
29913000 0.256066855308 0.248134479032
29914000 0.256490328065 0.248270587795
29915000 0.257465154032 0.247833752733
29916000 0.257309078768 0.248096467311
29917000 0.257483464487 0.248423326336
29918000 0.256997464157 0.24870957815
29919000 0.257576704869 0.248886933803
29920000 0.258553667096 0.248194636119
29921000 0.258255920557 0.248689537915
29922000 0.258358275438 0.248969819892
29923000 0.258050362416 0.249149277252
29924000 0.258757066891 0.249303528072
29925000 0.259437922183 0.248770623861
29926000 0.259225290223 0.249323776439
29927000 0.259051405259 0.249695106218
29928000 0.259086076215 0.249818678539
29929000 0.259954142025 0.249764236456
29930000 0.2602061431 0.249539103837
29931000 0.260258924418 0.250043133388
29932000 0.259918095402 0.250396796846
29933000 0.260296410858 0.250481634105
29934000 0.261220740188 0.250087742773
29935000 0.261182169408 0.250271916676
29936000 0.261338698797 0.250675405095
29937000 0.260888616542 0.251066619418
29938000 0.261447331539 0.251215014541
29939000 0.262349148344 0.25053107371
29940000 0.262118532445 0.251062988943
29941000 0.262331633815 0.251312350419
29942000 0.261967301531 0.251606981891
29943000 0.262641146809 0.251763426322
29944000 0.263348924018 0.251162742502
29945000 0.263120986306 0.251763196289
29946000 0.263052944547 0.252156120753
29947000 0.262996446607 0.252355348387
29948000 0.263800631803 0.252337444036
29949000 0.264137643275 0.252074303467
29950000 0.264188277338 0.25263568307
29951000 0.263899896847 0.253115400286
29952000 0.264217437408 0.253222850239
29953000 0.265093171041 0.252944915406
29954000 0.265135318519 0.25306030962
29955000 0.265289917684 0.253495160763
29956000 0.26492236559 0.253998222669
29957000 0.265444480846 0.25406671724
29958000 0.266301477122 0.253357221205
29959000 0.266145876149 0.253860042223
29960000 0.266337134044 0.254144711295
29961000 0.265996592716 0.254454962894
29962000 0.26666079468 0.254604899363
29963000 0.26737978487 0.253875770703
29964000 0.267201235522 0.254506175467
29965000 0.267189172553 0.254854438088
29966000 0.267109130964 0.255116101924
29967000 0.26786988852 0.255083388087
29968000 0.268263278707 0.254677962508
29969000 0.268275461062 0.255207913825
29970000 0.268089453509 0.255671197248
29971000 0.268329629362 0.255733834312
29972000 0.269117340135 0.255414064934
29973000 0.269248629798 0.255423001332
29974000 0.269431638747 0.25588541934
29975000 0.269062910785 0.256393357484
29976000 0.269563323586 0.256439798243
29977000 0.270411828568 0.255744676328
29978000 0.27030724891 0.256185757933
29979000 0.27054607092 0.256470105566
29980000 0.270253191048 0.256833540493
29981000 0.270879583603 0.25695959326
29982000 0.271568159898 0.256165428085
29983000 0.271436839043 0.256843743871
29984000 0.271516326845 0.257135736285
29985000 0.271387511305 0.257452711919
29986000 0.272117519191 0.257466344137
29987000 0.272529504619 0.256948017257
29988000 0.272547063733 0.257549816519
29989000 0.272441839081 0.257947261135
29990000 0.272611629575 0.258024354107
29991000 0.273413316409 0.257742611603
29992000 0.273617515548 0.257617972846
29993000 0.27372425556 0.25808103881
29994000 0.273462412742 0.258672943048
29995000 0.273934395624 0.258690707019
29996000 0.274714271042 0.257972315748
29997000 0.27461545808 0.258370182008
29998000 0.274924260351 0.258637578157
29999000 0.274639729722 0.259048895261
30000000 0.275199531535 0.259135844839
30001000 0.275564461945 0.259804615266
30002000 0.276180012608 0.258984431485
30003000 0.276099464417 0.25967101652
30004000 0.276220057934 0.259961543893
30005000 0.276115595864 0.260310744822
30006000 0.276789808675 0.260357493845
30007000 0.277151292775 0.259848244559
30008000 0.27726083021 0.260367645785
30009000 0.277111012203 0.260792982347
30010000 0.277413112993 0.260893807755
30011000 0.278172239315 0.260397219409
30012000 0.278264369113 0.260415966547
30013000 0.278516433915 0.260879463449
30014000 0.278318143452 0.261427328659
30015000 0.278724890914 0.261462911598
30016000 0.279428227776 0.260768509929
30017000 0.279442172444 0.261172679227
30018000 0.279770268165 0.261392971034
30019000 0.279513002291 0.26188912717
30020000 0.280097950497 0.261927652367
30021000 0.280658091282 0.260993579267
30022000 0.280667371945 0.261676223589
30023000 0.280843663245 0.261913996673
30024000 0.280713215776 0.262315297153
30025000 0.2813158938 0.26234435136
30026000 0.281701010489 0.261739988282
30027000 0.281856776076 0.262308008077
30028000 0.281770787395 0.262669642092
30029000 0.281994863711 0.262823240064
30030000 0.282710076171 0.262355516574
30031000 0.282873378996 0.26225279058
30032000 0.283095017811 0.262706049205
30033000 0.282974112759 0.263259905625
30034000 0.283341303736 0.263274589488
30035000 0.283997927668 0.262624052238
30036000 0.28404745655 0.262919031508
30037000 0.284378917947 0.263155652361
30038000 0.284178244309 0.263610175153
30039000 0.284754320748 0.263651168484
30040000 0.285275424584 0.262674365843
30041000 0.285303512406 0.263311837431
30042000 0.285504881338 0.263501280049
30043000 0.285435642644 0.263932219202
30044000 0.285969271543 0.263983070208
30045000 0.286367049172 0.263289219682
30046000 0.286531016226 0.263863052056
30047000 0.286562010665 0.264231130716
30048000 0.28674694629 0.264404778992
30049000 0.28738735051 0.264022123683
30050000 0.287595274676 0.263804025105
30051000 0.287848644545 0.264294089688
30052000 0.2877773073 0.264837570406
30053000 0.288133115308 0.264868202148
30054000 0.288738138269 0.264265389527
30055000 0.288838335516 0.264484105545
30056000 0.289176631973 0.264745626226
30057000 0.289024243745 0.26528433017
30058000 0.289615220018 0.265287729405
30059000 0.29009331124 0.264271387236
30060000 0.290155021979 0.264855667006
30061000 0.290447964528 0.265080911641
30062000 0.290358706483 0.265595498282
30063000 0.290885624108 0.265638113243
30064000 0.291292650932 0.264867707697
30065000 0.291482866928 0.26546434577
30066000 0.291587188178 0.265753178105
30067000 0.291695912984 0.266022712018
30068000 0.292343185317 0.265678605249
30069000 0.292555431839 0.265330838155
30070000 0.292812047827 0.265844196066
30071000 0.292821328252 0.266383925285
30072000 0.293127738878 0.266428697746
30073000 0.29369155686 0.265919121078
30074000 0.293838787033 0.26601112346
30075000 0.294205732738 0.266280929914
30076000 0.294112864546 0.266874296
30077000 0.294615772029 0.266822069645
30078000 0.295075011695 0.265867073789
30079000 0.295184748395 0.266404573252
30080000 0.295534457041 0.266588796919
30081000 0.295484773159 0.26709397676
30082000 0.29598497378 0.267156864408
30083000 0.296363451977 0.266302125994
30084000 0.296555214119 0.266959862896
30085000 0.29673174282 0.267186681649
30086000 0.296871154387 0.267510038262
30087000 0.297461769019 0.267218812048
30088000 0.297678906308 0.266762243982
30089000 0.297947228211 0.267279520551
30090000 0.298029037399 0.267767486003
30091000 0.298311977852 0.267876450597
30092000 0.298816056788 0.267414442644
30093000 0.298978326803 0.267416926256
30094000 0.29937634064 0.267698136975
30095000 0.299337539594 0.268286685245
30096000 0.299819004031 0.268221702586
30097000 0.300213688828 0.267282406593
30098000 0.300384474718 0.267742284578
30099000 0.300732028732 0.267976764953
30100000 0.300763138821 0.268460756974
30101000 0.301001640456 0.268170235096
30102000 0.301281078068 0.26816711287
30103000 0.301704662378 0.267828296207
30104000 0.301895704806 0.267817764911
30105000 0.302080047367 0.268362209372
30106000 0.302430474449 0.268294748888
30107000 0.302698580149 0.268247506196
30108000 0.303149055701 0.268002369198
30109000 0.3033590613 0.268128239277
30110000 0.303561748191 0.26876731986
30111000 0.3038395745 0.26859235456
30112000 0.30412872934 0.268465355277
30113000 0.304529693261 0.268325596522
30114000 0.304692989655 0.26853079594
30115000 0.304998633811 0.269147387618
30116000 0.305239308497 0.269032759523
30117000 0.305596435455 0.268641718271
30118000 0.305927381443 0.268427604617
30119000 0.30608607131 0.268797807727
30120000 0.306387424067 0.269335421784
30121000 0.306661711449 0.269303049034
30122000 0.307054000625 0.26895847592
30123000 0.307271956671 0.268898377284
30124000 0.307463460356 0.269384667765
30125000 0.307833051804 0.26940023303
30126000 0.308089626545 0.269379095808
30127000 0.308529603731 0.269083900352
30128000 0.308732296503 0.269176448375
30129000 0.308986209011 0.2697701518
30130000 0.309271335334 0.269626623581
30131000 0.309560899115 0.269554472298
30132000 0.30991922426 0.269380312271
30133000 0.310142768914 0.269581409197
30134000 0.310474350264 0.270193088255
30135000 0.310704879705 0.269998144571
30136000 0.311062756122 0.269697362557
30137000 0.311371741345 0.269421527101
30138000 0.311569437169 0.269751653602
30139000 0.311906528584 0.27034800464
30140000 0.31219249873 0.270341387908
30141000 0.312513878576 0.269968067717
30142000 0.31274913647 0.269873564024
30143000 0.313028366276 0.270331812516
30144000 0.313382793743 0.27044074098
30145000 0.313650309387 0.270417625365
30146000 0.314050980082 0.270126897267
30147000 0.314249922618 0.270167087217
30148000 0.314549990399 0.270728223779
30149000 0.314868634798 0.270635729419
30150000 0.31512350544 0.27055970287
30151000 0.315485327289 0.27039516788
30152000 0.31569023446 0.27058371709
30153000 0.316088883386 0.271202363747
30154000 0.316333426817 0.271025985292
30155000 0.31665624791 0.270785445653
30156000 0.31699505205 0.270549701512
30157000 0.317242212488 0.270904589441
30158000 0.317628647803 0.27151416173
30159000 0.317927720351 0.271466684583
30160000 0.318232131444 0.271091997434
30161000 0.318467909827 0.271040491327
30162000 0.31873659438 0.271431174774
30163000 0.319138697138 0.271608284445
30164000 0.319392200135 0.271553020872
30165000 0.319792287159 0.27125308131
30166000 0.32001343691 0.271202814269
30167000 0.320321522813 0.271770356539
30168000 0.320637344919 0.27174754227
30169000 0.320900899313 0.271704285053
30170000 0.321228898346 0.271476127205
30171000 0.321483426711 0.271609910821
30172000 0.32192886285 0.272234029012
30173000 0.322123544382 0.27201582794
30174000 0.322426748384 0.271767313362
30175000 0.322739982279 0.271518536139
30176000 0.32301113202 0.271800695096
30177000 0.323457114751 0.272403364395
30178000 0.323725706184 0.272355059001
30179000 0.32398864702 0.272004405744
30180000 0.324236612608 0.271895081569
30181000 0.324509235624 0.272235555307
30182000 0.324953915107 0.272507761357
30183000 0.32525409163 0.272495208081
30184000 0.325577187718 0.272138890713
30185000 0.325801342179 0.272070647794
30186000 0.326172082453 0.272578716106
30187000 0.326504771867 0.272629220151
30188000 0.326788560066 0.272583406742
30189000 0.327112863304 0.27232895473
30190000 0.327382319887 0.272443157832
30191000 0.327841133274 0.273002945897
30192000 0.328023015857 0.272751284281
30193000 0.328280776345 0.272549704711
30194000 0.328623485958 0.272252538588
30195000 0.328903592559 0.272497224536
30196000 0.329350637506 0.273064680131
30197000 0.329608072435 0.272952937335
30198000 0.329861702753 0.272612052959
30199000 0.330169378935 0.272488882102
30200000 0.33041781987 0.272757733321
30201000 0.330528599859 0.272133409503
30202000 0.330994616461 0.272441316015
30203000 0.331302390834 0.272386091172
30204000 0.331666761173 0.272957211499
30205000 0.332152361758 0.272743630429
30206000 0.332127180708 0.272195292245
30207000 0.332600867887 0.272503137435
30208000 0.332872741042 0.272589852003
30209000 0.333224629545 0.272981681694
30210000 0.333619779979 0.272775381648
30211000 0.333752626858 0.272460612294
30212000 0.334229592259 0.272573799889
30213000 0.334416696253 0.272949221565
30214000 0.334914540975 0.273050921296
30215000 0.335012067948 0.272303980634
30216000 0.33530525846 0.272412323058
30217000 0.335774561321 0.272562773859
30218000 0.336091704211 0.272960835217
30219000 0.336532271016 0.273060133506
30220000 0.336493997417 0.27229136537
30221000 0.336922465905 0.272575647857
30222000 0.337277043756 0.272482148686
30223000 0.337671936051 0.273070531368
30224000 0.338166513973 0.27290593851
30225000 0.338098581661 0.272289300674
30226000 0.338593854514 0.272610638541
30227000 0.338839682887 0.27262546397
30228000 0.339230766244 0.273015526256
30229000 0.339629625226 0.272889421472
30230000 0.339721944899 0.272518826919
30231000 0.340200377176 0.272601840606
30232000 0.340400034747 0.272907137972
30233000 0.34091296106 0.273027726159
30234000 0.341042707377 0.272398146937
30235000 0.341300090642 0.27241413702
30236000 0.341750161122 0.272545612156
30237000 0.34213387855 0.272924677902
30238000 0.342565365977 0.273039258671
30239000 0.342520365646 0.272315850854
30240000 0.342939298638 0.272537125917
30241000 0.343323874905 0.272458612968
30242000 0.343716942295 0.273017689659
30243000 0.344211962361 0.272892153172
30244000 0.344092403197 0.272213730096
30245000 0.344599294093 0.272535027896
30246000 0.344892949961 0.272565944514
30247000 0.345346334478 0.272952624267
30248000 0.345726009684 0.27286104338
30249000 0.345768857662 0.272449945238
30250000 0.346260781511 0.272534595679
30251000 0.34647611881 0.272755981394
30252000 0.346979549182 0.272923823774
30253000 0.347133187413 0.27234524676
30254000 0.347362648313 0.272321494091
30255000 0.347817678505 0.272415256468
30256000 0.348182627236 0.272735507134
30257000 0.348618926813 0.272834845209
30258000 0.3485543539 0.272157271215
30259000 0.348952297364 0.272289817921
30260000 0.349365533256 0.272233668493
30261000 0.349792052788 0.272734891035
30262000 0.350285191754 0.272615679749
30263000 0.350097860436 0.271932622057
30264000 0.350632880451 0.272214519396
30265000 0.350910252441 0.27222073565
30266000 0.351406964229 0.27259593194
30267000 0.351825155334 0.27253299718
30268000 0.351792244384 0.27207963943
30269000 0.352313988311 0.272163048554
30270000 0.352510884222 0.272320435729
30271000 0.353064599325 0.272521316808
30272000 0.353260167851 0.272041413305
30273000 0.353433025501 0.271905957487
30274000 0.353901314528 0.272031462173
30275000 0.354278597251 0.272303350436
30276000 0.354744486871 0.272414276707
30277000 0.354706054992 0.271830139058
30278000 0.355094402876 0.271910753088
30279000 0.355525039722 0.271872975108
30280000 0.355978858181 0.272338571865
30281000 0.356484455118 0.272188685476
30282000 0.35623141872 0.271536716559
30283000 0.356763053572 0.271774245354
30284000 0.357105667829 0.271795037247
30285000 0.35762213314 0.272126488922
30286000 0.358031409617 0.272089027083
30287000 0.357975485487 0.271621915463
30288000 0.358492975423 0.27172479232
30289000 0.358757749192 0.271793617738
30290000 0.359311762543 0.272041795972
30291000 0.359538238242 0.271626687894
30292000 0.359693958375 0.271433044373
30293000 0.360177341457 0.271534383592
30294000 0.360565997338 0.271743554726
30295000 0.361063964155 0.271879166722
30296000 0.361072529543 0.27135271753
30297000 0.361359243657 0.271370623063
30298000 0.361800209208 0.27134041479
30299000 0.362282444982 0.271744047632
30300000 0.362771199847 0.271605033907
30301000 0.362913332539 0.271608496931
30302000 0.363083281613 0.271425854263
30303000 0.363532211554 0.271345914155
30304000 0.36385786023 0.271456939669
30305000 0.364480569841 0.271792671716
30306000 0.364610217129 0.271527321672
30307000 0.364835114732 0.271324386179
30308000 0.365120708757 0.271253956987
30309000 0.365615426088 0.271542370885
30310000 0.366156284089 0.271535450823
30311000 0.366256039244 0.271289191086
30312000 0.366549317691 0.271092905817
30313000 0.366745044821 0.270922700604
30314000 0.367393937541 0.271333730412
30315000 0.367812631592 0.271300940072
30316000 0.367880359447 0.270990535522
30317000 0.368250167116 0.270889146597
30318000 0.368494995367 0.270893154899
30319000 0.369179172474 0.271190128683
30320000 0.36930332044 0.270860568626
30321000 0.369460679558 0.270681743848
30322000 0.369879684618 0.270546773307
30323000 0.370146492032 0.270569975836
30324000 0.370873409789 0.270918650664
30325000 0.370947444629 0.270609443868
30326000 0.371143751609 0.270422179706
30327000 0.37150970832 0.270336059702
30328000 0.371984870524 0.270564854944
30329000 0.372540329333 0.270582930188
30330000 0.372627694935 0.270398395912
30331000 0.372895019476 0.270159862328
30332000 0.373117862143 0.269978035571
30333000 0.37373558319 0.270337618567
30334000 0.374215280496 0.270340309277
30335000 0.374312348898 0.270048138348
30336000 0.374583534602 0.26989749182
30337000 0.374809014589 0.269896470683
30338000 0.375573574467 0.270176510537
30339000 0.375718416172 0.269862145883
30340000 0.375869435334 0.269702897052
30341000 0.376272572471 0.269560514288
30342000 0.376561079256 0.269543872472
30343000 0.377294297798 0.26984488174
30344000 0.377357099924 0.269590307739
30345000 0.377563627172 0.269394578715
30346000 0.37797402587 0.269312774628
30347000 0.378356364242 0.269504329264
30348000 0.378984576941 0.269520288559
30349000 0.379047781291 0.269292344069
30350000 0.379337117865 0.269054771619
30351000 0.379522927238 0.268874262624
30352000 0.380180825795 0.269178923833
30353000 0.380664961201 0.269207496537
30354000 0.380756912298 0.268927471097
30355000 0.381014378328 0.268775690215
30356000 0.381252939026 0.268719915973
30357000 0.38203272 0.268991993153
30358000 0.382219570341 0.268679462221
30359000 0.382323090206 0.268524922216
30360000 0.382722120114 0.268369196651
30361000 0.382974582603 0.268309473306
30362000 0.383759011495 0.268588188625
30363000 0.383841565662 0.268382021742
30364000 0.384046200435 0.268159672902
30365000 0.384414086624 0.268100590638
30366000 0.384804154215 0.268189091799
30367000 0.385469490081 0.268228883174
30368000 0.385511249195 0.267984569667
30369000 0.385772064646 0.267784400387
30370000 0.38598450294 0.267619116576
30371000 0.386597918977 0.267824956343
30372000 0.387132988162 0.267867815014
30373000 0.38725992009 0.267627956394
30374000 0.387493515606 0.267436460292
30375000 0.387743727553 0.267375483786
30376000 0.388483081198 0.267616516109
30377000 0.388737304197 0.267361400269
30378000 0.388856031021 0.26718646697
30379000 0.389218127386 0.267033177661
30380000 0.389484731221 0.26696903768
30381000 0.390229052446 0.267189333797
30382000 0.390365593446 0.266998217171
30383000 0.390504217191 0.266774627941
30384000 0.390909730268 0.266709465755
30385000 0.391287825454 0.266762927567
30386000 0.391985391849 0.266822564597
30387000 0.392027646883 0.266594425413
30388000 0.39229139354 0.266428731507
30389000 0.392524985636 0.266225535603
30390000 0.393113631774 0.266385804806
30391000 0.393710186127 0.266438008223
30392000 0.393853349049 0.266196796328
30393000 0.394043223539 0.266040567685
30394000 0.394293313896 0.265947871647
30395000 0.395040935762 0.266152285113
30396000 0.395323200805 0.265894120327
30397000 0.395432774423 0.265746072797
30398000 0.395810853032 0.265580021185
30399000 0.396041853645 0.265519100024
30400000 0.39682786731 0.265691130469
30401000 0.397176321425 0.265575434908
30402000 0.397365365902 0.265395852532
30403000 0.397436690923 0.265148719327
30404000 0.397884066836 0.265088313104
30405000 0.398308378893 0.265136580831
30406000 0.398946336742 0.265088643044
30407000 0.398959080574 0.264849700893
30408000 0.399183871441 0.264651131164
30409000 0.399448148041 0.264432007036
30410000 0.400106594805 0.264606101179
30411000 0.400663482184 0.264612822262
30412000 0.40064921498 0.264309857592
30413000 0.400949421399 0.264177356458
30414000 0.401147881941 0.264042310858
30415000 0.401972070151 0.264245019408
30416000 0.402320540441 0.263991959892
30417000 0.402311512287 0.263803039457
30418000 0.402701046852 0.263616435264
30419000 0.402823099269 0.263503927168
30420000 0.403722022989 0.26367679508
30421000 0.403963633385 0.263527654426
30422000 0.403983803293 0.263246979666
30423000 0.404409538238 0.263168491657
30424000 0.404823625974 0.2631914267
30425000 0.405497204316 0.263168913972
30426000 0.405529135893 0.262897987597
30427000 0.405721001645 0.262748817959
30428000 0.406014181949 0.262526648413
30429000 0.40663676945 0.262613248809
30430000 0.407223137097 0.262619764157
30431000 0.40725737252 0.262378157304
30432000 0.407498693386 0.262215047839
30433000 0.407715492341 0.262085406395
30434000 0.408538709332 0.262206349883
30435000 0.408899260281 0.261966758163
30436000 0.40888392984 0.261789248507
30437000 0.409248918898 0.261603236146
30438000 0.40937452907 0.261477060015
30439000 0.410256025858 0.261580774454
30440000 0.410528860975 0.261422033077
30441000 0.410557055284 0.261174385242
30442000 0.410983713425 0.261081078736
30443000 0.411332603482 0.261070698413
30444000 0.412047286939 0.261032701936
30445000 0.412092561279 0.260755806726
30446000 0.412278709767 0.260619914978
30447000 0.412577474432 0.260392730174
30448000 0.413133691014 0.260442847296
30449000 0.413742974058 0.260410351887
30450000 0.413746514653 0.260199293786
30451000 0.413981791253 0.260007072639
30452000 0.414233111283 0.259855489809
30453000 0.415026037562 0.259933206816
30454000 0.415387572708 0.25969592985
30455000 0.415396224411 0.259526955831
30456000 0.415702853665 0.259328430084
30457000 0.415823837947 0.259176948489
30458000 0.416710368991 0.259232212305
30459000 0.417053125513 0.259107048113
30460000 0.417017973004 0.258827208656
30461000 0.417452311819 0.258727997325
30462000 0.417715593481 0.25866405488
30463000 0.418498466393 0.258589554332
30464000 0.418535990982 0.258312664726
30465000 0.418720450185 0.258155490002
30466000 0.419047462793 0.257968119501
30467000 0.419584616002 0.257964303405
30468000 0.420207739641 0.257890728956
30469000 0.420240675413 0.257691979243
30470000 0.420471966705 0.257513772596
30471000 0.420700954537 0.257358007347
30472000 0.421481097613 0.257408209788
30473000 0.42189132795 0.257157358791
30474000 0.42189932733 0.256992555804
30475000 0.42221022834 0.256810917582
30476000 0.422336237872 0.256657025375
30477000 0.423201311906 0.256638274754
30478000 0.42360986975 0.256534067783
30479000 0.423538210065 0.256301077347
30480000 0.423983396241 0.256152243346
30481000 0.424190185448 0.256106148899
30482000 0.425009770396 0.255977541471
30483000 0.42508087975 0.255751530911
30484000 0.425261575135 0.255561455936
30485000 0.425621243498 0.255371868184
30486000 0.42606384736 0.255313219112
30487000 0.426743813855 0.255253679037
30488000 0.426822984758 0.255062299184
30489000 0.427008665576 0.254862610909
30490000 0.42730343211 0.254695471656
30491000 0.428006197457 0.25470855489
30492000 0.428451649426 0.254460280842
30493000 0.428446317361 0.25432624465
30494000 0.428749405657 0.254081294757
30495000 0.428902317762 0.253958932166
30496000 0.429737976963 0.253883868785
30497000 0.430147105798 0.253758908321
30498000 0.430099146156 0.253525493953
30499000 0.430492990761 0.253404036567
30500000 0.430662781655 0.25331113392
