! Calibrated averaged scanner-service zoom
# Hz S RI R 50
420000000 0.169858773267 -0.125900755477
420010000 0.16862615007 -0.126703763656
420020000 0.168721214258 -0.125735506172
420030000 0.168198119864 -0.126121110501
420040000 0.168297310582 -0.125421208484
420050000 0.167966963936 -0.125138126175
420060000 0.168613038074 -0.125431025944
420070000 0.168005629315 -0.125391266512
420080000 0.168722593654 -0.12620319713
420090000 0.168818870362 -0.12615141178
420100000 0.167688547996 -0.125375057104
420110000 0.168040682708 -0.124850958454
420120000 0.168142022668 -0.125059479922
420130000 0.167991310112 -0.12447680941
420140000 0.167350903708 -0.123860052732
420150000 0.167404627465 -0.124754368196
420160000 0.167083626819 -0.124649485616
420170000 0.167640983029 -0.124324812323
420180000 0.167771302024 -0.124839597442
420190000 0.166381287947 -0.124502069505
420200000 0.167479847592 -0.124655632718
420210000 0.167046450575 -0.123754739727
420220000 0.166996822503 -0.12465438764
420230000 0.167081639854 -0.123228741952
420240000 0.167232737769 -0.123314774576
420250000 0.167271852401 -0.123737525219
420260000 0.166798682912 -0.122868967524
420270000 0.165702982222 -0.122956300513
420280000 0.166439838263 -0.12311942607
420290000 0.166192656628 -0.122940479443
420300000 0.166256613266 -0.123443821822
420310000 0.166052646959 -0.122455388511
420320000 0.167215954899 -0.12301359341
420330000 0.165799338055 -0.122854239946
420340000 0.165586184903 -0.122348336077
420350000 0.164959651525 -0.122427772523
420360000 0.164734629408 -0.120879412468
420370000 0.165255133015 -0.122077580964
420380000 0.164872137297 -0.122197625923
420390000 0.165258795356 -0.120918004943
420400000 0.164328734445 -0.121585318417
420410000 0.164611908134 -0.120789030401
420420000 0.164669685649 -0.122003926057
420430000 0.164333672853 -0.121251346528
420440000 0.164593691158 -0.121029174246
420450000 0.164323718353 -0.121564472727
420460000 0.164305863464 -0.120705073972
420470000 0.164084186419 -0.120574138612
420480000 0.163546075617 -0.120260989184
420490000 0.164260193673 -0.119994228179
420500000 0.163207017248 -0.119830556007
420510000 0.163490809521 -0.119569007517
420520000 0.162581873115 -0.119216697613
420530000 0.163241346527 -0.119320702064
420540000 0.163102721579 -0.119957886281
420550000 0.162818965363 -0.119324208328
420560000 0.162991561628 -0.119712786133
420570000 0.161519080066 -0.119436778448
420580000 0.162755130486 -0.118684764217
420590000 0.16271713563 -0.119070200764
420600000 0.162771262438 -0.118158099422
420610000 0.163474896561 -0.118524360795
420620000 0.162903200277 -0.11822364453
420630000 0.162859870949 -0.118265106559
420640000 0.162240166806 -0.117808762414
420650000 0.162374123153 -0.118754192888
420660000 0.161628636019 -0.117959095166
420670000 0.16201221965 -0.118265290377
420680000 0.161719597751 -0.117722308793
420690000 0.161481519741 -0.117746676645
420700000 0.161604535668 -0.116482113325
420710000 0.161357845413 -0.117068506017
420720000 0.16070311507 -0.116923263558
420730000 0.16000738761 -0.117208122189
420740000 0.161629790276 -0.116352996627
420750000 0.160604754385 -0.117243489327
420760000 0.16048384761 -0.116617085995
420770000 0.160465741967 -0.116326544107
420780000 0.16022195694 -0.116432725294
420790000 0.161179987878 -0.115859758605
420800000 0.159846514936 -0.117093674679
420810000 0.160930260159 -0.115782313238
420820000 0.160893769341 -0.116144556697
420830000 0.159804813565 -0.115520602695
420840000 0.160156108322 -0.115437526494
420850000 0.159803856057 -0.115353495169
420860000 0.159779024526 -0.11512726653
420870000 0.159897388807 -0.115215203966
420880000 0.159207409057 -0.115075380755
420890000 0.159715161926 -0.114655823808
420900000 0.158966828428 -0.115068404707
420910000 0.1594145992 -0.114885367963
420920000 0.159523775181 -0.114098563553
420930000 0.159190616499 -0.114354771807
420940000 0.159430168069 -0.114657485077
420950000 0.159398668361 -0.113987853108
420960000 0.158987195542 -0.114572152866
420970000 0.158351775794 -0.113659248631
420980000 0.158513925774 -0.113645509577
420990000 0.158119115188 -0.113099062908
421000000 0.157593945214 -0.113264375593
421010000 0.158270276356 -0.112967669456
421020000 0.157208941252 -0.112690607106
421030000 0.158249228831 -0.113006020564
421040000 0.158682446864 -0.112930823607
421050000 0.158161106577 -0.112275062584
421060000 0.156637148007 -0.111909292134
421070000 0.157020130932 -0.112257776067
421080000 0.157360203713 -0.112063465428
421090000 0.158219926614 -0.111906428071
421100000 0.157210069426 -0.111840421437
421110000 0.157290166573 -0.111509516097
421120000 0.15707775706 -0.111923675449
421130000 0.156810185802 -0.111864515356
421140000 0.156641463142 -0.111708599602
421150000 0.155864558469 -0.111119519491
421160000 0.156645211395 -0.11164529226
421170000 0.156825198575 -0.112036368695
421180000 0.155572670943 -0.110566699997
421190000 0.156337882032 -0.110454930676
421200000 0.156137706955 -0.110524268633
421210000 0.157104095879 -0.110588488931
421220000 0.156184788222 -0.109789498707
421230000 0.156144147944 -0.109466863088
421240000 0.156580250204 -0.110197937562
421250000 0.155906238114 -0.110578312444
421260000 0.15534859258 -0.110608484583
421270000 0.155117348296 -0.110290308735
421280000 0.155861930462 -0.109870157809
421290000 0.1554114513 -0.109026274668
421300000 0.155484048824 -0.109090388378
421310000 0.154543127407 -0.108666987838
421320000 0.1546636279 -0.108464288405
421330000 0.155463486113 -0.108658944718
421340000 0.15460462487 -0.108769978087
421350000 0.15455963279 -0.108189351606
421360000 0.153919740343 -0.107516442318
421370000 0.154384320475 -0.107397652267
421380000 0.154418265407 -0.107994367882
421390000 0.154033946867 -0.107318750345
421400000 0.153953792228 -0.106907890647
421410000 0.15401644384 -0.107127634239
421420000 0.154107163783 -0.107382581877
421430000 0.153888212381 -0.106746791838
421440000 0.153574621767 -0.107397238103
421450000 0.153987442338 -0.106742027541
421460000 0.153818726734 -0.106617490256
421470000 0.153287632172 -0.106743025689
421480000 0.153342636094 -0.106377169506
421490000 0.153391319997 -0.106588351962
421500000 0.153468569388 -0.106426448086
421510000 0.153297480404 -0.105849905479
421520000 0.153051374909 -0.105881382608
421530000 0.152708239747 -0.1053418184
421540000 0.152601838432 -0.105477238967
421550000 0.152480620897 -0.105457700462
421560000 0.153185255828 -0.104822256528
421570000 0.152373153571 -0.105013629126
421580000 0.15227203014 -0.105459652017
421590000 0.152356000839 -0.105188187833
421600000 0.151814231349 -0.1039421895
421610000 0.151707884981 -0.104500348916
421620000 0.152130776959 -0.103598116924
421630000 0.151919308673 -0.103888679145
421640000 0.151916849652 -0.104032009816
421650000 0.151784787657 -0.103674905426
421660000 0.151785339214 -0.1039615595
421670000 0.151759512377 -0.103632289475
421680000 0.151133957279 -0.10326594184
421690000 0.151261326365 -0.102551476652
421700000 0.151923443154 -0.102373586696
421710000 0.151498341384 -0.102867511059
421720000 0.151449826227 -0.10227246105
421730000 0.150609129142 -0.102357160268
421740000 0.152590485845 -0.102738534359
421750000 0.151144540484 -0.101939723595
421760000 0.151110613601 -0.100742847096
421770000 0.150620725611 -0.101936145774
421780000 0.150773723809 -0.101836617055
421790000 0.150751403215 -0.101599317224
421800000 0.149814703834 -0.101390347678
421810000 0.150249902539 -0.101434383006
421820000 0.14974707702 -0.101104949564
421830000 0.149762857074 -0.100860152079
421840000 0.149999300401 -0.100703422964
421850000 0.150163798706 -0.100797419256
421860000 0.149748150962 -0.100421454622
421870000 0.149532888799 -0.100235686663
421880000 0.149770876793 -0.100167565075
421890000 0.149271922822 -0.0998621774686
421900000 0.149456179574 -0.100060844077
421910000 0.149448137823 -0.100085733021
421920000 0.149417102528 -0.0999855899292
421930000 0.148565119306 -0.0999093763864
421940000 0.148558580371 -0.0994094679901
421950000 0.148704958074 -0.0991807801694
421960000 0.148543080821 -0.0990114956674
421970000 0.148681889433 -0.0989613703999
421980000 0.148250341158 -0.0987954425365
421990000 0.148344012544 -0.0986076286598
422000000 0.148575576516 -0.0985050338947
422010000 0.148153100844 -0.0979138215883
422020000 0.147833331828 -0.0979993454431
422030000 0.147800704275 -0.0981195235514
422040000 0.148216612117 -0.0979503522804
422050000 0.147853524069 -0.0979417185927
422060000 0.148070390199 -0.0977491108576
422070000 0.147655301292 -0.0975943240222
422080000 0.147521415549 -0.0975723119605
422090000 0.147612579447 -0.0971596684892
422100000 0.148006305801 -0.0966988023235
422110000 0.147447418101 -0.0970143705805
422120000 0.147875256421 -0.0968072250869
422130000 0.146501995346 -0.0963195013484
422140000 0.146937689801 -0.0960394456115
422150000 0.147182137651 -0.096287068894
422160000 0.146592337301 -0.0960350750381
422170000 0.147171212156 -0.0959211547676
422180000 0.146735236831 -0.0957637896557
422190000 0.146384849692 -0.0956012731357
422200000 0.146769275419 -0.0954372307941
422210000 0.145947435952 -0.0956171710816
422220000 0.1470854818 -0.09428633845
422230000 0.146512793623 -0.0950862969405
422240000 0.146817135323 -0.0953616742625
422250000 0.146080425345 -0.0943690045743
422260000 0.146302330649 -0.094631137596
422270000 0.145189492695 -0.0945122403362
422280000 0.144948827941 -0.0939400278142
422290000 0.145207929037 -0.0944815239165
422300000 0.144980967069 -0.0939322306697
422310000 0.145894931022 -0.0941768178084
422320000 0.145594613248 -0.0937498629971
422330000 0.145237659727 -0.0938422680999
422340000 0.146494146394 -0.0929705479964
422350000 0.14492094516 -0.0930053976974
422360000 0.144284296614 -0.0930348858043
422370000 0.144718699315 -0.0924374726155
422380000 0.144997131055 -0.0927332369298
422390000 0.14539227959 -0.0920334341386
422400000 0.145390192971 -0.0918961642837
422410000 0.144409757654 -0.0922208791343
422420000 0.144292398728 -0.0919618898201
422430000 0.144885653132 -0.0918317408857
422440000 0.144643873323 -0.0917894564357
422450000 0.144060283243 -0.0916288289477
422460000 0.143963992525 -0.0916865377467
422470000 0.143880170299 -0.0913129796215
422480000 0.142629755128 -0.0914232875011
422490000 0.148142018696 -0.0934450777832
422500000 0.144554172328 -0.0918987929218
422510000 0.144148784049 -0.0902899747959
422520000 0.14420584126 -0.0904466738202
422530000 0.143921654773 -0.0906460823412
422540000 0.143824157958 -0.0908929564318
422550000 0.143735532169 -0.0902039754789
422560000 0.143334483985 -0.0901171370709
422570000 0.143152425864 -0.0896035544351
422580000 0.143161626089 -0.0892589777976
422590000 0.143062870088 -0.088808318685
422600000 0.14294302612 -0.0891847922817
422610000 0.142689731165 -0.089214755321
422620000 0.142632572856 -0.0888546745623
422630000 0.14256863357 -0.0884248037601
422640000 0.142750431861 -0.0887668173971
422650000 0.142986891448 -0.0887508874653
422660000 0.142663280568 -0.0881600613996
422670000 0.142859359193 -0.0878557595792
422680000 0.141982957026 -0.0881522769177
422690000 0.142287600333 -0.0878596571613
422700000 0.14231706202 -0.0864907233611
422710000 0.142273143971 -0.0875398782411
422720000 0.142519818368 -0.0876125521506
422730000 0.142586754683 -0.0871570137464
422740000 0.142984520112 -0.0867512899811
422750000 0.142707285153 -0.0877876993142
422760000 0.142242862715 -0.0865607342254
422770000 0.142021593521 -0.0862951867751
422780000 0.141840695338 -0.0858844317455
422790000 0.141061125973 -0.0861648760806
422800000 0.140227046176 -0.0855612697863
422810000 0.140514168684 -0.0856179949335
422820000 0.14079208348 -0.0856849367543
422830000 0.141256955528 -0.0849160840235
422840000 0.140865836744 -0.0852667021191
422850000 0.141258427086 -0.0847551445194
422860000 0.140849970517 -0.0841597434313
422870000 0.141649788101 -0.0848170022436
422880000 0.140802655786 -0.085370015111
422890000 0.140427803647 -0.0850696784846
422900000 0.140161602941 -0.084522025491
422910000 0.140235770647 -0.0835248605687
422920000 0.140338923728 -0.0837996694801
422930000 0.140505450828 -0.0839182133404
422940000 0.140607314657 -0.0839279788039
422950000 0.140445768758 -0.0838211614802
422960000 0.140094257961 -0.0836430024494
422970000 0.140388691978 -0.0833006652836
422980000 0.140002076523 -0.083195487142
422990000 0.140280701372 -0.0831940584324
423000000 0.140221826413 -0.0829644282792
423010000 0.139368601502 -0.0834385977624
423020000 0.139336438088 -0.0825025369011
423030000 0.139566402142 -0.0826619442555
423040000 0.139739166793 -0.0819023369507
423050000 0.139686688432 -0.0827735212088
423060000 0.139057463164 -0.0816238631625
423070000 0.13883856296 -0.0814475380936
423080000 0.138739665747 -0.0816630021724
423090000 0.1386498735 -0.0815536346099
423100000 0.138575458429 -0.0811331162127
423110000 0.138872409032 -0.0809292149221
423120000 0.139080552212 -0.0810809784301
423130000 0.139064164091 -0.0811340689001
423140000 0.138893826582 -0.0807488575978
423150000 0.139117980021 -0.0806146963969
423160000 0.138791212502 -0.0805105638608
423170000 0.139171049685 -0.0801642713741
423180000 0.138238802419 -0.079879824087
423190000 0.138589082362 -0.080060476313
423200000 0.138920220826 -0.0798864466702
423210000 0.137648420547 -0.0796113115955
423220000 0.138188499468 -0.0796217044535
423230000 0.137900772598 -0.0785957325531
423240000 0.138088319419 -0.0787272741401
423250000 0.138213354615 -0.0788278954947
423260000 0.137805420059 -0.0786169544227
423270000 0.137137147396 -0.0783887607567
423280000 0.137543122212 -0.0785691862606
423290000 0.137020096011 -0.0782113159225
423300000 0.137407531064 -0.0786700307826
423310000 0.13733625106 -0.0778324995032
423320000 0.137322828048 -0.0780428514961
423330000 0.136757998573 -0.0777907117994
423340000 0.136321955749 -0.0783965271547
423350000 0.136619360167 -0.0768604139484
423360000 0.136921782 -0.0770552647479
423370000 0.136110492542 -0.0770958946924
423380000 0.136895608941 -0.0771694556873
423390000 0.136499918303 -0.0770450176966
423400000 0.137215033199 -0.0763342198579
423410000 0.136373544801 -0.0767375292406
423420000 0.136945165667 -0.0752665523004
423430000 0.136065887036 -0.0761884045303
423440000 0.136866315881 -0.0751799178599
423450000 0.136095269062 -0.0750472221566
423460000 0.135808559733 -0.0758001517871
423470000 0.1362180021 -0.0754115105658
423480000 0.135757728374 -0.0752809854956
423490000 0.135909908438 -0.0750471724915
423500000 0.135562678977 -0.0745267007129
423510000 0.136586286689 -0.074650107442
423520000 0.135959958439 -0.0738020204486
423530000 0.135565517756 -0.0741850150493
423540000 0.135794939926 -0.073864794969
423550000 0.135571305154 -0.0738080580146
423560000 0.134900969696 -0.0735314455061
423570000 0.135235250866 -0.0737676502338
423580000 0.134721861243 -0.0735401744082
423590000 0.13498036212 -0.0735227655129
423600000 0.135250415763 -0.0729985713475
423610000 0.135228461207 -0.0729483850528
423620000 0.135422469167 -0.0729836615802
423630000 0.135341646914 -0.0728400543319
423640000 0.135157918119 -0.0726878760726
423650000 0.134671370448 -0.0724648296947
423660000 0.134906076932 -0.0719651470391
423670000 0.134774267322 -0.0719901896644
423680000 0.13462326069 -0.0718633818942
423690000 0.134489552826 -0.0714019500798
423700000 0.134102158602 -0.0710150534881
423710000 0.134202237696 -0.0712445043437
423720000 0.13394443994 -0.0714056346906
423730000 0.134023672999 -0.0710889668875
423740000 0.134102820732 -0.0706918961483
423750000 0.134244071029 -0.0705324194529
423760000 0.133610926475 -0.0708132728557
423770000 0.133491013547 -0.070301271712
423780000 0.133331046508 -0.0704233550773
423790000 0.133562679291 -0.0703081995613
423800000 0.133462605341 -0.0700151241021
423810000 0.133682719307 -0.0695265661247
423820000 0.13323244401 -0.0697777801133
423830000 0.133210955547 -0.0693085732981
423840000 0.133339832308 -0.069607512242
423850000 0.133035431139 -0.0688014709512
423860000 0.133781930053 -0.0688835038726
423870000 0.133307480563 -0.0685546109149
423880000 0.13323063989 -0.0690698656006
423890000 0.132861037007 -0.0680830037521
423900000 0.13314812624 -0.0681442825335
423910000 0.133172151228 -0.067765081734
423920000 0.133054314399 -0.0678677626278
423930000 0.132763353653 -0.0679373823087
423940000 0.13281195989 -0.0667492799119
423950000 0.132433560149 -0.0671850720046
423960000 0.132409418856 -0.0674065694049
423970000 0.132763033611 -0.0670073483608
423980000 0.13230294679 -0.067074376823
423990000 0.13192973596 -0.0668242655232
424000000 0.132320954589 -0.0667854567387
424010000 0.132638721741 -0.0661964798111
424020000 0.131969024858 -0.0662598268028
424030000 0.131918680601 -0.0664152059282
424040000 0.132320693845 -0.0658594007
424050000 0.132283430951 -0.0661009420146
424060000 0.13188304954 -0.0654105967442
424070000 0.131754809905 -0.0652362577186
424080000 0.131554590025 -0.0655396723392
424090000 0.131680268045 -0.0651117209571
424100000 0.132084187616 -0.064964182469
424110000 0.131451828832 -0.0642865334571
424120000 0.131878259471 -0.0646239356548
424130000 0.131981162654 -0.0640935764106
424140000 0.131546316359 -0.0643999939673
424150000 0.131319674254 -0.0640263401284
424160000 0.130893329442 -0.0638925243031
424170000 0.130582509702 -0.0639745098701
424180000 0.130836378119 -0.0640025869418
424190000 0.130689918789 -0.063469690226
424200000 0.131073064253 -0.06396399441
424210000 0.130989273398 -0.0635599030891
424220000 0.130483388282 -0.062593480104
424230000 0.130390479167 -0.062695539345
424240000 0.130510740516 -0.0620202561836
424250000 0.130607983741 -0.0621877139277
424260000 0.130790836873 -0.0619016512148
424270000 0.130286620947 -0.0616923275767
424280000 0.130641868157 -0.061592970585
424290000 0.130288776237 -0.0616402464445
424300000 0.130346760775 -0.0614310168813
424310000 0.13049848274 -0.0612166211012
424320000 0.130252852189 -0.0609167251124
424330000 0.130416181747 -0.0610579336321
424340000 0.130665713733 -0.0608040707404
424350000 0.129813063413 -0.0610258944804
424360000 0.129746380354 -0.0604195970575
424370000 0.129743858564 -0.0606730330184
424380000 0.129728418814 -0.0604083449153
424390000 0.129876999232 -0.0600520826419
424400000 0.129886253543 -0.0596963525118
424410000 0.12959119864 -0.059347132455
424420000 0.129157850524 -0.0594103571105
424430000 0.129050470287 -0.059319123628
424440000 0.129351606356 -0.058844775433
424450000 0.12898310844 -0.0589132290457
424460000 0.12909165449 -0.0590261119632
424470000 0.129250897738 -0.0591347707818
424480000 0.129124976047 -0.0585156882919
424490000 0.12906200432 -0.0584055252417
424500000 0.129147809602 -0.0582729529665
424510000 0.129210937428 -0.0581098058895
424520000 0.128906139474 -0.0575354974453
424530000 0.128801211222 -0.0577507730635
424540000 0.128768483035 -0.057649283774
424550000 0.128942447991 -0.0576028558037
424560000 0.128488190859 -0.0570179863718
424570000 0.128446072571 -0.0567981368034
424580000 0.128046013164 -0.056725857343
424590000 0.128226632276 -0.0565408811788
424600000 0.128045507525 -0.0564834318029
424610000 0.127834132535 -0.0564487363004
424620000 0.128395094825 -0.0562288864041
424630000 0.128070740205 -0.0561975819271
424640000 0.128201822819 -0.0560963207663
424650000 0.128292395381 -0.0557424524113
424660000 0.128242986124 -0.0556698311476
424670000 0.127549984956 -0.0555284086381
424680000 0.127620370604 -0.0551714897101
424690000 0.127399713353 -0.0550669859381
424700000 0.12783847037 -0.0543861254278
424710000 0.128190312906 -0.0548904103321
424720000 0.127758327173 -0.0542644302246
424730000 0.127892184371 -0.0543306954635
424740000 0.127276107081 -0.054122769393
424750000 0.127499984484 -0.0537306944717
424760000 0.127357733837 -0.0531335091478
424770000 0.127058422646 -0.0534262206315
424780000 0.127477485376 -0.0535487858162
424790000 0.126960537737 -0.0534173848517
424800000 0.126645617697 -0.0535850933692
424810000 0.12681512904 -0.0529924983573
424820000 0.126973525135 -0.0529034155151
424830000 0.126684728832 -0.0533223345391
424840000 0.126752380075 -0.0527656499259
424850000 0.127401580145 -0.0523420108489
424860000 0.12718516863 -0.0524601323242
424870000 0.126879702698 -0.0518613969497
424880000 0.126596411729 -0.0517182251295
424890000 0.126829561788 -0.0520061875286
424900000 0.126730064079 -0.0519031235679
424910000 0.126620855301 -0.0517493312261
424920000 0.12635063325 -0.0514941749008
424930000 0.126630560724 -0.0512084457319
424940000 0.125884460666 -0.0509020601133
424950000 0.126284666091 -0.050655548718
424960000 0.126091475269 -0.0503815022498
424970000 0.126061618224 -0.0504729609345
424980000 0.125810189942 -0.0498055523194
424990000 0.125578321068 -0.049521083056
425000000 0.126109251242 -0.0498676640783
425010000 0.126051764855 -0.0498358428556
425020000 0.126264464863 -0.0496008601213
425030000 0.126381412864 -0.0490921889862
425040000 0.125950396509 -0.0490539862052
425050000 0.125649213629 -0.0487427093214
425060000 0.126252873975 -0.048815453962
425070000 0.126012242445 -0.0491483689621
425080000 0.1258261935 -0.0484141780905
425090000 0.125878398167 -0.048153760959
425100000 0.125646974954 -0.0479703542366
425110000 0.125807644591 -0.0478522915133
425120000 0.125635537368 -0.0476037200391
425130000 0.125536564866 -0.0476187874079
425140000 0.125389201531 -0.0473556491686
425150000 0.12534243612 -0.0471470476723
425160000 0.125494053814 -0.0469803279425
425170000 0.125450764531 -0.0468572291898
425180000 0.125397009092 -0.0463734546639
425190000 0.125249761273 -0.0464722437542
425200000 0.124923474313 -0.0464345809997
425210000 0.125101189694 -0.0456179514289
425220000 0.124467787943 -0.0459248664513
425230000 0.124613519499 -0.0457293640848
425240000 0.124646531757 -0.0458436133818
425250000 0.124500995138 -0.0454212604075
425260000 0.124866156767 -0.0455493659273
425270000 0.124702020513 -0.0452712606782
425280000 0.124874884945 -0.0451630116716
425290000 0.124967435511 -0.0451029834964
425300000 0.125039712311 -0.0447851659287
425310000 0.124934507934 -0.044579428665
425320000 0.1244818556 -0.044774502218
425330000 0.124458415806 -0.0445473619368
425340000 0.124695614464 -0.0440622743417
425350000 0.124456337143 -0.044288916414
425360000 0.124278471314 -0.044218108657
425370000 0.124525269276 -0.0436975694066
425380000 0.124070169524 -0.0431251839081
425390000 0.124125286831 -0.0428045878311
425400000 0.124237916158 -0.0431098155928
425410000 0.124390545766 -0.0430055640067
425420000 0.12414542702 -0.0429397990098
425430000 0.124294004058 -0.0432204209332
425440000 0.123878455556 -0.0423793318465
425450000 0.123924338845 -0.0424616028612
425460000 0.123716599064 -0.0423810407867
425470000 0.124181321974 -0.0418961986455
425480000 0.123904389145 -0.0416284104133
425490000 0.123923866632 -0.0420370068004
425500000 0.123681440399 -0.0413676283765
425510000 0.123788642265 -0.0407878938182
425520000 0.123308419772 -0.0409364683702
425530000 0.124093577731 -0.041117212988
425540000 0.1236029819 -0.0407777391521
425550000 0.123975275561 -0.0404398880097
425560000 0.123390235369 -0.0409400237519
425570000 0.123225356733 -0.0401779149645
425580000 0.123368108636 -0.0399904667996
425590000 0.122988015532 -0.0398488394748
425600000 0.123473346437 -0.0396959600218
425610000 0.123361265219 -0.0394921000503
425620000 0.123142350183 -0.039474087275
425630000 0.122690448798 -0.0391082097149
425640000 0.122560358071 -0.0390960027191
425650000 0.122480722352 -0.0390598058687
425660000 0.12261841451 -0.0387835432134
425670000 0.123073391438 -0.0386728196611
425680000 0.122855574493 -0.0384314865102
425690000 0.12264770764 -0.038137380483
425700000 0.122465197293 -0.0381966035291
425710000 0.122779272377 -0.0377591832466
425720000 0.122345643202 -0.0375247705542
425730000 0.122032019937 -0.0374089914462
425740000 0.122911044762 -0.0376146442795
425750000 0.122447493238 -0.0374270855857
425760000 0.122574569039 -0.0374763047102
425770000 0.122523937046 -0.0369513906262
425780000 0.122359172801 -0.0371889817202
425790000 0.122031493806 -0.0364229454033
425800000 0.122047432493 -0.036645708282
425810000 0.122484976506 -0.036268229126
425820000 0.122906235326 -0.0360652503255
425830000 0.122186630931 -0.0357237165429
425840000 0.121967192156 -0.0355414164879
425850000 0.122037461846 -0.0354476692328
425860000 0.121747416799 -0.0355906141316
425870000 0.122251934923 -0.0348655011343
425880000 0.121983733871 -0.0347525819054
425890000 0.122095130453 -0.0342853156119
425900000 0.121927466426 -0.0346488312853
425910000 0.121321552521 -0.0344939582973
425920000 0.121797690966 -0.034050139493
425930000 0.122180726122 -0.0342468401705
425940000 0.121806172038 -0.0342870924937
425950000 0.122242637357 -0.0340786451945
425960000 0.122063580185 -0.0336596395943
425970000 0.121875594631 -0.0338300429113
425980000 0.12157349888 -0.0335839460906
425990000 0.121583871756 -0.0336553065185
426000000 0.121311341845 -0.0332722639836
426010000 0.121421464774 -0.0331525464827
426020000 0.121091483177 -0.0323506726316
426030000 0.121433391443 -0.03256712723
426040000 0.121155543941 -0.0325256285669
426050000 0.121015075832 -0.0329018019805
426060000 0.121017906396 -0.0320895083181
426070000 0.121518149835 -0.0317108860303
426080000 0.120977908052 -0.0319989753475
426090000 0.121142545744 -0.0318263042506
426100000 0.120523349184 -0.031706471976
426110000 0.120712735903 -0.0317559937425
426120000 0.120699627068 -0.0311213741069
426130000 0.120619367226 -0.0316534739794
426140000 0.12036226445 -0.0309928501538
426150000 0.120778819266 -0.0304132888089
426160000 0.120852727265 -0.0302594309353
426170000 0.120763683131 -0.0307558654378
426180000 0.120967642917 -0.0303495048791
426190000 0.120710137746 -0.0299525648844
426200000 0.120992973837 -0.0302033567143
426210000 0.120624301047 -0.0301792262796
426220000 0.121083480401 -0.0296271353174
426230000 0.120891042011 -0.0294606359889
426240000 0.120703611659 -0.0291837924502
426250000 0.120378716512 -0.0296358431289
426260000 0.120619890085 -0.028892199024
426270000 0.120106172893 -0.0287313740002
426280000 0.120137836537 -0.0285704002539
426290000 0.120037598611 -0.028459329698
426300000 0.119968591231 -0.0284026959194
426310000 0.119966279056 -0.0279333375235
426320000 0.120479767567 -0.0280275192991
426330000 0.119901657468 -0.0278646441591
426340000 0.120156811901 -0.0279824923726
426350000 0.12022706073 -0.0273779367708
426360000 0.119902962245 -0.0268911683661
426370000 0.120009195016 -0.0269393253391
426380000 0.120035501062 -0.0272290235436
426390000 0.120210347439 -0.0270611860208
426400000 0.119946023798 -0.026597168944
426410000 0.119970644903 -0.0264196301389
426420000 0.120115191793 -0.0264365725583
426430000 0.119938066349 -0.0263132196978
426440000 0.120012617444 -0.0258979593518
426450000 0.119863538141 -0.0263619265804
426460000 0.11954609924 -0.0260788188674
426470000 0.120016827347 -0.0256825655617
426480000 0.119135250051 -0.0255692274808
426490000 0.119631070027 -0.0253426809485
426500000 0.119531482858 -0.0258758252688
426510000 0.119441096008 -0.0258903109064
426520000 0.119223087963 -0.0247657618562
426530000 0.119498835253 -0.0243824291879
426540000 0.119386326946 -0.0243273003846
426550000 0.119209715908 -0.0245148809064
426560000 0.119210731577 -0.0243055097043
426570000 0.119063917292 -0.0238555642061
426580000 0.118981879364 -0.0241510331893
426590000 0.118447943845 -0.0237639887868
426600000 0.119305303372 -0.0230993010331
426610000 0.11839701284 -0.0235350356735
426620000 0.118897509899 -0.0224489940251
426630000 0.11982150494 -0.0234611724454
426640000 0.119082059296 -0.0233122702883
426650000 0.119459146602 -0.0228452614783
426660000 0.119177771845 -0.0223206725488
426670000 0.119200029023 -0.0225800244327
426680000 0.119170688099 -0.0226610754292
426690000 0.118657284135 -0.0213729668022
426700000 0.11874307808 -0.0218815677699
426710000 0.119157929256 -0.0220052919192
426720000 0.118508642042 -0.0215558871093
426730000 0.118676487588 -0.0209216502383
426740000 0.118793841665 -0.0213270957662
426750000 0.118621007078 -0.0211930589973
426760000 0.118691724841 -0.0210515994979
426770000 0.118228093627 -0.0205682939912
426780000 0.118428192019 -0.0211771176716
426790000 0.118256114788 -0.0206534853281
426800000 0.118290882077 -0.0208260866483
426810000 0.118302200112 -0.0196699166799
426820000 0.118336565941 -0.0198712249286
426830000 0.118209256812 -0.0196056745004
426840000 0.118173438789 -0.0200623175505
426850000 0.118434983948 -0.0190168949448
426860000 0.118536636654 -0.0190343322163
426870000 0.118186595881 -0.0191821195477
426880000 0.117854194504 -0.0194149020048
426890000 0.118276086182 -0.0191445818349
426900000 0.118027422459 -0.0185524579608
426910000 0.11796834828 -0.0189856912739
426920000 0.118279541482 -0.0190498440211
426930000 0.117951810986 -0.0185398254305
426940000 0.11744598465 -0.018059810234
426950000 0.117534824564 -0.0173642399381
426960000 0.117870600297 -0.0179928276093
426970000 0.117657969313 -0.0173246859532
426980000 0.117775695417 -0.0170916530969
426990000 0.117603213421 -0.0169205371429
427000000 0.117846150351 -0.016998501439
427010000 0.117502502337 -0.0167834055662
427020000 0.117485763702 -0.0171959535294
427030000 0.11729671939 -0.0163048204931
427040000 0.11709025821 -0.0162920580649
427050000 0.117065798295 -0.0163271080543
427060000 0.117008927022 -0.0159894117232
427070000 0.117563707578 -0.0157668484668
427080000 0.117595170185 -0.0157498418223
427090000 0.117560183331 -0.0153018747909
427100000 0.117591335983 -0.0157631508284
427110000 0.117110433507 -0.0151759173841
427120000 0.117120046269 -0.0147919364987
427130000 0.117018529394 -0.0148965174339
427140000 0.117013493176 -0.0157018269428
427150000 0.117377383574 -0.014918195736
427160000 0.117536702524 -0.0145368384336
427170000 0.116784641219 -0.0142438195827
427180000 0.116930175007 -0.014000031392
427190000 0.116934250783 -0.0147254421222
427200000 0.117041577549 -0.0141750183334
427210000 0.116818953354 -0.0139155689668
427220000 0.117288307115 -0.0138315365326
427230000 0.117028207148 -0.0137800649094
427240000 0.116614207185 -0.0131354879066
427250000 0.116934233622 -0.0130674658704
427260000 0.116822674163 -0.012925190674
427270000 0.116878584621 -0.0132753604737
427280000 0.117045801786 -0.012640601799
427290000 0.116777516449 -0.0129717392652
427300000 0.116995517387 -0.0123389404637
427310000 0.116466966006 -0.0125254966921
427320000 0.116309937389 -0.0121343865836
427330000 0.116513509708 -0.0119072416305
427340000 0.116455864572 -0.0114972257029
427350000 0.116942873231 -0.0119189256073
427360000 0.116742599889 -0.0115277978022
427370000 0.116513843025 -0.0109066613919
427380000 0.116554234808 -0.0108797596001
427390000 0.116135708177 -0.0111895953591
427400000 0.116570413077 -0.0110094617866
427410000 0.116359340601 -0.0111807385966
427420000 0.116016452162 -0.0104877751834
427430000 0.115449614884 -0.0108592367914
427440000 0.116088335757 -0.0107668016711
427450000 0.115788943089 -0.00998559381788
427460000 0.116225332743 -0.00973213060834
427470000 0.115873342224 -0.00999929687391
427480000 0.11611595343 -0.00973223239022
427490000 0.115759542918 -0.0095197272795
427500000 0.115764021138 -0.00941042653901
427510000 0.115316542718 -0.00912880176023
427520000 0.115312751107 -0.00956562294436
427530000 0.115675054228 -0.00888249822292
427540000 0.115518023313 -0.00855879768683
427550000 0.115267129036 -0.00850046646888
427560000 0.115488410715 -0.00840463444421
427570000 0.115378481107 -0.00827199968022
427580000 0.115740571571 -0.00813602133244
427590000 0.115358599745 -0.00774192783201
427600000 0.115839997416 -0.00769847568318
427610000 0.115435617674 -0.00727136694117
427620000 0.115621841386 -0.0071708935785
427630000 0.115400563849 -0.00702128266195
427640000 0.115544182384 -0.00744963763786
427650000 0.115576860089 -0.00720364648356
427660000 0.115186704678 -0.00655589596289
427670000 0.115649767387 -0.00766971642649
427680000 0.11587510081 -0.00708671453293
427690000 0.11556684392 -0.0073716208624
427700000 0.115494240127 -0.00660062012472
427710000 0.115081953205 -0.00604517729828
427720000 0.11505854955 -0.00596346253955
427730000 0.114765978565 -0.00603038602146
427740000 0.114378045811 -0.00515929709331
427750000 0.114530523823 -0.00476386614685
427760000 0.114634058521 -0.00552542901665
427770000 0.11540006078 -0.00531007053875
427780000 0.115178483288 -0.00520094798683
427790000 0.114848749686 -0.00458945896099
427800000 0.114673163162 -0.00441090913356
427810000 0.11481880936 -0.00450062190843
427820000 0.114786093876 -0.00416882144759
427830000 0.11484574259 -0.00427798568522
427840000 0.114702784539 -0.0038323299387
427850000 0.115052038917 -0.00389049905881
427860000 0.11475952095 -0.00369224874754
427870000 0.114714106433 -0.00344430063752
427880000 0.114579789706 -0.00344210029112
427890000 0.114646910505 -0.00393689690088
427900000 0.113430038365 -0.0031660629836
427910000 0.115884489237 -0.00366471937919
427920000 0.114900973022 -0.0025664226155
427930000 0.114615144304 -0.00311762103632
427940000 0.114468836215 -0.00277117418629
427950000 0.114198968573 -0.00186774420928
427960000 0.114385641088 -0.00184350865906
427970000 0.114444593861 -0.00213035388385
427980000 0.114773432116 -0.00198595706168
427990000 0.114375195306 -0.00160560098284
428000000 0.114486459918 -0.00110710558095
428010000 0.11416328884 -0.00118200412762
428020000 0.113980710919 -0.000988716631791
428030000 0.113961379282 -0.00125269793779
428040000 0.114100691425 -0.00111062410508
428050000 0.113500187892 -0.000924339894647
428060000 0.113778180801 -0.00146193993704
428070000 0.113725035592 -0.000433008590613
428080000 0.113853851482 -0.000690528909993
428090000 0.114111982324 -0.000660502092651
428100000 0.113925048025 1.31645328411e-05
428110000 0.113637701745 0.000218761209034
428120000 0.113725135557 0.000304712717053
428130000 0.113829292806 0.000366124091551
428140000 0.113542298842 0.000279243406709
428150000 0.113470701518 0.000775658861516
428160000 0.113568460572 0.000653745474618
428170000 0.113495926337 0.000887423195541
428180000 0.113307425871 0.00104486353675
428190000 0.113309823274 0.00157103666066
428200000 0.113931956702 0.00168781290767
428210000 0.113747578213 0.00161059296906
428220000 0.113371728069 0.00200409874694
428230000 0.113697703753 0.00218811847383
428240000 0.11388833042 0.00221820785752
428250000 0.113126624288 0.00219295878623
428260000 0.113688463096 0.00220078371987
428270000 0.113438628524 0.00238842000898
428280000 0.113279533768 0.00290161120717
428290000 0.113707285184 0.0029179077154
428300000 0.113353032187 0.00324996458053
428310000 0.113232418477 0.00312524737525
428320000 0.113092403598 0.00338872569101
428330000 0.113020291477 0.0035475339522
428340000 0.113433153273 0.00347722627079
428350000 0.113199727749 0.00350254687133
428360000 0.113261702615 0.00415623587607
428370000 0.11314644761 0.0037672225727
428380000 0.113334390942 0.00426226164367
428390000 0.113203653222 0.00440491684873
428400000 0.113487212959 0.00448769704458
428410000 0.113260522078 0.00453562937586
428420000 0.113250931779 0.0051364160182
428430000 0.113035282237 0.00511905822577
428440000 0.112916760095 0.00539248865886
428450000 0.112789503195 0.00520984478516
428460000 0.112556401142 0.0055185306767
428470000 0.113063600559 0.00577927279363
428480000 0.11275588161 0.00583294972866
428490000 0.112501289638 0.00616148247589
428500000 0.112702024306 0.0060614960793
428510000 0.11231757706 0.00653797383437
428520000 0.112269037459 0.00682047461571
428530000 0.112256222258 0.00670758299227
428540000 0.112433609086 0.00709201058415
428550000 0.112449241699 0.00734920443959
428560000 0.112062591611 0.00751558200958
428570000 0.112454790744 0.00715637332955
428580000 0.112186255195 0.00731010735515
428590000 0.112327889717 0.0073658174031
428600000 0.112069399789 0.00764689101987
428610000 0.112174987909 0.00775615173256
428620000 0.111983584457 0.00789475886896
428630000 0.111766272433 0.00795350264714
428640000 0.111993604404 0.0079140129212
428650000 0.111817115218 0.00806598841907
428660000 0.111824066484 0.00830812125618
428670000 0.111612007651 0.00905818143114
428680000 0.111933312674 0.00824607967714
428690000 0.111993360013 0.00943848188647
428700000 0.111725698352 0.00952296806211
428710000 0.111698051955 0.00939967911999
428720000 0.111759302691 0.00947324120134
428730000 0.112001132542 0.0099168149571
428740000 0.111701321573 0.0100105752869
428750000 0.111857273446 0.00987076957523
428760000 0.111690473178 0.0104558413671
428770000 0.11173620979 0.0106344384839
428780000 0.111932909199 0.010691874553
428790000 0.111551872713 0.0106888124403
428800000 0.111379941327 0.0106837590165
428810000 0.111544432314 0.010644217881
428820000 0.111648585039 0.0107734572117
428830000 0.111960909315 0.0110959352769
428840000 0.111930542208 0.0111885812827
428850000 0.111755101059 0.0115957315334
428860000 0.111172363398 0.0117614864051
428870000 0.111122804237 0.011788658227
428880000 0.11117683829 0.0119106902403
428890000 0.110878616221 0.0116848436087
428900000 0.111024831672 0.0123170349397
428910000 0.111357536732 0.0124821175681
428920000 0.111519334127 0.0129492655708
428930000 0.111441984533 0.0130491445188
428940000 0.111099643127 0.0127118378254
428950000 0.11115500714 0.0135399199084
428960000 0.111131800979 0.0131143806951
428970000 0.110406899926 0.0134383735613
428980000 0.110200576619 0.0138414646573
428990000 0.103540514526 0.0169893321118
429000000 0.101831617522 0.0160120175794
429010000 0.111405815338 0.0137608395192
429020000 0.111067862207 0.0139618402165
429030000 0.111162290164 0.0142962758986
429040000 0.110645821411 0.0146812692404
429050000 0.110463900844 0.0149644659295
429060000 0.110571889431 0.0151325474158
429070000 0.110715565806 0.0148818683469
429080000 0.110906261228 0.0148488128417
429090000 0.110768645972 0.0155452505829
429100000 0.110256628611 0.0158413198349
429110000 0.11062713912 0.0157531957125
429120000 0.110198174459 0.015828318036
429130000 0.110316303283 0.015503194636
429140000 0.109956742664 0.0162072541619
429150000 0.109847311975 0.0164363825424
429160000 0.109934991982 0.0159689277794
429170000 0.110606594056 0.0160309328177
429180000 0.11062019272 0.0174362674875
429190000 0.110685087697 0.0167646757828
429200000 0.11066173472 0.0169409037259
429210000 0.110194938153 0.0166943997705
429220000 0.110301891898 0.0174150313525
429230000 0.110449156645 0.0171663582495
429240000 0.109970327623 0.0172917504332
429250000 0.110039594289 0.0173631689046
429260000 0.110460952951 0.0183621540263
429270000 0.110039063904 0.0176755947851
429280000 0.110006218922 0.0176172672613
429290000 0.110258680809 0.017600707415
429300000 0.1098944213 0.0183468600363
429310000 0.110237305727 0.018792703985
429320000 0.110081896929 0.0189888471162
429330000 0.110757772892 0.0190376270871
429340000 0.109762346466 0.0190803963148
429350000 0.10975033086 0.0196359838774
429360000 0.109645320588 0.0193843323673
429370000 0.10955834063 0.0197499513994
429380000 0.109616684601 0.0199590277384
429390000 0.109399091996 0.0201909851397
429400000 0.109601047437 0.0204281956407
429410000 0.109484651161 0.0198667906131
429420000 0.109087595344 0.019842494802
429430000 0.108892021509 0.0205966736869
429440000 0.109383094262 0.0208639608029
429450000 0.109466305692 0.0205882667817
429460000 0.109343759482 0.0206437682066
429470000 0.109300779817 0.0212234986684
429480000 0.10945795799 0.0214423770653
429490000 0.109438071712 0.0212849767146
429500000 0.109065388495 0.0212282425917
429510000 0.108957993507 0.0214472805394
429520000 0.108763070122 0.0219115727315
429530000 0.10891474856 0.0220882537587
429540000 0.10893177882 0.022051563778
429550000 0.109207730703 0.0224676151516
429560000 0.109105819344 0.0228213992552
429570000 0.109038994206 0.0227287122585
429580000 0.108803596938 0.0229883404352
429590000 0.108959649872 0.0226687810081
429600000 0.108843743153 0.0232968139719
429610000 0.10866652583 0.023521425786
429620000 0.108639843334 0.0234511010466
429630000 0.10883446974 0.0234162549097
429640000 0.108748028742 0.0239780156472
429650000 0.108906752753 0.0241104843245
429660000 0.108578774738 0.0242266380238
429670000 0.108319944278 0.0243178113456
429680000 0.108181391289 0.0244026877235
429690000 0.108858952542 0.0245548880041
429700000 0.108482068797 0.024331431121
429710000 0.108703791957 0.0248475361023
429720000 0.109009877868 0.0250963182441
429730000 0.108790427408 0.0252405606487
429740000 0.10869011021 0.0249458684083
429750000 0.108186305049 0.0254559547692
429760000 0.108637943638 0.0255097971862
429770000 0.108572093915 0.0260222892527
429780000 0.108854882715 0.0264247156099
429790000 0.108288705064 0.0262823996961
429800000 0.107995694289 0.0266591281237
429810000 0.107620361687 0.0269261394841
429820000 0.108241553546 0.0264089574376
429830000 0.108021408943 0.0264269930062
429840000 0.108316561399 0.0267390292805
429850000 0.107394778757 0.0268933324045
429860000 0.10820778145 0.0272175705182
429870000 0.107625892527 0.0268264024467
429880000 0.107915210803 0.0273237100945
429890000 0.1081360571 0.0278170425088
429900000 0.107814772146 0.0283531841895
429910000 0.108124069987 0.0279538889507
429920000 0.107971572003 0.0279896160171
429930000 0.10758426367 0.0285236532318
429940000 0.108086761371 0.0292241657234
429950000 0.108084252719 0.0288112994051
429960000 0.107683626833 0.0284698563199
429970000 0.10787634165 0.0287589941663
429980000 0.108243018561 0.028737922495
429990000 0.108298743053 0.0280407837779
430000000 0.107684256345 0.0287925836352
430010000 0.107574004676 0.0294329264351
430020000 0.107640077693 0.0296311239878
430030000 0.107248590097 0.0291995644865
430040000 0.107171939223 0.0298014384559
430050000 0.107510357786 0.0307516475321
430060000 0.107798820268 0.0305877610261
430070000 0.107839361382 0.0304944220343
430080000 0.107477938456 0.0307061061483
430090000 0.107295608074 0.0310150583544
430100000 0.107240836427 0.0310078767642
430110000 0.107097368934 0.0310593222499
430120000 0.106496267575 0.0308247983886
430130000 0.106624150711 0.0318457474308
430140000 0.106960885137 0.0317899820322
430150000 0.106912293702 0.0315617521457
430160000 0.107010999055 0.0318469564182
430170000 0.107944175134 0.0322029875262
430180000 0.107508769241 0.032312928902
430190000 0.107631830917 0.0325838163427
430200000 0.107231890432 0.0321556257756
430210000 0.107300737935 0.0328381114447
430220000 0.107126961557 0.0330415029848
430230000 0.107383516244 0.0331321709057
430240000 0.107291424414 0.0333738232174
430250000 0.107357269116 0.0334914622122
430260000 0.107159434377 0.033829076141
430270000 0.107042811197 0.0339114845707
430280000 0.106932404788 0.0332946791723
430290000 0.106337988399 0.0337277217601
430300000 0.10761434344 0.034353642943
430310000 0.106570323289 0.0342797367434
430320000 0.106629442102 0.0340592019391
430330000 0.1068107228 0.0344680135445
430340000 0.106646808885 0.0352368338778
430350000 0.106786967443 0.0348474001563
430360000 0.106517381354 0.0347413827364
430370000 0.106504523663 0.0355528369415
430380000 0.10683881564 0.035884819452
430390000 0.106873981919 0.0356744500628
430400000 0.106260502866 0.0358432063443
430410000 0.106709481896 0.0355542230638
430420000 0.106523653305 0.0364328342646
430430000 0.106281501303 0.0365289163285
430440000 0.106651296888 0.0366088023113
430450000 0.106567627307 0.0364155884257
430460000 0.106109889252 0.0365712657105
430470000 0.106621605102 0.0372901259069
430480000 0.106460031066 0.0372708175412
430490000 0.106178538564 0.0368836180711
430500000 0.106160674446 0.0373853720875
430510000 0.106215655958 0.0376809732538
430520000 0.106238032514 0.0379399981884
430530000 0.10608129136 0.0374273992071
430540000 0.105720098401 0.0380473237486
430550000 0.105621188326 0.0377813993739
430560000 0.105993764838 0.0382990771368
430570000 0.105625571407 0.0382493458783
430580000 0.105504465117 0.0383754151814
430590000 0.105253096892 0.0390185825847
430600000 0.105701445555 0.0389606788218
430610000 0.105600758891 0.0392397157912
430620000 0.106473537337 0.0391607011258
430630000 0.10595039427 0.0397155772953
430640000 0.105755365614 0.0397192300329
430650000 0.105817651997 0.039517867777
430660000 0.105872728949 0.0397511014281
430670000 0.105651154653 0.0401128464472
430680000 0.105644023124 0.0404547547516
430690000 0.105587325427 0.0404699963478
430700000 0.10560171764 0.0404967738168
430710000 0.105247333685 0.0409419963004
430720000 0.105599455296 0.0408381743422
430730000 0.105618723946 0.0411050183515
430740000 0.105587244617 0.0405756874974
430750000 0.105335369225 0.0412794128214
430760000 0.105351524153 0.0415937646512
430770000 0.105735193257 0.0416224258248
430780000 0.104939436001 0.0414474661217
430790000 0.104994967817 0.0416423700245
430800000 0.105143084788 0.042181942845
430810000 0.104809768682 0.0426356156324
430820000 0.104843877756 0.041540272501
430830000 0.104860787156 0.0422648975017
430840000 0.10519707106 0.0425659360959
430850000 0.105251624011 0.0427137386781
430860000 0.104670114294 0.0430031359218
430870000 0.104693543105 0.0427023868158
430880000 0.105102102755 0.0431819219324
430890000 0.105161276629 0.0432228131928
430900000 0.104517737807 0.0429118599045
430910000 0.105148387391 0.0437155910048
430920000 0.105236748829 0.0445721336892
430930000 0.105004816627 0.0446258192891
430940000 0.104839621893 0.0439228063313
430950000 0.10473118539 0.0440690479044
430960000 0.105058149018 0.0449279027343
430970000 0.104831265048 0.0452221960219
430980000 0.105483946658 0.045001084241
430990000 0.105133264486 0.0450875936561
431000000 0.105219127464 0.0452952608669
431010000 0.105117352734 0.0457132894223
431020000 0.104938563258 0.0451029893495
431030000 0.104725178829 0.0455874074748
431040000 0.104971482587 0.0455758844281
431050000 0.104826863241 0.0459335360044
431060000 0.10503022625 0.0464022450467
431070000 0.104518172937 0.0467809075061
431080000 0.104881286735 0.0466438991084
431090000 0.104769664999 0.0470747126074
431100000 0.104480855794 0.0471309366053
431110000 0.104558446156 0.0466872365597
431120000 0.10410897915 0.0472666831625
431130000 0.104453440497 0.0469236312902
431140000 0.104288907574 0.0470224807696
431150000 0.104034358007 0.0474160185779
431160000 0.104106566404 0.0474520011625
431170000 0.103356140321 0.0479866188545
431180000 0.103725656304 0.0482107357403
431190000 0.104025548612 0.0482472051214
431200000 0.104344514387 0.0485371129647
431210000 0.104580523113 0.0487544272703
431220000 0.104522160927 0.0489552605109
431230000 0.104340389704 0.0492775456618
431240000 0.103816541515 0.0491042000719
431250000 0.103709943467 0.0492122651495
431260000 0.104022557156 0.0493554476227
431270000 0.103944418218 0.0502555220484
431280000 0.104136952401 0.0499580044954
431290000 0.10404235606 0.0500537286944
431300000 0.104265770468 0.0501848343783
431310000 0.104319115692 0.0503089226869
431320000 0.104195358528 0.0501535389335
431330000 0.103585548999 0.0502622793554
431340000 0.10351531321 0.0503116430275
431350000 0.103722915098 0.0506190837687
431360000 0.103708720861 0.0508923618678
431370000 0.10377296051 0.0515280208006
431380000 0.103557451348 0.0515096775447
431390000 0.103274297313 0.0512802144499
431400000 0.103584835558 0.0519109639756
431410000 0.103512076473 0.0520414818284
431420000 0.103344449899 0.0521246559012
431430000 0.103257462454 0.0523949132238
431440000 0.103719547569 0.0527354206257
431450000 0.103729168231 0.0528719488808
431460000 0.103415469329 0.0524306085771
431470000 0.103355484447 0.0527449581532
431480000 0.103226316761 0.052633245452
431490000 0.103322029662 0.0525862663972
431500000 0.103144353241 0.0531382644314
431510000 0.102970661746 0.0531022777149
431520000 0.103141448917 0.0532900195575
431530000 0.103122999131 0.0533366967108
431540000 0.103347064654 0.0537481819485
431550000 0.103065194379 0.0539911044146
431560000 0.103049890958 0.0540815840591
431570000 0.102922583416 0.0545959267503
431580000 0.102741525166 0.0543739224032
431590000 0.103208023149 0.0549127439274
431600000 0.103468348514 0.0544614753757
431610000 0.103258472848 0.0550495739436
431620000 0.103345510733 0.055197251314
431630000 0.103366425844 0.0555760923548
431640000 0.102085512676 0.0551911300756
431650000 0.102097637987 0.0545983965909
431660000 0.102041988633 0.0549730100399
431670000 0.102252438422 0.0556740509274
431680000 0.10257262478 0.0561915180371
431690000 0.10284796748 0.0564628870422
431700000 0.102801946967 0.0564535969463
431710000 0.102576167688 0.056179300015
431720000 0.102566087434 0.0563821070128
431730000 0.103068652311 0.0567467235686
431740000 0.103300248703 0.0570743847025
431750000 0.102692131435 0.0570736003417
431760000 0.103021376565 0.0574834313489
431770000 0.102942558385 0.0575324889649
431780000 0.102453411502 0.0574161918564
431790000 0.102553799496 0.0579127570512
431800000 0.102486309148 0.0580156606792
431810000 0.102739754759 0.058525361537
431820000 0.102526836728 0.0582893976775
431830000 0.102794364437 0.0583159729739
431840000 0.102307548288 0.0582523131488
431850000 0.102260655151 0.0590196468742
431860000 0.102085833889 0.0592973520862
431870000 0.10219465282 0.0590007684308
431880000 0.101872066561 0.0593265211691
431890000 0.102267444938 0.0593250331524
431900000 0.102199204594 0.0599561866459
431910000 0.101989872135 0.0599571019495
431920000 0.101923933442 0.0600169705394
431930000 0.1018642011 0.0601778546286
431940000 0.10148858535 0.0604598173687
431950000 0.102264832801 0.0602548659451
431960000 0.102095553189 0.0601339403119
431970000 0.101676932447 0.0602895608912
431980000 0.101913936653 0.0607412372103
431990000 0.101892683589 0.0610124364002
432000000 0.101604288036 0.0614897528318
432010000 0.10124590556 0.0612713442467
432020000 0.102241749082 0.0613378624911
432030000 0.101799640338 0.0616191319542
432040000 0.102048488633 0.0621527245018
432050000 0.101989957396 0.0625381621641
432060000 0.101271550739 0.0622139487068
432070000 0.101584546781 0.0620916918706
432080000 0.101324838594 0.0624656863061
432090000 0.10155721901 0.0631089936267
432100000 0.101646200829 0.0627556954769
432110000 0.101757991241 0.0633602817926
432120000 0.100780684174 0.0628404138533
432130000 0.10195604461 0.063057327981
432140000 0.101719631267 0.0638276363736
432150000 0.10155227049 0.0635425564909
432160000 0.101120004672 0.0636841393941
432170000 0.101643916857 0.0638901015314
432180000 0.101399314698 0.0642136976241
432190000 0.101004540487 0.0640569093997
432200000 0.101188822035 0.0643299925078
432210000 0.100926476164 0.0642964040109
432220000 0.101024790577 0.0648992935526
432230000 0.101039444604 0.0653520174782
432240000 0.100610442675 0.0654913302768
432250000 0.1007410144 0.0657707260797
432260000 0.100661265703 0.0653574525169
432270000 0.10098430091 0.0658938280104
432280000 0.100860327173 0.0663121527596
432290000 0.101012641875 0.0664264329282
432300000 0.101594189033 0.0667998482294
432310000 0.100972490598 0.0665211729995
432320000 0.101226036289 0.0666341808197
432330000 0.101329809547 0.0667364246588
432340000 0.100463447122 0.0670892765491
432350000 0.100866438458 0.0672490856875
432360000 0.100052229713 0.0674758041749
432370000 0.100685001949 0.067756523812
432380000 0.100619220662 0.0680058670825
432390000 0.100560910972 0.0679191042641
432400000 0.100194110872 0.067653936515
432410000 0.100606364986 0.0684802122927
432420000 0.100555044735 0.0682698832242
432430000 0.101024824565 0.0685371610302
432440000 0.100504455742 0.0687083649151
432450000 0.100784361945 0.0685767232113
432460000 0.100750806278 0.0693500062074
432470000 0.100681794252 0.0690972696775
432480000 0.0997081107756 0.0690779146644
432490000 0.100875379935 0.0690652500516
432500000 0.100916292061 0.0694294596311
432510000 0.100482303382 0.0698109999918
432520000 0.100468991709 0.0700168251609
432530000 0.100654826734 0.0702284516556
432540000 0.100508820378 0.0704270057757
432550000 0.100423663194 0.0702309515797
432560000 0.100121435924 0.0708354232213
432570000 0.100513862666 0.0707911919752
432580000 0.100121482291 0.0717682415772
432590000 0.100388585202 0.0708085313959
432600000 0.100762921138 0.0715571327063
432610000 0.100492210418 0.0715378359544
432620000 0.100116021988 0.0719037347662
432630000 0.100601398946 0.0718645109219
432640000 0.100412422573 0.071715070062
432650000 0.100390996508 0.0721449940637
432660000 0.100086169696 0.0722188454106
432670000 0.100401269588 0.0724550136383
432680000 0.100346941161 0.0724457127145
432690000 0.0996906482328 0.0726600998661
432700000 0.100010647191 0.0726551649471
432710000 0.100381900502 0.0735665757853
432720000 0.100309396327 0.073483908805
432730000 0.0998250359524 0.0734126513703
432740000 0.0998684058357 0.0736982999924
432750000 0.100101405826 0.073920545048
432760000 0.0997795996157 0.0741467358503
432770000 0.100329572001 0.074182088415
432780000 0.0996864386762 0.07449984569
432790000 0.0999361605032 0.0747637979836
432800000 0.0997452060842 0.0753884759239
432810000 0.0993716134385 0.0749235649026
432820000 0.0993882360357 0.0751943185432
432830000 0.0993411487363 0.0752152689538
432840000 0.0996676097175 0.0745424274704
432850000 0.0995455856337 0.0755614005406
432860000 0.0997690280526 0.0758345171565
432870000 0.0996886015105 0.0766755964553
432880000 0.100008844602 0.0768693780357
432890000 0.0997270137935 0.0765354756062
432900000 0.0997613727475 0.0768164122516
432910000 0.0996534413304 0.0766432493064
432920000 0.0994278034766 0.0763086870816
432930000 0.0992270715516 0.0771381740131
432940000 0.0991839397931 0.0774439844684
432950000 0.0996267526567 0.0773579649306
432960000 0.0994959759139 0.0772433518681
432970000 0.0991544199212 0.0775551725146
432980000 0.098922583938 0.0781249335196
432990000 0.0990846528869 0.0778423346176
433000000 0.0989132450238 0.0780181929294
433010000 0.0989606731177 0.0776143752576
433020000 0.0995306525682 0.0782230978918
433030000 0.0998262828342 0.0788645612779
433040000 0.0997695596275 0.0790862596935
433050000 0.0994845857648 0.0789035459056
433060000 0.0996294671902 0.0787894336351
433070000 0.0999865440771 0.0796382907155
433080000 0.0995188362668 0.0796570120043
433090000 0.0993674685431 0.0799734498678
433100000 0.0995315218679 0.0800791130525
433110000 0.0985986500081 0.0800486059679
433120000 0.0983209520233 0.0801772914241
433130000 0.0985220036502 0.0808834430873
433140000 0.0988556286145 0.081257953065
433150000 0.0994182535575 0.0805044393505
433160000 0.0984698471427 0.0806055212221
433170000 0.0981897454853 0.0812519904674
433180000 0.0988570345937 0.0812459282687
433190000 0.0984707644777 0.0817280302717
433200000 0.0982957130972 0.0819597208251
433210000 0.0988391827925 0.0814965289952
433220000 0.0992333912129 0.0825700631678
433230000 0.0990942129425 0.0820281019234
433240000 0.0990275487994 0.082748245548
433250000 0.0988075164655 0.0827006259834
433260000 0.098982901122 0.0825085383211
433270000 0.0979265554117 0.0823351565368
433280000 0.0996645879983 0.0818061828096
433290000 0.100374426971 0.0811085455834
433300000 0.109509133743 0.0902693742417
433310000 0.0970605364245 0.0822939341407
433320000 0.0982340869591 0.0816690731649
433330000 0.103563274623 0.0843868719984
433340000 0.0951124988163 0.0820722069754
433350000 0.0982015023056 0.0832731509798
433360000 0.0993426772826 0.0839267996497
433370000 0.0985050548504 0.0841316853951
433380000 0.098782852692 0.0845614194956
433390000 0.0987682041665 0.0850195092607
433400000 0.0985480322871 0.0849831413186
433410000 0.0989142257243 0.0849811138139
433420000 0.0988083541308 0.0855406932107
433430000 0.0986411008027 0.0856993700347
433440000 0.098541992653 0.0863076623931
433450000 0.0985717657134 0.0862278669899
433460000 0.0988485276321 0.0861970660722
433470000 0.0988708112517 0.086060855571
433480000 0.0985232995123 0.0867911520466
433490000 0.098523749736 0.0864795666874
433500000 0.0986448271869 0.0865105994113
433510000 0.0988609715613 0.0868671861791
433520000 0.0986201970574 0.0873650742207
433530000 0.0992228000277 0.0872844169861
433540000 0.0986950125213 0.0881278771312
433550000 0.0981699074965 0.0874359573908
433560000 0.098199091594 0.0880716694779
433570000 0.0983435868527 0.0886821634186
433580000 0.0979456261938 0.0887510268371
433590000 0.0978838264294 0.0883974590355
433600000 0.098278769265 0.0889937496957
433610000 0.0989664834849 0.0879943230308
433620000 0.0988530131977 0.0890005545151
433630000 0.0985629379986 0.088943122677
433640000 0.0979745998883 0.0895516648303
433650000 0.0982493891343 0.0893837449212
433660000 0.0978341846064 0.0895598453211
433670000 0.0993482794891 0.0900212883568
433680000 0.0981238415588 0.0901084212355
433690000 0.0976383763903 0.0900700496448
433700000 0.0980726057879 0.0900858941357
433710000 0.0977393986021 0.0907132602401
433720000 0.0976207481143 0.0911815307991
433730000 0.0976773499693 0.0909680931735
433740000 0.0979243574768 0.0919352590464
433750000 0.0983488532544 0.0912594488538
433760000 0.0985504343345 0.0921122809882
433770000 0.0977183887406 0.0915577196827
433780000 0.0977102653301 0.09129536943
433790000 0.0980416995328 0.0918650779427
433800000 0.0981591203828 0.0918666585968
433810000 0.0984190861883 0.0927022540043
433820000 0.0976312874382 0.0927077686267
433830000 0.0981085109618 0.0933383561538
433840000 0.0977460502365 0.092390074206
433850000 0.0983060987575 0.092679848054
433860000 0.0980139733157 0.0929612845052
433870000 0.0981124579829 0.093232001113
433880000 0.0980804064119 0.093018626971
433890000 0.0980003606992 0.0931771208226
433900000 0.0983135338253 0.093335685045
433910000 0.097997604207 0.0937701617368
433920000 0.0977379686597 0.0941191442586
433930000 0.0975543314047 0.0926814265142
433940000 0.0978381536433 0.0945267527728
433950000 0.0977543447688 0.0947143234749
433960000 0.0977993674455 0.0950078005977
433970000 0.098083670575 0.095551798983
433980000 0.0980573669575 0.0955005636018
433990000 0.0977807686262 0.095847093407
434000000 0.0977533338363 0.0957926746994
434010000 0.0979913825682 0.0964156315404
434020000 0.0978527883536 0.0967194369182
434030000 0.0972327428926 0.0965211681472
434040000 0.0972186484825 0.0960984499822
434050000 0.0975964133346 0.0970902173869
434060000 0.0978760488088 0.096799188261
434070000 0.0975763408255 0.0972887526243
434080000 0.0976519905498 0.0973910942745
434090000 0.0982377794313 0.0968753001211
434100000 0.0981558380538 0.0976566876558
434110000 0.0980847086147 0.0976957088366
434120000 0.098112768945 0.0975680583331
434130000 0.0980984317469 0.0981143349543
434140000 0.0976133089684 0.0975948309863
434150000 0.0982350353144 0.0978180619638
434160000 0.0971273823178 0.0988644653602
434170000 0.0980223840225 0.099023231028
434180000 0.0976168512002 0.0994317554146
434190000 0.0977743488631 0.0995497026396
434200000 0.0973392973303 0.0993080262865
434210000 0.0973269479495 0.0993756509285
434220000 0.0974106608622 0.099748431488
434230000 0.0970963813435 0.100539502512
434240000 0.0972438645262 0.100377852805
434250000 0.0983429806809 0.100905656366
434260000 0.0972194270378 0.100679466951
434270000 0.0975142226459 0.100638517678
434280000 0.0975573041495 0.101384467194
434290000 0.0972454028996 0.100936090017
434300000 0.0977642731989 0.101141265598
434310000 0.097727186672 0.100976137585
434320000 0.0974569057068 0.101962343347
434330000 0.0973265999927 0.101376752608
434340000 0.0974642634918 0.101633479181
434350000 0.0977662711167 0.102251185438
434360000 0.0970602635907 0.102139437654
434370000 0.0978714909107 0.102015534112
434380000 0.0975608253343 0.102675372862
434390000 0.0979246452043 0.102796148661
434400000 0.0971974812066 0.102745681677
434410000 0.0968898029272 0.103255433651
434420000 0.0973431147821 0.103438639608
434430000 0.097953456665 0.103483245119
434440000 0.0977542519661 0.103431598324
434450000 0.0971996188097 0.103025471607
434460000 0.0974367219749 0.103798333317
434470000 0.0973027536285 0.104061359878
434480000 0.0974994020089 0.104031114847
434490000 0.0972054874419 0.104266145295
434500000 0.0973986708576 0.10475463752
434510000 0.0978308289779 0.104352799327
434520000 0.0975372744003 0.105162905938
434530000 0.0969389793373 0.104671594658
434540000 0.0978583187515 0.105457486902
434550000 0.0979113331943 0.106701716282
434560000 0.0982023727638 0.105776473404
434570000 0.0980208921198 0.106948497585
434580000 0.0977011641521 0.10686358582
434590000 0.0971463271305 0.106624683765
434600000 0.0973260350296 0.106599817146
434610000 0.0969790849521 0.106517177258
434620000 0.0971799317119 0.107054593373
434630000 0.0976048054534 0.107003135938
434640000 0.0979454925117 0.10710569864
434650000 0.0976690965424 0.107501851789
434660000 0.0977835490368 0.107870258399
434670000 0.0977057198407 0.107645080124
434680000 0.0975646555968 0.107568943298
434690000 0.0975971473637 0.1076908859
434700000 0.0970114027881 0.108591317214
434710000 0.0970560064327 0.108539573536
434720000 0.0971481483339 0.108345551896
434730000 0.0972930581995 0.108849753048
434740000 0.0974089539852 0.109036086629
434750000 0.0974882367911 0.108601538251
434760000 0.0972486837772 0.10937070395
434770000 0.0973388993313 0.108782822717
434780000 0.0977645821614 0.109825412823
434790000 0.0975348310181 0.109765922587
434800000 0.0976622267595 0.109477114738
434810000 0.097308726353 0.110156410081
434820000 0.0978498400688 0.110311539698
434830000 0.0973515437061 0.110636703391
434840000 0.0977183389247 0.11027703408
434850000 0.0971707312673 0.110919667421
434860000 0.097360220005 0.11086713862
434870000 0.0972552619441 0.111814451385
434880000 0.0973364773086 0.111337540069
434890000 0.097370577346 0.112233101794
434900000 0.0973057534672 0.112075489646
434910000 0.0971852737062 0.112285323786
434920000 0.097263098975 0.112313690235
434930000 0.0973076155832 0.112321916162
434940000 0.0976367613045 0.112195523468
434950000 0.0970976101889 0.112803395744
434960000 0.0971101985248 0.112696556273
434970000 0.0972310391578 0.113046274531
434980000 0.0975943558635 0.113261909935
434990000 0.0973930391958 0.114175423225
435000000 0.0972190854674 0.113615573813
435010000 0.0971582351169 0.113593573465
435020000 0.0974560153722 0.113737581774
435030000 0.0974226063323 0.11416297794
435040000 0.0978063126208 0.114105033067
435050000 0.0970541997328 0.114854576488
435060000 0.0975652029965 0.114769389713
435070000 0.0972330481427 0.11476052164
435080000 0.0971840212553 0.114864916661
435090000 0.0970534384537 0.115289685919
435100000 0.0970122925608 0.115080886404
435110000 0.0972335906293 0.11508256693
435120000 0.0978529458047 0.115075964266
435130000 0.0971674367401 0.115505037836
435140000 0.0974555827496 0.116090484051
435150000 0.0973194876997 0.116409814468
435160000 0.0977478781318 0.116541378059
435170000 0.0975518081071 0.117225981691
435180000 0.0976220930188 0.117419300696
435190000 0.0972595215583 0.11697978042
435200000 0.0973263144586 0.117143583752
435210000 0.0975235094132 0.117382808178
435220000 0.0971399953397 0.117428026783
435230000 0.0973867610466 0.117646076104
435240000 0.0974891140223 0.117354591308
435250000 0.0967499078337 0.117415152589
435260000 0.0971678668098 0.117951838517
435270000 0.0972868263621 0.117936612276
435280000 0.0975841409242 0.118908876048
435290000 0.0976112882527 0.118911565623
435300000 0.0968751959233 0.11961653487
435310000 0.0975535961588 0.119454767517
435320000 0.0974382777247 0.119083649509
435330000 0.0977084512524 0.119118841235
435340000 0.0976847814311 0.119454896546
435350000 0.0968390297931 0.120024148547
435360000 0.0971624992305 0.119956152394
435370000 0.0975223264178 0.120573989504
435380000 0.0975604105386 0.120537329429
435390000 0.0972539843876 0.121015538138
435400000 0.0975876993379 0.120931579221
435410000 0.0974938328077 0.121033980333
435420000 0.0976773147248 0.121164696635
435430000 0.0977299353593 0.121648028097
435440000 0.0978898982262 0.121688116094
435450000 0.0982119596384 0.121746596924
435460000 0.0983922244773 0.121699977408
435470000 0.0980857275041 0.122140986754
435480000 0.0978004490489 0.122110002354
435490000 0.0956283307276 0.128974398085
435500000 0.0977841580912 0.12281461553
435510000 0.0975272786658 0.122947165479
435520000 0.0975017421165 0.122759723973
435530000 0.0976601376879 0.123187995695
435540000 0.0979975245032 0.123004662916
435550000 0.0973579960734 0.123431233145
435560000 0.097355613122 0.123853999048
435570000 0.097021022541 0.123964994545
435580000 0.0974303937528 0.123402481217
435590000 0.0975035503699 0.124139365944
435600000 0.0972601185212 0.124718423756
435610000 0.0971591259774 0.124894396105
435620000 0.0974154576146 0.124919346696
435630000 0.0977768113606 0.125013241397
435640000 0.0980221162387 0.125569824597
435650000 0.0976185619844 0.125317444787
435660000 0.0984380895564 0.125409522303
435670000 0.0980861145354 0.12555578685
435680000 0.0978305226025 0.126327892131
435690000 0.0982212041782 0.125456249713
435700000 0.0978920392257 0.126153224421
435710000 0.0979802875969 0.126349201885
435720000 0.0974625874312 0.12612542008
435730000 0.0974356941367 0.126642310193
435740000 0.0974891122283 0.126560396937
435750000 0.0979179804553 0.126865505396
435760000 0.0978198465053 0.127154915697
435770000 0.0975169899983 0.127479487336
435780000 0.0979242592052 0.127366188126
435790000 0.0981747837632 0.127950898805
435800000 0.0980324091827 0.127745362633
435810000 0.0982359933485 0.128445472903
435820000 0.0983418907938 0.128212962197
435830000 0.0980741352496 0.128812723269
435840000 0.0977244894816 0.129043718805
435850000 0.09778104107 0.129291725539
435860000 0.0976537062625 0.129421771348
435870000 0.0984266630648 0.129697597903
435880000 0.0981013809348 0.129561821195
435890000 0.0982399111327 0.129325909964
435900000 0.0980380510277 0.129262438285
435910000 0.0980835175033 0.129846710168
435920000 0.0979097120072 0.129934861378
435930000 0.097919409247 0.13012863631
435940000 0.0978421762566 0.130298153958
435950000 0.0980697844705 0.130846062638
435960000 0.0981499185796 0.130914485839
435970000 0.09802405582 0.131258526708
435980000 0.0978518094396 0.131149759026
435990000 0.0979258954727 0.13123916013
436000000 0.098499106577 0.131449571947
436010000 0.0984260277417 0.131527122821
436020000 0.0977229358413 0.131468969169
436030000 0.0985275567813 0.131859328913
436040000 0.0984494925531 0.131945928295
436050000 0.0982132978897 0.132014892388
436060000 0.0984153988621 0.132465135117
436070000 0.0979132315035 0.132761431252
436080000 0.0981457613326 0.133072989342
436090000 0.0985722526661 0.132857103256
436100000 0.0982333587394 0.133281517972
436110000 0.0985467398056 0.133009468807
436120000 0.0982439702414 0.133619358544
436130000 0.0984462084402 0.13347654112
436140000 0.0983098321065 0.133822676377
436150000 0.0979948000864 0.134388225829
436160000 0.0982729090868 0.134266856422
436170000 0.0981875731633 0.134475398062
436180000 0.0983305749454 0.135046358935
436190000 0.0985031162872 0.135524053638
436200000 0.0977851192647 0.1355437072
436210000 0.0994936455021 0.135846763158
436220000 0.0990555073013 0.135541246985
436230000 0.0989280654179 0.135782855931
436240000 0.0985835586248 0.135846638775
436250000 0.0988028259894 0.136010932342
436260000 0.0986986073256 0.135709783073
436270000 0.0987387678058 0.136366505501
436280000 0.0985945664426 0.136952290123
436290000 0.0986646304869 0.137425857959
436300000 0.0988468458478 0.136726675449
436310000 0.0983879886558 0.137073757868
436320000 0.0988213210813 0.13712920445
436330000 0.0979779744991 0.136763021335
436340000 0.09865314507 0.136839482252
436350000 0.0984615068547 0.137529643941
436360000 0.0986509399811 0.138109518517
436370000 0.0990446689625 0.138050203384
436380000 0.0991607914918 0.137736650199
436390000 0.0988259389876 0.137794045221
436400000 0.0986344065191 0.138254999077
436410000 0.0984924705897 0.138184307116
436420000 0.0981407593239 0.138273262037
436430000 0.098903542543 0.138986734997
436440000 0.0989180044126 0.139204321339
436450000 0.0992858165977 0.139438068108
436460000 0.0991268301382 0.139678270252
436470000 0.0985615540048 0.139874617316
436480000 0.0989493661271 0.140069166253
436490000 0.098743176025 0.140411384653
436500000 0.0993220000083 0.140060589687
436510000 0.0988245049285 0.14052992792
436520000 0.0993593751583 0.139726852372
436530000 0.0994864212115 0.140776451804
436540000 0.0990369924433 0.140911428307
436550000 0.0992884018425 0.140603773558
436560000 0.0988573399016 0.141142435221
436570000 0.0993976098598 0.141064667895
436580000 0.0992197850969 0.141338943855
436590000 0.0991454233521 0.141494538742
436600000 0.098655146228 0.141336578537
436610000 0.0992592762163 0.142317850874
436620000 0.0990740509471 0.14218028756
436630000 0.0996847516759 0.142160295549
436640000 0.0988886188658 0.142265757643
436650000 0.0987630803213 0.143048533184
436660000 0.0989468525274 0.142856885161
436670000 0.100140523302 0.143349614752
436680000 0.0993711548582 0.143171271873
436690000 0.0989820522332 0.143394295683
436700000 0.099091883248 0.14345716421
436710000 0.099307927043 0.143301042372
436720000 0.0990553334907 0.14347435858
436730000 0.0994807906497 0.143889418345
436740000 0.0991482905468 0.144261955265
436750000 0.0992196731158 0.144496491192
436760000 0.0994455041195 0.144593113421
436770000 0.0990105191205 0.144660202328
436780000 0.0993285352461 0.145075876946
436790000 0.0999271335306 0.14570779248
436800000 0.0997704879336 0.144686639137
436810000 0.100043168837 0.145377417082
436820000 0.0999354958178 0.145575121731
436830000 0.0996941237974 0.14575787684
436840000 0.0995953769975 0.146069192085
436850000 0.09953432745 0.146348900546
436860000 0.0993353809952 0.146901200724
436870000 0.0993414307682 0.147153727168
436880000 0.0999900721894 0.147145222975
436890000 0.0993701922103 0.147209498412
436900000 0.0995758892175 0.1470139758
436910000 0.0996131947737 0.147360734496
436920000 0.0996053356435 0.147227691754
436930000 0.0989623305732 0.147157156881
436940000 0.0998204395412 0.147967778195
436950000 0.0994432090676 0.148023000796
436960000 0.100031924063 0.147737288257
436970000 0.0998708310515 0.148356237712
436980000 0.0998516962628 0.148578664887
436990000 0.0996741503235 0.1488182345
437000000 0.100257737544 0.149125061817
437010000 0.0998464861191 0.149739384376
437020000 0.100132742323 0.149126342916
437030000 0.0997182360091 0.149797409148
437040000 0.099894955848 0.149320712843
437050000 0.0998147993592 0.150044108079
437060000 0.100142937884 0.14968024459
437070000 0.0997521762475 0.149539996057
437080000 0.0998087937372 0.149838608778
437090000 0.0999377256485 0.150171537131
437100000 0.0999045025487 0.150111480492
437110000 0.100027383104 0.150568542519
437120000 0.100292674722 0.150313797955
437130000 0.100067000234 0.150850005891
437140000 0.100119945356 0.15082652217
437150000 0.100484902546 0.151655388527
437160000 0.100307766063 0.151441277099
437170000 0.099692658729 0.151519882778
437180000 0.100025572867 0.151552686672
437190000 0.100424068997 0.152119569267
437200000 0.100491121165 0.152546747336
437210000 0.100199803044 0.152283951002
437220000 0.100837266117 0.152604726832
437230000 0.100392002701 0.152926771862
437240000 0.0995772957358 0.154071262997
437250000 0.0985363311391 0.15516304532
437260000 0.097781554978 0.157066822271
437270000 0.0980327663574 0.155845367505
437280000 0.0994165473626 0.155259169017
437290000 0.100069087962 0.153976158143
437300000 0.100269388306 0.154426016773
437310000 0.100514388849 0.154235184656
437320000 0.10083585382 0.154350794746
437330000 0.100275855026 0.154489304263
437340000 0.100156951749 0.154809519854
437350000 0.100727732395 0.154503064995
437360000 0.0997646882832 0.154377037744
437370000 0.0998364900001 0.155187685303
437380000 0.100175799157 0.154689589269
437390000 0.101068144405 0.155293612648
437400000 0.0998994173414 0.155208031685
437410000 0.100826152367 0.155591136656
437420000 0.100811786919 0.155921074767
437430000 0.100998449914 0.15672155804
437440000 0.101007957228 0.156269879096
437450000 0.100748527323 0.155907278505
437460000 0.100667611001 0.156586768659
437470000 0.100456429215 0.156422329791
437480000 0.100645908378 0.156826549802
437490000 0.100905089159 0.157553823957
437500000 0.10037477707 0.1571516933
437510000 0.10089564455 0.157388086449
437520000 0.10118124688 0.157485053105
437530000 0.101187957643 0.158302555885
437540000 0.101122448574 0.158162542796
437550000 0.101001579988 0.158792686239
437560000 0.100788447514 0.158335346895
437570000 0.100940915791 0.158535997263
437580000 0.101122894135 0.158403434398
437590000 0.100838258413 0.158742188977
437600000 0.100437534904 0.158851186848
437610000 0.100819614042 0.158822409791
437620000 0.100574671153 0.159091978876
437630000 0.100701520172 0.159790923897
437640000 0.100648145278 0.160142972534
437650000 0.100690304423 0.159810090854
437660000 0.100829597256 0.160140370507
437670000 0.100977835764 0.16037057762
437680000 0.100994563326 0.160171100138
437690000 0.100682592065 0.160609592884
437700000 0.10097477544 0.160548654337
437710000 0.101229158024 0.160880336447
437720000 0.101648274614 0.161306256877
437730000 0.101436432077 0.161046486783
437740000 0.101136591155 0.160959812928
437750000 0.101119290884 0.161151280999
437760000 0.101158599435 0.161471259011
437770000 0.101056707558 0.161463823547
437780000 0.101362706239 0.161878053112
437790000 0.101788605393 0.161909526006
437800000 0.101617839668 0.162477700177
437810000 0.101586263857 0.162251435346
437820000 0.101095652763 0.162767529271
437830000 0.101401574107 0.162674863079
437840000 0.101136869141 0.162886965139
437850000 0.101517496239 0.162681380447
437860000 0.101246259483 0.163060003139
437870000 0.101520578063 0.16317167577
437880000 0.101763785544 0.163737467301
437890000 0.101294172653 0.163467972183
437900000 0.101866834196 0.164073750912
437910000 0.101791070334 0.16385423056
437920000 0.101708784081 0.164103282504
437930000 0.101625558738 0.164218861511
437940000 0.10143967371 0.164360658531
437950000 0.101861176284 0.164978634504
437960000 0.10163589559 0.165388365459
437970000 0.102019390229 0.165243246487
437980000 0.101516963069 0.164981474048
437990000 0.101923148536 0.165072844373
438000000 0.10210592489 0.164937244483
438010000 0.102208859743 0.165344742908
438020000 0.102246068342 0.165610484016
438030000 0.102173039247 0.16544811964
438040000 0.101538427969 0.165842151134
438050000 0.102064823635 0.166325173294
438060000 0.101691638198 0.166318255708
438070000 0.1020470342 0.16649586912
438080000 0.102112463586 0.166973926232
438090000 0.102055146167 0.166633617951
438100000 0.101454147593 0.166902135881
438110000 0.102096622892 0.16720987624
438120000 0.101985511421 0.167492075696
438130000 0.10204072122 0.167237156685
438140000 0.10218259846 0.16756963795
438150000 0.102014436643 0.167514025191
438160000 0.102270591935 0.168041029259
438170000 0.102311882472 0.168649918234
438180000 0.102746333591 0.168413618988
438190000 0.102531071541 0.168490667678
438200000 0.102305102745 0.168948122549
438210000 0.102168275054 0.168880087437
438220000 0.101756716244 0.168732486792
438230000 0.102066521322 0.169395052756
438240000 0.102367806054 0.169155860221
438250000 0.102649832354 0.169683409279
438260000 0.102309013518 0.17000082334
438270000 0.102675242233 0.169553370081
438280000 0.102455480904 0.16995073977
438290000 0.102287592969 0.169952222363
438300000 0.102067273893 0.170291396762
438310000 0.102798912276 0.170341147027
438320000 0.102909045957 0.170159493562
438330000 0.102519544192 0.170821633098
438340000 0.102447846976 0.170698682503
438350000 0.102538434711 0.170965645859
438360000 0.102299963586 0.170996376475
438370000 0.102357224955 0.171569447969
438380000 0.10239277859 0.171714320348
438390000 0.102253798715 0.171570224974
438400000 0.10304837325 0.172071378119
438410000 0.102605546579 0.172431472628
438420000 0.102335149034 0.17306651468
438430000 0.102618994199 0.17266781808
438440000 0.10304311273 0.17278742365
438450000 0.102954655657 0.172719125223
438460000 0.103312008977 0.173227970164
438470000 0.102739626937 0.172978984888
438480000 0.103126482183 0.173637725286
438490000 0.103120792182 0.173004918728
438500000 0.102951857556 0.174067451179
438510000 0.103125256036 0.173629917377
438520000 0.103237990378 0.173781863425
438530000 0.103026990246 0.173853640952
438540000 0.102988248441 0.174169256361
438550000 0.102792954508 0.174279011654
438560000 0.102904258578 0.174432897457
438570000 0.102703124477 0.174404958407
438580000 0.103089142515 0.174725789092
438590000 0.103056507171 0.175636134066
438600000 0.102959216644 0.175271216616
438610000 0.1030729605 0.175050108419
438620000 0.103143876369 0.176128405482
438630000 0.102976139692 0.176242586859
438640000 0.103261619611 0.176196762907
438650000 0.103197830579 0.17639452997
438660000 0.103374250874 0.176355843141
438670000 0.102625494206 0.176909072874
438680000 0.102860417746 0.176740151814
438690000 0.102913210598 0.17626157152
438700000 0.103585561294 0.176443885751
438710000 0.103211040315 0.176578510026
438720000 0.102996969233 0.176969982045
438730000 0.103599588342 0.177772768234
438740000 0.103903232759 0.177713861721
438750000 0.10345965023 0.178100231232
438760000 0.103484586993 0.178124535595
438770000 0.103608693483 0.178524123621
438780000 0.103554925366 0.178133631083
438790000 0.103369835698 0.178837163606
438800000 0.103234211899 0.178382086409
438810000 0.102925564478 0.178723329404
438820000 0.103650436796 0.178858593449
438830000 0.103660918145 0.179081790526
438840000 0.103576722517 0.178818840487
438850000 0.103696454617 0.178931613231
438860000 0.103465157741 0.179653512429
438870000 0.103836326815 0.179622025937
438880000 0.104048403674 0.180110587236
438890000 0.103630154611 0.180581542094
438900000 0.103182126536 0.180422166739
438910000 0.103307233251 0.181311997197
438920000 0.10390238809 0.18077943786
438930000 0.10355319993 0.181345013717
438940000 0.103766230457 0.181087887525
438950000 0.103729986043 0.181490633068
438960000 0.103628020119 0.181462059849
438970000 0.103678079008 0.181333446961
438980000 0.103449384821 0.18169257613
438990000 0.103246124728 0.182053782732
439000000 0.103540716312 0.182197746662
439010000 0.103843832615 0.182394855647
439020000 0.103794231353 0.182563236353
439030000 0.10380464479 0.182870808455
439040000 0.103907092797 0.183090863778
439050000 0.10342249944 0.18291532207
439060000 0.104343595579 0.183177865032
439070000 0.10436968873 0.183742955925
439080000 0.104280763124 0.183841913161
439090000 0.104235878949 0.183931465756
439100000 0.104164399061 0.184044476077
439110000 0.103884979354 0.184229047826
439120000 0.104757603248 0.184231772323
439130000 0.103796087634 0.184077474716
439140000 0.103836570257 0.18432096745
439150000 0.104137845666 0.184512478453
439160000 0.104134720084 0.185464397884
439170000 0.104460390938 0.185063755939
439180000 0.103808805571 0.185140232595
439190000 0.104256705388 0.185373240837
439200000 0.104479992579 0.185838873289
439210000 0.104355704619 0.185432418427
439220000 0.104450432218 0.185820079342
439230000 0.10480709578 0.185871683805
439240000 0.103998551104 0.186850416315
439250000 0.104554211704 0.185988170726
439260000 0.104603932534 0.186423202857
439270000 0.104653173229 0.186720584094
439280000 0.105121568694 0.186933198625
439290000 0.104580961551 0.187180416343
439300000 0.104716277228 0.187484665109
439310000 0.104413540635 0.187918225081
439320000 0.104685526469 0.188445678194
439330000 0.104586914021 0.188029542425
439340000 0.104297613986 0.188199055414
439350000 0.104668122498 0.187767374345
439360000 0.104561010574 0.188110820468
439370000 0.104921283284 0.188379323384
439380000 0.104620788979 0.189015526797
439390000 0.104687089389 0.18898435783
439400000 0.105008335459 0.189358828595
439410000 0.104723653701 0.1892619946
439420000 0.104459191343 0.189301637374
439430000 0.104693248716 0.189378459034
439440000 0.104802674133 0.189620822065
439450000 0.10534566101 0.189988360589
439460000 0.10513743911 0.190018296089
439470000 0.10501388816 0.190449255114
439480000 0.105292895966 0.190500706441
439490000 0.105076429376 0.191004013077
439500000 0.10540876588 0.190686201928
439510000 0.105432992691 0.191304284481
439520000 0.104976097658 0.191252115201
439530000 0.104778115846 0.191513481958
439540000 0.104697307962 0.191629641804
439550000 0.105236025715 0.191658735653
439560000 0.105395417017 0.191115352611
439570000 0.105607477541 0.191698691207
439580000 0.105477574817 0.191924971826
439590000 0.105732334704 0.19229922004
439600000 0.105743687569 0.192324578832
439610000 0.106194042559 0.192989459818
439620000 0.105468748329 0.194240158327
439630000 0.106147721915 0.193321432847
439640000 0.106939911138 0.192609790089
439650000 0.105402867745 0.193117540837
439660000 0.105517296258 0.193311756506
439670000 0.10569115695 0.193802537156
439680000 0.105759781725 0.193826734305
439690000 0.105855141321 0.193942533201
439700000 0.105248229293 0.194352312112
439710000 0.105720439616 0.194612711439
439720000 0.105304289676 0.194666135919
439730000 0.105886162192 0.194568186567
439740000 0.105498048006 0.194948496758
439750000 0.105481032599 0.194934681977
439760000 0.105830463878 0.195076930979
439770000 0.105743298459 0.195181164632
439780000 0.105521219178 0.195305861183
439790000 0.105873272035 0.195586292906
439800000 0.105417008418 0.19565864459
439810000 0.105795170121 0.195878051106
439820000 0.105880184723 0.19605853738
439830000 0.10648267736 0.196793169089
439840000 0.105813620106 0.196045618017
439850000 0.105175482553 0.1960188285
439860000 0.106044273226 0.197124989895
439870000 0.105840668074 0.196637398863
439880000 0.105209210145 0.196583616493
439890000 0.106003731445 0.197305050862
439900000 0.106079716847 0.197518282948
439910000 0.106258315644 0.197718437069
439920000 0.106380050362 0.198137014017
439930000 0.106378930561 0.198545029116
439940000 0.105883157647 0.198054558997
439950000 0.105884863341 0.198546135093
439960000 0.105875624893 0.198741271796
439970000 0.106248502265 0.199459469394
439980000 0.106400461149 0.199391032833
439990000 0.106693021129 0.199495481663
440000000 0.106518288545 0.199770630543
440010000 0.106859034159 0.199950556229
440020000 0.10648408524 0.199163773106
440030000 0.106819901891 0.199638129791
440040000 0.106425692326 0.199842011633
440050000 0.106756219616 0.200328270962
440060000 0.106349527275 0.200811126898
440070000 0.106264595285 0.20082316364
440080000 0.10689406892 0.201079000491
440090000 0.106959528625 0.201321324259
440100000 0.10693561987 0.201566852042
440110000 0.10668391039 0.201770150337
440120000 0.106248928924 0.202112358982
440130000 0.106344709241 0.201815862026
440140000 0.106295577748 0.202241996547
440150000 0.106523412072 0.202095014295
440160000 0.107231698446 0.201934197833
440170000 0.106206385212 0.202129410484
440180000 0.106901186041 0.202450670405
440190000 0.106898303348 0.202189547951
440200000 0.107351378197 0.202622305994
440210000 0.106779303489 0.203330271604
440220000 0.106804190783 0.203525649894
440230000 0.107056523635 0.203450636342
440240000 0.106447524456 0.203602671001
440250000 0.106321497965 0.203910095183
440260000 0.107382722723 0.204545434318
440270000 0.106980231512 0.204294504256
440280000 0.10729882629 0.204134203637
440290000 0.107339559242 0.204401089659
440300000 0.107555163245 0.204391131845
440310000 0.106667935439 0.205049618119
440320000 0.107024998005 0.204936484429
440330000 0.106836375575 0.204976278594
440340000 0.107397946507 0.205313331278
440350000 0.107490465048 0.205810458494
440360000 0.106992504192 0.205345576535
440370000 0.107086579958 0.205629254027
440380000 0.107215284735 0.206040494574
440390000 0.10745182126 0.206279520088
440400000 0.107138069467 0.206881712131
440410000 0.107405056474 0.206410273752
440420000 0.107442085011 0.206353515851
440430000 0.108066297985 0.206297305264
440440000 0.107659152271 0.20704379935
440450000 0.107921353288 0.206997428932
440460000 0.107567295384 0.207189673416
440470000 0.107959144522 0.207656208585
440480000 0.108134104928 0.207377337599
440490000 0.10848772757 0.207543878295
440500000 0.107542186744 0.207670219161
440510000 0.107330114655 0.208642329277
440520000 0.108212141325 0.20932673387
440530000 0.108394899216 0.210750988213
440540000 0.111534369016 0.211480503642
440550000 0.112386195708 0.212341478022
440560000 0.107438706775 0.210411402375
440570000 0.108292394861 0.209211176784
440580000 0.108057825911 0.209129228931
440590000 0.108135138444 0.209656551041
440600000 0.10783000476 0.209685106975
440610000 0.108317154244 0.209805954697
440620000 0.108698550188 0.210320105077
440630000 0.108706937283 0.210767290689
440640000 0.108712424471 0.210992519797
440650000 0.107806411455 0.210582461443
440660000 0.108115465521 0.21104320565
440670000 0.108316350629 0.210890618646
440680000 0.108034687179 0.211097643489
440690000 0.108046868639 0.211190137974
440700000 0.108494775542 0.21128790782
440710000 0.109133372195 0.212266297684
440720000 0.109151228601 0.212648358283
440730000 0.108850532815 0.212086602798
440740000 0.109072823926 0.211558605863
440750000 0.109026203163 0.212538881575
440760000 0.108514413883 0.21216444405
440770000 0.108892346353 0.213093892225
440780000 0.109568284534 0.212997360539
440790000 0.108822610749 0.213081714863
440800000 0.109263640801 0.213141451713
440810000 0.109436992632 0.213245695851
440820000 0.109094499199 0.21346031335
440830000 0.108643494008 0.213720301236
440840000 0.109203013057 0.213796927112
440850000 0.109332962091 0.214393695084
440860000 0.108803180242 0.214363776978
440870000 0.109245497635 0.214484225907
440880000 0.109207005787 0.214761419463
440890000 0.109515578897 0.214481438133
440900000 0.109637208674 0.215033711332
440910000 0.109332255295 0.214847424158
440920000 0.109932472333 0.215308422881
440930000 0.109407770584 0.215546227031
440940000 0.109317344694 0.21622828272
440950000 0.109689985886 0.215879124634
440960000 0.109884801527 0.216394489755
440970000 0.109290337115 0.216584441496
440980000 0.10971717637 0.216759039896
440990000 0.109892799935 0.216542809997
441000000 0.10936196876 0.216557508575
441010000 0.110267055032 0.216816907718
441020000 0.10972679312 0.21754136236
441030000 0.110030316644 0.217344339122
441040000 0.109766919373 0.218143105295
441050000 0.109749949428 0.218103253256
441060000 0.109870387407 0.218217150219
441070000 0.109602918163 0.218553368862
441080000 0.109592749193 0.218381806773
441090000 0.11036192445 0.218974914235
441100000 0.110291827075 0.219441121112
441110000 0.11051200606 0.219459954225
441120000 0.109807386315 0.219046518479
441130000 0.110402646095 0.219475491094
441140000 0.109903253837 0.219525795343
441150000 0.110484240733 0.219825656281
441160000 0.110680232085 0.220096689829
441170000 0.110370192836 0.220170360684
441180000 0.111049752212 0.220546279764
441190000 0.11043919335 0.22084488508
441200000 0.110532634798 0.221589511018
441210000 0.11033038962 0.2208825003
441220000 0.110113759441 0.221265330429
441230000 0.110350644379 0.221019543412
441240000 0.110360599372 0.221074321326
441250000 0.110697151894 0.220945147801
441260000 0.110483376497 0.22175150557
441270000 0.110892526844 0.221618569763
441280000 0.110814641189 0.221563101621
441290000 0.111307221823 0.221850366508
441300000 0.110152016724 0.222135559902
441310000 0.106587344535 0.222497282769
441320000 0.110960241194 0.222197501305
441330000 0.111097280347 0.222582807117
441340000 0.111286146447 0.223023583692
441350000 0.111138616065 0.22329521158
441360000 0.111058022726 0.222811828474
441370000 0.111429646366 0.223243332019
441380000 0.111498128551 0.22390352184
441390000 0.111513391108 0.22437320906
441400000 0.111482746672 0.224267696651
441410000 0.111774972544 0.224422712145
441420000 0.11157614284 0.224773906569
441430000 0.111185536289 0.225140059922
441440000 0.111288702361 0.224984764108
441450000 0.110918382548 0.224981036305
441460000 0.111508500922 0.225009078834
441470000 0.111880714739 0.225040871275
441480000 0.111829287207 0.225135694321
441490000 0.111412378905 0.225163551957
441500000 0.112001150699 0.225819269943
441510000 0.111851369168 0.226181056185
441520000 0.111986993269 0.226822573605
441530000 0.11175642509 0.226067674221
441540000 0.111711744802 0.226608322033
441550000 0.111548698425 0.226612655898
441560000 0.111887186468 0.226941575825
441570000 0.111502300494 0.226717345717
441580000 0.111080554275 0.227293146231
441590000 0.111335692044 0.227603891995
441600000 0.111457828244 0.228088306652
441610000 0.112140633333 0.228116948238
441620000 0.111934730648 0.228103070138
441630000 0.112191896842 0.227998585592
441640000 0.113043551705 0.2282571625
441650000 0.113138059664 0.228345748177
441660000 0.111666255804 0.228189478128
441670000 0.112470803787 0.228821544969
441680000 0.112970566005 0.229077824241
441690000 0.112352563352 0.229218912545
441700000 0.112010091719 0.229527166282
441710000 0.112783286072 0.229956857121
441720000 0.11278083422 0.229617934351
441730000 0.112979340452 0.229756366369
441740000 0.112446463383 0.230056186535
441750000 0.11245491555 0.230349163145
441760000 0.112747665218 0.229976431606
441770000 0.11267826113 0.230595530984
441780000 0.113085441594 0.230519141019
441790000 0.113054828698 0.230886450505
441800000 0.112945394894 0.230810697525
441810000 0.113281272111 0.231285178032
441820000 0.113490058185 0.231797223061
441830000 0.113086489961 0.231342399981
441840000 0.113474375241 0.231538602908
441850000 0.11307285403 0.231810955758
441860000 0.113307702924 0.232148249988
441870000 0.112827777173 0.232363578621
441880000 0.113598088028 0.232382684244
441890000 0.113415967642 0.233189870444
441900000 0.113998768887 0.232971935976
441910000 0.113730503841 0.233155273419
441920000 0.113844770865 0.233383893485
441930000 0.113706026276 0.233696357966
441940000 0.113748233066 0.233820670201
441950000 0.11355450075 0.233441605424
441960000 0.113764304141 0.234046833901
441970000 0.113965899305 0.233895920272
441980000 0.11423772768 0.234420607468
441990000 0.106098291479 0.230496958121
442000000 0.115085680021 0.235371136351
442010000 0.114376839082 0.234860552972
442020000 0.114770567104 0.234729389249
442030000 0.1146616514 0.235016479678
442040000 0.114684303283 0.235394974546
442050000 0.114791414568 0.235452661105
442060000 0.114474490895 0.23554328452
442070000 0.114509713662 0.235512804498
442080000 0.114555313954 0.235900708944
442090000 0.114537418513 0.236901930089
442100000 0.114697149177 0.236623120697
442110000 0.11492967012 0.237187002048
442120000 0.115557552798 0.236902886554
442130000 0.114620864037 0.236862168448
442140000 0.114482050154 0.237556738783
442150000 0.114367162818 0.237890160199
442160000 0.114832454488 0.237775454416
442170000 0.114808440842 0.238343052475
442180000 0.114242022167 0.239184810869
442190000 0.1149542541 0.237915713199
442200000 0.114203138428 0.237221392608
442210000 0.115593049846 0.237823875061
442220000 0.115137872791 0.238816350223
442230000 0.114745861118 0.238530531283
442240000 0.115280579751 0.240031305516
442250000 0.115109425063 0.238841022819
442260000 0.116616904334 0.240912159288
442270000 0.115608976191 0.239725738891
442280000 0.115603123647 0.240120478021
442290000 0.114278320381 0.240664702793
442300000 0.116505533556 0.239524217624
442310000 0.115748686554 0.239715022658
442320000 0.116191463443 0.23856005713
442330000 0.115620622916 0.237829214726
442340000 0.115081421046 0.240166739711
442350000 0.113794696107 0.240671875729
442360000 0.11385738052 0.239146624464
442370000 0.119209453502 0.245509590917
442380000 0.113582365685 0.241025256008
442390000 0.113630226314 0.241780723844
442400000 0.118763983817 0.245182533587
442410000 0.110890143789 0.238717980527
442420000 0.116688459863 0.237167829908
442430000 0.113887564769 0.243023980195
442440000 0.121459158858 0.241607123197
442450000 0.11383311695 0.24274862115
442460000 0.121540138312 0.245746212123
442470000 0.122347546656 0.2474325805
442480000 0.116571369718 0.241688965707
442490000 0.117684969469 0.24305868786
442500000 0.117127376816 0.242328795867
442510000 0.118390508266 0.242371787657
442520000 0.118922154344 0.24282130503
442530000 0.112635295194 0.245186208541
442540000 0.115972261106 0.252649164373
442550000 0.120194806641 0.244598219116
442560000 0.111485209547 0.246006390711
442570000 0.117299566274 0.241104410284
442580000 0.111673279388 0.245279203739
442590000 0.117518814961 0.246350375411
442600000 0.114703843174 0.248574524671
442610000 0.117572634357 0.245925497728
442620000 0.122144759887 0.248026563137
442630000 0.120895691266 0.247990740721
442640000 0.119225231922 0.245559098891
442650000 0.115368718267 0.245211707075
442660000 0.117909173688 0.246582236083
442670000 0.118387595317 0.246017128399
442680000 0.117837956542 0.246024111377
442690000 0.118064811946 0.244733476734
442700000 0.116457831456 0.244547895212
442710000 0.116033617771 0.249584002634
442720000 0.118058133075 0.247751872215
442730000 0.117827811919 0.248113402651
442740000 0.116726326766 0.247127750254
442750000 0.118234030361 0.248318426726
442760000 0.117923130365 0.248986461199
442770000 0.11840510965 0.248745755901
442780000 0.118527171278 0.249002934816
442790000 0.118046010964 0.249358922954
442800000 0.118030799069 0.2488288352
442810000 0.118266020704 0.249003107947
442820000 0.118139086174 0.248781899918
442830000 0.117994113761 0.249408790121
442840000 0.117832389374 0.249816950763
442850000 0.118593032188 0.249912039588
442860000 0.118873011449 0.249992798276
442870000 0.11934952455 0.250230692296
442880000 0.119351092925 0.25040870934
442890000 0.118873787154 0.250170740586
442900000 0.118770875171 0.250545997341
442910000 0.118747791387 0.250848260795
442920000 0.118946630422 0.251204865998
442930000 0.119053162911 0.251135514265
442940000 0.119221377937 0.251343503062
442950000 0.118898490426 0.251092806169
442960000 0.119446674747 0.251470429435
442970000 0.119281647024 0.251785267973
442980000 0.118866051572 0.251948781482
442990000 0.119294659858 0.25203249869
443000000 0.118907781134 0.251795151138
443010000 0.11887047594 0.252610943057
443020000 0.119538763831 0.252591850344
443030000 0.119210542315 0.25237587723
443040000 0.119266141515 0.252570951258
443050000 0.119559782886 0.252749324499
443060000 0.119479457693 0.253402765523
443070000 0.119730897725 0.253168202926
443080000 0.119656909299 0.253589219641
443090000 0.119047526479 0.254515945158
443100000 0.119532262019 0.254412414786
443110000 0.120011026362 0.254757858538
443120000 0.120307887472 0.255592147897
443130000 0.12019906665 0.254615780455
443140000 0.120564791049 0.255164929298
443150000 0.119757220619 0.255701714885
443160000 0.119241236275 0.254814117875
443170000 0.120405129043 0.255875442942
443180000 0.120307332784 0.255975267752
443190000 0.120058254957 0.256390566739
443200000 0.120742683745 0.255945070274
443210000 0.120580856983 0.256850020185
443220000 0.121284632181 0.256506594456
443230000 0.119904109664 0.256355219027
443240000 0.119644255655 0.256475869189
443250000 0.120736187763 0.256169378473
443260000 0.120544832863 0.25637941963
443270000 0.120417798291 0.255738439719
443280000 0.120755045937 0.25768130008
443290000 0.121681612665 0.257192464235
443300000 0.122470017479 0.257930142549
443310000 0.121903197881 0.25760528838
443320000 0.120846876149 0.259026543082
443330000 0.122119796731 0.258255664432
443340000 0.121615317099 0.257865215801
443350000 0.122335584429 0.258976521389
443360000 0.12066764217 0.259204927268
443370000 0.122993312775 0.258914127905
443380000 0.121317569861 0.259809551633
443390000 0.122671246706 0.25972535826
443400000 0.121449830955 0.259506879316
443410000 0.121278374318 0.260363479537
443420000 0.120945661586 0.260063390292
443430000 0.122503902009 0.260267001829
443440000 0.121578725452 0.260598875743
443450000 0.122163650968 0.260877075315
443460000 0.12161933616 0.261530492458
443470000 0.122147120495 0.261506808115
443480000 0.121854694933 0.260921165966
443490000 0.122261226277 0.261657285579
443500000 0.122355548158 0.261419205439
443510000 0.122949619353 0.261001329967
443520000 0.123000182026 0.262455100263
443530000 0.122820888133 0.261275711986
443540000 0.122581046421 0.261978347216
443550000 0.122912561268 0.262510580226
443560000 0.122747752527 0.262302614332
443570000 0.122992424734 0.263072688109
443580000 0.123144267006 0.262804236706
443590000 0.123344599954 0.262990501104
443600000 0.123227834783 0.263809101966
443610000 0.123247942614 0.263482046342
443620000 0.123604594979 0.263536194387
443630000 0.123403189438 0.263930979492
443640000 0.123388095613 0.264021051787
443650000 0.123663681321 0.264344611237
443660000 0.123720335818 0.26445450072
443670000 0.12370435944 0.264396112309
443680000 0.123603418187 0.26480517379
443690000 0.124076159438 0.265065116176
443700000 0.123914926045 0.264806860175
443710000 0.124162442976 0.264876128012
443720000 0.123597884103 0.264983310128
443730000 0.123620411652 0.265487474732
443740000 0.124001779133 0.265488683252
443750000 0.124066189836 0.265631901385
443760000 0.124702791063 0.265977748125
443770000 0.124409454538 0.266056303243
443780000 0.124908259514 0.26651058652
443790000 0.125014466457 0.26645358598
443800000 0.124775838413 0.26649282644
443810000 0.124926623232 0.267231892378
443820000 0.124783199668 0.267270318337
443830000 0.124765571895 0.267584234445
443840000 0.124967832957 0.267129197478
443850000 0.124823113765 0.267593990861
443860000 0.124800576473 0.267238483945
443870000 0.125073418082 0.268124369975
443880000 0.124805505173 0.268061051255
443890000 0.125078528034 0.26829140659
443900000 0.125166580362 0.268461389998
443910000 0.125148821062 0.268444063521
443920000 0.125344932225 0.269214486481
443930000 0.125530652805 0.269464785225
443940000 0.12483343634 0.269288666343
443950000 0.12508576654 0.269010238614
443960000 0.12509495647 0.269688426676
443970000 0.124948535236 0.269450488892
443980000 0.125497732508 0.270156102727
443990000 0.125578920557 0.270303596795
444000000 0.125306846338 0.270400996621
444010000 0.126114770204 0.27025773472
444020000 0.125974279402 0.27049340863
444030000 0.126148062475 0.27021430689
444040000 0.125801930955 0.271242214247
444050000 0.125680263524 0.271430087956
444060000 0.125855355126 0.271672573341
444070000 0.126270778928 0.271920720275
444080000 0.126355763293 0.271439719073
444090000 0.126610150157 0.272166532053
444100000 0.126500406789 0.271684308235
444110000 0.126010456819 0.272241114403
444120000 0.126189677741 0.272418178871
444130000 0.126104717052 0.27290803174
444140000 0.12709803601 0.274523672149
444150000 0.125722343025 0.276758207476
444160000 0.124825125583 0.277223283857
444170000 0.130450419831 0.276114761861
444180000 0.127857205255 0.274216783964
444190000 0.126851151148 0.274302354132
444200000 0.127301647794 0.273944857377
444210000 0.127060604686 0.273590368777
444220000 0.127792568807 0.27381112591
444230000 0.127901407941 0.273901059933
444240000 0.128215439267 0.274069450414
444250000 0.127729712749 0.275276514526
444260000 0.127818618616 0.274798903466
444270000 0.128166664621 0.275132653391
444280000 0.128007630364 0.275217241453
444290000 0.128364422313 0.275595233379
444300000 0.128071251555 0.27526464415
444310000 0.128258506692 0.275681109951
444320000 0.128000819844 0.275542749246
444330000 0.127839889065 0.27620239197
444340000 0.12840603001 0.276650934228
444350000 0.128533822674 0.276200080913
444360000 0.128465525848 0.276614867783
444370000 0.129468577684 0.276478334446
444380000 0.128458647079 0.277044504775
444390000 0.128326562686 0.277374721483
444400000 0.129037914327 0.277407333304
444410000 0.128704719375 0.277319020836
444420000 0.129014500836 0.277572177237
444430000 0.128208969612 0.277859381639
444440000 0.12899216958 0.277742867871
444450000 0.12873837672 0.278234754724
444460000 0.128545221084 0.278238501671
444470000 0.128948495729 0.278408157935
444480000 0.128784059422 0.278570211504
444490000 0.129629616826 0.278509007522
444500000 0.129619624139 0.278962473594
444510000 0.129798733425 0.27959762971
444520000 0.129445160132 0.279183838127
444530000 0.129373004774 0.279233876876
444540000 0.129643731809 0.279469969392
444550000 0.129771256955 0.279615471989
444560000 0.130001866894 0.27999359383
444570000 0.130449432695 0.280146978204
444580000 0.130494086759 0.279946896485
444590000 0.130513115928 0.280943536759
444600000 0.130129628595 0.281103403813
444610000 0.130183146771 0.28103572817
444620000 0.130319342146 0.281083033204
444630000 0.130446931843 0.2815407978
444640000 0.130405436166 0.281391353003
444650000 0.130575692306 0.281683351256
444660000 0.130712728138 0.28132809324
444670000 0.131142227352 0.282217991195
444680000 0.131527648066 0.282037914971
444690000 0.131439681053 0.282523166521
444700000 0.131184048653 0.282082557741
444710000 0.131264481028 0.282467906512
444720000 0.131023361039 0.282375712153
444730000 0.131413253487 0.283226964061
444740000 0.130831370176 0.282827347515
444750000 0.131471969159 0.283328291992
444760000 0.131452836586 0.283340086565
444770000 0.131589014712 0.283623280527
444780000 0.131763583896 0.283699600961
444790000 0.13207064688 0.284214635088
444800000 0.132260333544 0.284353858399
444810000 0.132069596125 0.284421471316
444820000 0.132293942906 0.284550702647
444830000 0.132178172389 0.284302988691
444840000 0.132292562825 0.284960458011
444850000 0.132578135283 0.285170758455
444860000 0.132474275565 0.285430245976
444870000 0.133044545626 0.285334804989
444880000 0.13265579143 0.28598750059
444890000 0.13337398958 0.286174943505
444900000 0.133116340188 0.286452042225
444910000 0.132840029448 0.287343949493
444920000 0.133268659889 0.286838055907
444930000 0.132719461037 0.287026485681
444940000 0.132625895982 0.287157444262
444950000 0.133144818202 0.28736400284
444960000 0.133303572582 0.287303381599
444970000 0.13333414287 0.287326991306
444980000 0.133813014905 0.287828509802
444990000 0.133246188672 0.288194539231
445000000 0.133534447545 0.287729747767
445010000 0.133386324924 0.288230278909
445020000 0.133818090766 0.288514220775
445030000 0.133882014691 0.288429387459
445040000 0.13449570966 0.288381604299
445050000 0.134609320883 0.28878665687
445060000 0.134674314164 0.288969299918
445070000 0.134255606009 0.289427844088
445080000 0.134319527438 0.28913562487
445090000 0.134384247744 0.289523845852
445100000 0.13441941232 0.289793257958
445110000 0.134511363292 0.289657347498
445120000 0.134716576027 0.289916414321
445130000 0.13485246465 0.290590153132
445140000 0.1352124161 0.290823132553
445150000 0.134801177585 0.290555376689
445160000 0.13499807078 0.290798694636
445170000 0.134611409353 0.29024900444
445180000 0.134871598784 0.290643515971
445190000 0.134818963634 0.291014737793
445200000 0.13513425248 0.291488728264
445210000 0.13520835746 0.291189638655
445220000 0.135288010451 0.2915764902
445230000 0.135433589994 0.29190510959
445240000 0.135909557836 0.292073461898
445250000 0.136265762799 0.291642070268
445260000 0.13653906996 0.292118178526
445270000 0.13594174744 0.292664244418
445280000 0.135758726325 0.293039947941
445290000 0.135743223519 0.292737758142
445300000 0.136529446433 0.293089792597
445310000 0.13596128566 0.293175913516
445320000 0.136281610063 0.293721312049
445330000 0.136524284801 0.293592865089
445340000 0.136551358263 0.293741465353
445350000 0.136526861351 0.294116769909
445360000 0.13704825922 0.293935387635
445370000 0.136349925063 0.294379661057
445380000 0.137376762707 0.294398861817
445390000 0.137237743893 0.294633475371
445400000 0.137595885209 0.294668036511
445410000 0.137031890647 0.294756871175
445420000 0.137003756803 0.295095202262
445430000 0.136911132014 0.295362909654
445440000 0.137467100086 0.295763615827
445450000 0.137291531829 0.295844109821
445460000 0.13815138473 0.296598442805
445470000 0.137982571312 0.296247989616
445480000 0.137895661811 0.295993768315
445490000 0.138085532825 0.296136196051
445500000 0.138278985548 0.296853105943
445510000 0.139962007006 0.29725979048
445520000 0.138892269855 0.296930958316
445530000 0.138514837436 0.297283116766
445540000 0.138317530922 0.297229159794
445550000 0.138657953449 0.29786281563
445560000 0.138573364709 0.297729689144
445570000 0.138368334572 0.298118811847
445580000 0.138922360285 0.298612531282
445590000 0.138929114947 0.297952100701
445600000 0.13910097776 0.298165317518
445610000 0.139048318058 0.298608519224
445620000 0.139309853063 0.299332827545
445630000 0.139008388011 0.298877890107
445640000 0.139569016839 0.299027980686
445650000 0.13965587267 0.299608880443
445660000 0.139813813454 0.300009544076
445670000 0.139704379827 0.299768906671
445680000 0.140085344125 0.299428416414
445690000 0.140049766809 0.29933326297
445700000 0.13920370747 0.300133034771
445710000 0.140075090496 0.300040264544
445720000 0.139503797556 0.302004330413
445730000 0.140822621285 0.299933996756
445740000 0.14085897824 0.299989329894
445750000 0.140604474623 0.299767092452
445760000 0.14060941514 0.300830866795
445770000 0.140696051761 0.300662063468
445780000 0.14114327076 0.300867171413
445790000 0.14104770915 0.301027073795
445800000 0.141386444483 0.301741857335
445810000 0.140905472326 0.301867477737
445820000 0.140896494396 0.301877743098
445830000 0.140876734832 0.302005048028
445840000 0.140526234437 0.302595876186
445850000 0.141548450312 0.302672251461
445860000 0.14201685923 0.302594636882
445870000 0.141615744842 0.302627753146
445880000 0.142052331155 0.302922557716
445890000 0.142083797973 0.303091987998
445900000 0.142209408701 0.303030130178
445910000 0.142221739886 0.303376686587
445920000 0.142191523021 0.303685873103
445930000 0.142547849354 0.303283623483
445940000 0.142795162776 0.303821106663
445950000 0.142723905449 0.304013419074
445960000 0.142792170806 0.304400417098
445970000 0.142874441612 0.304707646247
445980000 0.142633584874 0.304885151012
445990000 0.142675640677 0.304589998913
446000000 0.142741236537 0.304609355735
446010000 0.143640174543 0.304648245651
446020000 0.142921183272 0.305284844543
446030000 0.143450833911 0.30503199084
446040000 0.143030892561 0.305719904469
446050000 0.14296722849 0.306036781384
446060000 0.143276014026 0.305729661198
446070000 0.143226982803 0.305990089249
446080000 0.14338206106 0.30577250431
446090000 0.14406505184 0.306591564006
446100000 0.144016974618 0.306570014966
446110000 0.144687058909 0.306683309606
446120000 0.144524366504 0.30665676683
446130000 0.144362382257 0.307162077441
446140000 0.144831067014 0.307275965253
446150000 0.144404926482 0.306929220845
446160000 0.14482455995 0.30761757141
446170000 0.145026353983 0.307636067073
446180000 0.14464378838 0.307778199387
446190000 0.14518260118 0.30773923728
446200000 0.145220668822 0.307661088065
446210000 0.1452235572 0.307841786752
446220000 0.144825455543 0.308383811414
446230000 0.145576725862 0.308650105519
446240000 0.145955047492 0.308288894546
446250000 0.145341223003 0.308778950525
446260000 0.14599341779 0.308845845951
446270000 0.145953768615 0.309334450331
446280000 0.145679023474 0.309404156596
446290000 0.145287094184 0.309697224528
446300000 0.145699856671 0.31027076447
446310000 0.145971399993 0.310858245626
446320000 0.150441940491 0.313403726128
446330000 0.146355016196 0.310742723371
446340000 0.146718651498 0.310685832274
446350000 0.146658197459 0.310535196208
446360000 0.146733242967 0.31102974039
446370000 0.146956922287 0.310976518245
446380000 0.146945134487 0.311063706871
446390000 0.147471390991 0.31073710977
446400000 0.147206891822 0.311454472273
446410000 0.147421709202 0.31166270297
446420000 0.147692120813 0.311887524572
446430000 0.147453563957 0.312243043967
446440000 0.148134871846 0.312688173119
446450000 0.147777385292 0.312360221421
446460000 0.148715954942 0.312245063921
446470000 0.148163184571 0.312202402301
446480000 0.148312410709 0.312706348733
446490000 0.14834028916 0.312978352616
446500000 0.148230436356 0.313348946508
446510000 0.149094017369 0.313481448822
446520000 0.149048226424 0.313503855933
446530000 0.148600475034 0.313325180897
446540000 0.148528956182 0.313726168439
446550000 0.148619950176 0.313833285931
446560000 0.148947464263 0.313849913472
446570000 0.149508062564 0.314504064103
446580000 0.149459287651 0.314292083543
446590000 0.149234137612 0.314542186721
446600000 0.14888102442 0.314169581886
446610000 0.149101643051 0.314225526643
446620000 0.149808087948 0.315020534432
446630000 0.149584051106 0.315050815846
446640000 0.149218173678 0.314789305242
446650000 0.14957582385 0.314952074733
446660000 0.149930190429 0.315239284608
446670000 0.150497410039 0.315052680435
446680000 0.150328697748 0.315143270006
446690000 0.150650848453 0.315497514008
446700000 0.150627818781 0.315338714075
446710000 0.150206486658 0.316361210825
446720000 0.15075263786 0.315989005445
446730000 0.150772614822 0.316500477676
446740000 0.150873484931 0.316523928006
446750000 0.150946048858 0.316104765474
446760000 0.151044159429 0.316292890322
446770000 0.150663862402 0.316910473886
446780000 0.151495499485 0.317056745649
446790000 0.151724657043 0.317196109352
446800000 0.151538523113 0.31698423878
446810000 0.1518324876 0.317140021336
446820000 0.151859185854 0.318073721752
446830000 0.151557649375 0.318972434045
446840000 0.15170491588 0.318878215241
446850000 0.152505133281 0.319199234324
446860000 0.152812704189 0.319293722156
446870000 0.152993178942 0.318898674701
446880000 0.152593467659 0.318981275816
446890000 0.152379849691 0.31903720172
446900000 0.152667235259 0.319262103928
446910000 0.152803595494 0.319401859604
446920000 0.152655723822 0.319735975651
446930000 0.152834424547 0.319337390185
446940000 0.152851492178 0.319723760699
446950000 0.152605559948 0.319985289616
446960000 0.15323003576 0.320100786275
446970000 0.153449788368 0.320131888593
446980000 0.153268393934 0.319994781019
446990000 0.153598874594 0.3205780687
447000000 0.153445852156 0.320439952732
447010000 0.153718847371 0.320627061768
447020000 0.15378532609 0.320684648256
447030000 0.154392686345 0.320750169282
447040000 0.153983486052 0.321128375034
447050000 0.154341090349 0.321404105721
447060000 0.154533228049 0.321665750158
447070000 0.155051978152 0.32158629001
447080000 0.155216668245 0.321653024484
447090000 0.15630525331 0.321712050657
447100000 0.156422796945 0.321591320512
447110000 0.155843850241 0.322347172357
447120000 0.155516887732 0.322444166656
447130000 0.155745312905 0.322568559415
447140000 0.155668563242 0.323383685728
447150000 0.155706011466 0.323381842125
447160000 0.155725585671 0.322949074694
447170000 0.156138218287 0.323686847152
447180000 0.156590739323 0.323523464441
447190000 0.155437045093 0.323162204546
447200000 0.156028826564 0.323876390267
447210000 0.155186436403 0.322777951366
447220000 0.157198426451 0.324452512773
447230000 0.155157643938 0.322813092684
447240000 0.155928865062 0.323395198771
447250000 0.156659739814 0.324955386152
447260000 0.158171030078 0.323466279096
447270000 0.156258413545 0.325083803494
447280000 0.15661828599 0.325966627747
447290000 0.155667862012 0.32544754006
447300000 0.158178315736 0.325594455576
447310000 0.156949458046 0.323705137173
447320000 0.155534013587 0.324234416916
447330000 0.156742034024 0.324350654618
447340000 0.157806294232 0.3250396444
447350000 0.158059023777 0.326947785138
447360000 0.157818154566 0.324207002864
447370000 0.157066305564 0.325137597937
447380000 0.159277654478 0.326158218501
447390000 0.15805251455 0.326377994152
447400000 0.160074149122 0.323964182322
447410000 0.158977244517 0.327803704882
447420000 0.157723712602 0.326413105598
447430000 0.15977504447 0.32729199292
447440000 0.160025180115 0.328404885657
447450000 0.15957244812 0.326330089175
447460000 0.158851072591 0.327756450575
447470000 0.160369587705 0.325398997039
447480000 0.158568682622 0.328574847628
447490000 0.160892635552 0.327473908775
447500000 0.161378995241 0.32889651034
447510000 0.159846483737 0.326016703266
447520000 0.159400468787 0.327071019124
447530000 0.160984219235 0.327337374428
447540000 0.159148713937 0.327754458687
447550000 0.159049296962 0.329850449897
447560000 0.16212107974 0.33164904861
447570000 0.162465278472 0.331048612957
447580000 0.161117787744 0.332654739004
447590000 0.159010711563 0.330047601893
447600000 0.160222629671 0.327870359138
447610000 0.161409226569 0.33048497686
447620000 0.161158190775 0.328646901609
447630000 0.162853857621 0.329961636682
447640000 0.161847393536 0.332529594311
447650000 0.160805496449 0.330061483904
447660000 0.158788710938 0.329238390237
447670000 0.161761529932 0.329910791807
447680000 0.161140373006 0.328608239942
447690000 0.163283514984 0.329930828526
447700000 0.162315046791 0.331134856878
447710000 0.161261948349 0.330472607748
447720000 0.161540606054 0.330715884623
447730000 0.161306533439 0.333538879694
447740000 0.16256058515 0.330575528304
447750000 0.164898610611 0.334431598551
447760000 0.161344586653 0.33234746674
447770000 0.164326166271 0.332477084281
447780000 0.162411758494 0.331857848789
447790000 0.163091153463 0.332243374748
447800000 0.162400912275 0.331815220298
447810000 0.162449775529 0.332578382874
447820000 0.163030672721 0.332625485923
447830000 0.163249739443 0.332696048954
447840000 0.163509848219 0.333691800483
447850000 0.162928328196 0.333644834739
447860000 0.16322623698 0.332946792742
447870000 0.163524320869 0.332725425974
447880000 0.163836778667 0.333146350088
447890000 0.164223919065 0.333165690619
447900000 0.164095228812 0.333437189598
447910000 0.164064438648 0.333302858355
447920000 0.164298304863 0.333204670336
447930000 0.164370153381 0.333693759086
447940000 0.164587757738 0.333815649846
447950000 0.165170177657 0.33412052274
447960000 0.164902467005 0.333936799952
447970000 0.165335751085 0.334818771864
447980000 0.165482310737 0.334847500468
447990000 0.165588377359 0.33466478255
448000000 0.165777747107 0.335111671984
448010000 0.165561787476 0.335267969528
448020000 0.165856019413 0.334708221125
448030000 0.165919139678 0.334817147469
448040000 0.165661691722 0.334780606214
448050000 0.165826208115 0.334852385711
448060000 0.165617042688 0.334791497341
448070000 0.165981727054 0.335527747522
448080000 0.165667236909 0.336000460433
448090000 0.165840937824 0.335970804997
448100000 0.166107771468 0.335367918228
448110000 0.166298541983 0.335866883782
448120000 0.166321997041 0.336287378784
448130000 0.166679225381 0.336271093064
448140000 0.166457799834 0.336532758552
448150000 0.166650556023 0.336225319318
448160000 0.167080107523 0.336950818816
448170000 0.167104926966 0.337253348014
448180000 0.166943911683 0.337290544745
448190000 0.167125576173 0.337053043684
448200000 0.167823587346 0.337013887875
448210000 0.167522502048 0.33696402771
448220000 0.167336684596 0.337653488744
448230000 0.16802598219 0.337626677049
448240000 0.1678673025 0.337722418309
448250000 0.167971447118 0.337829446418
448260000 0.167659769944 0.338229544696
448270000 0.168277415659 0.338721472989
448280000 0.168303495197 0.338496754884
448290000 0.168775269406 0.338829664624
448300000 0.168084620029 0.339052340298
448310000 0.168568751868 0.339166117248
448320000 0.167989162753 0.339612322176
448330000 0.168603226926 0.339150331015
448340000 0.168674337395 0.339394552838
448350000 0.169253241158 0.339285286931
448360000 0.169488417223 0.340016731821
448370000 0.169556446722 0.340303973445
448380000 0.169050197191 0.340372412032
448390000 0.169904562803 0.340304242088
448400000 0.169548892702 0.340931119045
448410000 0.169497976219 0.340399053402
448420000 0.169402201441 0.340280375936
448430000 0.169992559054 0.340085694059
448440000 0.169666672553 0.340179502656
448450000 0.170339789767 0.340280430767
448460000 0.170161109665 0.340708784127
448470000 0.170186657312 0.341006003896
448480000 0.170907729675 0.341025231842
448490000 0.159467618699 0.352597710385
448500000 0.164686561124 0.339795960328
448510000 0.171239036611 0.341400305273
448520000 0.171329341359 0.341917643429
448530000 0.171379052129 0.341909427072
448540000 0.171181303677 0.341715311243
448550000 0.170754137564 0.341950626504
448560000 0.171561331065 0.342211141069
448570000 0.171296916067 0.342448687948
448580000 0.171673721699 0.342708011517
448590000 0.171750771021 0.34285088954
448600000 0.171584528593 0.343114039656
448610000 0.172026809982 0.343039691243
448620000 0.171826409438 0.34316612774
448630000 0.172211108158 0.343208646368
448640000 0.172309114455 0.343075237883
448650000 0.172792868087 0.343418916397
448660000 0.172658971557 0.343671552568
448670000 0.173012015186 0.343487732786
448680000 0.172583275405 0.343474906744
448690000 0.173093659421 0.343434197815
448700000 0.173195054916 0.34426164818
448710000 0.172932588628 0.344509503372
448720000 0.173320532075 0.344336670624
448730000 0.173308820399 0.344440996149
448740000 0.173734594401 0.34436163573
448750000 0.173860302619 0.344718939538
448760000 0.173895577045 0.344935661339
448770000 0.173827809803 0.345194604094
448780000 0.174262420096 0.345343792157
448790000 0.174158769513 0.345476191539
448800000 0.174759412812 0.344782082837
448810000 0.174416907053 0.345421957879
448820000 0.17474420504 0.345700117785
448830000 0.174251643844 0.344940888821
448840000 0.174513085431 0.345547970159
448850000 0.174960503682 0.345415966686
448860000 0.175128688071 0.345450065986
448870000 0.175176301024 0.345512132047
448880000 0.175338905322 0.345803248768
448890000 0.174830919099 0.346237924992
448900000 0.175113210525 0.346337826819
448910000 0.174907534351 0.347057660227
448920000 0.175374977216 0.346532300332
448930000 0.175588682636 0.346785561029
448940000 0.175155218721 0.346618501286
448950000 0.176003838243 0.347307169366
448960000 0.176282469314 0.347341313688
448970000 0.176656582268 0.347508716343
448980000 0.176218613744 0.347504203901
448990000 0.176409673594 0.347881989237
449000000 0.176587371458 0.347833796943
449010000 0.176873512039 0.34803840531
449020000 0.176144959909 0.347542660197
449030000 0.1762743453 0.348130203981
449040000 0.176722321467 0.348217754209
449050000 0.176616448197 0.348479270227
449060000 0.177020204398 0.348249951297
449070000 0.176859542629 0.348866200658
449080000 0.177344673036 0.349200837771
449090000 0.176996210838 0.349399691373
449100000 0.177194345023 0.349266199338
449110000 0.17790774076 0.349962517439
449120000 0.178137174057 0.349128093327
449130000 0.177906961785 0.34957571819
449140000 0.177936910137 0.349817148782
449150000 0.178163459789 0.349890194224
449160000 0.177865473749 0.349954307385
449170000 0.177549947822 0.349810935469
449180000 0.178177300926 0.350091903137
449190000 0.178148749709 0.3504243818
449200000 0.178353058654 0.350058814903
449210000 0.177963265787 0.349671974374
449220000 0.17903363519 0.351140658664
449230000 0.179045723303 0.351472157665
449240000 0.178857589186 0.351544300826
449250000 0.178139045637 0.350922268674
449260000 0.178702426059 0.351891098803
449270000 0.179159145254 0.352157620115
449280000 0.179778043672 0.35139202135
449290000 0.180031826521 0.351224152308
449300000 0.180071256764 0.352244382506
449310000 0.180066621353 0.352525744041
449320000 0.180134693475 0.352380226374
449330000 0.18017000233 0.352161857072
449340000 0.180043454537 0.351805525121
449350000 0.180205213929 0.352418463001
449360000 0.180395840434 0.3530179244
449370000 0.180942786534 0.353581877773
449380000 0.180723335592 0.352628082302
449390000 0.180547019645 0.352664707114
449400000 0.181076182447 0.352928287945
449410000 0.181134178759 0.353302198517
449420000 0.181302993363 0.353014071925
449430000 0.181134954932 0.353415562813
449440000 0.18168258216 0.353418498466
449450000 0.181576270736 0.354150464199
449460000 0.181559841284 0.354482007941
449470000 0.181415822246 0.354387611982
449480000 0.181365825549 0.35424302425
449490000 0.181168092786 0.354102297484
449500000 0.18143178313 0.353999516094
449510000 0.181759494415 0.354106859723
449520000 0.18221877548 0.354640007518
449530000 0.182400161722 0.354242002432
449540000 0.18198986814 0.354808597955
449550000 0.181806124505 0.354966300779
449560000 0.181897216186 0.355470959285
449570000 0.180467421524 0.356523738233
449580000 0.182160983275 0.356057394778
449590000 0.182242214142 0.355414785012
449600000 0.182155214532 0.35551666673
449610000 0.182805458602 0.355308094758
449620000 0.183774686999 0.355764487902
449630000 0.183976235513 0.356220264395
449640000 0.183829615271 0.356102733421
449650000 0.183414608606 0.356359953
449660000 0.183462673372 0.356491937359
449670000 0.182900495776 0.35636053921
449680000 0.183238206482 0.356695424929
449690000 0.183475216581 0.35687951962
449700000 0.183713750521 0.357553297053
449710000 0.184187818831 0.357397672488
449720000 0.184801713894 0.356876399145
449730000 0.184522611652 0.35725658181
449740000 0.184680936515 0.356918336727
449750000 0.184888223936 0.357703038944
449760000 0.184684511464 0.35746342895
449770000 0.184610876597 0.357940614098
449780000 0.185529714686 0.357761118401
449790000 0.185269629744 0.358532148066
449800000 0.185818909176 0.358435503783
449810000 0.18585884097 0.358116482863
449820000 0.186393773401 0.358130931184
449830000 0.186114211476 0.35832937518
449840000 0.185477539229 0.358940643727
449850000 0.185798578519 0.358778023681
449860000 0.18569352075 0.359029751443
449870000 0.186225180318 0.359058148384
449880000 0.185284117993 0.36030967692
449890000 0.185389610785 0.360107658283
449900000 0.185883106741 0.359888116542
449910000 0.185752265052 0.359810447456
449920000 0.186097828934 0.359750839832
449930000 0.186601387048 0.360193146423
449940000 0.186680700576 0.359900974806
449950000 0.186723871938 0.360053440601
449960000 0.186708412501 0.360290707547
449970000 0.186648207423 0.360096917238
449980000 0.187113047055 0.360421969712
449990000 0.18695471776 0.360821254505
450000000 0.187394723222 0.361222630462
