! Calibrated averaged scanner-service zoom
# Hz S RI R 50
470000000 0.468373647208 0.362627664967
470010500 0.468464932305 0.362338862226
470021000 0.468445256414 0.362732938618
470031500 0.467814818737 0.362449581135
470042000 0.467977309212 0.362858970824
470052500 0.468637331347 0.362097605302
470063000 0.467445067591 0.361413324888
470073500 0.467633929864 0.361399907855
470084000 0.468135152993 0.361760757687
470094500 0.467676155569 0.361119064705
470105000 0.468463037296 0.361601293633
470115500 0.466970627324 0.360772604699
470126000 0.467988081158 0.361532142127
470136500 0.465520669521 0.361413266465
470147000 0.467071176689 0.360033198133
470157500 0.467639887641 0.360069569407
470168000 0.467380219919 0.360622968031
470178500 0.466389680537 0.358865350781
470189000 0.468723008982 0.359579699948
470199500 0.46890099702 0.358875349238
470210000 0.46813030163 0.359354996667
470220500 0.469627569079 0.360078298854
470231000 0.468472366262 0.360228262769
470241500 0.469008278398 0.359599414764
470252000 0.468592188473 0.358399772317
470262500 0.468484961909 0.358096660939
470273000 0.467634487463 0.358795071005
470283500 0.468028867393 0.359170315918
470294000 0.469186746491 0.356936713111
470304500 0.468151093647 0.35815820462
470315000 0.46798538654 0.357810389821
470325500 0.468035301884 0.358043835347
470336000 0.470496400784 0.357639776716
470346500 0.467358360161 0.357130328454
470357000 0.466847078457 0.356709844081
470367500 0.467230913642 0.355963432324
470378000 0.468068999282 0.357959617412
470388500 0.468695134379 0.356087093463
470399000 0.468339782806 0.359059571657
470409500 0.469127761432 0.356459634935
470420000 0.468370118059 0.353951974435
470430500 0.468413899587 0.355470173028
470441000 0.467957649581 0.356035529651
470451500 0.468631778082 0.353912165373
470462000 0.468010874631 0.356419102566
470472500 0.468846696098 0.355418936534
470483000 0.465022839229 0.35372478306
470493500 0.46757076928 0.356365661945
470504000 0.465761030635 0.353924796686
470514500 0.468728380469 0.353515740613
470525000 0.468643231828 0.356390627271
470535500 0.467916710106 0.353097558038
470546000 0.466890454802 0.35426165469
470556500 0.467769855827 0.353543321114
470567000 0.467060156975 0.354516915035
470577500 0.469863982035 0.35564254987
470588000 0.468813218879 0.352919253517
470598500 0.466271965462 0.351229017082
470609000 0.46811256956 0.350983602559
470619500 0.469460947426 0.353293371056
470630000 0.466977563965 0.352836344207
470640500 0.469403471971 0.354652210289
470651000 0.469629826157 0.351956382785
470661500 0.468002193745 0.352698648297
470672000 0.467784471149 0.351220812828
470682500 0.467779844607 0.350772534883
470693000 0.469482984537 0.353057076674
470703500 0.469011837777 0.351754041389
470714000 0.466173047876 0.353059403234
470724500 0.47117499356 0.35057880139
470735000 0.467504368402 0.353675505012
470745500 0.467214009907 0.351583206252
470756000 0.467026489933 0.351817544146
470766500 0.468252410245 0.349379386569
470777000 0.467503516351 0.350106682355
470787500 0.466877867161 0.350665500891
470798000 0.467695173253 0.347807066301
470808500 0.468254768274 0.349729569431
470819000 0.467664321591 0.351125948438
470829500 0.467837734733 0.34878010606
470840000 0.467452407551 0.348811504965
470850500 0.467973921935 0.348350421151
470861000 0.468519865068 0.349045899014
470871500 0.468528282953 0.348596770904
470882000 0.466905549814 0.347973254707
470892500 0.467563307105 0.349693884089
470903000 0.46752266243 0.348715562611
470913500 0.467205848415 0.348102057335
470924000 0.467474838358 0.347381439127
470934500 0.467531003138 0.347223834655
470945000 0.467972395696 0.347949138865
470955500 0.467907816182 0.347425752685
470966000 0.468127458009 0.347740841459
470976500 0.467888573637 0.347772870224
470987000 0.467598553817 0.348022757874
470997500 0.467527791543 0.347219950345
471008000 0.468228699159 0.346186230503
471018500 0.467813987153 0.345837879644
471029000 0.468084088872 0.346701214019
471039500 0.467490004945 0.347014993124
471050000 0.466707440473 0.346792536789
471060500 0.467064847955 0.346411088933
471071000 0.467253135932 0.346017410716
471081500 0.467306751785 0.345141080185
471092000 0.466863740124 0.345153646847
471102500 0.466938943276 0.344571018557
471113000 0.466456229015 0.344254392459
471123500 0.467571954824 0.344281951422
471134000 0.466852537759 0.343998182835
471144500 0.467326339468 0.344437940053
471155000 0.466068233792 0.343940961266
471165500 0.467309321313 0.343257246377
471176000 0.467680423984 0.344298945254
471186500 0.467550078154 0.343976115583
471197000 0.467522023666 0.343467037518
471207500 0.466737089765 0.343865553944
471218000 0.466515670244 0.344171631832
471228500 0.466886940154 0.343409786363
471239000 0.458678747027 0.352419933912
471249500 0.465597959084 0.343048487227
471260000 0.466865175945 0.34326140821
471270500 0.465894651963 0.341857997591
471281000 0.466121164995 0.342229759844
471291500 0.467106723902 0.342335338996
471302000 0.467669777375 0.341374124679
471312500 0.46746331695 0.34282739278
471323000 0.467737367267 0.341859480847
471333500 0.46770414672 0.341724003432
471344000 0.466252830993 0.341362914051
471354500 0.466480653387 0.340637275591
471365000 0.4662403626 0.340558564797
471375500 0.466056189461 0.341194471842
471386000 0.466592746625 0.339853381529
471396500 0.466766488515 0.340690433388
471407000 0.467381502278 0.340256251125
471417500 0.466189208975 0.340057427287
471428000 0.466402593124 0.339674542602
471438500 0.466095330028 0.340110668949
471449000 0.466520661279 0.339836416169
471459500 0.466080127029 0.33986736704
471470000 0.466704146183 0.33939171781
471480500 0.466409067515 0.338805299578
471491000 0.466314234541 0.33896087254
471501500 0.466191588936 0.339289547612
471512000 0.465763741141 0.338435109579
471522500 0.46591253543 0.338459778397
471533000 0.46613968456 0.337968162486
471543500 0.466081340739 0.338547601432
471554000 0.465947165638 0.337712956539
471564500 0.465250118816 0.337758561227
471575000 0.465673931284 0.337891181469
471585500 0.466407323434 0.337571541041
471596000 0.465837514727 0.337219254686
471606500 0.466374453032 0.337110094765
471617000 0.466775766327 0.337417123256
471627500 0.465838851128 0.335875637784
471638000 0.465633273669 0.336367144359
471648500 0.465206036793 0.33600116382
471659000 0.465449562542 0.335887142046
471669500 0.465519284573 0.336675876235
471680000 0.465565565917 0.33652339311
471690500 0.465129065134 0.335846141948
471701000 0.465826972014 0.335628547316
471711500 0.465529271999 0.335355277601
471722000 0.465706065809 0.335080077994
471732500 0.464855201385 0.334712472315
471743000 0.464882540215 0.334860913918
471753500 0.464812187584 0.334624246137
471764000 0.464591358751 0.334848664536
471774500 0.465231976423 0.334835355827
471785000 0.464694969073 0.335045127218
471795500 0.464671850739 0.334616820695
471806000 0.465091526753 0.334236903812
471816500 0.464920441461 0.334135550401
471827000 0.464889213029 0.334232380486
471837500 0.468347816904 0.330911516319
471848000 0.465245606834 0.333550563759
471858500 0.464739107525 0.33372812362
471869000 0.46487538062 0.333327836283
471879500 0.464089822275 0.333368965918
471890000 0.464626600067 0.333065810882
471900500 0.463902282528 0.332514714308
471911000 0.464098153715 0.332639671395
471921500 0.465137823517 0.332972879173
471932000 0.465608210199 0.333408299625
471942500 0.464790491439 0.332960454945
471953000 0.464792330207 0.331735659085
471963500 0.463362098708 0.331479751322
471974000 0.463752257194 0.331471491369
471984500 0.463772766536 0.331632845063
471995000 0.463424937588 0.331580925459
472005500 0.462954307113 0.331750747608
472016000 0.463538213055 0.331329057321
472026500 0.463338473647 0.331828906495
472037000 0.463278784273 0.33108309879
472047500 0.462676728148 0.331560423502
472058000 0.463069550767 0.330803984965
472068500 0.46314259376 0.330420240734
472079000 0.463470317692 0.330229982806
472089500 0.462178069694 0.330453387094
472100000 0.461371605547 0.330074365636
472110500 0.462935638403 0.329374238785
472121000 0.463002020549 0.3293464017
472131500 0.463328755244 0.329526647012
472142000 0.462841900944 0.329267083332
472152500 0.46205048521 0.328832645112
472163000 0.461436173474 0.328531281655
472173500 0.462284006595 0.328221917118
472184000 0.461780154682 0.328429360236
472194500 0.462167091834 0.327576563262
472205000 0.462369991193 0.328404658388
472215500 0.462647263926 0.328860896039
472226000 0.461942897106 0.328396528604
472236500 0.461826417442 0.327917213557
472247000 0.460883066664 0.327261494411
472257500 0.461438474452 0.327304918083
472268000 0.46147309815 0.32711290296
472278500 0.461861851921 0.327380922995
472289000 0.461969132774 0.326431734621
472299500 0.461835684681 0.326784777448
472310000 0.461347339055 0.326622858545
472320500 0.461863650464 0.326389763593
472331000 0.461187688275 0.32670008436
472341500 0.461410011185 0.326529744082
472352000 0.46131223142 0.326339753976
472362500 0.461465458 0.325820733992
472373000 0.460830974459 0.325822324031
472383500 0.460931802546 0.325377389682
472394000 0.460225254371 0.325492894642
472404500 0.45986842984 0.325514587084
472415000 0.460416030131 0.325362536189
472425500 0.460033603541 0.324981723192
472436000 0.461723151004 0.325508150743
472446500 0.460911470376 0.32469792696
472457000 0.460621928296 0.32499930978
472467500 0.461342803766 0.324887162651
472478000 0.460927550482 0.324421183943
472488500 0.460504650792 0.32456370783
472499000 0.46018026822 0.324027270655
472509500 0.458903569755 0.324486521072
472520000 0.459251078219 0.324617902905
472530500 0.459624110157 0.322697734422
472541000 0.459337462824 0.324572680037
472551500 0.459563068564 0.323586131129
472562000 0.459949814145 0.322644597331
472572500 0.459456444299 0.322910005919
472583000 0.458970588636 0.322484178967
472593500 0.46097897849 0.321921078698
472604000 0.458463797064 0.322362174794
472614500 0.459082215925 0.322183325464
472625000 0.459157563658 0.322609822779
472635500 0.458575389718 0.322354928836
472646000 0.458921093722 0.322651566458
472656500 0.458524473535 0.322506156114
472667000 0.45853366761 0.323113156849
472677500 0.458363740264 0.322491822528
472688000 0.458083358541 0.322306229871
472698500 0.457925991437 0.321387757076
472709000 0.457839163734 0.321356690827
472719500 0.457655868228 0.32117535372
472730000 0.45781558245 0.321199689452
472740500 0.457722055256 0.321833102608
472751000 0.457665502757 0.320822454206
472761500 0.45761956869 0.320975642492
472772000 0.457975377517 0.320760285522
472782500 0.457297264944 0.32072721412
472793000 0.457443062864 0.320736426475
472803500 0.457849049994 0.320413648558
472814000 0.457268856752 0.320443904095
472824500 0.457597338888 0.320498811434
472835000 0.4571853662 0.320236672605
472845500 0.456958205349 0.320133650731
472856000 0.456024683283 0.320168638231
472866500 0.456629371159 0.320044323745
472877000 0.45672105005 0.319684105536
472887500 0.455591139453 0.319517351581
472898000 0.45640462603 0.319405091705
472908500 0.456594104139 0.319238736215
472919000 0.456494709269 0.31938985451
472929500 0.456214601983 0.319332216691
472940000 0.456321010747 0.318943335242
472950500 0.456016370821 0.318581475684
472961000 0.455667540334 0.318628659026
472971500 0.455667215136 0.31842628228
472982000 0.455424012123 0.318893412671
472992500 0.455872111793 0.318179734635
473003000 0.454802790629 0.317836876314
473013500 0.455314009328 0.318555778822
473024000 0.454941688971 0.318407373862
473034500 0.455112406752 0.318597362956
473045000 0.455853135819 0.318407089236
473055500 0.454745676699 0.317436416844
473066000 0.454675597658 0.317348486813
473076500 0.454563738904 0.31774345
473087000 0.454316192532 0.317277669334
473097500 0.454187379332 0.317022141101
473108000 0.454543939508 0.316775961493
473118500 0.454340295021 0.316788393406
473129000 0.454010644249 0.316413983274
473139500 0.454074446193 0.316626399941
473150000 0.453486815017 0.316039466685
473160500 0.453422290017 0.316014780195
473171000 0.45285468526 0.315683996895
473181500 0.452950481542 0.315662546661
473192000 0.453501135085 0.315829660575
473202500 0.45292544826 0.315697770929
473213000 0.452691165181 0.316034412649
473223500 0.45287445466 0.31512647194
473234000 0.45301138873 0.31516935279
473244500 0.452615888164 0.315933010923
473255000 0.453059521145 0.315005984569
473265500 0.453173852228 0.314713884876
473276000 0.452074696894 0.315009255638
473286500 0.451960275087 0.314558672312
473297000 0.452246115239 0.314486294394
473307500 0.45187012498 0.314596459764
473318000 0.451444070081 0.313906827022
473328500 0.451500524142 0.314060246472
473339000 0.451429049947 0.314538738817
473349500 0.45185990575 0.314180970479
473360000 0.451918683013 0.31419150062
473370500 0.452633669893 0.313873393263
473381000 0.452137650242 0.313661773249
473391500 0.451536156137 0.31345001595
473402000 0.451378472984 0.313272009007
473412500 0.451986784171 0.313067161401
473423000 0.450502617188 0.312902865188
473433500 0.450260119476 0.31256822583
473444000 0.449939162422 0.312892320957
473454500 0.449849124374 0.313312355934
473465000 0.449892850958 0.312658258702
473475500 0.449707992327 0.312980411952
473486000 0.450774628789 0.313123781774
473496500 0.450060997206 0.312991804677
473507000 0.450042698046 0.312323788158
473517500 0.449954127821 0.31276785825
473528000 0.448641259863 0.311828249523
473538500 0.448227791327 0.312055188187
473549000 0.448340587933 0.311957671746
473559500 0.449097018974 0.310978748261
473570000 0.448737512269 0.311551341769
473580500 0.448890017138 0.311980743728
473591000 0.448488470195 0.311239664614
473601500 0.449200404005 0.311121573686
473612000 0.448072699542 0.311534057143
473622500 0.447925348674 0.310539076183
473633000 0.447305047278 0.310962094599
473643500 0.447886712147 0.311126678555
473654000 0.447767310536 0.310681504007
473664500 0.448415325166 0.310286869736
473675000 0.447695788502 0.310501232724
473685500 0.447908505234 0.310466468796
473696000 0.447110320391 0.310166539196
473706500 0.447173229796 0.310226427737
473717000 0.44704220086 0.309700806689
473727500 0.446631957067 0.310041107014
473738000 0.446534408615 0.310165850218
473748500 0.446960394742 0.310037183051
473759000 0.446649168466 0.309440281563
473769500 0.446343128819 0.309542013481
473780000 0.447074519119 0.309322219889
473790500 0.446311442948 0.30964796861
473801000 0.446741133696 0.309236407944
473811500 0.446325173468 0.308735246272
473822000 0.445503596876 0.308534182475
473832500 0.445960905257 0.308877331386
473843000 0.445333589156 0.308911674594
473853500 0.445464913374 0.308483755247
473864000 0.444835078709 0.308907299697
473874500 0.445572854419 0.308716817125
473885000 0.445690301668 0.308583827741
473895500 0.444920513938 0.308547217836
473906000 0.445107130716 0.308837964789
473916500 0.444921919074 0.308389942196
473927000 0.445369671381 0.308009931536
473937500 0.445516145341 0.308037956772
473948000 0.446272762599 0.307575314322
473958500 0.44540175337 0.307425559838
473969000 0.444553532678 0.30769539151
473979500 0.443564884596 0.307810950746
473990000 0.443946538408 0.3079626758
474000500 0.443416484128 0.308177451142
474011000 0.443774989991 0.30808522719
474021500 0.442859518405 0.308112079118
474032000 0.442966380388 0.307330283623
474042500 0.443109836753 0.307085254109
474053000 0.443428818175 0.308002018488
474063500 0.44270481585 0.307002892943
474074000 0.442833032061 0.307028074978
474084500 0.442717758315 0.307413321779
474095000 0.442043559772 0.307379662258
474105500 0.441182637916 0.306295453385
474116000 0.44178093769 0.306531004781
474126500 0.441846918296 0.306347292617
474137000 0.441632733243 0.306596959798
474147500 0.441635463541 0.306772370854
474158000 0.441537194119 0.306464553382
474168500 0.441715582629 0.307147112941
474179000 0.441260715277 0.306036975814
474189500 0.441147734122 0.306349546955
474200000 0.440852738256 0.306041966787
474210500 0.440448538749 0.305353815468
474221000 0.44007307176 0.305524402284
474231500 0.440495682427 0.305503640075
474242000 0.439894176517 0.305671544321
474252500 0.439738964212 0.305334061099
474263000 0.440028682806 0.305550191863
474273500 0.439849125296 0.306242588409
474284000 0.440036593607 0.305254046426
474294500 0.440036930008 0.305089600022
474305000 0.44016734886 0.305182522055
474315500 0.441882950265 0.301371540775
474326000 0.439216776579 0.305418092956
474336500 0.44004746435 0.304781473927
474347000 0.438968468171 0.304873826862
474357500 0.439641182448 0.304779395245
474368000 0.438759088326 0.304331311814
474378500 0.43951750101 0.302424858071
474389000 0.438167664262 0.302738349462
474399500 0.439523513748 0.305002386775
474410000 0.436864434658 0.30503943719
474420500 0.439577460404 0.304401600837
474431000 0.439505677436 0.305949568396
474441500 0.436860421941 0.303321448336
474452000 0.436975174869 0.304322543248
474462500 0.436902026968 0.30334333275
474473000 0.43749438175 0.3034475775
474483500 0.436868739128 0.304987285435
474494000 0.438654463121 0.303452356546
474504500 0.437585900001 0.305535128759
474515000 0.438472238893 0.303542636794
474525500 0.435160665818 0.303138792004
474536000 0.434266857266 0.303244804438
474546500 0.436751603285 0.302931332269
474557000 0.436873984227 0.30375363745
474567500 0.435753713505 0.303630650689
474578000 0.435155422407 0.303396332291
474588500 0.435492949636 0.302567313622
474599000 0.436473658589 0.304593184215
474609500 0.435292436742 0.302535191236
474620000 0.434908842274 0.302686533171
474630500 0.435452994685 0.304365351929
474641000 0.435055717735 0.303724878258
474651500 0.434585488235 0.303224099892
474662000 0.434224843656 0.30304871711
474672500 0.433771459887 0.302963371494
474683000 0.434170341961 0.303126044153
474693500 0.433616338521 0.302370250704
474704000 0.434816322153 0.302548691518
474714500 0.433639015369 0.302387711526
474725000 0.433844419372 0.30219640413
474735500 0.433688519206 0.302330663294
474746000 0.433767030314 0.302265184071
474756500 0.433157833275 0.302464306281
474767000 0.432688808158 0.302043749467
474777500 0.432149884867 0.301810837358
474788000 0.431861112619 0.301677519302
474798500 0.432242964269 0.301634074565
474809000 0.431921519833 0.301696689978
474819500 0.431832301051 0.3021996097
474830000 0.43195768587 0.302893136253
474840500 0.431482356093 0.30222422066
474851000 0.431181762196 0.301381187751
474861500 0.431202669389 0.301651935855
474872000 0.430786747123 0.301541916731
474882500 0.430484546053 0.301999883909
474893000 0.430169035794 0.301496798857
474903500 0.430348405827 0.301211672217
474914000 0.430451414305 0.301287749777
474924500 0.430720728704 0.300833422536
474935000 0.430091492541 0.301534176523
474945500 0.429888153064 0.301502249999
474956000 0.429630183921 0.301841239536
474966500 0.429212333819 0.301844319212
474977000 0.429112296448 0.301515009331
474987500 0.429225182442 0.302094271049
474998000 0.428858561862 0.300884570289
475008500 0.429104989017 0.301584892294
475019000 0.428982449478 0.301183044257
475029500 0.42914148214 0.301830233895
475040000 0.428982701548 0.300842954481
475050500 0.428594692218 0.300933726113
475061000 0.428481742674 0.300802849676
475071500 0.427858440698 0.300425084643
475082000 0.427690553233 0.300720203633
475092500 0.427964374827 0.301069926252
475103000 0.427731941123 0.300878652264
475113500 0.427436382732 0.300670077699
475124000 0.427416253315 0.300649856144
475134500 0.427443134436 0.300828083438
475145000 0.427274789648 0.300849843082
475155500 0.426863863047 0.301086543911
475166000 0.4270079859 0.300790160788
475176500 0.426512506241 0.300972929929
475187000 0.426925184646 0.300839866833
475197500 0.426277178538 0.300446453244
475208000 0.425489662401 0.30036295797
475218500 0.426022506508 0.2998841436
475229000 0.426020609201 0.300787320882
475239500 0.425667540898 0.30040231322
475250000 0.425977340757 0.299856623242
475260500 0.425198895759 0.29999644725
475271000 0.424764514414 0.300054356825
475281500 0.424839683827 0.300317136061
475292000 0.425492942265 0.300115128426
475302500 0.425435125039 0.300366177195
475313000 0.424612983901 0.300561764713
475323500 0.424450224972 0.299766161918
475334000 0.424379182106 0.299815028468
475344500 0.424365770886 0.299647981008
475355000 0.423621122125 0.300039419047
475365500 0.424183413737 0.300419364777
475376000 0.423523870639 0.299670717426
475386500 0.423703751756 0.299756592203
475397000 0.423230814213 0.299980240029
475407500 0.423648675171 0.300183854908
475418000 0.423075575542 0.300472723114
475428500 0.422972810617 0.300666132661
475439000 0.422279470085 0.299854091131
475449500 0.422971538034 0.300058671746
475460000 0.421796873948 0.29956978695
475470500 0.422187916932 0.299833381841
475481000 0.421652572369 0.299849663696
475491500 0.421478777885 0.299498784076
475502000 0.42172954651 0.299417941869
475512500 0.421480884814 0.299298465589
475523000 0.421002386673 0.299485171992
475533500 0.421131340155 0.299078315526
475544000 0.420469039949 0.299652144826
475554500 0.420589644842 0.299431204404
475565000 0.42070267603 0.299557207759
475575500 0.420097607405 0.299494212343
475586000 0.420315502854 0.299834651172
475596500 0.420363628494 0.299420169472
475607000 0.420053626959 0.29939605627
475617500 0.419903545596 0.29938026058
475628000 0.419660641527 0.299154200918
475638500 0.41984093717 0.299182359778
475649000 0.419647216928 0.298953777942
475659500 0.419209825076 0.299256475725
475670000 0.419195253992 0.300308584757
475680500 0.418526602129 0.299708072459
475691000 0.418534363308 0.299679377477
475701500 0.418642886667 0.299267129885
475712000 0.417874488461 0.299278141994
475722500 0.418280558493 0.299388182113
475733000 0.418191918148 0.298763514952
475743500 0.417509537465 0.299210445653
475754000 0.417511218717 0.299023474352
475764500 0.416923891712 0.299456684243
475775000 0.417270161932 0.29937037958
475785500 0.41696747368 0.299381442467
475796000 0.416875170349 0.29933319092
475806500 0.417104437363 0.299053288494
475817000 0.416936555352 0.299505736238
475827500 0.417061456204 0.299499586173
475838000 0.41683904303 0.299581924071
475848500 0.416254426249 0.298913404792
475859000 0.417123338619 0.299205705512
475869500 0.415878428064 0.300866592543
475880000 0.416276038646 0.299691238337
475890500 0.415474242928 0.299638080905
475901000 0.41519496776 0.299649325885
475911500 0.415258437449 0.299553568587
475922000 0.415181014207 0.299502543658
475932500 0.415472863115 0.300349331478
475943000 0.415108565568 0.299747751465
475953500 0.415095420988 0.299514845065
475964000 0.414081589321 0.299480994671
475974500 0.414623177472 0.299014386842
475985000 0.414850558953 0.299073309913
475995500 0.414272924181 0.299086208384
476006000 0.414208674636 0.299491136798
476016500 0.41343478303 0.299890277692
476027000 0.413646706037 0.299608732336
476037500 0.41341997349 0.299071022424
476048000 0.413031920005 0.29933875561
476058500 0.413083493441 0.299244775324
476069000 0.412663976719 0.299694021388
476079500 0.412590509234 0.300304438532
476090000 0.412498489734 0.299102708568
476100500 0.412412138582 0.299056059825
476111000 0.412489889 0.298274865411
476121500 0.412383762622 0.299098112284
476132000 0.412586356879 0.299226393637
476142500 0.411947044626 0.299013795238
476153000 0.411498349051 0.299636899054
476163500 0.411725068137 0.299096562271
476174000 0.411137098074 0.299513760154
476184500 0.411264959096 0.299403190284
476195000 0.411431383786 0.299792670161
476205500 0.411279693677 0.299497071154
476216000 0.411140545783 0.299835247346
476226500 0.411045712544 0.299110610418
476237000 0.410640673316 0.298961582116
476247500 0.410926628003 0.299193202095
476258000 0.410141795363 0.298890167378
476268500 0.40949582311 0.299306770114
476279000 0.409549754916 0.299097980432
476289500 0.40932247756 0.299485790692
476300000 0.409784510072 0.29829006209
476310500 0.409527575647 0.299885686118
476321000 0.409341313582 0.298976530614
476331500 0.408953196812 0.299901092195
476342000 0.409077788396 0.299424593424
476352500 0.408151537119 0.299635733355
476363000 0.408049309843 0.2994927715
476373500 0.40812245655 0.299162791704
476384000 0.407683402349 0.299836298997
476394500 0.407545088624 0.29936029221
476405000 0.407806661447 0.299893292268
476415500 0.408418353731 0.300064470689
476426000 0.407868498988 0.299844961443
476436500 0.407675783352 0.299912525841
476447000 0.406847825494 0.299427346121
476457500 0.406746009178 0.29993445607
476468000 0.406715830212 0.300146444041
476478500 0.406846124144 0.300344336717
476489000 0.406413442548 0.300065417599
476499500 0.406273389903 0.299146673674
476510000 0.406032516847 0.2992513017
476520500 0.40607479469 0.299601563973
476531000 0.405826257821 0.29995101635
476541500 0.404942787279 0.299957891968
476552000 0.405367183578 0.299920160359
476562500 0.405329452803 0.300425054635
476573000 0.405343270764 0.299790911714
476583500 0.40492799342 0.30060830755
476594000 0.405267358209 0.300610129905
476604500 0.404593327692 0.300457743184
476615000 0.405054299321 0.300794567935
476625500 0.404017100308 0.30032787993
476636000 0.391352672484 0.315115844736
476646500 0.394288773402 0.302822016124
476657000 0.397366881092 0.303417087292
476667500 0.400620065231 0.297283175281
476678000 0.400870120742 0.301111261954
476688500 0.402202040393 0.301546897456
476699000 0.402343660038 0.301055802507
476709500 0.402990765402 0.300890023568
476720000 0.402559617102 0.300765317117
476730500 0.402851692575 0.301444905142
476741000 0.402497709752 0.300696587304
476751500 0.402164506303 0.300581357681
476762000 0.4027255341 0.301060121655
476772500 0.4019777433 0.301374234329
476783000 0.401756814717 0.300955036145
476793500 0.401587768561 0.30118370723
476804000 0.401418674126 0.300633181883
476814500 0.40130446437 0.300480260294
476825000 0.401131337737 0.300449978509
476835500 0.401013062286 0.300862936425
476846000 0.401289552331 0.300908806636
476856500 0.400834738682 0.301071505633
476867000 0.401176018864 0.301753454806
476877500 0.400926233834 0.300908217682
476888000 0.400929656563 0.30199924609
476898500 0.400503707178 0.301984047781
476909000 0.400047349365 0.300860384015
476919500 0.399711508734 0.301439991615
476930000 0.40023145607 0.302046059255
476940500 0.399973536826 0.301367955591
476951000 0.399247389057 0.301486172073
476961500 0.399367466613 0.301752284749
476972000 0.399805325274 0.301460752192
476982500 0.399061907692 0.301766398893
476993000 0.398182077786 0.301697214871
477003500 0.39857207758 0.301508284571
477014000 0.398510207197 0.301443643353
477024500 0.398173207615 0.301815690775
477035000 0.398111585649 0.302546405096
477045500 0.398522304404 0.301943878678
477056000 0.398544001505 0.302342778648
477066500 0.397903879875 0.302035130165
477077000 0.397900845302 0.302205486644
477087500 0.398066641662 0.301685637991
477098000 0.397744848091 0.302440050854
477108500 0.39751250755 0.302538391512
477119000 0.396860501111 0.302349248087
477129500 0.397210509585 0.302054057687
477140000 0.396653278913 0.302131958808
477150500 0.396369528929 0.302668438835
477161000 0.396830954442 0.302219378601
477171500 0.396827449146 0.302218656424
477182000 0.395898100514 0.302253418081
477192500 0.395781156461 0.302376481188
477203000 0.395851563575 0.302753461253
477213500 0.395746179103 0.302470444063
477224000 0.395848346525 0.302429021643
477234500 0.39538585745 0.302833598023
477245000 0.394705000047 0.303066728598
477255500 0.395117715942 0.303102787919
477266000 0.394895326781 0.302894604433
477276500 0.395281003862 0.302534032881
477287000 0.395058809704 0.303333706892
477297500 0.394491913871 0.303176005271
477308000 0.394583105819 0.303177643659
477318500 0.394256393965 0.303463221935
477329000 0.393625540678 0.303258699887
477339500 0.392963479018 0.303363076667
477350000 0.393878385392 0.303430567682
477360500 0.393837261031 0.303787448029
477371000 0.394240659923 0.303732906966
477381500 0.393318728656 0.303808882014
477392000 0.393390016311 0.303847693007
477402500 0.394892602393 0.303781702494
477413000 0.392494065973 0.304042518888
477423500 0.392786312684 0.304417307203
477434000 0.392566965237 0.304039973756
477444500 0.392744886597 0.304697539787
477455000 0.391980651514 0.304529367817
477465500 0.392063067118 0.303680973802
477476000 0.392284990278 0.303679227534
477486500 0.39202980306 0.304045035907
477497000 0.390904458402 0.304853596058
477507500 0.392135266132 0.303571639115
477518000 0.391582008248 0.304109013942
477528500 0.390163870881 0.304404059184
477539000 0.390837758297 0.304743872815
477549500 0.390855971836 0.304111566522
477560000 0.391229782016 0.30451520564
477570500 0.391042622792 0.30578505146
477581000 0.390335045707 0.304289787163
477591500 0.390152709693 0.30658476322
477602000 0.390972695031 0.304722741427
477612500 0.389956337167 0.30433421446
477623000 0.390479068607 0.305685601232
477633500 0.392358504499 0.305387195645
477644000 0.390212969288 0.304202516196
477654500 0.389791804133 0.305680896902
477665000 0.389724866292 0.305230473986
477675500 0.389262945485 0.305589106926
477686000 0.387801194972 0.30607299924
477696500 0.388159498354 0.304554760195
477707000 0.387825789348 0.307076173229
477717500 0.389152619774 0.306131298561
477728000 0.388707978562 0.305888195849
477738500 0.38708039946 0.30522939776
477749000 0.388852669267 0.306343075063
477759500 0.387373908174 0.306432622207
477770000 0.388003509995 0.30594274221
477780500 0.386103363458 0.305840225647
477791000 0.387174661226 0.30598812247
477801500 0.386928467123 0.306239420466
477812000 0.387610475189 0.307438703599
477822500 0.387444978298 0.307810177665
477833000 0.387397189136 0.306523339666
477843500 0.387410981506 0.307709463538
477854000 0.38717793576 0.305815350203
477864500 0.387336790477 0.307778919386
477875000 0.386587161568 0.307383059743
477885500 0.386109564988 0.306820864682
477896000 0.386402768183 0.30747123578
477906500 0.385951712613 0.307077513913
477917000 0.385365753481 0.306956463382
477927500 0.385376542123 0.307470755139
477938000 0.384665709042 0.307767964407
477948500 0.386756648474 0.305931698959
477959000 0.384871782866 0.307220757633
477969500 0.38499736868 0.307997649402
477980000 0.385417007258 0.308337385035
477990500 0.385344276468 0.308351182472
478001000 0.384592899131 0.308343147757
478011500 0.383913867979 0.308038980296
478022000 0.385405751258 0.308563139336
478032500 0.385223511338 0.30771550651
478043000 0.384572380475 0.308206594716
478053500 0.383495840493 0.308803416012
478064000 0.384346476381 0.308618883355
478074500 0.38451030292 0.308743020559
478085000 0.384249479122 0.308424385439
478095500 0.384054524787 0.309003798598
478106000 0.384386820504 0.309113903704
478116500 0.384363497277 0.308964735198
478127000 0.382724615231 0.309408997453
478137500 0.3834356938 0.309646410157
478148000 0.382444681542 0.309709608529
478158500 0.38203892756 0.309468028949
478169000 0.381989205973 0.309813393635
478179500 0.382438221105 0.309434970698
478190000 0.382345891483 0.309598909634
478200500 0.383991806656 0.308230406096
478211000 0.379723404271 0.309277667031
478221500 0.382677109781 0.309830524579
478232000 0.383473678856 0.308456869063
478242500 0.380162429588 0.30858996178
478253000 0.385747246293 0.308896301455
478263500 0.382938690378 0.311858828766
478274000 0.37403143719 0.314687470121
478284500 0.385023055146 0.312462323761
478295000 0.380753498442 0.323192954054
478305500 0.389775083112 0.304493966956
478316000 0.384887891954 0.305192113396
478326500 0.382517828904 0.322033014666
478337000 0.374934796662 0.313958061495
478347500 0.373477245362 0.312768219914
478358000 0.384018152142 0.330153220701
478368500 0.380918649852 0.312108132261
478379000 0.38029048743 0.311706534504
478389500 0.379896430417 0.321908323769
478400000 0.395276900713 0.305306035173
478410500 0.373989653282 0.311286444515
478421000 0.385657111414 0.315779384926
478431500 0.389143518474 0.307028956851
478442000 0.384837363303 0.307225427255
478452500 0.393413763029 0.306157573666
478463000 0.375820105203 0.313786699557
478473500 0.379794633864 0.311459639867
478484000 0.381110118083 0.311339118838
478494500 0.380353672196 0.313132403807
478505000 0.36756819591 0.32597753522
478515500 0.386264080335 0.315662918021
478526000 0.382580759339 0.312745335671
478536500 0.384493055733 0.317775635522
478547000 0.374091226223 0.281055242224
478557500 0.372901432186 0.325503761963
478568000 0.376987791188 0.316132004985
478578500 0.384172153819 0.314362260497
478589000 0.36702314463 0.310245995036
478599500 0.385359577076 0.314370198166
478610000 0.373146751313 0.309587565481
478620500 0.366738248893 0.320920797817
478631000 0.381681694571 0.314212068793
478641500 0.376624776808 0.312910144243
478652000 0.375710693638 0.314220622434
478662500 0.380343989805 0.312226070396
478673000 0.371206029398 0.310308295403
478683500 0.377163609925 0.316001308057
478694000 0.380300798698 0.304657818778
478704500 0.373693402721 0.314242730525
478715000 0.379850070702 0.312758444315
478725500 0.381365632239 0.313365644119
478736000 0.374139603834 0.310642488107
478746500 0.3690752282 0.311767482565
478757000 0.377050482128 0.316488054726
478767500 0.37859684883 0.319403527035
478778000 0.377046393282 0.311335072297
478788500 0.373903669099 0.315291217112
478799000 0.376766706969 0.314671608987
478809500 0.370999754561 0.318305585014
478820000 0.379335021444 0.313608394458
478830500 0.374221393516 0.314849981026
478841000 0.383120252256 0.317671423388
478851500 0.373199351442 0.313086918995
478862000 0.374629921579 0.31568187275
478872500 0.374086045731 0.316386908111
478883000 0.372654060502 0.315562019563
478893500 0.374601997654 0.317262722251
478904000 0.374516090559 0.316775799575
478914500 0.374846883653 0.316182638625
478925000 0.373525672883 0.314705480918
478935500 0.373338981103 0.317015442122
478946000 0.37391703252 0.317109726204
478956500 0.373492028504 0.31718250779
478967000 0.373214671812 0.316084323664
478977500 0.372457003424 0.317183167516
478988000 0.372718169307 0.317290068802
478998500 0.372818619811 0.317104002195
479009000 0.373248675374 0.317759693849
479019500 0.372909990148 0.317723334288
479030000 0.372644594664 0.318677519648
479040500 0.372234289992 0.317465944669
479051000 0.373007637478 0.318007587388
479061500 0.371286251376 0.319157337872
479072000 0.37306861755 0.318082525806
479082500 0.372871192433 0.318521452827
479093000 0.371116322058 0.318614633686
479103500 0.372279037552 0.319315242648
479114000 0.372052053328 0.319213638603
479124500 0.373113816941 0.318333525882
479135000 0.370735940477 0.318893987909
479145500 0.371804351868 0.318671643163
479156000 0.370937471568 0.318203630228
479166500 0.371051888393 0.319266935869
479177000 0.370945034633 0.319539544566
479187500 0.371890928728 0.320312014837
479198000 0.371412857174 0.3208893956
479208500 0.373272458113 0.318539801143
479219000 0.369403073868 0.320107363851
479229500 0.371126942624 0.319235960776
479240000 0.370197246117 0.320742737149
479250500 0.370799871795 0.320696952365
479261000 0.369122918511 0.319481502061
479271500 0.370141895702 0.321528915343
479282000 0.371326284976 0.320684119909
479292500 0.369267104382 0.319542922874
479303000 0.371222338368 0.320239045245
479313500 0.37050697147 0.321020699358
479324000 0.371334184369 0.320723586183
479334500 0.371306207247 0.320862247673
479345000 0.370864845405 0.320783612979
479355500 0.370429051117 0.321008070801
479366000 0.370398657515 0.321670991843
479376500 0.369656536494 0.322055698753
479387000 0.368883795902 0.32167679185
479397500 0.367527392042 0.321086670872
479408000 0.370448231191 0.322349415423
479418500 0.368338949406 0.321861600451
479429000 0.368694886101 0.322267152776
479439500 0.369000178041 0.323794518403
479450000 0.369167325288 0.321922661737
479460500 0.369419206545 0.321657264785
479471000 0.367551345924 0.321605463731
479481500 0.368127574782 0.321849048275
479492000 0.368377616023 0.322392629836
479502500 0.368593545049 0.322837843845
479513000 0.367123878032 0.323114206215
479523500 0.367841433626 0.322876425584
479534000 0.368351621642 0.323376146375
479544500 0.367532212059 0.323505622719
479555000 0.367841921807 0.322855877622
479565500 0.36749712352 0.323493414986
479576000 0.367488766406 0.324029365151
479586500 0.367257436471 0.324403888882
479597000 0.36783130864 0.323955798786
479607500 0.367433483535 0.325022489613
479618000 0.367215521385 0.324777748549
479628500 0.366999506618 0.324227632482
479639000 0.367694407137 0.324638786102
479649500 0.366557045177 0.324768019378
479660000 0.366930311578 0.325094949319
479670500 0.365514319549 0.325874543074
479681000 0.366047509913 0.325544610757
479691500 0.366113436168 0.325627875107
479702000 0.366200928727 0.325714844609
479712500 0.366298100321 0.324848298361
479723000 0.366548370307 0.325672845718
479733500 0.366418538984 0.326033534012
479744000 0.366246278093 0.325902900712
479754500 0.365953574475 0.325393449587
479765000 0.365860942129 0.326349913269
479775500 0.365367290535 0.326557273174
479786000 0.365375192238 0.326590759633
479796500 0.365679381946 0.326856378134
479807000 0.365924550805 0.326212518589
479817500 0.365553081474 0.326641094558
479828000 0.365794900341 0.326688644278
479838500 0.365890449345 0.3266751775
479849000 0.365169578417 0.327089170057
479859500 0.365410430106 0.327535862957
479870000 0.365345978579 0.327967758147
479880500 0.365708178149 0.327843928919
479891000 0.365572211104 0.327504439864
479901500 0.364664509611 0.327695115877
479912000 0.365208836905 0.327257180724
479922500 0.365393040997 0.32728737463
479933000 0.365002088862 0.327043554829
479943500 0.364344830292 0.32828370493
479954000 0.364259540587 0.329123237968
479964500 0.363599720546 0.328342471156
479975000 0.36398825483 0.328773747434
479985500 0.364438266487 0.328362106733
479996000 0.364617073091 0.328488241002
480006500 0.363549936358 0.328669398108
480017000 0.363401397425 0.329255645674
480027500 0.363953980319 0.329396771343
480038000 0.364029403027 0.329365035823
480048500 0.363638329989 0.329754992137
480059000 0.363125658517 0.329780637982
480069500 0.363024529839 0.330118983981
480080000 0.363390380769 0.330086194494
480090500 0.363519716563 0.330045922885
480101000 0.36289775226 0.329948828946
480111500 0.362477706146 0.329673634133
480122000 0.363273137703 0.330034664021
480132500 0.363268407314 0.330354531159
480143000 0.363113942884 0.330694244013
480153500 0.362522644035 0.331064523382
480164000 0.362500254083 0.330950654637
480174500 0.362546498983 0.33122054219
480185000 0.362550696463 0.330722402869
480195500 0.362186172224 0.331596669632
480206000 0.362300180412 0.331193848135
480216500 0.362661411754 0.331240277122
480227000 0.361682736058 0.331689758083
480237500 0.361172547834 0.331509450134
480248000 0.361421530737 0.332248706762
480258500 0.362833367957 0.331693980963
480269000 0.365563957957 0.328312146183
480279500 0.36240749989 0.332569090199
480290000 0.362108697937 0.332973905844
480300500 0.36187945778 0.332656932235
480311000 0.362023544728 0.333208032927
480321500 0.362500726639 0.333259422742
480332000 0.362087508594 0.332699294877
480342500 0.361757034959 0.332871913656
480353000 0.361915656816 0.333430038428
480363500 0.361627723535 0.33374571633
480374000 0.36164097684 0.334699920574
480384500 0.361507513638 0.334327899475
480395000 0.361376988985 0.334821285674
480405500 0.361134677673 0.334317870694
480416000 0.360990314519 0.334019741913
480426500 0.361151822513 0.334805394219
480437000 0.360683273219 0.334204307307
480447500 0.361149960882 0.335176638985
480458000 0.360219895956 0.335250074901
480468500 0.360711238108 0.334939123147
480479000 0.360694687331 0.33451944497
480489500 0.360759683123 0.335143835651
480500000 0.360560851643 0.336141644226
480510500 0.360924815986 0.335820545551
480521000 0.360316490954 0.33572124194
480531500 0.36094339781 0.335524038607
480542000 0.3604103968 0.33517284143
480552500 0.36027398782 0.33608940175
480563000 0.360586767954 0.335475628333
480573500 0.359798957075 0.335757524533
480584000 0.35959381011 0.337189658221
480594500 0.359418644727 0.337384237764
480605000 0.359859109422 0.336683638202
480615500 0.359192065066 0.33646738073
480626000 0.359636137892 0.337115771947
480636500 0.359951163553 0.336279961865
480647000 0.359624847693 0.336248644209
480657500 0.359088809471 0.336430846209
480668000 0.359863847888 0.337718431809
480678500 0.358815554141 0.337793101675
480689000 0.358878119639 0.337356625816
480699500 0.359664465397 0.338473068727
480710000 0.360674900538 0.337552953549
480720500 0.360415162267 0.338590490349
480731000 0.36002625086 0.338799819417
480741500 0.359757631019 0.338227034821
480752000 0.359302097169 0.33831232004
480762500 0.358989405467 0.338584950224
480773000 0.35861690644 0.338934286081
480783500 0.358747700394 0.339100650816
480794000 0.358683262935 0.339014697735
480804500 0.3586417949 0.339484050817
480815000 0.358921666669 0.339327406182
480825500 0.358620056133 0.339160907926
480836000 0.357730441388 0.339307193917
480846500 0.357140076941 0.339342846494
480857000 0.357897809187 0.339487753478
480867500 0.358382649315 0.339721425909
480878000 0.358679625989 0.34144802921
480888500 0.358854962835 0.340057095168
480899000 0.358555883986 0.340863988706
480909500 0.358185478804 0.340824298705
480920000 0.358112916556 0.3404424523
480930500 0.358158809939 0.340811900318
480941000 0.358254393558 0.340804036933
480951500 0.358041767359 0.340893094117
480962000 0.358055618078 0.34113446994
480972500 0.356158524026 0.341272355727
480983000 0.355773771239 0.341674430484
480993500 0.354714674044 0.341452985656
481004000 0.352442116937 0.341756499679
481014500 0.356676680542 0.34149363316
481025000 0.357245643596 0.341674854601
481035500 0.35716553254 0.341789656501
481046000 0.357418146754 0.342025194464
481056500 0.35733203587 0.342724473873
481067000 0.357436455995 0.342910685543
481077500 0.35629221434 0.343180387904
481088000 0.357667299262 0.342795602832
481098500 0.357016702912 0.342711574396
481109000 0.3575914399 0.342458578688
481119500 0.356804285336 0.344199066634
481130000 0.357542280232 0.343741210786
481140500 0.357619725722 0.344318676625
481151000 0.356372247459 0.344354099448
481161500 0.357547415831 0.343972717394
481172000 0.35698207491 0.344187396993
481182500 0.35786189071 0.344719446437
481193000 0.357300705906 0.343773427042
481203500 0.357991762148 0.344757790838
481214000 0.357519164747 0.34440564547
481224500 0.356483312895 0.344993762978
481235000 0.356343522239 0.345749678835
481245500 0.357214133802 0.345292019709
481256000 0.356231806975 0.345948185213
481266500 0.3564216842 0.346029777799
481277000 0.356839610785 0.345399353354
481287500 0.356676180012 0.345068969648
481298000 0.359842937075 0.341158380885
481308500 0.356447383838 0.345084012471
481319000 0.35709590108 0.345386465342
481329500 0.356757658103 0.346108784531
481340000 0.356745712533 0.346092424125
481350500 0.357103438874 0.346286805398
481361000 0.356775693023 0.346761469365
481371500 0.356092463962 0.34673920174
481382000 0.356109316011 0.347149401201
481392500 0.356553178197 0.346871020928
481403000 0.356389445104 0.3469394928
481413500 0.355905432391 0.347565569654
481424000 0.355473539307 0.34731005569
481434500 0.356313314741 0.347116987721
481445000 0.355689278072 0.348094954939
481455500 0.356054226716 0.347847374241
481466000 0.356443728453 0.347464106033
481476500 0.355880647035 0.348761934258
481487000 0.356419529017 0.348854907635
481497500 0.356473765094 0.348746007378
481508000 0.355987013237 0.348355263582
481518500 0.355318456802 0.348186673453
481529000 0.355683709279 0.349103340031
481539500 0.354954117235 0.349841668576
481550000 0.354455048884 0.349273254657
481560500 0.355536021996 0.349648542267
481571000 0.35569208435 0.349065830174
481581500 0.355207509813 0.34908555163
481592000 0.354771793368 0.350079053002
481602500 0.35535072741 0.348387080058
481613000 0.355924297576 0.349613321707
481623500 0.354997350119 0.349163456355
481634000 0.355208048101 0.349148078736
481644500 0.355488923093 0.350253193356
481655000 0.354618822799 0.349304534988
481665500 0.355628058783 0.35094435526
481676000 0.355455177626 0.349220616858
481686500 0.354646620931 0.349541299964
481697000 0.354602670008 0.35132847037
481707500 0.355437721815 0.349997894091
481718000 0.355523346371 0.349967280829
481728500 0.354327041679 0.351042943542
481739000 0.355059269991 0.349968303666
481749500 0.354523068144 0.350900727914
481760000 0.35497561792 0.351194245091
481770500 0.354850674812 0.352446294085
481781000 0.356173720601 0.352898242826
481791500 0.35608110719 0.354496489488
481802000 0.354806684269 0.354119959934
481812500 0.35358682837 0.354635054015
481823000 0.354517523103 0.352034238642
481833500 0.355243025169 0.352032577577
481844000 0.354086196508 0.353914314572
481854500 0.354481547967 0.353230558222
481865000 0.353617480816 0.354257884975
481875500 0.353620263 0.353312624484
481886000 0.354560636842 0.353902984451
481896500 0.353901170246 0.353187815444
481907000 0.353933360011 0.354608577475
481917500 0.353706596244 0.354242870344
481928000 0.35350640249 0.354190258403
481938500 0.352900968381 0.354509181514
481949000 0.352570164949 0.35376947713
481959500 0.351535003355 0.353736628475
481970000 0.352151291691 0.353757241493
481980500 0.352979858954 0.353984944948
481991000 0.353558546374 0.354746962665
482001500 0.353505894376 0.354897134039
482012000 0.35415474442 0.355165884054
482022500 0.353843028645 0.355893690139
482033000 0.354026177898 0.355775181244
482043500 0.353557488935 0.355887025962
482054000 0.353379799754 0.356139726577
482064500 0.353807663534 0.355542469131
482075000 0.353616567147 0.356256756382
482085500 0.353660728468 0.355486917671
482096000 0.353743362324 0.356065114726
482106500 0.354339271663 0.357037321325
482117000 0.353869609647 0.357549581359
482127500 0.353662865266 0.357349306928
482138000 0.35351678411 0.357933141261
482148500 0.353677896006 0.357316929083
482159000 0.351606775254 0.358650200954
482169500 0.352155515875 0.357602852074
482180000 0.352489342124 0.357131120264
482190500 0.353128966305 0.356832353933
482201000 0.352625614214 0.359668346324
482211500 0.353831889899 0.356837704001
482222000 0.352829474862 0.35847746022
482232500 0.350357332499 0.359976494022
482243000 0.351946794465 0.357232236009
482253500 0.351658536496 0.359890868411
482264000 0.35436561873 0.356428385302
482274500 0.353613971287 0.35651009092
482285000 0.352094857254 0.355341936533
482295500 0.355069167543 0.358944745608
482306000 0.349436390872 0.357593022358
482316500 0.354137052989 0.359764338022
482327000 0.348666106799 0.360816950529
482337500 0.354609901219 0.362141970322
482348000 0.349571072805 0.362533477986
482358500 0.347741592553 0.364064562008
482369000 0.351062322107 0.356185182372
482379500 0.353278830234 0.363258130201
482390000 0.359651517865 0.359746775026
482400500 0.356357681066 0.356441685805
482411000 0.35387736627 0.359649464192
482421500 0.357881708616 0.363617287446
482432000 0.357594552186 0.355380217193
482442500 0.353469100522 0.362882168702
482453000 0.349055414247 0.363958549757
482463500 0.351397686466 0.359255014293
482474000 0.351958824495 0.360858189012
482484500 0.351918348319 0.371209031517
482495000 0.361298997625 0.359892950273
482505500 0.349116670251 0.368039223788
482516000 0.363194766702 0.368644212066
482526500 0.352032486276 0.36224877985
482537000 0.353775623155 0.365580520889
482547500 0.357380167342 0.358718153641
482558000 0.351345233709 0.36429644184
482568500 0.353431064231 0.369278954964
482579000 0.350011006292 0.366137097775
482589500 0.361729167414 0.36758425052
482600000 0.346729980726 0.370380890332
482610500 0.355823780943 0.360207919733
482621000 0.35497900712 0.360159869914
482631500 0.346788515147 0.36120938295
482642000 0.354406601592 0.363835479407
482652500 0.353459939251 0.358297397312
482663000 0.355750168573 0.363877463459
482673500 0.350904710085 0.367615907533
482684000 0.349952563567 0.365397393697
482694500 0.353406861405 0.360657948846
482705000 0.350348480187 0.368083758198
482715500 0.350372122375 0.360421630908
482726000 0.352202069606 0.363583169103
482736500 0.353897258588 0.363524613972
482747000 0.355717220432 0.367456049665
482757500 0.350863324469 0.362813089263
482768000 0.347238547498 0.360060669356
482778500 0.350574108393 0.364009286146
482789000 0.349898116273 0.367658642977
482799500 0.356421746677 0.36197177848
482810000 0.351600076006 0.362862751314
482820500 0.352751920646 0.362333550979
482831000 0.352738861967 0.367251991414
482841500 0.352080160731 0.367229503358
482852000 0.35382383865 0.365467953933
482862500 0.35275657013 0.369881040319
482873000 0.353482647641 0.366782456304
482883500 0.352376182308 0.366953906669
482894000 0.353485757278 0.36742697113
482904500 0.351931598262 0.367877945861
482915000 0.35254820389 0.367044057742
482925500 0.353344272873 0.367613348464
482936000 0.351680337944 0.367353001095
482946500 0.352016562242 0.367220279293
482957000 0.352343268376 0.367871394091
482967500 0.352443082967 0.367517353358
482978000 0.353107973221 0.368205115514
482988500 0.35220960237 0.368785328391
482999000 0.35247447007 0.36903580539
483009500 0.351616797459 0.366558659983
483020000 0.352744031933 0.368964908274
483030500 0.351534233469 0.369946196009
483041000 0.353014419492 0.36851411463
483051500 0.352103148208 0.368781102073
483062000 0.352538427978 0.368652598712
483072500 0.352871463847 0.368572494519
483083000 0.352248883001 0.368893998694
483093500 0.352798105385 0.3691591553
483104000 0.352621863587 0.369489286618
483114500 0.352016643269 0.369097046399
483125000 0.354009695318 0.36930486227
483135500 0.352334333507 0.369092732953
483146000 0.352107400766 0.370981146568
483156500 0.353129321698 0.369335328846
483167000 0.351631768056 0.370005073427
483177500 0.351676879157 0.369179064396
483188000 0.352087910047 0.369784013723
483198500 0.352041733488 0.371671248665
483209000 0.351998702769 0.371207616565
483219500 0.352703267576 0.370090767257
483230000 0.354206236144 0.370473402735
483240500 0.35283706825 0.372128750911
483251000 0.352988255579 0.371127686001
483261500 0.351061168096 0.371210407916
483272000 0.353175023585 0.372843596747
483282500 0.350883043332 0.370259127707
483293000 0.352813534238 0.370880787389
483303500 0.351766515278 0.372204355004
483314000 0.353419313072 0.370790874081
483324500 0.35303373924 0.372534715262
483335000 0.350936572549 0.372512360712
483345500 0.352206786036 0.374309763986
483356000 0.353855731749 0.372055655282
483366500 0.352267265282 0.373127937856
483377000 0.352971508958 0.374175814598
483387500 0.35255534069 0.374689161751
483398000 0.351715207574 0.37354005933
483408500 0.351153922553 0.374697024599
483419000 0.353193032197 0.373038805266
483429500 0.352803759017 0.373517281567
483440000 0.352013163896 0.374403692588
483450500 0.352819443003 0.375234079664
483461000 0.352947187964 0.374181998193
483471500 0.351072194928 0.374151371332
483482000 0.353097184151 0.375892488373
483492500 0.352718557189 0.375613345241
483503000 0.352754362638 0.37561511402
483513500 0.351530599766 0.375126337271
483524000 0.350796400171 0.374943939408
483534500 0.352383587942 0.376408201274
483545000 0.351950487467 0.375251492851
483555500 0.35151317055 0.375276330415
483566000 0.352238504508 0.375703584812
483576500 0.352027722735 0.375963709003
483587000 0.352945906456 0.375892538339
483597500 0.352568711726 0.375992940038
483608000 0.352511164411 0.376340263129
483618500 0.352665089067 0.376860339889
483629000 0.352723642845 0.376421420294
483639500 0.35307333883 0.375966413777
483650000 0.352707765321 0.376903947828
483660500 0.352234522293 0.376934500985
483671000 0.352426820406 0.377620072507
483681500 0.352672160026 0.377536233705
483692000 0.352778115166 0.377099721598
483702500 0.352298820623 0.377154301084
483713000 0.352392212345 0.37743933833
483723500 0.352379378472 0.377303838004
483734000 0.352426644595 0.377690826856
483744500 0.35222289222 0.378242466913
483755000 0.352909462639 0.378111140304
483765500 0.352523041528 0.378250044735
483776000 0.352057922405 0.378279184765
483786500 0.35218801859 0.378755076633
483797000 0.352730408001 0.378718967221
483807500 0.352820133549 0.379115548927
483818000 0.353236888983 0.378946480993
483828500 0.353321061748 0.379237862629
483839000 0.353644183616 0.378931095995
483849500 0.353186284526 0.379403904315
483860000 0.353723908292 0.378907501523
483870500 0.352187270037 0.378482623251
483881000 0.351886724962 0.38003500922
483891500 0.352457189521 0.379198645929
483902000 0.352025880284 0.380380788458
483912500 0.353224547007 0.380412082465
483923000 0.353649636654 0.380307595413
483933500 0.353062358705 0.380592585848
483944000 0.352680550173 0.380779641299
483954500 0.352491168568 0.381258838477
483965000 0.352658345125 0.380540071593
483975500 0.353018022706 0.380820534149
483986000 0.352456717089 0.381182977883
483996500 0.352590450566 0.381343613514
484007000 0.353223692604 0.380902647083
484017500 0.352791996673 0.381530136959
484028000 0.352627092697 0.38221361849
484038500 0.352712768394 0.382262475118
484049000 0.352187240579 0.382202738838
484059500 0.352308520308 0.381896161958
484070000 0.352748077845 0.381759873933
484080500 0.352420571285 0.381939306362
484091000 0.352712368659 0.381657932563
484101500 0.352665655635 0.382184620431
484112000 0.352960275924 0.382936742585
484122500 0.352458611961 0.382517009826
484133000 0.352045941827 0.382979250411
484143500 0.352306638856 0.382768523087
484154000 0.352720925877 0.382777111518
484164500 0.352640804288 0.383210408789
484175000 0.352369260107 0.383468057168
484185500 0.352598384488 0.383930715984
484196000 0.352495675908 0.383444443607
484206500 0.352477975283 0.384384227718
484217000 0.353311480535 0.3837027161
484227500 0.352906178159 0.384109517707
484238000 0.353404895295 0.384526737588
484248500 0.354247540484 0.383935670166
484259000 0.353355877783 0.384935433939
484269500 0.35293716637 0.384974793682
484280000 0.352640059098 0.384905970459
484290500 0.353309119246 0.384638011536
484301000 0.353115745949 0.38469454103
484311500 0.352961235775 0.384985010163
484322000 0.352954534014 0.385853197892
484332500 0.352880472585 0.38580989067
484343000 0.352425115093 0.385599877057
484353500 0.353516268203 0.385605826616
484364000 0.353377915314 0.38608231038
484374500 0.353443779951 0.385937493664
484385000 0.35324697657 0.385760193757
484395500 0.353099584546 0.386156578903
484406000 0.353096083872 0.386429919022
484416500 0.353207494337 0.386319914605
484427000 0.353410553043 0.38627746095
484437500 0.353399161044 0.386661357779
484448000 0.353253454922 0.386453626448
484458500 0.353272375273 0.387701008698
484469000 0.353884449375 0.386946475748
484479500 0.353704757567 0.38691998716
484490000 0.353549948949 0.387307174253
484500500 0.352900530018 0.387434956338
484511000 0.353806232228 0.387853990347
484521500 0.353655562032 0.388080546854
484532000 0.353798113053 0.38788916299
484542500 0.353939291718 0.388339029573
484553000 0.353840770245 0.388436205079
484563500 0.353602628711 0.388204103523
484574000 0.35367312369 0.388469328474
484584500 0.353602887685 0.388226328489
484595000 0.353665793967 0.388670772884
484605500 0.353596089922 0.38880711096
484616000 0.353477510347 0.389113590004
484626500 0.35316883639 0.389244798279
484637000 0.353704529807 0.388942753107
484647500 0.353356587384 0.389441467209
484658000 0.353584277183 0.390090721774
484668500 0.353106290332 0.391285254909
484679000 0.353582037194 0.390796099717
484689500 0.353960542308 0.38994861206
484700000 0.35387284452 0.38995973501
484710500 0.354211771815 0.390329684622
484721000 0.353857890523 0.390222865025
484731500 0.354115617294 0.390633031805
484742000 0.35414063901 0.390357543063
484752500 0.354673475387 0.390941815723
484763000 0.35455210986 0.391109989832
484773500 0.354878103881 0.390652558698
484784000 0.354458817127 0.390827654188
484794500 0.354212296172 0.390921855647
484805000 0.354525716744 0.390880123668
484815500 0.354939550461 0.391215418045
484826000 0.355416064822 0.39133769191
484836500 0.354869247642 0.39112234903
484847000 0.354747395772 0.391448174498
484857500 0.354357673262 0.391268382904
484868000 0.353940127267 0.391208056599
484878500 0.354047656531 0.39203434768
484889000 0.353583034683 0.392517972929
484899500 0.354622055993 0.39236777074
484910000 0.354736197164 0.393026005812
484920500 0.354595451901 0.393157795914
484931000 0.354344864468 0.392813887563
484941500 0.354234467824 0.393058894643
484952000 0.354229957715 0.392853233332
484962500 0.354362930136 0.393656187115
484973000 0.354289341358 0.393092171647
484983500 0.353852409678 0.39285640175
484994000 0.354062825294 0.393379283923
485004500 0.354437454924 0.393209287248
485015000 0.354967340428 0.393551429146
485025500 0.355200148139 0.393333494886
485036000 0.355082111878 0.393867934206
485046500 0.354736713151 0.394438160053
485057000 0.35479773086 0.394453795848
485067500 0.354569207631 0.39460499128
485078000 0.354866531419 0.394470135126
485088500 0.354966895982 0.394403043506
485099000 0.354648823483 0.393677433713
485109500 0.35488610841 0.393718377691
485120000 0.355216922834 0.395922778989
485130500 0.354698715627 0.395319626838
485141000 0.355595738839 0.395608244999
485151500 0.355070201802 0.395284763599
485162000 0.35528762529 0.395172317357
485172500 0.355233334971 0.395226640101
485183000 0.354121915874 0.396087714395
485193500 0.355220817073 0.395943962551
485204000 0.355008272249 0.395967662439
485214500 0.35493653258 0.396181332924
485225000 0.354855903925 0.396077211758
485235500 0.355753724453 0.395495077644
485246000 0.35561246042 0.396465680316
485256500 0.355640964854 0.395828198556
485267000 0.355682832242 0.39627561364
485277500 0.355713947146 0.396594839751
485288000 0.355410061192 0.396521895565
485298500 0.355824237752 0.396341247583
485309000 0.355514572121 0.396667045972
485319500 0.356032466356 0.396743713237
485330000 0.355645520219 0.3976316598
485340500 0.355990986159 0.398043857458
485351000 0.356158640451 0.397877160375
485361500 0.356051970838 0.398442140635
485372000 0.356516157907 0.397360553391
485382500 0.356070998531 0.397544593558
485393000 0.355667795143 0.397611474572
485403500 0.356124936058 0.397501852015
485414000 0.356533922605 0.398695103411
485424500 0.356470653667 0.398882882181
485435000 0.355428063174 0.398900746579
485445500 0.35655097203 0.399193836837
485456000 0.355224056032 0.399172198134
485466500 0.354741072384 0.397952060259
485477000 0.35666131728 0.400443764804
485487500 0.357170519856 0.398827562603
485498000 0.356667308941 0.396644374265
485508500 0.354859944827 0.399048834142
485519000 0.356877419303 0.399252875113
485529500 0.355503478262 0.397449983117
485540000 0.356057397254 0.400334457644
485550500 0.355310041434 0.399485486186
485561000 0.356847377892 0.400614903914
485571500 0.357511501323 0.400145129167
485582000 0.356652317588 0.399052794281
485592500 0.356009801371 0.398443962912
485603000 0.357204146328 0.398916734875
485613500 0.356767218505 0.401028696325
485624000 0.354032670822 0.400457308445
485634500 0.356425808182 0.400104568648
485645000 0.356031147944 0.398454479907
485655500 0.353765962575 0.400593790714
485666000 0.356876826291 0.401203128614
485676500 0.355738461407 0.401650247912
485687000 0.353511517271 0.400789195637
485697500 0.35599355846 0.401990572416
485708000 0.356740460005 0.400944974308
485718500 0.356442357351 0.402726367791
485729000 0.357473110932 0.402059373315
485739500 0.355676696906 0.40283118871
485750000 0.357436803261 0.403303437154
485760500 0.358819093422 0.402036850861
485771000 0.356736363368 0.401846538217
485781500 0.35631448799 0.40337673083
485792000 0.358051862892 0.40283100373
485802500 0.357505303794 0.403322663441
485813000 0.357549513018 0.40294909116
485823500 0.359788093193 0.403301490998
485834000 0.359752158818 0.403120327389
485844500 0.358423740767 0.404672222256
485855000 0.357521035485 0.402867193889
485865500 0.35910476068 0.40245206029
485876000 0.357778889845 0.40427260734
485886500 0.357731043648 0.403089468182
485897000 0.35709131991 0.403890584965
485907500 0.357158535959 0.40435716085
485918000 0.357038439024 0.404765654075
485928500 0.358604630082 0.404228816593
485939000 0.359039070591 0.405880580045
485949500 0.35789993884 0.404081939235
485960000 0.357514721251 0.404508573803
485970500 0.357297453346 0.404869517418
485981000 0.357280266872 0.404795012093
485991500 0.357312970767 0.405406818845
486002000 0.357609670027 0.405354134748
486012500 0.35711802834 0.404515440343
486023000 0.358702150511 0.406872252183
486033500 0.360566772244 0.406119311152
486044000 0.358003173044 0.406311195911
486054500 0.358093792458 0.405323501589
486065000 0.357847376564 0.40498623395
486075500 0.360493337483 0.404379103833
486086000 0.359884353255 0.40898584863
486096500 0.359277138778 0.406622541889
486107000 0.358273177834 0.407411631355
486117500 0.357378793672 0.404339126099
486128000 0.361440877643 0.403934710757
486138500 0.35793573187 0.405054216902
486149000 0.354107989354 0.403938786316
486159500 0.359426881449 0.406419527963
486170000 0.357622208165 0.406808611493
486180500 0.35767422799 0.406265827153
486191000 0.352412149729 0.404218101308
486201500 0.358400854419 0.407354988734
486212000 0.356965451128 0.406057532818
486222500 0.358617709154 0.404536162997
486233000 0.352947683504 0.406147476783
486243500 0.359659320158 0.411287179339
486254000 0.353893201571 0.405019987294
486264500 0.358909021343 0.406018145008
486275000 0.358244594707 0.4147125977
486285500 0.358873211861 0.408070457626
486296000 0.368054420287 0.414161245598
486306500 0.354981712035 0.395533520582
486317000 0.365779369343 0.404510887344
486327500 0.3531530239 0.408574662475
486338000 0.369567150116 0.41274934088
486348500 0.367165430393 0.406491120393
486359000 0.359460465269 0.412958519432
486369500 0.358097534679 0.422805092524
486380000 0.360118771274 0.41505898728
486390500 0.362160804029 0.415517912805
486401000 0.361261718747 0.406596593006
486411500 0.361212228943 0.404003404098
486422000 0.367247284352 0.399284053288
486432500 0.355741694582 0.407684311269
486443000 0.354395804312 0.401285972397
486453500 0.357934233656 0.413794767402
486464000 0.353853516401 0.403318881707
486474500 0.365276711672 0.420290199366
486485000 0.365559421315 0.407145017068
486495500 0.369401832374 0.397553961241
486506000 0.350685478446 0.418687786434
486516500 0.354427953292 0.412162167434
486527000 0.366670460166 0.414010774151
486537500 0.369132576969 0.418738708842
486548000 0.362151466197 0.386381909545
486558500 0.365806044027 0.408929365104
486569000 0.357707102646 0.413979002881
486579500 0.359956103331 0.407645716926
486590000 0.36859352094 0.424481241606
486600500 0.365716637229 0.414195973642
486611000 0.360467229405 0.42324855557
486621500 0.36383714998 0.408795714113
486632000 0.361442750185 0.412781343369
486642500 0.352558046296 0.417684441771
486653000 0.361016321922 0.41427073342
486663500 0.364131502153 0.40678922773
486674000 0.364116939466 0.404781924445
486684500 0.36027796351 0.411044994398
486695000 0.356066000056 0.416794782972
486705500 0.361625118372 0.412521874524
486716000 0.363288520144 0.413266552972
486726500 0.360960632013 0.412620678741
486737000 0.363174876568 0.421670375545
486747500 0.366870056089 0.417744396797
486758000 0.364566705396 0.414645949957
486768500 0.364341285769 0.416670353656
486779000 0.36153497865 0.412659694722
486789500 0.368120653182 0.411701078301
486800000 0.363787183287 0.411024514659
486810500 0.359396104837 0.41309305768
486821000 0.364221206584 0.413085792152
486831500 0.361958432671 0.413216574772
486842000 0.359452716711 0.415660507918
486852500 0.361200448599 0.413570150774
486863000 0.36174331196 0.414548771556
486873500 0.361734132601 0.414354423564
486884000 0.36133593511 0.414218858633
486894500 0.36139709079 0.413937119188
486905000 0.362253688989 0.414934710663
486915500 0.361860537027 0.415028859741
486926000 0.362284542791 0.415030550858
486936500 0.362419419326 0.414834578626
486947000 0.362539332647 0.414913111717
486957500 0.362587640913 0.414923806129
486968000 0.361853400163 0.415343296195
486978500 0.362076790601 0.415119634336
486989000 0.362247174044 0.414955621202
486999500 0.362835099864 0.415603603557
487010000 0.362390316351 0.415465601073
487020500 0.362193150377 0.415857050063
487031000 0.3625752475 0.415425888068
487041500 0.362309906083 0.415989414304
487052000 0.362101077533 0.417452460599
487062500 0.362590136206 0.417362367517
487073000 0.362606491317 0.416446844203
487083500 0.36205512072 0.416520421963
487094000 0.363038311692 0.41677040058
487104500 0.362893075237 0.415732578921
487115000 0.363164005131 0.416415306609
487125500 0.363479122129 0.416901806571
487136000 0.36285506874 0.416384459146
487146500 0.36298713297 0.41709126381
487157000 0.362739385335 0.41653266293
487167500 0.363055677324 0.416417337284
487178000 0.363307418742 0.417851724155
487188500 0.363777323773 0.416612380246
487199000 0.3624140512 0.417414091799
487209500 0.364557256842 0.418176590522
487220000 0.362614230715 0.416297285369
487230500 0.362920049829 0.417046065981
487241000 0.363697641843 0.416880196114
487251500 0.36294214732 0.417003286024
487262000 0.365450003486 0.418035331336
487272500 0.362950255939 0.419098146776
487283000 0.363173017028 0.418354665184
487293500 0.362087982628 0.419527678247
487304000 0.363681243879 0.419462134413
487314500 0.362564619652 0.418917545432
487325000 0.364084979913 0.418048957082
487335500 0.363572913541 0.419016856666
487346000 0.365071148112 0.418133853203
487356500 0.363230676103 0.417827553203
487367000 0.363919429365 0.41811087913
487377500 0.363174682631 0.416639683327
487388000 0.362370718059 0.418853952974
487398500 0.362917407964 0.419364738971
487409000 0.3643419074 0.418726678898
487419500 0.365165419911 0.419719688696
487430000 0.363483022202 0.417042281322
487440500 0.364707748707 0.420708139285
487451000 0.36379423046 0.419847270875
487461500 0.36433188863 0.420049747573
487472000 0.366096374836 0.421622645653
487482500 0.36101545469 0.416243888623
487493000 0.396505150606 0.4382965859
487503500 0.366357783065 0.420686409594
487514000 0.365977875991 0.422360549251
487524500 0.363821005356 0.42256106904
487535000 0.365022945176 0.421498854706
487545500 0.365553204215 0.421446644253
487556000 0.365267608227 0.421016703028
487566500 0.365305040634 0.420675307745
487577000 0.365434967121 0.421355392296
487587500 0.364754723377 0.421099047847
487598000 0.365320573992 0.421031783907
487608500 0.365713105574 0.421708728983
487619000 0.365342237594 0.421546820437
487629500 0.365284132994 0.42159293695
487640000 0.365360798937 0.421896854153
487650500 0.3658611655 0.421058419652
487661000 0.365777496113 0.422314360799
487671500 0.366066448144 0.422071446092
487682000 0.365841835216 0.422208691577
487692500 0.366045324819 0.422347590276
487703000 0.365649405176 0.422419774143
487713500 0.365876000429 0.422633381837
487724000 0.365587317441 0.422427027834
487734500 0.366158323212 0.421948475119
487745000 0.365755022942 0.42214594417
487755500 0.366095226512 0.422674553938
487766000 0.366263908133 0.423249014051
487776500 0.366408314094 0.423516044008
487787000 0.366100669565 0.423278961993
487797500 0.366708468913 0.423608613117
487808000 0.366727220418 0.42356516576
487818500 0.367274150709 0.423200368734
487829000 0.367109994017 0.422890255944
487839500 0.366788756035 0.422893158831
487850000 0.366701548664 0.423691877441
487860500 0.366582685069 0.424187799343
487871000 0.367059313446 0.423936282957
487881500 0.366737799247 0.424250000219
487892000 0.366670273083 0.424107770029
487902500 0.36688478826 0.424451500674
487913000 0.367652865873 0.424776399539
487923500 0.367956384078 0.424549379566
487934000 0.36795359519 0.424718728608
487944500 0.368084480241 0.425054148147
487955000 0.36684181853 0.424982329586
487965500 0.36736105372 0.424959676711
487976000 0.367558034611 0.424881640719
487986500 0.367443864215 0.425509104365
487997000 0.367578354906 0.424964921405
488007500 0.367180559896 0.425672093878
488018000 0.367261039288 0.425384804194
488028500 0.367792552585 0.425254549838
488039000 0.367666048347 0.425846797342
488049500 0.367724732743 0.425242244431
488060000 0.367854732386 0.425649566433
488070500 0.367960192229 0.425743253152
488081000 0.368208550157 0.426227282555
488091500 0.367937957946 0.426146822364
488102000 0.367905902379 0.426610043868
488112500 0.367931936452 0.427022771517
488123000 0.368136419678 0.426574883186
488133500 0.367685515867 0.426780271893
488144000 0.367725318332 0.426640309062
488154500 0.368567775403 0.426745505912
488165000 0.368285428168 0.426857139046
488175500 0.368353635869 0.42650590929
488186000 0.368389880003 0.426575609251
488196500 0.368810467044 0.426928747514
488207000 0.36844791334 0.427149256149
488217500 0.368212486025 0.427067667555
488228000 0.368786998352 0.427755101808
488238500 0.368787448596 0.42784710533
488249000 0.368322178814 0.427373710779
488259500 0.368627929598 0.427632279062
488270000 0.369025348864 0.426511404653
488280500 0.368924395956 0.427822808632
488291000 0.368825256427 0.428338846126
488301500 0.369207065941 0.427615335349
488312000 0.36932959165 0.427596710376
488322500 0.368496540911 0.428748121249
488333000 0.369163437143 0.42808179264
488343500 0.369589825292 0.428429596468
488354000 0.369752508392 0.428384401944
488364500 0.369396837529 0.428546093184
488375000 0.369199922444 0.428918085076
488385500 0.369571337007 0.428502543164
488396000 0.369424215973 0.428599485995
488406500 0.369697164221 0.429139783392
488417000 0.370132427039 0.429585288653
488427500 0.370028086098 0.429647436735
488438000 0.369915032216 0.429720647181
488448500 0.369864389151 0.429313663874
488459000 0.370048384881 0.429277102646
488469500 0.37005230002 0.429336227204
488480000 0.370158026632 0.429611862416
488490500 0.370085006367 0.429893664387
488501000 0.369758416941 0.429786483346
488511500 0.370375043959 0.430067883616
488522000 0.369952048455 0.430191102634
488532500 0.369894502286 0.430052453927
488543000 0.370301792454 0.429961435837
488553500 0.370000009336 0.430777975879
488564000 0.370186091093 0.430540956729
488574500 0.369890741511 0.430673157735
488585000 0.370241172184 0.431049620228
488595500 0.370286691073 0.431330158059
488606000 0.37042579609 0.430991711638
488616500 0.370801376695 0.431552753654
488627000 0.370709239813 0.431510845902
488637500 0.371290586566 0.431329871791
488648000 0.370791166324 0.431503786109
488658500 0.371193402748 0.431161980848
488669000 0.371052655031 0.430875165785
488679500 0.370821457013 0.4312268011
488690000 0.371381255173 0.431328358581
488700500 0.371231691186 0.431218677929
488711000 0.371448589659 0.431620805177
488721500 0.371409910558 0.431489358408
488732000 0.371280172227 0.431694798375
488742500 0.371402426605 0.431598060223
488753000 0.372393233602 0.431631238142
488763500 0.372527785958 0.432270589783
488774000 0.371950187539 0.432286127413
488784500 0.371947783445 0.432270873042
488795000 0.372020436679 0.432082408134
488805500 0.372061915218 0.433226010426
488816000 0.372129052711 0.432828006164
488826500 0.372371400493 0.433339184535
488837000 0.372133253779 0.432544740552
488847500 0.37192742087 0.432652497103
488858000 0.372147103787 0.432540275632
488868500 0.371792254853 0.432918362699
488879000 0.372072988362 0.433044109681
488889500 0.372019235418 0.432666455887
488900000 0.372696859397 0.432810644085
488910500 0.372777869716 0.433183534661
488921000 0.373058404328 0.433040406178
488931500 0.372981693381 0.433206817473
488942000 0.373215977833 0.433603009152
488952500 0.370737859375 0.433653340422
488963000 0.372773484476 0.433508170424
488973500 0.373126806932 0.43350004433
488984000 0.373163910466 0.433773320287
488994500 0.373788040278 0.434100947546
489005000 0.373821759133 0.434236474972
489015500 0.373349831904 0.434315848039
489026000 0.373421481718 0.434392513237
489036500 0.375494677225 0.433943934045
489047000 0.374296295813 0.434639071777
489057500 0.373618324346 0.434639960288
489068000 0.373406439664 0.434643393372
489078500 0.373667271693 0.434674531319
489089000 0.373197738961 0.43448867482
489099500 0.373638952483 0.435043100606
489110000 0.373765704896 0.434821607985
489120500 0.373564966719 0.434866537655
489131000 0.373550096554 0.434788879299
489141500 0.373344091794 0.43554126574
489152000 0.373509531886 0.435611251872
489162500 0.373619222069 0.436133124299
489173000 0.373428653011 0.435463436407
489183500 0.373330145691 0.435548350125
489194000 0.373489171926 0.435663804775
489204500 0.373463072418 0.4354075406
489215000 0.373906695917 0.435939148649
489225500 0.373882814337 0.436560530494
489236000 0.37605038773 0.436173538855
489246500 0.374253282368 0.436615656435
489257000 0.373914990924 0.436796979877
489267500 0.374136851024 0.436392204084
489278000 0.374206338277 0.436215865572
489288500 0.374037222499 0.435715835199
489299000 0.374776088154 0.436257107827
489309500 0.374035470718 0.436104401467
489320000 0.37395287512 0.436521429461
489330500 0.373883173352 0.436920591315
489341000 0.374580950499 0.437136505683
489351500 0.374285620803 0.436951534594
489362000 0.375214821749 0.437004077335
489372500 0.372887905018 0.435215869513
489383000 0.374247004094 0.437217290695
489393500 0.374500395369 0.437350779097
489404000 0.375419906054 0.437200689798
489414500 0.375226582463 0.437374810762
489425000 0.375018780585 0.437583610032
489435500 0.375344247421 0.437748640116
489446000 0.375463167062 0.438341482546
489456500 0.375054650236 0.437944900731
489467000 0.375238623495 0.438312776672
489477500 0.375827093636 0.438350645599
489488000 0.375564281284 0.438568028642
489498500 0.375687184768 0.439027879471
489509000 0.375704745382 0.438614619045
489519500 0.376137036013 0.438512364047
489530000 0.376196394483 0.438698898724
489540500 0.376188758059 0.438230979517
489551000 0.376505585048 0.438051647247
489561500 0.375860131151 0.438534668461
489572000 0.375689838206 0.437441463304
489582500 0.37659727488 0.439250972477
489593000 0.377955166821 0.439247939456
489603500 0.376652587733 0.437846774789
489614000 0.377034515013 0.438899062889
489624500 0.377041517576 0.43898236698
489635000 0.376968552658 0.439753640441
489645500 0.376176513205 0.439042003584
489656000 0.373468287305 0.444211266054
489666500 0.376237783803 0.439344217133
489677000 0.377514822568 0.440442699906
489687500 0.376933842851 0.440312043941
489698000 0.377368604339 0.440894483428
489708500 0.377259269507 0.440177469513
489719000 0.376579866371 0.439910713834
489729500 0.3770148485 0.439727655463
489740000 0.377084642279 0.440395463273
489750500 0.377480882753 0.439208666975
489761000 0.377461639783 0.44057482424
489771500 0.377469528314 0.440995905082
489782000 0.377529416292 0.440307984355
489792500 0.377784167299 0.439961131406
489803000 0.377317161323 0.441542173651
489813500 0.377231910962 0.441085477032
489824000 0.377544204769 0.441458769847
489834500 0.378562630279 0.440644725766
489845000 0.376807580564 0.440731043472
489855500 0.377943723996 0.441768882512
489866000 0.378704554864 0.44107427614
489876500 0.378618766365 0.441889879283
489887000 0.378025500938 0.441334211777
489897500 0.377769328361 0.440831368059
489908000 0.378320224987 0.441542836036
489918500 0.378258520227 0.440938585987
489929000 0.377288886541 0.442111492807
489939500 0.378444787081 0.442473234124
489950000 0.378987330167 0.4414507001
489960500 0.378968914017 0.44213300691
489971000 0.378734362906 0.442301261472
489981500 0.378831626954 0.441937531702
489992000 0.378832140603 0.442489362578
490002500 0.378447701684 0.442280741556
490013000 0.378979249983 0.442300827164
490023500 0.378759525678 0.442654168138
490034000 0.378636694249 0.442850231934
490044500 0.37895080217 0.442756472291
490055000 0.378987850793 0.4429877878
490065500 0.37947559172 0.443305247545
490076000 0.379965346855 0.443199259338
490086500 0.379472870899 0.44302424669
490097000 0.379304415475 0.443296916374
490107500 0.379230814473 0.44334186568
490118000 0.379532315814 0.442979743531
490128500 0.379304137288 0.443110725685
490139000 0.379467489844 0.443544591555
490149500 0.379381046815 0.44383339169
490160000 0.379412767912 0.443721858707
490170500 0.380279782667 0.44391597361
490181000 0.379792334739 0.444154472601
490191500 0.379475674354 0.443964474784
490202000 0.38014911569 0.444352206238
490212500 0.379852749893 0.444231430799
490223000 0.380212427591 0.44422051128
490233500 0.380276466159 0.444411215701
490244000 0.380646922941 0.443893140371
490254500 0.380052198766 0.444856790075
490265000 0.380507890465 0.445152637223
490275500 0.379228495888 0.44570246436
490286000 0.381311483538 0.444867869464
490296500 0.37986635242 0.445540946762
490307000 0.380863354443 0.445777256805
490317500 0.378789158755 0.445055797467
490328000 0.379689973673 0.448581891004
490338500 0.379170641742 0.444402775452
490349000 0.382619731964 0.444098380725
490359500 0.381935083589 0.442931453387
490370000 0.380648112275 0.448398340617
490380500 0.384423857563 0.446068511552
490391000 0.379544492148 0.447578834246
490401500 0.377376893511 0.447869461992
490412000 0.386078876094 0.450091130483
490422500 0.383974310271 0.447804131577
490433000 0.373828327618 0.432868947147
490443500 0.379799561927 0.447004430877
490454000 0.377053106163 0.447194163528
490464500 0.379748290701 0.450875726337
490475000 0.375361670191 0.452114971543
490485500 0.380231208713 0.446086078509
490496000 0.383462780412 0.441158098417
490506500 0.382435242852 0.443867421272
490517000 0.378169269861 0.448106628411
490527500 0.385511090526 0.446521197246
490538000 0.382758129746 0.445637322169
490548500 0.382702813816 0.444569125493
490559000 0.38179333429 0.450380417215
490569500 0.386025286369 0.445500678655
490580000 0.380288120475 0.446130957736
490590500 0.380801306991 0.447363622533
490601000 0.381151487175 0.450374148612
490611500 0.382624947721 0.44722943473
490622000 0.383948602393 0.446520891358
490632500 0.383689528507 0.449816793576
490643000 0.385206221868 0.445857393179
490653500 0.381802744877 0.448026183731
490664000 0.384809748577 0.449039528306
490674500 0.383749544666 0.447747480212
490685000 0.38312324136 0.447035876236
490695500 0.38339444661 0.447973185323
490706000 0.383866124318 0.447980140607
490716500 0.380986247181 0.446312621392
490727000 0.383143182275 0.447204516454
490737500 0.382345116858 0.447816170079
490748000 0.383403663635 0.446150660923
490758500 0.383555067466 0.44634593
490769000 0.38282912055 0.448678133505
490779500 0.38368130198 0.448039900747
490790000 0.384285096225 0.448151144059
490800500 0.384680544288 0.448433798767
490811000 0.384576381644 0.449465795875
490821500 0.384321641065 0.449589031059
490832000 0.384379626061 0.448798539181
490842500 0.385003676667 0.448725152934
490853000 0.384972944093 0.448593826908
490863500 0.38412570059 0.449323013693
490874000 0.386019524958 0.448719583762
490884500 0.384452472253 0.44982363136
490895000 0.383822367267 0.449133715436
490905500 0.384626954432 0.449013036853
490916000 0.3842683755 0.449135857081
490926500 0.383980196939 0.449007014635
490937000 0.384752618589 0.449871891312
490947500 0.384932739624 0.449622202462
490958000 0.384815041309 0.449479817789
490968500 0.384830146106 0.449928043577
490979000 0.384696069565 0.449682440634
490989500 0.385209193922 0.449870611631
491000000 0.384948840085 0.44953514263
491010500 0.385809394793 0.44958009712
491021000 0.3857791055 0.449413196253
491031500 0.385983938397 0.449600517539
491042000 0.385941728618 0.449381858413
491052500 0.385679788141 0.45028130296
491063000 0.385413664409 0.450525566796
491073500 0.386336418092 0.450145817269
491084000 0.385830312599 0.450318155289
491094500 0.385686993933 0.451435905748
491105000 0.384829392963 0.450994662984
491115500 0.385759856358 0.451266242971
491126000 0.385581476381 0.451395205303
491136500 0.385454105327 0.451268077638
491147000 0.386461264961 0.45123635322
491157500 0.386395116336 0.451247816139
491168000 0.386663998703 0.451540344215
491178500 0.38670074988 0.451346132722
491189000 0.386890932629 0.451051839019
491199500 0.385327448695 0.45194895678
491210000 0.38660360136 0.451257903152
491220500 0.386685226146 0.451746943384
491231000 0.385638869637 0.451634474454
491241500 0.386943949614 0.451232171411
491252000 0.38600678401 0.452466049153
491262500 0.386068990921 0.451736855934
491273000 0.386368012947 0.452620929175
491283500 0.386706083638 0.452134875518
491294000 0.38684809797 0.452032708452
491304500 0.386685734462 0.452136813221
491315000 0.386144202865 0.452765950148
491325500 0.387412848771 0.452236783649
491336000 0.38700130925 0.451754149596
491346500 0.387097372336 0.451891958215
491357000 0.387834766009 0.453058663118
491367500 0.387390449022 0.452528403353
491378000 0.388083244549 0.452537715287
491388500 0.387006078913 0.452395508776
491399000 0.387412315306 0.452759091021
491409500 0.387581196038 0.452903828779
491420000 0.387851952742 0.451873539507
491430500 0.388502550767 0.453512063848
491441000 0.387775030672 0.453652843148
491451500 0.387951930798 0.45274344687
491462000 0.387199908406 0.453428860361
491472500 0.387692513184 0.453486100982
491483000 0.388280060822 0.453395452397
491493500 0.388821033925 0.453314179447
491504000 0.389124748047 0.45390226994
491514500 0.387748617245 0.45339045512
491525000 0.387758487313 0.453746577083
491535500 0.387997930797 0.453848334233
491546000 0.38798945326 0.453924675723
491556500 0.388354843458 0.45421213742
491567000 0.389968159375 0.454406990722
491577500 0.3891406819 0.454550836635
491588000 0.389273025436 0.454306810428
491598500 0.389509765963 0.454337657893
491609000 0.389189144752 0.454433022841
491619500 0.38910073498 0.454237442986
491630000 0.389369060394 0.455292427597
491640500 0.389045859988 0.454474947394
491651000 0.388812187553 0.454752921716
491661500 0.389122720899 0.454187655867
491672000 0.389447725242 0.454420291051
491682500 0.389321029028 0.454787554134
491693000 0.389150296809 0.45524973395
491703500 0.388986652017 0.454733093843
491714000 0.388527745656 0.455014410592
491724500 0.388873599637 0.455561587396
491735000 0.388945082653 0.455518242393
491745500 0.393019230383 0.455780127742
491756000 0.389885711776 0.456388418356
491766500 0.389734983939 0.455746899073
491777000 0.389863654824 0.455582945944
491787500 0.390045985878 0.455983447131
491798000 0.389521645934 0.455868946703
491808500 0.390287672732 0.455738360648
491819000 0.390673108556 0.455537167877
491829500 0.390938074316 0.456441590438
491840000 0.390480862077 0.456019045034
491850500 0.390489090604 0.456659990298
491861000 0.390761828675 0.456844528461
491871500 0.390520209218 0.456717635866
491882000 0.391217121352 0.456399286382
491892500 0.391019445558 0.456470064767
491903000 0.390841329442 0.456060169703
491913500 0.390649105535 0.456241524801
491924000 0.391301067281 0.456755784311
491934500 0.391280960876 0.457338918468
491945000 0.391115677435 0.456899473399
491955500 0.391588577742 0.457010065188
491966000 0.391353259279 0.457163103179
491976500 0.39153904986 0.456728269673
491987000 0.391386272873 0.45718961253
491997500 0.39156524151 0.457229584908
492008000 0.390793418361 0.457620146164
492018500 0.391130569496 0.45764909811
492029000 0.392061830285 0.457825929232
492039500 0.391959343484 0.457697277591
492050000 0.391716764343 0.45746507672
492060500 0.391905861524 0.457708280291
492071000 0.390955802476 0.457502221491
492081500 0.391682374273 0.457964983714
492092000 0.392321666469 0.45838574021
492102500 0.391444320021 0.458263393485
492113000 0.392272757375 0.458028127464
492123500 0.392308547936 0.458685338978
492134000 0.393928206941 0.45445497337
492144500 0.392981659477 0.458871758967
492155000 0.393068048417 0.458437564667
492165500 0.39337589987 0.458879847186
492176000 0.393493436116 0.458708192382
492186500 0.392739704496 0.458550697814
492197000 0.392611406415 0.458490450074
492207500 0.392648518484 0.458610810025
492218000 0.393256045074 0.458938006137
492228500 0.392637897116 0.458225841294
492239000 0.393434168614 0.458499437192
492249500 0.393294243917 0.458312916945
492260000 0.393872503282 0.458182607602
492270500 0.393547589147 0.458999975425
492281000 0.393629927163 0.459230214
492291500 0.393583670814 0.459862570141
492302000 0.393222632781 0.458752429783
492312500 0.394090039229 0.459189138049
492323000 0.395110887351 0.459074737029
492333500 0.394172690186 0.459036451985
492344000 0.393875513797 0.459488078726
492354500 0.394583777736 0.458672479556
492365000 0.394401912845 0.459672568104
492375500 0.395221944033 0.459565224184
492386000 0.395422022302 0.459823125588
492396500 0.39558646573 0.459949315181
492407000 0.39538146923 0.459906841633
492417500 0.395181363383 0.460309991145
492428000 0.394649152835 0.460622609309
492438500 0.394415729326 0.460678004875
492449000 0.394617218436 0.460220213605
492459500 0.395062166698 0.460709313764
492470000 0.395002560358 0.460803684704
492480500 0.394778021953 0.460857028354
492491000 0.394890433815 0.460834233391
492501500 0.395267902449 0.460762593014
492512000 0.395751966915 0.461286168763
492522500 0.395532201037 0.461406467336
492533000 0.395319170345 0.461194074048
492543500 0.395638826795 0.46142664124
492554000 0.395049434626 0.461244344727
492564500 0.395278533854 0.461890062492
492575000 0.395309430636 0.46152651525
492585500 0.39543010696 0.460846401282
492596000 0.395358257888 0.460430202797
492606500 0.395142071922 0.46247487865
492617000 0.395171262303 0.460684674336
492627500 0.396116497157 0.461610278653
492638000 0.395653174174 0.4615793628
492648500 0.395964620966 0.462058322212
492659000 0.39608955536 0.461504025415
492669500 0.396662719496 0.46169581509
492680000 0.396294713725 0.461816531372
492690500 0.396176100345 0.461232793141
492701000 0.396142508668 0.462292181697
492711500 0.39602260971 0.462015942003
492722000 0.395622321692 0.46256805606
492732500 0.395655818275 0.461815686302
492743000 0.396554974629 0.461611126973
492753500 0.397187533921 0.46150843513
492764000 0.397541486123 0.461667133594
492774500 0.397849636335 0.461450437981
492785000 0.397509298986 0.461799638406
492795500 0.397709789941 0.462276268453
492806000 0.396849139527 0.463960815372
492816500 0.397547722447 0.462411222348
492827000 0.396466268196 0.462528119566
492837500 0.396846775335 0.462284867797
492848000 0.396711239325 0.462932410029
492858500 0.396854282176 0.463432006965
492869000 0.396707249657 0.463267268808
492879500 0.397078854685 0.463527243283
492890000 0.397525387497 0.463623417182
492900500 0.397389178844 0.463639540769
492911000 0.398358969271 0.463261997704
492921500 0.397937908972 0.463717512174
492932000 0.397653610845 0.463469489273
492942500 0.397894942412 0.463575188039
492953000 0.398165950754 0.46393421889
492963500 0.397990285502 0.463319640212
492974000 0.398058723786 0.463476522887
492984500 0.39777553873 0.463810710389
492995000 0.397150195455 0.462966997033
493005500 0.397701183243 0.463532787131
493016000 0.39781083524 0.462977101153
493026500 0.398460142401 0.463275872977
493037000 0.398588440406 0.462669512496
493047500 0.39880681999 0.463654528391
493058000 0.398760795197 0.463980393485
493068500 0.396851451543 0.46456610648
493079000 0.398559473062 0.464502655804
493089500 0.399926492635 0.465035899532
493100000 0.399511662998 0.465126379729
493110500 0.398980861825 0.465034335265
493121000 0.399162067565 0.465347167117
493131500 0.39925276556 0.465102956737
493142000 0.399099593387 0.465099184947
493152500 0.400336154342 0.464444175792
493163000 0.399513655553 0.464430247085
493173500 0.399759887172 0.465524456124
493184000 0.399257914509 0.465394570194
493194500 0.399510507996 0.464872799293
493205000 0.400151310333 0.465129403508
493215500 0.399793171729 0.465795658293
493226000 0.399245655125 0.465526227781
493236500 0.398974276782 0.465270395209
493247000 0.399530724981 0.465229221848
493257500 0.400326393098 0.465024914927
493268000 0.400322053796 0.464669872825
493278500 0.400593944334 0.464694218762
493289000 0.401082928473 0.465555648041
493299500 0.401053060996 0.465582279282
493310000 0.400806621178 0.465713056962
493320500 0.401451819645 0.465622967119
493331000 0.400985890936 0.465298922027
493341500 0.400793330455 0.465625659952
493352000 0.40074674711 0.465165452069
493362500 0.400656506158 0.465120985225
493373000 0.400545594697 0.466054110645
493383500 0.400445313681 0.466235861231
493394000 0.401230746586 0.466221141747
493404500 0.400652441862 0.466186625247
493415000 0.401141934389 0.466670224553
493425500 0.401735588343 0.465735018892
493436000 0.402122619836 0.466031611097
493446500 0.402074995688 0.467513366206
493457000 0.40167013332 0.465799585625
493467500 0.402697834231 0.466360693852
493478000 0.401939389172 0.467002255165
493488500 0.401160171557 0.46638282502
493499000 0.401470001064 0.466914179292
493509500 0.401558458655 0.466897022578
493520000 0.402306258767 0.466706132884
493530500 0.402714683273 0.466745950783
493541000 0.40245194103 0.46729280732
493551500 0.402455713682 0.466626547922
493562000 0.402849410882 0.466417736679
493572500 0.402769389 0.467500247675
493583000 0.402761043434 0.467466725598
493593500 0.401827737857 0.467253014581
493604000 0.402185468207 0.46672877925
493614500 0.401600068121 0.46651743601
493625000 0.402283188783 0.467372765679
493635500 0.402667395332 0.46816163924
493646000 0.40269869266 0.468301643555
493656500 0.402286031698 0.46756456936
493667000 0.403430093032 0.466969887614
493677500 0.403649662688 0.467356139113
493688000 0.40299824017 0.467649782414
493698500 0.403216388 0.467846314609
493709000 0.403540790154 0.467306808563
493719500 0.403047578533 0.466320440147
493730000 0.402654493529 0.467840549557
493740500 0.403543122477 0.468535672476
493751000 0.404057095211 0.467648396549
493761500 0.40328944746 0.469120365534
493772000 0.404291530308 0.468759624248
493782500 0.402730842419 0.468031028417
493793000 0.403160118462 0.468639509794
493803500 0.402863340161 0.467142447204
493814000 0.404402569039 0.467401121568
493824500 0.403397904191 0.468019649074
493835000 0.403786225853 0.468194115222
493845500 0.404292131755 0.468140827496
493856000 0.404774495083 0.468078960586
493866500 0.404714430734 0.468690065533
493877000 0.404602577515 0.469030881181
493887500 0.404599673443 0.46911155502
493898000 0.404874419937 0.468588999488
493908500 0.403951165478 0.468482463036
493919000 0.404265960408 0.46902815294
493929500 0.404779417582 0.468721937848
493940000 0.404274159591 0.469950810874
493950500 0.405394855607 0.469145814494
493961000 0.404972448627 0.469462332281
493971500 0.406153677157 0.471024006409
493982000 0.407680548867 0.470199297753
493992500 0.407116788127 0.47192751549
494003000 0.405718307799 0.472157718047
494013500 0.405572852973 0.47131401789
494024000 0.405571666463 0.469686817726
494034500 0.40541252793 0.468989192111
494045000 0.40495958831 0.470519067482
494055500 0.407491615842 0.469855660247
494066000 0.407703072661 0.469188993993
494076500 0.406417752429 0.471216473438
494087000 0.40605634149 0.4709962344
494097500 0.406778699283 0.469420358493
494108000 0.405946125961 0.471853134033
494118500 0.40584910768 0.471821496097
494129000 0.404455468881 0.470303322458
494139500 0.405376741422 0.46971626503
494150000 0.406370634406 0.469361667893
494160500 0.406682815977 0.470076095233
494171000 0.406214439363 0.468509749722
494181500 0.406351753434 0.468867531551
494192000 0.409219838303 0.473030299605
494202500 0.40942253824 0.469197689656
494213000 0.407822443937 0.470404305611
494223500 0.40942793929 0.47149833561
494234000 0.405878653426 0.468218786628
494244500 0.408883153686 0.471787133369
494255000 0.408947530308 0.470995435411
494265500 0.403243580893 0.472169431047
494276000 0.411065604867 0.472211637042
494286500 0.406679087343 0.471683155773
494297000 0.406566536247 0.47213159913
494307500 0.411010686928 0.47004366664
494318000 0.405528480348 0.472599832476
494328500 0.408487784917 0.473181470411
494339000 0.406228362689 0.478089384364
494349500 0.414069899904 0.476198824067
494360000 0.407293358025 0.472842444099
494370500 0.407243022709 0.474792710765
494381000 0.410239686676 0.478575591155
494391500 0.408307217934 0.464822588314
494402000 0.416438035513 0.47080571664
494412500 0.408119446647 0.479798430043
494423000 0.413696455674 0.470356479594
494433500 0.416073630951 0.470226715602
494444000 0.408505097877 0.465021594046
494454500 0.414514761281 0.469671177355
494465000 0.407509481797 0.476579484158
494475500 0.403602310987 0.472193545624
494486000 0.419402459197 0.477947946998
494496500 0.405922356821 0.472790909516
494507000 0.406362257261 0.469662786836
494517500 0.409067494068 0.474171665667
494528000 0.405649989536 0.470275861451
494538500 0.406062630024 0.473101927651
494549000 0.412814321348 0.473186715604
494559500 0.409925029528 0.471517971394
494570000 0.405329411042 0.478116160825
494580500 0.406438552542 0.476047698196
494591000 0.414088004274 0.474499409304
494601500 0.415550403917 0.472088900901
494612000 0.414259117595 0.473011483079
494622500 0.417625259284 0.469342633775
494633000 0.410604136959 0.470732960858
494643500 0.410845387258 0.473567833093
494654000 0.409789958621 0.475143544354
494664500 0.414920762356 0.473771236076
494675000 0.412147342372 0.471818957878
494685500 0.409535162899 0.471317138068
494696000 0.406444304184 0.472162848221
494706500 0.414029718026 0.472718362178
494717000 0.419070468838 0.466913484198
494727500 0.411155391314 0.46957459653
494738000 0.409219167123 0.473819170655
494748500 0.411023839057 0.473445664083
494759000 0.406331114036 0.470869168352
494769500 0.412766159294 0.484268876353
494780000 0.414435458728 0.472991190487
494790500 0.411256903039 0.471836423597
494801000 0.41146520011 0.473024409121
494811500 0.413228813137 0.470866770392
494822000 0.408554511367 0.473576629688
494832500 0.408402595435 0.474411872857
494843000 0.413716299833 0.474813459717
494853500 0.408647526512 0.471131341157
494864000 0.411604910808 0.472299761978
494874500 0.41084210291 0.476869576994
494885000 0.407461737785 0.472672522919
494895500 0.411248760086 0.47491712446
494906000 0.410926976253 0.474542735062
494916500 0.413031399834 0.475143338635
494927000 0.411712541053 0.474438793088
494937500 0.41041006365 0.4751909492
494948000 0.412173416427 0.475377046816
494958500 0.412414843232 0.475102206672
494969000 0.412024317714 0.475056664138
494979500 0.41210965412 0.474487587788
494990000 0.412953756504 0.474352095123
495000500 0.412811289231 0.474635000403
495011000 0.412893565619 0.474472799349
495021500 0.412907914195 0.475462186376
495032000 0.412947689428 0.475385829146
495042500 0.413441234444 0.476163303185
495053000 0.412915483043 0.476349383122
495063500 0.412300704094 0.475884083162
495074000 0.412910347695 0.475783487183
495084500 0.411912075227 0.476020284324
495095000 0.414561354686 0.474025813703
495105500 0.413181532072 0.475913131041
495116000 0.413341131056 0.475810400056
495126500 0.413447248771 0.475804077426
495137000 0.413317072243 0.474908973712
495147500 0.414429706216 0.47609964057
495158000 0.413003278797 0.475268747317
495168500 0.414117921452 0.475041835476
495179000 0.415808328116 0.475746589052
495189500 0.414198060746 0.476535108838
495200000 0.413877018698 0.476336988195
495210500 0.413665056428 0.476648728375
495221000 0.415518792635 0.476416780145
495231500 0.413874899916 0.475840313783
495242000 0.414665141002 0.475347044874
495252500 0.413086411616 0.476016324439
495263000 0.414007258963 0.477261921972
495273500 0.414602494921 0.478604297591
495284000 0.413478310503 0.476604133816
495294500 0.4147789438 0.47627508064
495305000 0.414298369556 0.477259108085
495315500 0.415041322699 0.476939477739
495326000 0.414416869433 0.476320514305
495336500 0.415642421916 0.477345027769
495347000 0.414844869326 0.477556847069
495357500 0.414289759633 0.476444152993
495368000 0.413131491468 0.477260619589
495378500 0.414940231443 0.477057649677
495389000 0.413909760077 0.476937148836
495399500 0.413673383704 0.478682810962
495410000 0.4175715291 0.478717080073
495420500 0.41543127238 0.478210855516
495431000 0.415957471118 0.477498888789
495441500 0.415990623764 0.477304144087
495452000 0.415284560291 0.477177104284
495462500 0.415773910851 0.477911855536
495473000 0.416373922214 0.478336336552
495483500 0.416293309951 0.478434308614
495494000 0.416128858131 0.477985154423
495504500 0.416493335173 0.47746471972
495515000 0.416836837471 0.477800681874
495525500 0.416633171422 0.477728886971
495536000 0.41655980539 0.477953171702
495546500 0.416656733303 0.47734247982
495557000 0.416032623872 0.477628871575
495567500 0.416385512914 0.477469415134
495578000 0.416230374317 0.47780256272
495588500 0.416390926443 0.478085609079
495599000 0.417159756391 0.478153417539
495609500 0.416509878812 0.478686735345
495620000 0.416594213282 0.478891334448
495630500 0.416631013508 0.478942658649
495641000 0.416864426739 0.478814597075
495651500 0.416807537509 0.478408765682
495662000 0.416739331483 0.478568254988
495672500 0.417372518372 0.478882448015
495683000 0.417539867316 0.477953857737
495693500 0.418150902367 0.47862471283
495704000 0.417513896267 0.479014766158
495714500 0.418406676826 0.478810266566
495725000 0.418498016701 0.478651008904
495735500 0.418354689502 0.478933891754
495746000 0.418243532107 0.478252262206
495756500 0.418552834137 0.479311938623
495767000 0.417972563635 0.478992300639
495777500 0.418100266842 0.479313670163
495788000 0.417998484153 0.479555792836
495798500 0.418151789085 0.479529403934
495809000 0.418258425537 0.479513132047
495819500 0.418390465993 0.479346142078
495830000 0.418174601523 0.47920544805
495840500 0.418136145206 0.479421794497
495851000 0.418858833251 0.479773466827
495861500 0.418636294236 0.479125597489
495872000 0.4190660679 0.48005743085
495882500 0.419100687178 0.48003081139
495893000 0.418955111197 0.48060930686
495903500 0.418888515184 0.479678993807
495914000 0.418279376226 0.47945713838
495924500 0.419493222507 0.479277130105
495935000 0.419631355461 0.479132522892
495945500 0.41981746227 0.479551851767
495956000 0.418986442711 0.479854199925
495966500 0.419037773161 0.479886150336
495977000 0.419774503296 0.479406376961
495987500 0.419855612393 0.480449014062
495998000 0.419531221877 0.480806355329
496008500 0.420101704649 0.480788922731
496019000 0.420164311033 0.480191313027
496029500 0.419398188917 0.480094159491
496040000 0.419901048886 0.48060741158
496050500 0.420135875115 0.480599185516
496061000 0.42036658852 0.480622864938
496071500 0.42006944921 0.480451746098
496082000 0.420577899261 0.480649766678
496092500 0.420203209428 0.480491999015
496103000 0.420125550545 0.480860490072
496113500 0.421077769164 0.48072601073
496124000 0.420054673276 0.481160022962
496134500 0.420285938892 0.481299867807
496145000 0.420469895763 0.48113186892
496155500 0.420866744318 0.480946632496
496166000 0.420997767127 0.480971688514
496176500 0.421438470069 0.48086675523
496187000 0.421396114407 0.480943476338
496197500 0.42157118731 0.480208979273
496208000 0.420139334993 0.478787796643
496218500 0.421295582581 0.481009070879
496229000 0.420817594738 0.481408870817
496239500 0.4214590418 0.481225671514
496250000 0.421757108861 0.481388221393
496260500 0.421867772845 0.481366775384
496271000 0.422343797712 0.482004200317
496281500 0.422098879941 0.48285267061
496292000 0.421946222715 0.482366813185
496302500 0.421759438487 0.48163357359
496313000 0.421789669663 0.481249051103
496323500 0.422194806068 0.481440753081
496334000 0.421653078829 0.482555853889
496344500 0.421325134324 0.483197647922
496355000 0.422277541831 0.482218624718
496365500 0.421654685174 0.482320397046
496376000 0.423124443765 0.48230346547
496386500 0.423792916632 0.482628773077
496397000 0.424028763048 0.483088139746
496407500 0.424359339447 0.483478930513
496418000 0.422800425455 0.482926581009
496428500 0.423167521129 0.481901428659
496439000 0.423007998784 0.482443311444
496449500 0.422902216634 0.482328072434
496460000 0.422775795202 0.482481723463
496470500 0.423058928951 0.482070161536
496481000 0.423342922648 0.481967748964
496491500 0.423508787584 0.48196688309
496502000 0.423772811263 0.482287013384
496512500 0.424032794379 0.482383573256
496523000 0.423938144877 0.482544880148
496533500 0.424459868184 0.482590778358
496544000 0.423987424721 0.483021732605
496554500 0.424322350538 0.482893903277
496565000 0.424319708224 0.482868827925
496575500 0.423489557323 0.483444762145
496586000 0.424303330622 0.482866820157
496596500 0.424005368953 0.483163936123
496607000 0.423547967783 0.483413392567
496617500 0.423304123492 0.483126998914
496628000 0.423803839484 0.482955711578
496638500 0.424618252944 0.483604515525
496649000 0.42505516841 0.483416242225
496659500 0.425007420365 0.483462836772
496670000 0.424569070891 0.483691089831
496680500 0.425094848991 0.48345857639
496691000 0.423935448874 0.483025644929
496701500 0.424586009634 0.48284853821
496712000 0.424739585092 0.483049463951
496722500 0.425289244537 0.482993279445
496733000 0.425206027884 0.483528093637
496743500 0.425378525491 0.483245032806
496754000 0.42468779287 0.484000205996
496764500 0.423746142665 0.483812257819
496775000 0.423599053548 0.483428133803
496785500 0.423818406666 0.483739389399
496796000 0.424598567255 0.483472398613
496806500 0.4254744434 0.484224574044
496817000 0.42613864698 0.484390284848
496827500 0.426091738931 0.483414160718
496838000 0.42650586898 0.48355405039
496848500 0.425920741349 0.483396839762
496859000 0.426056388185 0.483407530004
496869500 0.426169869155 0.484218316005
496880000 0.426472704168 0.483895834116
496890500 0.426865632875 0.483942907976
496901000 0.42674701313 0.483873901577
496911500 0.426636914506 0.483870963072
496922000 0.426762164861 0.484112799266
496932500 0.4271487918 0.484593400561
496943000 0.426959728196 0.485160411582
496953500 0.427105049727 0.485139571053
496964000 0.427233555019 0.484377363312
496974500 0.427413373697 0.484689787228
496985000 0.427119825444 0.484785557708
496995500 0.427582337389 0.485575413975
497006000 0.42726298118 0.484824484929
497016500 0.426803873511 0.48518076097
497027000 0.427256269111 0.484924831555
497037500 0.427432447596 0.484867096638
497048000 0.422825868307 0.479938984898
497058500 0.427754553085 0.484403886664
497069000 0.428306647037 0.484994945941
497079500 0.427703904873 0.485254611553
497090000 0.428355322148 0.485335224028
497100500 0.42870036754 0.485716457081
497111000 0.428402706281 0.486210266148
497121500 0.428484348543 0.485477739947
497132000 0.429058038797 0.485841551297
497142500 0.42884580632 0.485587012366
497153000 0.428874917486 0.4853567726
497163500 0.428974160958 0.486178392904
497174000 0.428108682999 0.486578282535
497184500 0.42929648888 0.486477968031
497195000 0.429135839134 0.486179436405
497205500 0.429338302759 0.485318568543
497216000 0.429640324777 0.486059329707
497226500 0.429232506245 0.486047754228
497237000 0.435303486183 0.487583864135
497247500 0.429295031872 0.48598941812
497258000 0.429957882926 0.486461070202
497268500 0.429985351214 0.485674762509
497279000 0.42984726325 0.485624555505
497289500 0.429487117459 0.485212935724
497300000 0.429673918418 0.486460002792
497310500 0.429422718578 0.486304663355
497321000 0.429752930294 0.486413411293
497331500 0.4296808814 0.486494352235
497342000 0.429701735123 0.486387225452
497352500 0.429996356869 0.486353818446
497363000 0.429832336197 0.486174038062
497373500 0.429972847199 0.486471478278
497384000 0.429872048374 0.486104340432
497394500 0.429658768871 0.486368486474
497405000 0.429886515085 0.487036716249
497415500 0.430242366827 0.48664675356
497426000 0.430599382717 0.486481223048
497436500 0.430809073057 0.487531471751
497447000 0.430167759089 0.487117675215
497457500 0.430233180345 0.487214903644
497468000 0.43020252261 0.487456133028
497478500 0.430607162826 0.487391326187
497489000 0.43122382011 0.487485008757
497499500 0.430777445769 0.487041986934
497510000 0.430728449724 0.487274497078
497520500 0.431273269799 0.487224172198
497531000 0.431643707068 0.486990341887
497541500 0.430884803828 0.487581566673
497552000 0.432011385816 0.487105154754
497562500 0.430393736442 0.487162792892
497573000 0.431804983829 0.487434586907
497583500 0.431160900349 0.487768574602
497594000 0.431901950993 0.487873640996
497604500 0.432039078843 0.487843183662
497615000 0.432118097194 0.487971934659
497625500 0.431905846136 0.487755544338
497636000 0.431453515247 0.487758149618
497646500 0.431811457703 0.487605634401
497657000 0.431922188637 0.488000139925
497667500 0.432587083834 0.488306490612
497678000 0.432135254301 0.487879792903
497688500 0.432391884512 0.487939341903
497699000 0.432373613961 0.488274199487
497709500 0.432217385778 0.487768067916
497720000 0.433609589368 0.487104063889
497730500 0.432935242087 0.488107737126
497741000 0.433511474817 0.488164536094
497751500 0.433395108797 0.488965145811
497762000 0.433060942519 0.488702181234
497772500 0.432607430318 0.487912614654
497783000 0.4332756361 0.48842016376
497793500 0.433023878693 0.48782873309
497804000 0.432965426314 0.48770679287
497814500 0.433406055661 0.48807855048
497825000 0.433704870671 0.488330168963
497835500 0.434794743145 0.488454833848
497846000 0.434203730325 0.489004620811
497856500 0.434133039862 0.488633513271
497867000 0.433040636446 0.488692543148
497877500 0.433828537044 0.489146818278
497888000 0.434345493937 0.488794266123
497898500 0.43457748072 0.488438484257
497909000 0.434071775719 0.488877819344
497919500 0.434390482549 0.48844113353
497930000 0.434325853555 0.488740543095
497940500 0.435323124015 0.488867354804
497951000 0.434699995839 0.488897687589
497961500 0.435091636814 0.489160547862
497972000 0.434905961557 0.488736720688
497982500 0.434733449048 0.489252743899
497993000 0.43410263852 0.489192554512
498003500 0.435603716846 0.488856326936
498014000 0.434926256908 0.488631977296
498024500 0.434676296207 0.488629059138
498035000 0.435071138087 0.489104855044
498045500 0.435189626549 0.489022744867
498056000 0.435152568146 0.489375445928
498066500 0.434718405285 0.489434704282
498077000 0.4348508183 0.489718632507
498087500 0.435551572788 0.489193053458
498098000 0.436023315678 0.489712515245
498108500 0.435368111313 0.489909705156
498119000 0.436295110372 0.489016402826
498129500 0.435395567118 0.489490871862
498140000 0.436198430729 0.489159535706
498150500 0.436352446181 0.489692714437
498161000 0.436107546468 0.48963217545
498171500 0.436182959114 0.489559658871
498182000 0.436046406687 0.49002609299
498192500 0.436233357049 0.489456951579
498203000 0.436126162455 0.489811767284
498213500 0.435965640006 0.489872142634
498224000 0.435719608166 0.489984742717
498234500 0.436627822893 0.489754644545
498245000 0.436224750339 0.488981708568
498255500 0.436535818874 0.489832423568
498266000 0.436775904155 0.490405173314
498276500 0.436564823625 0.490256700735
498287000 0.437046539926 0.488309817899
498297500 0.442639618203 0.488221407453
498308000 0.435745746003 0.491258158611
498318500 0.431844666819 0.503080673292
498329000 0.433884614503 0.497924624612
498339500 0.428558305965 0.493352696038
498350000 0.43414005368 0.490514602204
498360500 0.437163157733 0.490962681352
498371000 0.437315344413 0.491421720345
498381500 0.438473426799 0.490925955551
498392000 0.438305222827 0.491176418486
498402500 0.438026516696 0.490743974177
498413000 0.437621117479 0.490677197826
498423500 0.438216885805 0.490310505049
498434000 0.438130637611 0.49117955953
498444500 0.439023162299 0.491206022145
498455000 0.439928810014 0.489875540718
498465500 0.437987960861 0.491126387517
498476000 0.439504870149 0.491659089968
498486500 0.439053192495 0.490924318455
498497000 0.438803335811 0.4922168655
498507500 0.440551607261 0.490838467257
498518000 0.440514257973 0.490229394408
498528500 0.440298816665 0.490560924702
498539000 0.437827309567 0.491319219245
498549500 0.438531633832 0.490990736861
498560000 0.439038793475 0.491958138396
498570500 0.439922690231 0.491555011333
498581000 0.439962415426 0.49020309287
498591500 0.44115327852 0.491736390318
498602000 0.440204469029 0.492012672683
498612500 0.440031917067 0.491779052043
498623000 0.439509041688 0.491545811126
498633500 0.440211512183 0.49270540732
498644000 0.440262417402 0.491326323012
498654500 0.438952628455 0.491206647707
498665000 0.440248543498 0.491713079302
498675500 0.440072365786 0.492152911784
498686000 0.440544559507 0.491732329193
498696500 0.439901749605 0.492056978439
498707000 0.441412379018 0.492288704585
498717500 0.440774310471 0.490229637584
498728000 0.439248763572 0.490393476527
498738500 0.441839036715 0.493098457089
498749000 0.439825555717 0.492150431385
498759500 0.441251601443 0.491269057179
498770000 0.440220085593 0.492501899231
498780500 0.441691525029 0.492447011292
498791000 0.440685955452 0.491782804673
498801500 0.441188893983 0.492730730416
498812000 0.440397622849 0.491747955958
498822500 0.441222270457 0.491851505879
498833000 0.440902491299 0.491921537425
498843500 0.441127104007 0.493254353642
498854000 0.440880152273 0.491322118431
498864500 0.440355950798 0.492027088785
498875000 0.441150652761 0.490954205854
498885500 0.442660742559 0.490622306943
498896000 0.442187517301 0.492139312789
498906500 0.441187135009 0.491841504179
498917000 0.441754281474 0.492659831939
498927500 0.442613127866 0.492840725713
498938000 0.442165110424 0.492769847341
498948500 0.441637941729 0.492440139764
498959000 0.441997306107 0.492871677308
498969500 0.441676008639 0.49281019458
498980000 0.44258862836 0.493338694989
498990500 0.443214530377 0.493316143008
499001000 0.441709647723 0.493382537354
499011500 0.443390908126 0.492907039767
499022000 0.443512366072 0.492747552299
499032500 0.441431273969 0.492955922412
499043000 0.442998845844 0.493759864427
499053500 0.441565970348 0.492997256526
499064000 0.441832511052 0.492710073813
499074500 0.442217829813 0.493717552145
499085000 0.442777118398 0.491944842979
499095500 0.444784835226 0.491144632304
499106000 0.442508379057 0.494056208276
499116500 0.443501641677 0.492514546539
499127000 0.443799097894 0.493793015762
499137500 0.444673108592 0.494463643275
499148000 0.442508391392 0.491407603323
499158500 0.444243020487 0.491948218395
499169000 0.445165276461 0.491026276097
499179500 0.443907300898 0.493303198217
499190000 0.448818546854 0.495003153
499200500 0.44313202153 0.496289068951
499211000 0.442027666654 0.49472562214
499221500 0.441694772598 0.493316097914
499232000 0.446439519363 0.491866920573
499242500 0.443002497819 0.489125437218
499253000 0.449941742364 0.494262391228
499263500 0.448293575311 0.495931540283
499274000 0.443762556804 0.495688924904
499284500 0.44854160814 0.49031537025
499295000 0.441009618441 0.489250835265
499305500 0.438992664877 0.493755214497
499316000 0.441777858653 0.493164809749
499326500 0.444589097058 0.497958887903
499337000 0.446462567441 0.498697508473
499347500 0.445400704422 0.49273013612
499358000 0.441379635686 0.493575353296
499368500 0.446081633616 0.498207294238
499379000 0.449370273647 0.488347389248
499389500 0.444645838384 0.494155123342
499400000 0.44314993059 0.493952087161
499410500 0.446018421963 0.489655729007
499421000 0.444099590892 0.492378291491
499431500 0.44281661341 0.493445086061
499442000 0.447870270621 0.493164605283
499452500 0.446696558099 0.499623777036
499463000 0.443206787373 0.495128104041
499473500 0.447126033582 0.499031818622
499484000 0.449612308611 0.498729144797
499494500 0.452581354104 0.492951977021
499505000 0.452603040162 0.489835682318
499515500 0.44393115993 0.500573223999
499526000 0.446791076261 0.489617515088
499536500 0.448155426615 0.493501112309
499547000 0.439702508746 0.493495690984
499557500 0.443198361625 0.494210292125
499568000 0.445811341156 0.489679973565
499578500 0.446099191589 0.498212705391
499589000 0.447230626706 0.494887950985
499599500 0.449429151847 0.493418264785
499610000 0.448237404639 0.493812863957
499620500 0.448999194626 0.498502873214
499631000 0.449342307459 0.499810422719
499641500 0.449966782676 0.495083722205
499652000 0.44487651458 0.488308026753
499662500 0.452036073767 0.493107009545
499673000 0.449685480999 0.494927275741
499683500 0.449956158646 0.494100637916
499694000 0.450579774666 0.4951605006
499704500 0.448298800427 0.492852767004
499715000 0.451257080264 0.496508889093
499725500 0.44626304149 0.496939994762
499736000 0.450634042797 0.494766984213
499746500 0.447581381611 0.49532663132
499757000 0.449330685847 0.495388387244
499767500 0.451631033154 0.50111664603
499778000 0.450534580009 0.49614151776
499788500 0.448750477038 0.497416287842
499799000 0.449572800566 0.494660235015
499809500 0.447756239509 0.495888050101
499820000 0.44766398924 0.496308101758
499830500 0.449236109526 0.494119283175
499841000 0.449461293118 0.496028766674
499851500 0.44986967184 0.496971476855
499862000 0.450599353788 0.493063644489
499872500 0.449410905057 0.496431282257
499883000 0.449743430211 0.495895453443
499893500 0.449545278368 0.495638813662
499904000 0.44917136865 0.496044406714
499914500 0.450776858916 0.494988425022
499925000 0.449647962323 0.494794202164
499935500 0.450224351152 0.49466708783
499946000 0.449920686139 0.49499764163
499956500 0.450786362883 0.495372031491
499967000 0.45015474178 0.495564988842
499977500 0.450612283799 0.495447929594
499988000 0.450479191754 0.496081655739
499998500 0.450832676912 0.495574739731
500009000 0.450462766373 0.495664752578
500019500 0.450384377674 0.494726609191
500030000 0.451139140047 0.495099369019
500040500 0.450614417254 0.495777829374
500051000 0.451416258796 0.495805909437
500061500 0.45121316061 0.496109026715
500072000 0.450838714773 0.495504777842
500082500 0.451472539535 0.496254804716
500093000 0.451473628175 0.495789443172
500103500 0.451488429112 0.496258623052
500114000 0.450746066007 0.495347567709
500124500 0.452359422152 0.496038361882
500135000 0.452789458573 0.496167773939
500145500 0.453455867884 0.49685004339
500156000 0.451797739138 0.496681174244
500166500 0.452996103667 0.496606492203
500177000 0.452329560148 0.49675230303
500187500 0.451745435282 0.496392095233
500198000 0.451960337199 0.496237427841
500208500 0.453690349528 0.49653060906
500219000 0.451752493756 0.497013307222
500229500 0.452222891263 0.496155586746
500240000 0.4517647167 0.496622486345
500250500 0.453209740892 0.496528745346
500261000 0.452323384607 0.496421404587
500271500 0.452654064 0.49686987425
500282000 0.452919311008 0.496650114318
500292500 0.453257928963 0.495278958942
500303000 0.452774700848 0.496131491553
500313500 0.452999957473 0.496961578372
500324000 0.452249561892 0.496673327649
500334500 0.450932970631 0.497149699532
500345000 0.453722503365 0.495894307555
500355500 0.452712415201 0.496728558811
500366000 0.453786373846 0.496185821882
500376500 0.454415746302 0.49603632257
500387000 0.454367830348 0.497174443032
500397500 0.454107814699 0.497485073977
500408000 0.454679315282 0.496869876641
500418500 0.454736484314 0.497112457366
500429000 0.453073299362 0.497891888571
500439500 0.45287187804 0.496163677107
500450000 0.45365481351 0.497213218853
500460500 0.453994417715 0.497311609501
500471000 0.454214594072 0.495927937794
500481500 0.455231307944 0.496168180972
500492000 0.45465331391 0.496702119264
500502500 0.454825279983 0.496282824745
500513000 0.455483397875 0.497228296543
500523500 0.454729050629 0.497267388391
500534000 0.454855525755 0.497143732918
500544500 0.455046045521 0.497306591042
500555000 0.454591521398 0.496828505315
500565500 0.455642706096 0.496817232711
500576000 0.455509856069 0.497437579294
500586500 0.455925918178 0.496972035029
500597000 0.455298886561 0.497167514338
500607500 0.455481628622 0.496997776788
500618000 0.455613466378 0.497106213717
500628500 0.45584246627 0.497243647876
500639000 0.455747863394 0.497037921899
500649500 0.455486869318 0.497220424548
500660000 0.455455319532 0.496981381333
500670500 0.455505386033 0.497504172586
500681000 0.454613263967 0.497464709888
500691500 0.455045741685 0.4975743726
500702000 0.455219859251 0.496980781816
500712500 0.456631579008 0.496947747607
500723000 0.456233448855 0.496779065734
500733500 0.456743155373 0.497556376639
500744000 0.456652467404 0.497319078195
500754500 0.456407398245 0.497017342704
500765000 0.456863991512 0.497027900606
500775500 0.456508265543 0.49650152049
500786000 0.456894515849 0.496440207965
500796500 0.45714116909 0.496269199547
500807000 0.457431803006 0.497213389244
500817500 0.456917428193 0.497553699611
500828000 0.457732210083 0.497971932881
500838500 0.457593130702 0.498259856034
500849000 0.457831037077 0.499030893306
500859500 0.457591085862 0.498336995557
500870000 0.457190620529 0.49759382309
500880500 0.457372608018 0.497379428163
500891000 0.457604121269 0.497331648927
500901500 0.457689072403 0.497931080154
500912000 0.456928339466 0.497992958964
500922500 0.457305080158 0.497735789498
500933000 0.458264486708 0.497162454803
500943500 0.457909914709 0.497513076633
500954000 0.458295751377 0.497468914718
500964500 0.457964230104 0.497221225318
500975000 0.458207909394 0.497964389599
500985500 0.458303526027 0.497674370225
500996000 0.458299263844 0.497292527948
501006500 0.458639693477 0.497845292051
501017000 0.458243661157 0.498077992527
501027500 0.456927750153 0.498837139588
501038000 0.457869546468 0.498544217757
501048500 0.458662922216 0.49853510866
501059000 0.458791465429 0.498132883392
501069500 0.458053386296 0.49881524662
501080000 0.458036181576 0.497825523904
501090500 0.458325563267 0.497950774592
501101000 0.459284390003 0.49732298348
501111500 0.459608740667 0.498111433255
501122000 0.459912089189 0.498170499237
501132500 0.459054523294 0.49817068459
501143000 0.459288260012 0.497628668321
501153500 0.459927865118 0.498171251606
501164000 0.459900668667 0.498946783002
501174500 0.460085665817 0.49867713413
501185000 0.459317652614 0.497874177603
501195500 0.459118688068 0.498483069376
501206000 0.459201198641 0.498454106158
501216500 0.460018763724 0.498376343778
501227000 0.460136600288 0.498374747131
501237500 0.460238956777 0.498053922496
501248000 0.459655252712 0.497972708814
501258500 0.459401528897 0.498670342051
501269000 0.460899521298 0.498601272506
501279500 0.460203464228 0.49837441598
501290000 0.460821002203 0.498165021663
501300500 0.46042468458 0.498591854366
501311000 0.460440937231 0.498140122954
501321500 0.460947148619 0.498569208366
501332000 0.46113590567 0.498304983299
501342500 0.46163650558 0.49786501989
501353000 0.460553415843 0.498084130062
501363500 0.461241004074 0.498663117826
501374000 0.461548532209 0.498965627141
501384500 0.4615636996 0.499149718769
501395000 0.463250346671 0.499228272611
501405500 0.461756508916 0.497979662918
501416000 0.466351951814 0.497474029856
501426500 0.461921754842 0.497801374918
501437000 0.461718686191 0.497809980865
501447500 0.461407339202 0.498359380977
501458000 0.460783357915 0.49762221754
501468500 0.461396603441 0.498349168086
501479000 0.461877374547 0.498582476902
501489500 0.46242866025 0.499062493596
501500000 0.462234281432 0.498971871077
501510500 0.462091744819 0.499459712202
501521000 0.462368179356 0.498767182781
501531500 0.462364732325 0.499441751724
501542000 0.463459622438 0.499845706033
501552500 0.463414147138 0.49974622055
501563000 0.463281605344 0.499503363415
501573500 0.46325940692 0.499487226003
501584000 0.463093286395 0.499423505085
501594500 0.463405032549 0.499046416922
501605000 0.463179056383 0.498988292338
501615500 0.462670221971 0.498781712418
501626000 0.46286080339 0.498597854699
501636500 0.462429427262 0.498856218568
501647000 0.462760470282 0.498799834457
501657500 0.463788924787 0.499135492548
501668000 0.463517695867 0.498972192836
501678500 0.462524644387 0.499409426378
501689000 0.462525929705 0.499132354315
501699500 0.462268717995 0.499667845647
501710000 0.462767070017 0.499656151112
501720500 0.463172735252 0.499704750132
501731000 0.463141208776 0.499856479126
501741500 0.464440751482 0.498805553552
501752000 0.46413186943 0.498701316636
501762500 0.464412322998 0.499462043406
501773000 0.464396609249 0.499593569125
501783500 0.463879859234 0.499635720693
501794000 0.464716567506 0.499600199072
501804500 0.464857671824 0.499340656975
501815000 0.465053172044 0.499391280488
501825500 0.464661667389 0.499731418003
501836000 0.463685921016 0.499861145566
501846500 0.464702561603 0.499592105517
501857000 0.465185095753 0.499881213826
501867500 0.465007795418 0.499743456641
501878000 0.464344230942 0.499743892157
501888500 0.464824503279 0.499206301576
501899000 0.465094765089 0.499630721949
501909500 0.465259285314 0.49945917868
501920000 0.465126862685 0.499773163624
501930500 0.465924205853 0.499510023746
501941000 0.465593902833 0.499919526293
501951500 0.466220527848 0.500211662695
501962000 0.466574666015 0.499582345929
501972500 0.465776738838 0.499253268652
501983000 0.46607277874 0.49941339712
501993500 0.466701773943 0.498997023459
502004000 0.466731347491 0.500048597377
502014500 0.465458955142 0.499721060862
502025000 0.465875758175 0.499686368656
502035500 0.46549466215 0.500101197208
502046000 0.466462705813 0.499788340718
502056500 0.466804061553 0.500066664941
502067000 0.467233303028 0.499817804195
502077500 0.46686946851 0.499551031371
502088000 0.466857672527 0.499745953889
502098500 0.467244420051 0.498864939834
502109000 0.46712824828 0.499910865784
502119500 0.46769712929 0.499730093742
502130000 0.467050709258 0.500048385785
502140500 0.467255593361 0.49944099597
502151000 0.466828880872 0.499390372855
502161500 0.467404239366 0.499217548807
502172000 0.466959384516 0.499943050263
502182500 0.467503495897 0.499707890808
502193000 0.46786847581 0.49969920857
502203500 0.467429403566 0.500064476308
502214000 0.467796994136 0.499730888045
502224500 0.46814358862 0.499569339868
502235000 0.467677269665 0.500497290092
502245500 0.46785084049 0.500336349198
502256000 0.467298785271 0.500172035737
502266500 0.467084075026 0.499652098796
502277000 0.46766833019 0.500267979317
502287500 0.467690139642 0.499276556403
502298000 0.468245521268 0.499861477675
502308500 0.467977650413 0.499782853991
502319000 0.468543807234 0.500280809666
502329500 0.468049719959 0.500122763659
502340000 0.468284860243 0.500327097092
502350500 0.468419421355 0.50057194203
502361000 0.468811632941 0.500674569862
502371500 0.46849844274 0.501038054508
502382000 0.468808851972 0.500146389938
502392500 0.468853506131 0.499590621551
502403000 0.469176933952 0.499877005819
502413500 0.469359569521 0.499517848307
502424000 0.469405342352 0.499959313411
502434500 0.469880276858 0.500284034153
502445000 0.469103785697 0.500272716068
502455500 0.469134479672 0.499717093055
502466000 0.469601238464 0.499543730542
502476500 0.469208053502 0.500039196782
502487000 0.470182941675 0.500011017932
502497500 0.469953447299 0.499815319047
502508000 0.470128532798 0.499553787483
502518500 0.469531369288 0.499817931582
502529000 0.46980949736 0.499586818547
502539500 0.469382725713 0.500009091879
502550000 0.469443034807 0.500247900818
502560500 0.46918328314 0.500250543151
502571000 0.470299086526 0.500488824302
502581500 0.470464855419 0.499956978979
502592000 0.46973157336 0.50014480645
502602500 0.470830524771 0.499889261045
502613000 0.470464303703 0.499142916018
502623500 0.470473483514 0.499654126232
502634000 0.47053739113 0.500157757292
502644500 0.47090085146 0.500470249763
502655000 0.473207954525 0.498838256811
502665500 0.471461964707 0.499271265491
502676000 0.471443240865 0.499471805083
502686500 0.470785887133 0.500292414103
502697000 0.471154447012 0.499755003671
502707500 0.471428241955 0.500558253183
502718000 0.470693943788 0.500954674069
502728500 0.470399898917 0.500145635968
502739000 0.472397354379 0.49949341485
502749500 0.471418982577 0.500327351419
502760000 0.471537529357 0.500305105066
502770500 0.471722531586 0.500081300222
502781000 0.471982868719 0.500470069899
502791500 0.472095502145 0.500208160942
502802000 0.472305888684 0.50028276138
502812500 0.471502929573 0.500107862048
502823000 0.472658331215 0.49995899064
502833500 0.472058391935 0.500772917032
502844000 0.473266063513 0.500893897959
502854500 0.473036091148 0.50124623611
502865000 0.472850597922 0.500132799582
502875500 0.472478343137 0.500602668325
502886000 0.472729596902 0.50008151752
502896500 0.472473736085 0.50005216793
502907000 0.473669699844 0.500701883778
502917500 0.473296743946 0.501077304364
502928000 0.473522042302 0.500027910674
502938500 0.472699645368 0.500547412256
502949000 0.473131866768 0.500338922845
502959500 0.473488116868 0.500691808112
502970000 0.472724602042 0.500210899539
502980500 0.474444729794 0.499935599171
502991000 0.473856281677 0.499928361565
503001500 0.474562045121 0.501132989601
503012000 0.474108013462 0.501405331044
503022500 0.475929475772 0.500489733593
503033000 0.472836581058 0.500709289126
503043500 0.473703097515 0.499982601669
503054000 0.475262932291 0.500200713936
503064500 0.475992981702 0.501357169005
503075000 0.474088264312 0.500756630015
503085500 0.47883190177 0.498276166816
503096000 0.471851703 0.497960791745
503106500 0.476913570241 0.502261378186
503117000 0.472225529292 0.498878426941
503127500 0.47255687154 0.501018568596
503138000 0.472143167572 0.502043134508
503148500 0.473979524901 0.503515251695
503159000 0.479081977871 0.495409205001
503169500 0.47383722307 0.500709939952
503180000 0.481811538142 0.498925672939
503190500 0.481034841921 0.500827034701
503201000 0.47547018971 0.500815311515
503211500 0.475222354767 0.505010169177
503222000 0.467920775048 0.490962576233
503232500 0.474155447788 0.500001231058
503243000 0.48240056326 0.495118449372
503253500 0.483130365077 0.505952256053
503264000 0.476600928382 0.501554563838
503274500 0.478781482946 0.498768624398
503285000 0.472950960003 0.502274295929
503295500 0.475102062878 0.506585145704
503306000 0.481751178122 0.490434529845
503316500 0.480777971941 0.506968318065
503327000 0.47548831873 0.506440793138
503337500 0.493591237045 0.51182297956
503348000 0.476010869722 0.490845099718
503358500 0.471944954513 0.500632945402
503369000 0.4752340698 0.504996199197
503379500 0.479450190332 0.518104597815
503390000 0.48695044069 0.492305081004
503400500 0.469717599046 0.501983270028
503411000 0.474626795529 0.500302557482
503421500 0.47710494222 0.496875511904
503432000 0.482545437752 0.503089178957
503442500 0.464365184048 0.501167658765
503453000 0.469834785217 0.514733617756
503463500 0.464674600162 0.505027076477
503474000 0.474783572927 0.487071819581
503484500 0.460616735196 0.505395319295
503495000 0.472142655213 0.51186347752
503505500 0.479768314836 0.500394096301
503516000 0.486714554064 0.501344424848
503526500 0.467106829585 0.505499881311
503537000 0.477311000376 0.498138239237
503547500 0.472028639852 0.499497211016
503558000 0.472458503521 0.516373231638
503568500 0.489938024365 0.505536631104
503579000 0.478519313541 0.498436050709
503589500 0.486694016158 0.496148104428
503600000 0.470331239476 0.510621800979
503610500 0.475906574334 0.506906786837
503621000 0.4868727418 0.497971804377
503631500 0.48317090235 0.494894001688
503642000 0.480525590202 0.500220894331
503652500 0.472612023416 0.499497671615
503663000 0.476524451066 0.49995888706
503673500 0.465740997474 0.49629866573
503684000 0.477666236949 0.498296075143
503694500 0.473585164558 0.498995858798
503705000 0.481389221221 0.498250264786
503715500 0.477236526241 0.504524697892
503726000 0.468654063152 0.496225775273
503736500 0.475166778662 0.489421807563
503747000 0.478038992734 0.510481312082
503757500 0.481268030503 0.506634713337
503768000 0.489927164636 0.506772947427
503778500 0.479619879241 0.493853216617
503789000 0.473396330862 0.495211235756
503799500 0.486328072761 0.498809752028
503810000 0.475228340799 0.499618737987
503820500 0.476847084175 0.497627595885
503831000 0.485578028944 0.500839210084
503841500 0.472039667985 0.509004511796
503852000 0.478605460111 0.503129722802
503862500 0.480949312675 0.499593272917
503873000 0.482448926155 0.500618893065
503883500 0.47787690841 0.499389952014
503894000 0.479233895422 0.502672714648
503904500 0.480158307028 0.500833338478
503915000 0.477238265106 0.500485867617
503925500 0.480695548915 0.50212017689
503936000 0.479728868517 0.500345949645
503946500 0.47981033376 0.500228971751
503957000 0.481401693653 0.50193294308
503967500 0.480643107693 0.501576625781
503978000 0.480553491965 0.500898457553
503988500 0.480833338484 0.50038485728
503999000 0.481040123521 0.501199313881
504009500 0.48079982047 0.500345226294
504020000 0.48075048479 0.500909349913
504030500 0.481383400284 0.501558554152
504041000 0.480437955149 0.500990911595
504051500 0.480302728951 0.50171701399
504062000 0.480809543777 0.500679550105
504072500 0.480429526556 0.500725994822
504083000 0.480419389535 0.500939851284
504093500 0.481034453112 0.500839841999
504104000 0.480800816492 0.501128858978
504114500 0.481810818645 0.500811209931
504125000 0.481974000324 0.501297509347
504135500 0.48232964747 0.501439330851
504146000 0.482322950151 0.501534992247
504156500 0.481249292486 0.500987339357
504167000 0.480564624002 0.501029774574
504177500 0.48112796561 0.500386339251
504188000 0.481066998239 0.500919625627
504198500 0.481391692474 0.500654631088
504209000 0.481849781192 0.500706494542
504219500 0.481872841006 0.500597113927
504230000 0.481005302122 0.500247089893
504240500 0.481827132076 0.50159587968
504251000 0.481638695616 0.50080440988
504261500 0.481800170564 0.500725266252
504272000 0.481813546774 0.501052642031
504282500 0.48197507199 0.501303615133
504293000 0.481794669977 0.500886692043
504303500 0.481196761933 0.501413867139
504314000 0.482375845669 0.501021003284
504324500 0.482087613009 0.501234220853
504335000 0.482482761582 0.500688219484
504345500 0.482446931412 0.500778425796
504356000 0.482919120807 0.501296065783
504366500 0.483252349144 0.501249586151
504377000 0.482728418295 0.500865258973
504387500 0.482648946758 0.501061000331
504398000 0.483019461856 0.500872805443
504408500 0.483841826422 0.501561918672
504419000 0.483824491887 0.501259351988
504429500 0.483227146639 0.501094107261
504440000 0.483360781116 0.500942809504
504450500 0.482931360655 0.501455838796
504461000 0.483770897099 0.501345567865
504471500 0.483779382601 0.501132023183
504482000 0.483663735997 0.500892136425
504492500 0.482545846563 0.500721616256
504503000 0.480817751462 0.500028619205
504513500 0.480263069117 0.500093799916
504524000 0.482446063894 0.50079534394
504534500 0.483852704537 0.50104436331
504545000 0.484391219658 0.501010153644
504555500 0.483855024737 0.501355572785
504566000 0.484135343623 0.500842089815
504576500 0.484524641324 0.500934215979
504587000 0.484198295159 0.501063098663
504597500 0.483791634272 0.501384157019
504608000 0.484423573988 0.500814696519
504618500 0.483858220072 0.50134823882
504629000 0.48426424243 0.501397052022
504639500 0.483841036012 0.501019217894
504650000 0.484954681529 0.50095765519
504660500 0.485071479363 0.500653963355
504671000 0.485317504657 0.501590840832
504681500 0.484946752437 0.500625135854
504692000 0.484452482293 0.501341595194
504702500 0.485513683568 0.501060145353
504713000 0.484009760543 0.501451103569
504723500 0.484661757889 0.502167518417
504734000 0.485615810923 0.501708306559
504744500 0.485364616678 0.501543179179
504755000 0.484865174561 0.501517805474
504765500 0.485038528862 0.500323167391
504776000 0.485048074381 0.500901584895
504786500 0.485310630012 0.500927704586
504797000 0.486084661259 0.501090187549
504807500 0.485340371964 0.500891205325
504818000 0.486198455075 0.500976085606
504828500 0.485208880039 0.500951225341
504839000 0.486551887323 0.501551280373
504849500 0.485660084601 0.501891907302
504860000 0.485935852974 0.501219378888
504870500 0.485869874063 0.500927854455
504881000 0.485863365951 0.500621719854
504891500 0.486037265395 0.500931714922
504902000 0.485620352366 0.501136401293
504912500 0.485608728001 0.500971624723
504923000 0.486209505865 0.501378825543
504933500 0.485911736109 0.501644310142
504944000 0.486559643168 0.501093045957
504954500 0.48690278201 0.501389189652
504965000 0.486769107076 0.501083400773
504975500 0.48661781025 0.50089434099
504986000 0.486313490555 0.500932023046
504996500 0.486334411931 0.50124076717
505007000 0.486497758356 0.501158493962
505017500 0.487433451247 0.501498983104
505028000 0.48739723676 0.501222388055
505038500 0.487189317577 0.501038479432
505049000 0.487230202341 0.500989166151
505059500 0.486402727823 0.500918824878
505070000 0.486469683712 0.500995843456
505080500 0.486022202394 0.501335380391
505091000 0.487324978308 0.501123544938
505101500 0.48723855431 0.500700058861
505112000 0.488636461423 0.50079917594
505122500 0.487453016192 0.500433218455
505133000 0.487763099176 0.501180966023
505143500 0.487339771969 0.501419550639
505154000 0.48748641766 0.500974401006
505164500 0.488001316964 0.499911525438
505175000 0.487783744902 0.500203040429
505185500 0.487649101581 0.500567740082
505196000 0.487847279932 0.500643618709
505206500 0.487985235154 0.500342933809
505217000 0.487741219949 0.501133695676
505227500 0.487667982972 0.501316252749
505238000 0.487880481738 0.501226909558
505248500 0.488001011339 0.501090940584
505259000 0.488419858025 0.500922215878
505269500 0.488111683505 0.500812768952
505280000 0.488181618945 0.5009843659
505290500 0.487960610911 0.501020568806
505301000 0.488123915692 0.500949479562
505311500 0.488908051398 0.501204091726
505322000 0.48915057748 0.501248294037
505332500 0.489026888996 0.500467846074
505343000 0.488029221782 0.499717369139
505353500 0.488307280332 0.500549620977
505364000 0.488882095406 0.501278848496
505374500 0.488895420261 0.501078027799
505385000 0.488554655085 0.501428073089
505395500 0.489033685818 0.501152326261
505406000 0.489844890311 0.500864844104
505416500 0.48957186644 0.501260180615
505427000 0.490003533905 0.501307127456
505437500 0.48910133243 0.501142494748
505448000 0.490138902568 0.501439094898
505458500 0.489385290609 0.501247278874
505469000 0.489462712298 0.501527056618
505479500 0.489693444279 0.501667974615
505490000 0.489503144523 0.50145824374
505500500 0.489827498455 0.501236376406
505511000 0.490312687672 0.500534494604
505521500 0.48889279123 0.500028548366
505532000 0.489720192178 0.500729062574
505542500 0.488564671822 0.497915953212
505553000 0.488505608586 0.500138851543
505563500 0.489870539168 0.501129129592
505574000 0.490368899116 0.501931693514
505584500 0.490175038915 0.501552270017
505595000 0.490694111713 0.500779238509
505605500 0.490820981312 0.500910510608
505616000 0.490889120408 0.500323231713
505626500 0.490506032604 0.499975482983
505637000 0.490719902202 0.501055776464
505647500 0.490185500086 0.50062665611
505658000 0.490482441818 0.501573906097
505668500 0.490714526952 0.500784740293
505679000 0.490441668206 0.501291826454
505689500 0.490308970862 0.501553513175
505700000 0.49070354592 0.500846443405
505710500 0.490944380879 0.501368367815
505721000 0.491002078355 0.501149475345
505731500 0.4914192854 0.500913656631
505742000 0.491514120261 0.500681226912
505752500 0.490910921947 0.500913801807
505763000 0.490868985895 0.501114095687
505773500 0.490111361857 0.501286608387
505784000 0.491285317945 0.501270071031
505794500 0.490589000314 0.500960433347
505805000 0.490467573917 0.50112488635
505815500 0.49084997666 0.500766913832
505826000 0.490894661272 0.501017461526
505836500 0.490923692292 0.501375599984
505847000 0.491154356856 0.500952280137
505857500 0.490437022246 0.500442738221
505868000 0.491665274077 0.501346204337
505878500 0.491495708866 0.501667604081
505889000 0.492302024997 0.501346825267
505899500 0.492465690307 0.501514642016
505910000 0.491588749406 0.501686516417
505920500 0.491400182773 0.501639771444
505931000 0.492095966246 0.500869809252
505941500 0.491711232901 0.501442381845
505952000 0.491745213803 0.501203546678
505962500 0.492000405687 0.501266411373
505973000 0.492301980948 0.50057747086
505983500 0.492263161505 0.501005638404
505994000 0.492221205352 0.500593223392
506004500 0.492971386073 0.499969192935
506015000 0.492677435472 0.501242507486
506025500 0.493352616991 0.501237791926
506036000 0.493195205805 0.501423740612
506046500 0.493300916786 0.501088406814
506057000 0.492946606466 0.501430289235
506067500 0.493434847304 0.50226476341
506078000 0.493015251665 0.502000843393
506088500 0.493453787738 0.502228132281
506099000 0.492758073677 0.501616640126
506109500 0.492271987693 0.502072230817
506120000 0.49281431648 0.501618432291
506130500 0.493615222496 0.501375545459
506141000 0.494032217288 0.500937237867
506151500 0.494213996257 0.500882675938
506162000 0.493991596101 0.501560334918
506172500 0.493249163233 0.501537627968
506183000 0.493162824012 0.501489752291
506193500 0.493903609432 0.501531132184
506204000 0.494070737508 0.501282217001
506214500 0.49355920533 0.501353131531
506225000 0.49352830926 0.501493313635
506235500 0.493868018394 0.501896061176
506246000 0.493713607482 0.50157926638
506256500 0.494134414458 0.502255580067
506267000 0.494423756721 0.50123500934
506277500 0.494289692866 0.501542353206
506288000 0.493700855591 0.501348027284
506298500 0.494454474582 0.50134124964
506309000 0.494469165455 0.501268507519
506319500 0.493777861913 0.500793082034
506330000 0.494284342558 0.500875554343
506340500 0.493732967139 0.501126903655
506351000 0.494300647861 0.500869671031
506361500 0.494502317682 0.500800307959
506372000 0.495216364817 0.501118361939
506382500 0.495339422211 0.500169770387
506393000 0.49519397501 0.501540179284
506403500 0.494919698728 0.501735490374
506414000 0.494452390115 0.500974692308
506424500 0.495113041024 0.501012762093
506435000 0.495368891107 0.500561119844
506445500 0.491487189361 0.500387218078
506456000 0.495007108646 0.501474472336
506466500 0.494560695334 0.500806578945
506477000 0.494807257479 0.500538049629
506487500 0.494804752404 0.50080743045
506498000 0.495075289045 0.501032062363
506508500 0.495840202895 0.500942963833
506519000 0.496468272626 0.5006647218
506529500 0.495776995917 0.501433142065
506540000 0.49509794791 0.50097839137
506550500 0.496006584849 0.500866180971
506561000 0.495587912207 0.50097264009
506571500 0.496100033376 0.501074362132
506582000 0.496301268242 0.500413963752
506592500 0.495653261786 0.501095066205
506603000 0.495553806402 0.500798999017
506613500 0.495932165096 0.500876322043
506624000 0.495280076833 0.501023819312
506634500 0.495355714205 0.500996891511
506645000 0.495385771012 0.501134279802
506655500 0.495592387484 0.501070001451
506666000 0.496175794695 0.501745966108
506676500 0.495472487675 0.501790243127
506687000 0.496096207724 0.500982270719
506697500 0.496049071065 0.501813621607
506708000 0.496715347772 0.501766226503
506718500 0.497132037873 0.501459266595
506729000 0.497612481405 0.501765264516
506739500 0.497072420267 0.501830095108
506750000 0.497262584763 0.500919327705
506760500 0.496699590756 0.501733290145
506771000 0.496655728012 0.501236537251
506781500 0.49694228156 0.501540208019
506792000 0.496651594071 0.501733267107
506802500 0.496132879454 0.501821047508
506813000 0.497046941619 0.501245026106
506823500 0.497530642098 0.501348827359
506834000 0.498035735638 0.500469841883
506844500 0.497904675393 0.500905720071
506855000 0.497314510661 0.501164453871
506865500 0.497145099737 0.501035785043
506876000 0.496988579424 0.500877923363
506886500 0.496863226231 0.501068465743
506897000 0.496747617937 0.500911711437
506907500 0.49781817741 0.501037636142
506918000 0.498176249535 0.501507663862
506928500 0.497855454306 0.502116465872
506939000 0.497461040786 0.501915297546
506949500 0.497673735414 0.501717965739
506960000 0.497838090976 0.500960944599
506970500 0.4985658919 0.501377053316
506981000 0.498639230615 0.501003089927
506991500 0.498669012814 0.500367577154
507002000 0.496385464873 0.501791512627
507012500 0.498332820647 0.501276497098
507023000 0.497921036472 0.501418225195
507033500 0.498100366003 0.50074620368
507044000 0.498560432162 0.501134448009
507054500 0.498705680691 0.501457994494
507065000 0.498523068363 0.501756428224
507075500 0.49932568704 0.501675897493
507086000 0.498961067115 0.501891903068
507096500 0.49914703362 0.500790224483
507107000 0.498550970639 0.501311982169
507117500 0.498571655544 0.50103671533
507128000 0.49898122643 0.500612123682
507138500 0.498711750152 0.501490378354
507149000 0.497308916752 0.502419615478
507159500 0.498721864911 0.502859675167
507170000 0.498768397615 0.501829144296
507180500 0.499623115577 0.501519543999
507191000 0.499737660884 0.501691205689
507201500 0.498892070174 0.501424384102
507212000 0.498691819535 0.501093617551
507222500 0.498215826964 0.501356390091
507233000 0.498804644908 0.501596491343
507243500 0.49393343128 0.502511864374
507254000 0.497941863028 0.50022937489
507264500 0.497836344755 0.500572820205
507275000 0.499474307614 0.500415126402
507285500 0.499820401598 0.50161737635
507296000 0.500347838646 0.501300873161
507306500 0.499942478896 0.501460717956
507317000 0.499195356249 0.502120272737
507327500 0.499688618163 0.501317528736
507338000 0.49960547388 0.501922736756
507348500 0.499723486941 0.501869859872
507359000 0.500009876996 0.502327831206
507369500 0.500051606718 0.501644059852
507380000 0.499664134417 0.502543658096
507390500 0.499853457907 0.502107486019
507401000 0.499541059564 0.501211337301
507411500 0.499742073397 0.500483546882
507422000 0.500054224956 0.500566880933
507432500 0.501365731321 0.501426516713
507443000 0.501061314989 0.502077706045
507453500 0.5001430423 0.501722846625
507464000 0.501277928619 0.500632314841
507474500 0.502010126916 0.500487781583
507485000 0.501673232329 0.501751328059
507495500 0.50123012732 0.5016471113
507506000 0.50012557541 0.502200442829
507516500 0.499778952705 0.50047225786
507527000 0.500369974213 0.502496904534
507537500 0.500078063205 0.501625058581
507548000 0.500125265163 0.499020229767
507558500 0.503530866451 0.500025011666
507569000 0.50070449055 0.501405124917
507579500 0.501382841667 0.499292288384
507590000 0.501663880107 0.501347382333
507600500 0.501818710129 0.502992136147
507611000 0.502943308471 0.503253755216
507621500 0.502405599056 0.500158634678
507632000 0.501412686697 0.502080962954
507642500 0.501537897893 0.50128953079
507653000 0.501568715662 0.501303548101
507663500 0.501438649243 0.500622233622
507674000 0.499733605178 0.502196001041
507684500 0.500414064611 0.500877695155
507695000 0.500714252763 0.500846568349
507705500 0.50400377855 0.502021416587
507716000 0.500143424704 0.502137087544
507726500 0.499676853636 0.50124173425
507737000 0.502501597443 0.501943211348
507747500 0.502628846814 0.500903917159
507758000 0.501277093842 0.501162225081
507768500 0.50340750566 0.502317717434
507779000 0.504417460534 0.503735092961
507789500 0.502606156218 0.501647557172
507800000 0.502073845656 0.502485253697
507810500 0.501722349172 0.503769761106
507821000 0.503152947343 0.502331739444
507831500 0.50075661482 0.501260839456
507842000 0.501535907294 0.502312547888
507852500 0.502782015373 0.501479544411
507863000 0.502836459803 0.501802170693
507873500 0.50328379435 0.502157228675
507884000 0.503259072827 0.500162092446
507894500 0.501281317465 0.501581788278
507905000 0.502538454895 0.501636136846
507915500 0.502730412032 0.502856239819
507926000 0.504279581136 0.502477018249
507936500 0.503068822521 0.502732583166
507947000 0.5034058112 0.501493524813
507957500 0.503271290153 0.500921235171
507968000 0.502917558552 0.501337382254
507978500 0.50260384285 0.502095924422
507989000 0.502126527511 0.502676675616
507999500 0.502725063704 0.501867246096
508010000 0.502658470056 0.502026064866
508020500 0.503023223163 0.501569353253
508031000 0.502774262288 0.502180331519
508041500 0.503436061549 0.501323048783
508052000 0.503470825655 0.501578617718
508062500 0.503531633151 0.500539434745
508073000 0.503670964608 0.501128002527
508083500 0.503702760935 0.501347076221
508094000 0.503566713039 0.501471194213
508104500 0.503876734807 0.501191426302
508115000 0.503042136269 0.501087957076
508125500 0.503867226419 0.501014063384
508136000 0.505041682429 0.50123677242
508146500 0.503223804785 0.501120235853
508157000 0.504812000419 0.500677391379
508167500 0.504242094537 0.501271996295
508178000 0.50496522549 0.501243096492
508188500 0.504390828059 0.501004357787
508199000 0.505978963431 0.50150782558
508209500 0.50513923087 0.501657859992
508220000 0.506319710775 0.502736458795
508230500 0.504739977196 0.501551935769
508241000 0.504091243227 0.502323860187
508251500 0.505310379234 0.501894854753
508262000 0.504120639807 0.50146067945
508272500 0.505378743894 0.501524542143
508283000 0.505581518808 0.500999034694
508293500 0.50586990558 0.501391084118
508304000 0.504433010319 0.501971251449
508314500 0.503868309185 0.50159613194
508325000 0.506287315902 0.501688612476
508335500 0.505514823235 0.501422115295
508346000 0.505421352385 0.501581525839
508356500 0.504169120168 0.502626059875
508367000 0.505488264455 0.502027162197
508377500 0.505280275365 0.501557668168
508388000 0.504302644769 0.502723319353
508398500 0.503814387622 0.503016135234
508409000 0.505718645797 0.501660599088
508419500 0.505772839435 0.502003831066
508430000 0.505496953738 0.501599891478
508440500 0.505282264408 0.502197555969
508451000 0.506011038194 0.501313356293
508461500 0.506520235047 0.50172850618
508472000 0.505319206715 0.502056086304
508482500 0.505308400396 0.502635582706
508493000 0.505744734636 0.501969540894
508503500 0.505093604702 0.501785198796
508514000 0.504975419905 0.502061433517
508524500 0.505970988887 0.502506625524
508535000 0.504993219003 0.502934748534
508545500 0.505245830391 0.502313566712
508556000 0.505198430648 0.501817772582
508566500 0.505289110069 0.501948523781
508577000 0.505574736401 0.502067889431
508587500 0.50567053557 0.501922037317
508598000 0.506388786827 0.501836232206
508608500 0.506773860268 0.502000570204
508619000 0.505696417692 0.501519818604
508629500 0.506299266078 0.501579966215
508640000 0.505782393365 0.50213457921
508650500 0.506049836565 0.50217255414
508661000 0.506090506708 0.501798515506
508671500 0.506190493665 0.502045724243
508682000 0.507056544039 0.501734815473
508692500 0.507294111957 0.501568515665
508703000 0.507564083231 0.500970301515
508713500 0.507140089999 0.501397883164
508724000 0.507109231802 0.501469685605
508734500 0.507628808426 0.502169248661
508745000 0.50726823434 0.501769925456
508755500 0.506653686203 0.502138159256
508766000 0.507546164332 0.501600090971
508776500 0.507359773958 0.502270370589
508787000 0.507996264132 0.502361589136
508797500 0.506989907549 0.502002502457
508808000 0.507731664322 0.502491984375
508818500 0.507610741502 0.501731975452
508829000 0.507529787907 0.502260906334
508839500 0.507597522824 0.502163720113
508850000 0.507748972828 0.502571691634
508860500 0.507978625612 0.502248966795
508871000 0.507962853582 0.501909274227
508881500 0.508032730996 0.501634196118
508892000 0.507970848007 0.501159880441
508902500 0.507765376556 0.501552452808
508913000 0.507180081933 0.501347268561
508923500 0.508220970674 0.501694053492
508934000 0.509579697329 0.501561209375
508944500 0.507892523396 0.501883109103
508955000 0.508608135653 0.502120750728
508965500 0.508127467031 0.501745204944
508976000 0.508329448015 0.502056635589
508986500 0.507949538584 0.502024351854
508997000 0.508195633678 0.502454344348
509007500 0.507861128871 0.502158111769
509018000 0.50836722457 0.501779886729
509028500 0.508227471701 0.501812884402
509039000 0.508021848513 0.501942918938
509049500 0.50837497145 0.50131996636
509060000 0.508798431682 0.50141654326
509070500 0.509290167495 0.501568863078
509081000 0.509418184389 0.501886996712
509091500 0.50926285241 0.502164280119
509102000 0.508487930252 0.5020764767
509112500 0.508823605966 0.502011255593
509123000 0.509304465629 0.502012770796
509133500 0.509356132569 0.50229730813
509144000 0.494833477394 0.501181174725
509154500 0.512020900448 0.50566854691
509165000 0.496823961528 0.503726575057
509175500 0.509216778551 0.503798375628
509186000 0.50948886491 0.502787999374
509196500 0.510087721029 0.501754245657
509207000 0.510429541277 0.502051258748
509217500 0.509729901317 0.501960900555
509228000 0.510059615895 0.502238354955
509238500 0.50972486565 0.502346403038
509249000 0.5098442581 0.502147361242
509259500 0.50972988502 0.502243254196
509270000 0.509720390735 0.502139593501
509280500 0.509508477437 0.501615931764
509291000 0.510564660677 0.501682041735
509301500 0.510447162645 0.501854913366
509312000 0.510859984371 0.501922735665
509322500 0.510846513695 0.502223611217
509333000 0.511153445604 0.502207567861
509343500 0.510808448712 0.5015213798
509354000 0.511063419057 0.501473338736
509364500 0.511267416004 0.501236713463
509375000 0.510894589981 0.50102397752
509385500 0.510706297942 0.501895027495
509396000 0.51132468447 0.50189907598
509406500 0.511079650843 0.501315859799
509417000 0.511280537055 0.501684680947
509427500 0.511269195278 0.501973569266
509438000 0.511779441611 0.501919443423
509448500 0.511373057683 0.502195143935
509459000 0.511625039224 0.501646620335
509469500 0.511743557741 0.501632220555
509480000 0.511731673747 0.502149016092
509490500 0.51149239577 0.50142313929
509501000 0.511937859887 0.501560324686
509511500 0.512699052522 0.501913983727
509522000 0.512120038709 0.501902521535
509532500 0.511565413121 0.502234452054
509543000 0.511938956471 0.502315969404
509553500 0.511749822021 0.502336347118
509564000 0.511878252884 0.502292424354
509574500 0.512342056485 0.501826199491
509585000 0.512132228245 0.501385293309
509595500 0.512405295622 0.502195407438
509606000 0.512100716074 0.501563599027
509616500 0.512042309902 0.501800606298
509627000 0.512456949683 0.502499210354
509637500 0.512106114114 0.50192528593
509648000 0.511793026812 0.50156810521
509658500 0.512482551527 0.501651892303
509669000 0.512924695197 0.502453441612
509679500 0.511879452671 0.502422053206
509690000 0.512350973704 0.502567295603
509700500 0.511658048986 0.502754530106
509711000 0.511610857336 0.501740117625
509721500 0.512281376835 0.502263427743
509732000 0.512473858512 0.50224291624
509742500 0.512257679481 0.502456388685
509753000 0.513284120221 0.501425746153
509763500 0.513283597423 0.501624314693
509774000 0.513827554875 0.503817593909
509784500 0.513904640184 0.501845433381
509795000 0.513729386271 0.502083397817
509805500 0.514024785683 0.501870102574
509816000 0.513774996787 0.501997754477
509826500 0.513567005742 0.501742053366
509837000 0.51355851171 0.50209474487
509847500 0.513003982538 0.501702731608
509858000 0.513108241166 0.50138638864
509868500 0.511911679053 0.501567830129
509879000 0.512509351421 0.501526161941
509889500 0.513251859967 0.500855368256
509900000 0.513368766951 0.501660860283
509910500 0.513028726382 0.501740329858
509921000 0.51344720534 0.501713028627
509931500 0.514051930619 0.501905953709
509942000 0.514168128979 0.501749998337
509952500 0.513622529071 0.501699592926
509963000 0.513769914782 0.50179027442
509973500 0.51361501724 0.501442914136
509984000 0.51376874415 0.501097612147
509994500 0.513209381934 0.502252250353
510005000 0.514474401394 0.502305180516
510015500 0.514467959527 0.502190084729
510026000 0.514926684551 0.502115909052
510036500 0.515152139045 0.501988696709
510047000 0.515212495388 0.501798921274
510057500 0.514904454747 0.502104824132
510068000 0.514939692111 0.502423631597
510078500 0.514925225441 0.501625382584
510089000 0.514161282943 0.501757795818
510099500 0.515037343418 0.502217272485
510110000 0.514599144124 0.501973921242
510120500 0.514583043825 0.501797799716
510131000 0.51482198577 0.501734526646
510141500 0.514331840361 0.502995947879
510152000 0.514616052006 0.502490991191
510162500 0.51518823921 0.502432567874
510173000 0.515271762027 0.502547264023
510183500 0.515503686058 0.501714926385
510194000 0.514656826598 0.5020091122
510204500 0.514823015101 0.501703592299
510215000 0.515369797412 0.502244599737
510225500 0.515315910134 0.502214266569
510236000 0.515102846455 0.502828454521
510246500 0.515949767769 0.502580639239
510257000 0.515612550498 0.50180570614
510267500 0.516424199062 0.50183585088
510278000 0.515539648173 0.501485728828
510288500 0.516103230396 0.501168414218
510299000 0.516313268826 0.501573495645
510309500 0.515735078874 0.501611605896
510320000 0.516026310391 0.501498340384
510330500 0.515994688982 0.501884985972
510341000 0.516344967905 0.502042839905
510351500 0.516654337311 0.501688584519
510362000 0.515992098831 0.501891561524
510372500 0.516236591084 0.501748194333
510383000 0.515807291698 0.501762356209
510393500 0.516121044395 0.501699573607
510404000 0.516176445381 0.501682261804
510414500 0.516318947818 0.501610941183
510425000 0.516238780854 0.502454952978
510435500 0.516563498127 0.502149809645
510446000 0.516414804314 0.501537365052
510456500 0.516028365184 0.501598519796
510467000 0.516050283008 0.501405347533
510477500 0.516624106446 0.501076842399
510488000 0.516502167472 0.501607228729
510498500 0.516969428675 0.501384558622
510509000 0.516738726299 0.502413690242
510519500 0.515929731526 0.502070936253
510530000 0.517052160551 0.501823329473
510540500 0.516967741081 0.501972894896
510551000 0.517578781436 0.50289742387
510561500 0.51779022376 0.501786569724
510572000 0.518503572885 0.501823133872
510582500 0.517695618782 0.501957342383
510593000 0.51795503835 0.501955338005
510603500 0.518029848976 0.501779083454
510614000 0.517609537496 0.501426684665
510624500 0.517872312894 0.501791609336
510635000 0.517545383383 0.501220541963
510645500 0.517587489454 0.502109844189
510656000 0.517681105804 0.501725928013
510666500 0.517740134548 0.502041610496
510677000 0.517362120082 0.502419203631
510687500 0.517788084695 0.502933983096
510698000 0.518053748635 0.50098204284
510708500 0.518117097656 0.502296268623
510719000 0.518849535461 0.501555627886
510729500 0.518210972382 0.501515024955
510740000 0.517655911648 0.501854323747
510750500 0.517862181422 0.501791861159
510761000 0.518615778712 0.501963058213
510771500 0.518328790028 0.502177225251
510782000 0.518488128229 0.502363015145
510792500 0.518785551666 0.502233762371
510803000 0.518588200028 0.501210775951
510813500 0.518361245475 0.502286885476
510824000 0.518589094305 0.501554265656
510834500 0.518941381279 0.501484238025
510845000 0.518625740074 0.501527064612
510855500 0.51898221799 0.502024295168
510866000 0.519047208455 0.50157356801
510876500 0.519353654834 0.501851615327
510887000 0.51857331263 0.502312980269
510897500 0.518553200376 0.502030279386
510908000 0.519344124604 0.501720813804
510918500 0.519667075127 0.502455761927
510929000 0.520066344362 0.501878992192
510939500 0.519427215722 0.50151649354
510950000 0.519428557595 0.501439478886
510960500 0.516420737465 0.499637534478
510971000 0.519964746246 0.501733750611
510981500 0.520169169769 0.501657265568
510992000 0.519616488041 0.501958596478
511002500 0.51938150348 0.501727500307
511013000 0.520215880095 0.501143343946
511023500 0.519690877437 0.5012611763
511034000 0.52070619239 0.499972938285
511044500 0.520425842371 0.500709975408
511055000 0.519391326627 0.501454892013
511065500 0.518939815991 0.501333119817
511076000 0.518721512546 0.501653869506
511086500 0.519520726956 0.502116008793
511097000 0.519236548111 0.501962776927
511107500 0.520707378062 0.501870749099
511118000 0.519567487597 0.501309457828
511128500 0.520064359301 0.501650072901
511139000 0.520353195364 0.501185201145
511149500 0.520096716397 0.501040614809
511160000 0.520865032238 0.500815513289
511170500 0.520842001082 0.501625523921
511181000 0.51999776223 0.501594995148
511191500 0.520457854297 0.502149072192
511202000 0.518880772909 0.503244409251
511212500 0.519367076512 0.503012425365
511223000 0.519616084122 0.502184144895
511233500 0.520395400066 0.500882647323
511244000 0.520838188703 0.500617459709
511254500 0.520575337553 0.501103389186
511265000 0.521203891974 0.501590566819
511275500 0.521061650195 0.501599808145
511286000 0.520580145246 0.501304827535
511296500 0.521168303023 0.501156955887
511307000 0.521114873403 0.501689434906
511317500 0.52114630484 0.501546209284
511328000 0.521903109507 0.501673795612
511338500 0.521334875661 0.501805746785
511349000 0.52140194426 0.501569293938
511359500 0.521065028858 0.500326784572
511370000 0.521747357043 0.501243522629
511380500 0.52189144713 0.50202998306
511391000 0.521676346429 0.501727395302
511401500 0.521327391838 0.501918491762
511412000 0.522694801632 0.501079223542
511422500 0.521672348652 0.501563827933
511433000 0.521579342164 0.50084007314
511443500 0.521500698204 0.501331140173
511454000 0.521654034875 0.502305618681
511464500 0.524345421215 0.499446742961
511475000 0.522151040249 0.502105136591
511485500 0.523007462205 0.50131487958
511496000 0.52240529015 0.501484836644
511506500 0.522910456078 0.501840223641
511517000 0.521240735668 0.501078496378
511527500 0.522521615733 0.502015932733
511538000 0.522311519798 0.501422451925
511548500 0.522859952049 0.501219454214
511559000 0.522583691118 0.500541899582
511569500 0.521672760386 0.501881647356
511580000 0.521218902615 0.499638061201
511590500 0.523731313768 0.501312471889
511601000 0.523597779487 0.50023986044
511611500 0.522974903955 0.501364759923
511622000 0.523112109479 0.501516409347
511632500 0.523008261043 0.502312613552
511643000 0.523531357684 0.501389369174
511653500 0.523397668377 0.502099243185
511664000 0.524488868805 0.502024733925
511674500 0.52183920968 0.501701797331
511685000 0.522131669995 0.500239166695
511695500 0.52365134089 0.502614446282
511706000 0.523267014237 0.500128830003
511716500 0.523506088854 0.501369136305
511727000 0.525175980183 0.501114062299
511737500 0.524165661615 0.50116146922
511748000 0.524426106246 0.500825994051
511758500 0.522604864734 0.501688603564
511769000 0.52278426896 0.500931698416
511779500 0.523004249619 0.500419364149
511790000 0.52360624673 0.501077052726
511800500 0.523371710285 0.499872361792
511811000 0.523573447133 0.500405721309
511821500 0.522860219953 0.501465893711
511832000 0.523299541108 0.50170341994
511842500 0.524367655454 0.500744037268
511853000 0.523422817953 0.501072194433
511863500 0.519747188405 0.49697139609
511874000 0.523037245228 0.501643131012
511884500 0.52459264805 0.502011136779
511895000 0.524474991257 0.502235816575
511905500 0.524342386184 0.500443229681
511916000 0.524477526925 0.500699841279
511926500 0.523700522552 0.500667955139
511937000 0.524143953768 0.500745695167
511947500 0.523597589354 0.501622949946
511958000 0.524654574214 0.500737941346
511968500 0.523922098018 0.501448016899
511979000 0.524203501553 0.501735316837
511989500 0.524105181227 0.500399503345
512000000 0.52470431444 0.501274943425
