! Calibrated averaged scanner-service zoom
# Hz S RI R 50
150000000 0.943558791266 0.0965789542858
150012000 0.943602287581 0.0965412784733
150024000 0.943800542325 0.0967006568859
150036000 0.943452218147 0.0965342841256
150048000 0.943497512213 0.0961600679788
150060000 0.943754131639 0.0960330282763
150072000 0.943853033488 0.0957997219457
150084000 0.944140443224 0.0958800625873
150096000 0.944149648508 0.0958115280566
150108000 0.944296499545 0.0958879744699
150120000 0.944497421263 0.0958088181327
150132000 0.944527461648 0.0957267446202
150144000 0.944707096075 0.0955450833989
150156000 0.944518823464 0.0955415977347
150168000 0.94451943785 0.0954993230853
150180000 0.944572988404 0.0953790643478
150192000 0.944901861031 0.0950241708606
150204000 0.944798958072 0.0951394426668
150216000 0.944961791595 0.094979166889
150228000 0.94520985343 0.0950193896924
150240000 0.945396726843 0.0949863096452
150252000 0.946061273356 0.0947019469244
150264000 0.945183788416 0.0947020016303
150276000 0.945595119262 0.0947210220381
150288000 0.945335507241 0.0945271566596
150300000 0.945475999147 0.0947900644674
150312000 0.945547385624 0.0944460451601
150324000 0.945594083505 0.0943417134403
150336000 0.945799651476 0.0941617324238
150348000 0.945914926284 0.0939205129385
150360000 0.946049439095 0.0939938480118
150372000 0.946164760472 0.0939046138112
150384000 0.946243608316 0.0939527928845
150396000 0.946390790984 0.0937022821732
150408000 0.946536091381 0.0936656115737
150420000 0.946335420267 0.0937131617517
150432000 0.946621014754 0.0935440973599
150444000 0.946322306553 0.0934279131685
150456000 0.946475254099 0.0933895828537
150468000 0.946856505551 0.0932557963327
150480000 0.947067510655 0.0931764109256
150492000 0.947035485862 0.0929435032892
150504000 0.947637302877 0.0929762514475
150516000 0.946688926739 0.092500420721
150528000 0.947152404795 0.0927055839386
150540000 0.947317145181 0.0925943299506
150552000 0.947411781293 0.0925905239001
150564000 0.947441183929 0.0923083173719
150576000 0.947542475342 0.0923957978041
150588000 0.947573743476 0.0921157628959
150600000 0.947572968363 0.0921986125817
150612000 0.947618207932 0.0918175626778
150624000 0.947640879715 0.0917130811805
150636000 0.947886717005 0.091700928303
150648000 0.947803180729 0.0915428575665
150660000 0.9478972658 0.0915633963676
150672000 0.947864205861 0.0913867192028
150684000 0.947986454582 0.0914773153775
150696000 0.947886394108 0.0913676330176
150708000 0.94795676427 0.0912300408488
150720000 0.948160809909 0.0910471566915
150732000 0.948230156156 0.0909968545131
150744000 0.948429155833 0.0908887967069
150756000 0.948263827776 0.0906792464434
150768000 0.948246685553 0.0906736574626
150780000 0.948393454326 0.0908375364198
150792000 0.948177739579 0.0906426783111
150804000 0.948504743614 0.0906231143137
150816000 0.948842416813 0.0903863349552
150828000 0.94898282815 0.0903345929905
150840000 0.949099294368 0.0902031950266
150852000 0.94920409757 0.090394012022
150864000 0.949129185968 0.0902834200474
150876000 0.949212735914 0.0901396341175
150888000 0.949179294792 0.0901262026353
150900000 0.949117735154 0.0900905685236
150912000 0.949139468526 0.0900394296212
150924000 0.949146676671 0.0899211144822
150936000 0.949326176983 0.0898514603208
150948000 0.949247621575 0.0896748664905
150960000 0.949470912887 0.0895287270289
150972000 0.949476100378 0.0894094276197
150984000 0.949807631244 0.0894981524737
150996000 0.94978376374 0.0894268396765
151008000 0.949910564478 0.0894838011875
151020000 0.950074222781 0.0895086538132
151032000 0.950127909526 0.0895771034403
151044000 0.950140788826 0.0891070527442
151056000 0.950397160118 0.0889277143235
151068000 0.950262222175 0.0887976234523
151080000 0.950528932948 0.0887761343638
151092000 0.950778607122 0.0874168399059
151104000 0.950875743513 0.0851222198372
151116000 0.954453950248 0.0824094292185
151128000 0.949769510433 0.0841965062507
151140000 0.950874894789 0.0879819587094
151152000 0.950752091905 0.0883272580533
151164000 0.951329976752 0.0881091588649
151176000 0.951268009452 0.0880295865872
151188000 0.95133915551 0.087825300169
151200000 0.951485295764 0.0876106680013
151212000 0.951508638073 0.0875456707486
151224000 0.95146276972 0.0877545602532
151236000 0.951765416959 0.0875302513647
151248000 0.951666987731 0.0875254457187
151260000 0.951476596011 0.0871581568739
151272000 0.951445450962 0.0871284470928
151284000 0.951512259055 0.0870922313052
151296000 0.95144493514 0.0869418583969
151308000 0.951780660364 0.0867671711811
151320000 0.951803505465 0.0867886405203
151332000 0.951957361353 0.0866984351082
151344000 0.951854738455 0.0864655878571
151356000 0.951635127879 0.0864164694806
151368000 0.951788591878 0.086307531828
151380000 0.951858723887 0.0861802518441
151392000 0.951924865496 0.0860933234971
151404000 0.951944944152 0.0859308101254
151416000 0.952276454529 0.0858709063088
151428000 0.952187958941 0.0859918257072
151440000 0.952313122747 0.0857236912124
151452000 0.952352850458 0.0855553314468
151464000 0.95245248141 0.085494942623
151476000 0.952509061893 0.0854692457983
151488000 0.952654582959 0.0853008760709
151500000 0.952710431562 0.08525842258
151512000 0.952655154565 0.0852262568197
151524000 0.952723494664 0.0851876792277
151536000 0.952708456239 0.0850429503834
151548000 0.952397346341 0.0848420143049
151560000 0.952720399625 0.0847939681523
151572000 0.952854927994 0.085031277723
151584000 0.953077590573 0.084817200082
151596000 0.95317285366 0.0846355424654
151608000 0.953202895624 0.0844790853576
151620000 0.953239238821 0.0844549615587
151632000 0.95330738529 0.0842005559497
151644000 0.953515538204 0.0842692752663
151656000 0.953085152562 0.0838880103356
151668000 0.952482758466 0.0831105913677
151680000 0.953538449212 0.08400156624
151692000 0.953532750624 0.0838912994996
151704000 0.953784439695 0.0838012031403
151716000 0.95397957288 0.0838254411335
151728000 0.954271123989 0.0838726882587
151740000 0.95411601551 0.0836257598784
151752000 0.954480224538 0.0836421711013
151764000 0.95399252814 0.083572460462
151776000 0.953737127934 0.0835808241827
151788000 0.954126574357 0.0833874113505
151800000 0.954363636083 0.0833171455884
151812000 0.954486455188 0.0831589815031
151824000 0.954671985222 0.0831007736622
151836000 0.95454537577 0.0828859522154
151848000 0.954610966847 0.0828041810016
151860000 0.95464462965 0.0825515948137
151872000 0.954803907212 0.0824766115954
151884000 0.954634959226 0.082420321184
151896000 0.954912761075 0.0823814042268
151908000 0.954953615238 0.0822790638334
151920000 0.955173718973 0.0822409475528
151932000 0.955107548997 0.0819713028441
151944000 0.955106565232 0.0819362827889
151956000 0.95510420284 0.0817033240574
151968000 0.955140751434 0.0816848369619
151980000 0.955237212423 0.0815846195546
151992000 0.955321463741 0.081458976033
152004000 0.955254818298 0.0813125403452
152016000 0.955473247945 0.0814413749896
152028000 0.955529211324 0.0811913419049
152040000 0.95537144396 0.0810750621151
152052000 0.955600713643 0.0810300560517
152064000 0.955648198558 0.0808773860669
152076000 0.955736810339 0.0808334255876
152088000 0.9557690716 0.0807317258659
152100000 0.955921002476 0.0806109364185
152112000 0.95610043484 0.0803590918783
152124000 0.956247712896 0.0803605713974
152136000 0.956309014994 0.080408881214
152148000 0.956160819653 0.0801680358595
152160000 0.956244407763 0.0801038249565
152172000 0.956174132994 0.0801387834573
152184000 0.956351303136 0.079879418118
152196000 0.955770868047 0.0796605843964
152208000 0.956315118432 0.0798367769318
152220000 0.956357600891 0.0797450835541
152232000 0.956568385216 0.079828495779
152244000 0.956619132003 0.0796116574982
152256000 0.956835070637 0.0793286175083
152268000 0.956692240342 0.0792571453121
152280000 0.956610181046 0.0791946224326
152292000 0.956736795763 0.0789923512568
152304000 0.956904339148 0.0790183711601
152316000 0.956641681078 0.078938653786
152328000 0.956946623665 0.078655941959
152340000 0.956675937696 0.0786703443646
152352000 0.957025760282 0.0786399732928
152364000 0.957082238057 0.0785332610509
152376000 0.957338894777 0.0786065844868
152388000 0.957257746694 0.0785688262113
152400000 0.957170557715 0.0784540319363
152412000 0.957146497344 0.0782980220922
152424000 0.957194591968 0.0783366052036
152436000 0.957405435893 0.0782126849037
152448000 0.957438142849 0.0780653640106
152460000 0.957485465454 0.0779364376127
152472000 0.95747233289 0.0776786232948
152484000 0.957631269148 0.0776864200004
152496000 0.957934732578 0.0776349997333
152508000 0.957975978959 0.0776515516993
152520000 0.957900088504 0.0774097713324
152532000 0.958143050023 0.0774965140393
152544000 0.957929293428 0.0773032410489
152556000 0.957976754349 0.0771615863002
152568000 0.957910455952 0.0771247519486
152580000 0.958026992562 0.0769067116288
152592000 0.958193559581 0.0769708159396
152604000 0.958406268955 0.0768447256068
152616000 0.958199335583 0.0767329315606
152628000 0.958281905976 0.0765253087455
152640000 0.958390798791 0.0764592139695
152652000 0.958592724814 0.0763772371417
152664000 0.958685901253 0.076331332382
152676000 0.958405923049 0.0762832768858
152688000 0.958701762449 0.076167720561
152700000 0.958906124604 0.0761404787
152712000 0.958984489072 0.0759985277393
152724000 0.959193197317 0.0759887376208
152736000 0.961770891666 0.0763495693677
152748000 0.955814323406 0.0748191481787
152760000 0.958630530279 0.0756018659019
152772000 0.958887245395 0.0753090858585
152784000 0.959121367186 0.0753049255869
152796000 0.959146526257 0.075135543263
152808000 0.959333117342 0.0751461311365
152820000 0.959392348943 0.075091439483
152832000 0.95941413216 0.0749971545732
152844000 0.959469804512 0.0749427144132
152856000 0.959345392294 0.0747436438031
152868000 0.959360737928 0.0745574377869
152880000 0.959215692553 0.0743189135874
152892000 0.959345499571 0.0741604027537
152904000 0.959438631034 0.0741773555021
152916000 0.959446240238 0.0740385908797
152928000 0.959533874277 0.0740712551409
152940000 0.959663875533 0.0739751920438
152952000 0.959793598276 0.0737056575852
152964000 0.95981457052 0.0737686511114
152976000 0.959560289417 0.0736880507272
152988000 0.959781516357 0.0734915748298
153000000 0.959902402082 0.0735881579969
153012000 0.959952696549 0.0734876972399
153024000 0.959939905432 0.0732761923822
153036000 0.960091015052 0.073244627358
153048000 0.95998711902 0.0729797526332
153060000 0.959908934896 0.0728487687199
153072000 0.960011184296 0.0727401240935
153084000 0.960591873537 0.0728171064636
153096000 0.960340373343 0.0730232348797
153108000 0.960607699564 0.0727526941824
153120000 0.960654564689 0.0724962221918
153132000 0.96056714051 0.0725289925322
153144000 0.960369347477 0.0723821560831
153156000 0.960924358788 0.072365427964
153168000 0.96047593463 0.072157501208
153180000 0.960440085631 0.072109139529
153192000 0.960606944481 0.0721075827031
153204000 0.960258770556 0.0727657507401
153216000 0.962863530147 0.0719410600167
153228000 0.960797887741 0.0718504197149
153240000 0.960855978192 0.0717316914626
153252000 0.960940227996 0.0714997043353
153264000 0.960988504515 0.0713375593843
153276000 0.960968628129 0.0713418877524
153288000 0.961129173461 0.0712463714995
153300000 0.961050929908 0.0714261017822
153312000 0.961285228517 0.0712527027927
153324000 0.961240132586 0.0711694927081
153336000 0.961468560281 0.0710485869033
153348000 0.96136092681 0.0709073249428
153360000 0.961576476501 0.0707521430968
153372000 0.961516174609 0.0705342272514
153384000 0.96174501724 0.0702619878779
153396000 0.961715801626 0.0702727127167
153408000 0.96180935527 0.07023885039
153420000 0.961774806293 0.0701256293012
153432000 0.961810160986 0.0699130230862
153444000 0.961572521691 0.0698736943653
153456000 0.960839549169 0.0697885207862
153468000 0.961491994138 0.0696049252853
153480000 0.961603872014 0.0695664544924
153492000 0.961718603451 0.0694612731314
153504000 0.962045437077 0.0693530490526
153516000 0.96168370716 0.0692727841595
153528000 0.961853192553 0.0690931365077
153540000 0.961745013847 0.0690891169699
153552000 0.963107096702 0.0685042437026
153564000 0.962539136038 0.0694015795282
153576000 0.962177453692 0.0689138231788
153588000 0.962151012387 0.068774206098
153600000 0.962160791624 0.0686982871167
153612000 0.962163444955 0.0684292327746
153624000 0.96198885408 0.0683714463263
153636000 0.961945146978 0.0684538948784
153648000 0.961958247836 0.0683182431127
153660000 0.962247389918 0.0681867759926
153672000 0.962626762657 0.0680348790175
153684000 0.96265142485 0.0678851072433
153696000 0.962790694486 0.0679868113901
153708000 0.962936973509 0.0678302757138
153720000 0.962897530947 0.0678363458376
153732000 0.963130311339 0.0678330718571
153744000 0.962956447538 0.067548642602
153756000 0.962840121735 0.0672770179439
153768000 0.962805117464 0.0671709949126
153780000 0.963256175564 0.0671753952499
153792000 0.963100165362 0.0670793820675
153804000 0.963080493247 0.0670171652442
153816000 0.962949135309 0.0668234688901
153828000 0.962946133082 0.0666346494275
153840000 0.962954236821 0.0664634191452
153852000 0.963065630312 0.0664127002362
153864000 0.963110609022 0.066406964626
153876000 0.963315562761 0.0663594786219
153888000 0.963283200287 0.0663086486237
153900000 0.963379270997 0.0663014331385
153912000 0.963314704912 0.0662566778438
153924000 0.963336242532 0.0659854050288
153936000 0.962889788568 0.0659436351665
153948000 0.963230692745 0.0652245217987
153960000 0.963677541479 0.0656418967907
153972000 0.963753441773 0.0655679851358
153984000 0.9637314821 0.0656002290229
153996000 0.963755634863 0.0655266917463
154008000 0.963888309713 0.06546008966
154020000 0.963760144522 0.0653950027676
154032000 0.964003018481 0.0651116262097
154044000 0.964059620108 0.0649508417688
154056000 0.964131760156 0.0648100636584
154068000 0.964008301359 0.0648423954768
154080000 0.963825204268 0.0648326048674
154092000 0.963873818082 0.0647719461219
154104000 0.963503434781 0.0644520907695
154116000 0.963949979801 0.0645773143416
154128000 0.964254419737 0.0643533904038
154140000 0.964359722 0.0643294670726
154152000 0.964193920867 0.0641816435359
154164000 0.964081474303 0.0638467879598
154176000 0.963950969222 0.0633994420606
154188000 0.9635827125 0.0629405168967
154200000 0.964050774714 0.0630723175442
154212000 0.964639232713 0.0634778221938
154224000 0.96474353093 0.0635310427382
154236000 0.964624274753 0.063433010679
154248000 0.96480893011 0.0635411774693
154260000 0.964495141407 0.0634249441055
154272000 0.964300010923 0.0632984975698
154284000 0.964362533163 0.0629953992974
154296000 0.964315355492 0.0629624793082
154308000 0.964650372137 0.0628510507182
154320000 0.964797082177 0.06266497719
154332000 0.964791395545 0.0626020758398
154344000 0.967124274338 0.0620017499607
154356000 0.969746937882 0.0612136789872
154368000 0.970016422982 0.0612780054913
154380000 0.967385647904 0.061610518657
154392000 0.96499187216 0.0622625176523
154404000 0.965107141831 0.0622537509593
154416000 0.965317276583 0.0621808419916
154428000 0.965102765782 0.0620730738036
154440000 0.965227529133 0.0619865580077
154452000 0.965166914911 0.0618836844174
154464000 0.965059098867 0.0616284905847
154476000 0.965159389754 0.0612654219246
154488000 0.965158398865 0.0613331460637
154500000 0.965364354484 0.0611375924516
154512000 0.965320684785 0.0610921447061
154524000 0.96540855972 0.0610565900134
154536000 0.965529113025 0.0609056681934
154548000 0.965180832411 0.0609688239169
154560000 0.965199062161 0.0609145433755
154572000 0.9653537161 0.0607096164469
154584000 0.965339845058 0.0607099718093
154596000 0.965261749498 0.0608529647438
154608000 0.965478592466 0.0603583681544
154620000 0.96555634745 0.0604040231012
154632000 0.965522709288 0.0602888208972
154644000 0.965509105199 0.0600056477227
154656000 0.965531412456 0.0600985614384
154668000 0.965717172329 0.0600403959134
154680000 0.966038648391 0.059962463161
154692000 0.966027834353 0.0597848088195
154704000 0.965802601559 0.0597483394297
154716000 0.966259375726 0.0596721539821
154728000 0.965880993299 0.0594903979043
154740000 0.965719320962 0.0594269705663
154752000 0.965800814122 0.0593625563301
154764000 0.965860331955 0.059389610623
154776000 0.965904894524 0.0592659164992
154788000 0.965698765291 0.0590486091522
154800000 0.965849903779 0.0589792031332
154812000 0.965946758268 0.0588688685306
154824000 0.965819130932 0.0585716694524
154836000 0.966399653388 0.0585921054253
154848000 0.966180443717 0.0586300463017
154860000 0.966159858997 0.0584658895136
154872000 0.966382428195 0.0582454904171
154884000 0.966204972511 0.0582362176157
154896000 0.966180940668 0.0580459496941
154908000 0.966521553058 0.0579412359531
154920000 0.966503809728 0.0578900260351
154932000 0.966285443268 0.0577721609698
154944000 0.966393833939 0.0576775698384
154956000 0.96633407968 0.0576624730344
154968000 0.966451741529 0.0575980076484
154980000 0.966554128484 0.0576746745527
154992000 0.966716045114 0.0575001199118
155004000 0.966523078008 0.0574495975356
155016000 0.966575905886 0.0573828466927
155028000 0.966549683939 0.0572067359116
155040000 0.966739269126 0.0571171910285
155052000 0.966698129555 0.0570363829586
155064000 0.966891479963 0.0569166796483
155076000 0.966625016716 0.0567366723754
155088000 0.966793978634 0.056545991242
155100000 0.966710339964 0.0565748564355
155112000 0.967065181626 0.0561977866962
155124000 0.967086302336 0.0563067907242
155136000 0.966709573538 0.0562705817265
155148000 0.966782394547 0.056087525853
155160000 0.96693331089 0.0560073364137
155172000 0.966957332445 0.0559694490326
155184000 0.966966937183 0.0557781671081
155196000 0.967215254333 0.0558458600358
155208000 0.967146969542 0.0557217502455
155220000 0.967101834281 0.05548745873
155232000 0.967100427224 0.0554846404002
155244000 0.967235416103 0.0555356067082
155256000 0.967151037569 0.0555001836828
155268000 0.967429890267 0.0551978750639
155280000 0.967355424681 0.0549845789131
155292000 0.967016133305 0.0550543506999
155304000 0.967511650816 0.0549963802232
155316000 0.968139829283 0.0546381112985
155328000 0.967405304281 0.0547704535337
155340000 0.967669391758 0.054705969003
155352000 0.967730658378 0.0547992071743
155364000 0.967781786987 0.0545207018514
155376000 0.967633591925 0.0543582804247
155388000 0.967661189805 0.0543193622687
155400000 0.967709505992 0.0540468576498
155412000 0.967789771779 0.0537988301115
155424000 0.968058178634 0.0537818837045
155436000 0.967728937189 0.0536419678734
155448000 0.967592855918 0.0536579553628
155460000 0.967730787227 0.0537648152504
155472000 0.967870741093 0.053575206036
155484000 0.96784522085 0.0535290699361
155496000 0.968069836491 0.0534424256935
155508000 0.968154288408 0.0534189430238
155520000 0.968097283179 0.053149157991
155532000 0.967853102889 0.0530030309274
155544000 0.967947757992 0.0528832980664
155556000 0.967927928186 0.0528065985696
155568000 0.967897677307 0.0528416896422
155580000 0.968130332054 0.0527454837164
155592000 0.968404081762 0.0525933252624
155604000 0.968199777674 0.0525339171187
155616000 0.968157779506 0.05238278736
155628000 0.967772962922 0.0521989911462
155640000 0.968016025027 0.0521117759258
155652000 0.968224793979 0.0523697161702
155664000 0.968219033487 0.051969776195
155676000 0.968083951788 0.051909374725
155688000 0.968176449328 0.0517399648254
155700000 0.968118184149 0.0517394103779
155712000 0.968254992278 0.0516914268589
155724000 0.968430696097 0.0516266824204
155736000 0.968312108685 0.0516069564894
155748000 0.968335347458 0.0516034194343
155760000 0.968385684142 0.0514738963844
155772000 0.968009987259 0.0512458371526
155784000 0.968416496375 0.0512012960194
155796000 0.968672385267 0.0510608196747
155808000 0.96857433125 0.0509885144545
155820000 0.968747500205 0.0509646299024
155832000 0.96847000291 0.0509758665231
155844000 0.968503851993 0.0506453950309
155856000 0.968601058479 0.0505135948966
155868000 0.968335332644 0.0506002700568
155880000 0.968301129963 0.0505427766337
155892000 0.968340979243 0.0504617433402
155904000 0.968408443473 0.0502759213015
155916000 0.968167763643 0.0499843616255
155928000 0.968331316778 0.0499865808703
155940000 0.968537401085 0.0499917728246
155952000 0.968870214393 0.0499575390363
155964000 0.96838693793 0.0494909122858
155976000 0.964904868008 0.0493996895809
155988000 0.96979966658 0.046567033287
156000000 0.969772224367 0.0440074827508
156012000 0.968850087238 0.0465838216759
156024000 0.969437592891 0.0489332338261
156036000 0.969187467584 0.0493099857246
156048000 0.969245112482 0.0492389878772
156060000 0.968987812612 0.0489394476814
156072000 0.968859054077 0.0489066659154
156084000 0.968909740671 0.0486901687867
156096000 0.96891080432 0.0485331732935
156108000 0.968775624697 0.0483786552513
156120000 0.968768923889 0.048448436525
156132000 0.969088589651 0.0483647870871
156144000 0.969286194154 0.0484147937271
156156000 0.969468213997 0.0483409993376
156168000 0.969241796539 0.0481402145955
156180000 0.969179495491 0.0480094006859
156192000 0.969341979428 0.0479334716252
156204000 0.969209336749 0.0477833832846
156216000 0.969306760668 0.0478180959974
156228000 0.969494437844 0.0477945290633
156240000 0.96939504822 0.0476522163894
156252000 0.969354785915 0.0474723454304
156264000 0.969371991416 0.0474685940568
156276000 0.969345308666 0.0471785107452
156288000 0.969354104598 0.0470780182001
156300000 0.969432449721 0.0471028986361
156312000 0.969605513879 0.047074101568
156324000 0.969797604428 0.0469125623355
156336000 0.969882252029 0.0468062813191
156348000 0.969616521541 0.0467554569748
156360000 0.969855110245 0.0466849016609
156372000 0.969720137746 0.0465478334194
156384000 0.9697019229 0.0466043461927
156396000 0.969782327726 0.0463517865001
156408000 0.969591835445 0.0464445147914
156420000 0.969616669567 0.0462493332058
156432000 0.969734538155 0.0460915600449
156444000 0.969800925336 0.0459097122938
156456000 0.969942983115 0.0459446957665
156468000 0.969864678989 0.0458714057379
156480000 0.969992558972 0.0458267914549
156492000 0.969816030728 0.0457239104297
156504000 0.969755177317 0.0456094754061
156516000 0.969664738788 0.0455088166194
156528000 0.969729322891 0.0452709788027
156540000 0.970009557724 0.0451171132277
156552000 0.969942672513 0.0449402995438
156564000 0.970113160054 0.0447986716177
156576000 0.970104871315 0.0447338353313
156588000 0.970157104235 0.0447988535388
156600000 0.969814067328 0.044725967732
156612000 0.969872822503 0.0444877571982
156624000 0.969804959397 0.0443122604901
156636000 0.969974523983 0.044129295103
156648000 0.970026978408 0.0440875036142
156660000 0.970016480001 0.0440316190946
156672000 0.969981797101 0.0437266214175
156684000 0.969919849785 0.0436164288063
156696000 0.969982454412 0.0438987598997
156708000 0.970178283813 0.0436457774337
156720000 0.970225271339 0.0435893650223
156732000 0.97019633014 0.0435299880682
156744000 0.969982821955 0.0431779321007
156756000 0.970016551406 0.0431847061582
156768000 0.970135171768 0.0432354996817
156780000 0.970352452106 0.0432015435782
156792000 0.970313301177 0.0430322505057
156804000 0.970408689727 0.0430797433195
156816000 0.970289677135 0.0428793188728
156828000 0.970180470454 0.0428294656769
156840000 0.970194878368 0.0425880706401
156852000 0.970247286368 0.0426340625189
156864000 0.970216174808 0.042490662036
156876000 0.970324844406 0.0423904264264
156888000 0.97005414992 0.0421804465138
156900000 0.970229983208 0.0421138127524
156912000 0.970368270874 0.0420147127528
156924000 0.970351821563 0.0419216903243
156936000 0.970625305598 0.0419847293508
156948000 0.970842010522 0.0419545193478
156960000 0.970555270915 0.041930856769
156972000 0.970616926602 0.0418257303663
156984000 0.970333863043 0.0417011417961
156996000 0.970637422753 0.0416149578438
157008000 0.970565441432 0.0415465997619
157020000 0.97076908297 0.0414973939357
157032000 0.970735842901 0.04140525591
157044000 0.970736033039 0.0413838865102
157056000 0.970692145508 0.0411274336172
157068000 0.970644592309 0.0409456317676
157080000 0.970665947693 0.0410367366815
157092000 0.970823138876 0.0409872070588
157104000 0.97047971269 0.0407417204945
157116000 0.970449003299 0.0408654590167
157128000 0.970664343974 0.0405554551713
157140000 0.970462293458 0.0404587998081
157152000 0.970603134938 0.0404819641738
157164000 0.970579776376 0.0403037965896
157176000 0.97079806167 0.0402166848807
157188000 0.97099742448 0.0400494096088
157200000 0.971022366569 0.04019287939
157212000 0.971160787445 0.0399013168196
157224000 0.971269922209 0.0399654080788
157236000 0.97132918174 0.0397867402889
157248000 0.971198978352 0.0397378081296
157260000 0.97135758426 0.039503086109
157272000 0.970957764465 0.0392417848853
157284000 0.971026703766 0.0393325475932
157296000 0.970997198679 0.0392737999909
157308000 0.970892503763 0.0391071322783
157320000 0.971032356943 0.0388674420593
157332000 0.971131018368 0.0389068505254
157344000 0.971129895288 0.0388481313235
157356000 0.971004328441 0.0387668231668
157368000 0.971182410366 0.0384852561342
157380000 0.97081135063 0.0383127822658
157392000 0.971683246812 0.038209693145
157404000 0.971387664029 0.0384083125134
157416000 0.971438565536 0.0381834438416
157428000 0.971307746595 0.0380209221862
157440000 0.971068617761 0.0379833054904
157452000 0.971232730721 0.0377585875273
157464000 0.971189232634 0.037760647371
157476000 0.971108745579 0.0378044817431
157488000 0.970985516042 0.037730368143
157500000 0.970974481658 0.0376063392998
157512000 0.971082293673 0.0374545201412
157524000 0.97122518084 0.0373418796302
157536000 0.971107364995 0.0372070805967
157548000 0.971291957273 0.0372050681257
157560000 0.971160328642 0.0370550125846
157572000 0.971170237392 0.0370843785703
157584000 0.971053729763 0.0370657180763
157596000 0.971154586847 0.0369325327464
157608000 0.971035660156 0.0368353631942
157620000 0.971034206231 0.0368460086696
157632000 0.971308745702 0.0368141903441
157644000 0.971397326834 0.0367713794965
157656000 0.97114842499 0.0366430223596
157668000 0.97131603661 0.0364876921052
157680000 0.971224742074 0.0364804919197
157692000 0.971364336755 0.03636358748
157704000 0.971329493138 0.0363750548598
157716000 0.971519715428 0.0360526162594
157728000 0.971535104687 0.0360190009915
157740000 0.97160432648 0.0360934721331
157752000 0.971623895709 0.035950406966
157764000 0.971589753056 0.0359129367144
157776000 0.971236712608 0.0358289874988
157788000 0.97134972635 0.0356136878183
157800000 0.97151512192 0.0355963203054
157812000 0.9714949141 0.0354836875804
157824000 0.971516550038 0.0352098778735
157836000 0.971372732729 0.0352127211765
157848000 0.971396789506 0.0349911145761
157860000 0.971546565417 0.0350004537122
157872000 0.971865496134 0.0348465813599
157884000 0.971685956519 0.0347750785085
157896000 0.972069997652 0.0346790048209
157908000 0.971685727496 0.0346225634296
157920000 0.971451957779 0.0347849128456
157932000 0.971335298875 0.0345486884821
157944000 0.971575962676 0.0345504899877
157956000 0.971674205979 0.034436890533
157968000 0.971613342602 0.0339229097238
157980000 0.971598535626 0.0338968343299
157992000 0.971573190786 0.0337550595986
158004000 0.97155778894 0.033844272584
158016000 0.971655471902 0.0338964563113
158028000 0.971856824848 0.033599126897
158040000 0.97137259261 0.0335876962549
158052000 0.972136337392 0.0335628739444
158064000 0.971733866458 0.033411959133
158076000 0.971786062526 0.0334549485114
158088000 0.971803985379 0.033249018244
158100000 0.971758524863 0.0332495416989
158112000 0.971703484857 0.0330604182696
158124000 0.971877689915 0.0329518255044
158136000 0.972041728396 0.0328846488513
158148000 0.971991500161 0.0327369221514
158160000 0.971880752509 0.0325902381082
158172000 0.972041373446 0.0325716791921
158184000 0.971876138423 0.0324969981322
158196000 0.971911758073 0.0323546842866
158208000 0.971933560784 0.0321752928336
158220000 0.971867274401 0.0321352556469
158232000 0.97185702276 0.0319828155584
158244000 0.971937189084 0.0319281652852
158256000 0.971949371238 0.0318939851983
158268000 0.971971153925 0.0318722365601
158280000 0.97196050491 0.0318881737475
158292000 0.971860164419 0.0317612625163
158304000 0.971684259333 0.0315199543174
158316000 0.971858216345 0.0315874038105
158328000 0.971861171373 0.0314869347978
158340000 0.972115495661 0.0313109935068
158352000 0.972300940842 0.0310410684037
158364000 0.97170554975 0.0309154415338
158376000 0.971926173377 0.0309934708749
158388000 0.971810025996 0.0310982843891
158400000 0.971944182941 0.0309635325668
158412000 0.971894193984 0.0309652658861
158424000 0.971212755533 0.0305122082728
158436000 0.971490743637 0.0311483116528
158448000 0.972180498273 0.0305702228245
158460000 0.971901465143 0.0305436836261
158472000 0.972060572886 0.0303420499728
158484000 0.971879144769 0.0303486201799
158496000 0.97196049008 0.0302679366674
158508000 0.972137444605 0.0302667471107
158520000 0.972056858498 0.0301875904042
158532000 0.972176268703 0.0297710236821
158544000 0.972132757323 0.0301268597612
158556000 0.972155517444 0.0299413723064
158568000 0.972311033254 0.0298032921368
158580000 0.972285766204 0.0296524425652
158592000 0.97236152764 0.0295153810014
158604000 0.97217719036 0.0294853927339
158616000 0.972052991619 0.0294419111415
158628000 0.971863754647 0.0293241618773
158640000 0.971843987197 0.0293278034121
158652000 0.972061217077 0.0291861604154
158664000 0.972087812873 0.0289981330503
158676000 0.972307599315 0.028942829921
158688000 0.97237689809 0.0289913717204
158700000 0.972402410855 0.0287197567397
158712000 0.972450725552 0.0286507241374
158724000 0.972519584201 0.0285041100839
158736000 0.972471949656 0.0283813556933
158748000 0.972322187631 0.0282030772116
158760000 0.971983749883 0.028291920162
158772000 0.970060789034 0.0285474399591
158784000 0.972564588211 0.0286134199519
158796000 0.972186342769 0.0280351895116
158808000 0.972155132075 0.0278493912033
158820000 0.972182667828 0.0278397403619
158832000 0.972123478 0.0276720837468
158844000 0.972068679949 0.0275945713077
158856000 0.972001457121 0.0274975932921
158868000 0.972333943678 0.0275950822089
158880000 0.972396921789 0.0274207818868
158892000 0.972531250511 0.0272359766635
158904000 0.972323286915 0.0272623436921
158916000 0.97248763471 0.027025792227
158928000 0.972527823151 0.0269302052442
158940000 0.972438577339 0.0269050964076
158952000 0.972321245822 0.0267451187548
158964000 0.972138713215 0.0268471615249
158976000 0.972487713848 0.0265708859885
158988000 0.972389154506 0.0265542244796
159000000 0.972356073214 0.0264700872829
159012000 0.972349897867 0.0264776206003
159024000 0.972291195227 0.0262679881177
159036000 0.97208753394 0.0262219298337
159048000 0.972123077008 0.026046860935
159060000 0.972103747469 0.026009491605
159072000 0.972068283392 0.0259734709662
159084000 0.97206213311 0.025992129081
159096000 0.972328299307 0.0259331356774
159108000 0.972122845763 0.0258816008425
159120000 0.972256829 0.0257633878009
159132000 0.972334955914 0.0256136765292
159144000 0.972325445284 0.025573523093
159156000 0.972120972396 0.0255095142561
159168000 0.972310523649 0.025516254306
159180000 0.972324654228 0.0254834434352
159192000 0.972611643257 0.0253918114206
159204000 0.972535445793 0.0252378703343
159216000 0.972475167562 0.0252030303226
159228000 0.97237517042 0.0250524252937
159240000 0.972740023664 0.0245990152013
159252000 0.973510000588 0.0251310917484
159264000 0.972159404965 0.0248506043454
159276000 0.972425609836 0.024896089229
159288000 0.972384660195 0.0248181496997
159300000 0.972582983902 0.0244961290742
159312000 0.972531974368 0.0244445081102
159324000 0.972553342899 0.0243385414912
159336000 0.972436596125 0.0244283083975
159348000 0.972706806332 0.0243503928785
159360000 0.973120852357 0.0242073527842
159372000 0.973011347467 0.0240794054101
159384000 0.972727204088 0.0239556854292
159396000 0.972567905309 0.0238939220899
159408000 0.972820321446 0.023818518022
159420000 0.972667778335 0.0236011493748
159432000 0.972726336791 0.023619192309
159444000 0.972622202633 0.0235168983561
159456000 0.972845639563 0.0233691551989
159468000 0.97267918808 0.0233790770926
159480000 0.972727565664 0.0233109437737
159492000 0.972831921058 0.0234424326334
159504000 0.972873701168 0.0236513574992
159516000 0.972814945824 0.0234454141768
159528000 0.97239909838 0.0232375708108
159540000 0.972285347087 0.022762455985
159552000 0.972431447 0.0227516931969
159564000 0.972450355301 0.0223750646426
159576000 0.972622643432 0.0224453277642
159588000 0.972743401964 0.0224278260348
159600000 0.972818031403 0.0224026503447
159612000 0.972744381481 0.0221991148711
159624000 0.972371729361 0.022038890171
159636000 0.97241674019 0.022075121287
159648000 0.97241714317 0.0219950417531
159660000 0.97256797058 0.0220516833595
159672000 0.972715553053 0.0221982132117
159684000 0.972848714149 0.0221725174638
159696000 0.97273450969 0.0218571192071
159708000 0.972724944558 0.0217392140928
159720000 0.97245590336 0.0216000095563
159732000 0.972433685549 0.0214969531494
159744000 0.972431149646 0.0212693103378
159756000 0.972454849158 0.0212538562933
159768000 0.972389920832 0.021161162856
159780000 0.972301384162 0.0211048128803
159792000 0.972218962502 0.0211300079579
159804000 0.972446390504 0.0208555962505
159816000 0.972448669936 0.0208673547694
159828000 0.972540822429 0.0208416427617
159840000 0.972467328837 0.0207606497746
159852000 0.972354242581 0.0207048093651
159864000 0.972426080227 0.020610194376
159876000 0.972280239696 0.0206658929482
159888000 0.97227338864 0.0205558113058
159900000 0.972383035177 0.0204212847213
159912000 0.972550569445 0.0204344469289
159924000 0.972429756588 0.0203462780381
159936000 0.972300074012 0.0203233858166
159948000 0.972337881818 0.0202317738031
159960000 0.972582807677 0.0202138662
159972000 0.972801487688 0.019899773144
159984000 0.97274810332 0.0198956933867
159996000 0.972676557885 0.0197119016514
160008000 0.972666281102 0.0196344480269
160020000 0.972333392789 0.0196123358035
160032000 0.972411071921 0.0196539095865
160044000 0.972561743174 0.0195735652878
160056000 0.972657462548 0.0195393779921
160068000 0.972761336606 0.0195191979067
160080000 0.972641651078 0.0193282880369
160092000 0.972568457109 0.0192673172769
160104000 0.972269672017 0.0191824375991
160116000 0.97224419364 0.0189954683435
160128000 0.972478777192 0.0189882673991
160140000 0.972384761595 0.01884834538
160152000 0.972594975803 0.0186970779545
160164000 0.972970062669 0.0187490637065
160176000 0.972848584122 0.0186434896784
160188000 0.973142346893 0.0186222024292
160200000 0.972961679806 0.0184074565089
160212000 0.972772330726 0.0183059823337
160224000 0.972563462425 0.0183181645872
160236000 0.97259723106 0.0182441547088
160248000 0.972719169254 0.0181171727091
160260000 0.972999545041 0.0180269431539
160272000 0.972959963043 0.017912925132
160284000 0.973109196384 0.0177103211859
160296000 0.972823938535 0.017678836666
160308000 0.972705749218 0.0177836530911
160320000 0.972890023033 0.0177681776394
160332000 0.971839316403 0.017459925581
160344000 0.972646063098 0.0174078058245
160356000 0.972516897403 0.0172994913748
160368000 0.972496765715 0.0171308554446
160380000 0.972760909086 0.0169836082066
160392000 0.972845931153 0.0170653065367
160404000 0.972682747401 0.0170793950868
160416000 0.97263393503 0.0168250654315
160428000 0.972610942246 0.0167207727347
160440000 0.972587030347 0.0163345171113
160452000 0.972684893173 0.0160019544916
160464000 0.972666289872 0.0159350028097
160476000 0.972699076196 0.016278802623
160488000 0.972689224925 0.0164320935853
160500000 0.972761049349 0.0164830675762
160512000 0.972762647163 0.0163539952745
160524000 0.972688346685 0.0162588106222
160536000 0.972674393426 0.0162427152955
160548000 0.972610220272 0.016212388858
160560000 0.972665921744 0.0159728893807
160572000 0.972910685318 0.0160321959773
160584000 0.972589105722 0.0159124842112
160596000 0.972815795947 0.015825825349
160608000 0.974614071415 0.0160402091465
160620000 0.978290325787 0.0163052054422
160632000 0.980910698157 0.0165029054228
160644000 0.97703665738 0.0160945010296
160656000 0.973419325512 0.0156232947359
160668000 0.972566194435 0.0155087114107
160680000 0.9724921862 0.0154170620029
160692000 0.97262281764 0.0154525154263
160704000 0.972426797095 0.0152764447398
160716000 0.972418442234 0.0150884720217
160728000 0.972567488377 0.0150663043888
160740000 0.972826073777 0.0149909070873
160752000 0.972660937882 0.0149431261923
160764000 0.972862864947 0.015055226403
160776000 0.972865394338 0.0147902243201
160788000 0.972745829558 0.0148487833425
160800000 0.972675887605 0.0147164291752
160812000 0.972870086523 0.0146644372544
160824000 0.972903222618 0.0145200521803
160836000 0.973243694336 0.0148485417359
160848000 0.973973224611 0.0161071900117
160860000 0.973245879972 0.0163633134672
160872000 0.969026656705 0.0170416352435
160884000 0.972804768215 0.0145428362351
160896000 0.972834142504 0.0139923107554
160908000 0.972851257437 0.0138221239205
160920000 0.972859819282 0.0136620904044
160932000 0.97273152682 0.0136760236294
160944000 0.972549904109 0.0136159731751
160956000 0.972756594834 0.013484909669
160968000 0.972866741099 0.0134558040073
160980000 0.973100602189 0.0133914911357
160992000 0.972865850302 0.0131800570471
161004000 0.973043173797 0.0131214577525
161016000 0.972819178705 0.0132371155583
161028000 0.972719329644 0.0130440384683
161040000 0.972756209059 0.0130091633118
161052000 0.972780354479 0.0128506204302
161064000 0.972859095416 0.0124351296721
161076000 0.972922594961 0.0124826053207
161088000 0.972721649154 0.0124822600909
161100000 0.972715816496 0.0124638779169
161112000 0.97270698281 0.0123344606788
161124000 0.972902868362 0.0124921807597
161136000 0.972888747514 0.0122252180386
161148000 0.972847786072 0.0122750724719
161160000 0.972829000578 0.01211450535
161172000 0.973005483601 0.0120294829105
161184000 0.972645958854 0.0118729069696
161196000 0.97277404554 0.011649039595
161208000 0.972578408767 0.0115991540698
161220000 0.972494773137 0.0114472870043
161232000 0.972885983507 0.0116528763054
161244000 0.972647549029 0.0115279125387
161256000 0.972600118565 0.011441796291
161268000 0.972605281916 0.0115366932508
161280000 0.972413984989 0.0113643158832
161292000 0.972536628313 0.011283275954
161304000 0.972875698244 0.011208797722
161316000 0.972764768015 0.0112632298861
161328000 0.972764484904 0.0110229035207
161340000 0.972810357462 0.0110664492766
161352000 0.972662197788 0.0109584345338
161364000 0.972510857338 0.010885543197
161376000 0.972662032951 0.0107475435655
161388000 0.972470464846 0.0107858646583
161400000 0.972436172709 0.0108056732666
161412000 0.97249342554 0.0107506891934
161424000 0.972495703256 0.0106538143195
161436000 0.972562602054 0.0104793121412
161448000 0.972635815107 0.0104213689886
161460000 0.9723295142 0.0104820298755
161472000 0.972427332892 0.0101527863931
161484000 0.972174066131 0.0101286081919
161496000 0.972353308874 0.0101185937057
161508000 0.972408344596 0.0101274989056
161520000 0.972398861863 0.0103059909547
161532000 0.972561409539 0.0101229016531
161544000 0.972540757329 0.0100973080036
161556000 0.972551330288 0.0100187535577
161568000 0.972431183275 0.0100999231454
161580000 0.972416308295 0.00981749738334
161592000 0.972691824506 0.00979336931258
161604000 0.97274074126 0.00960359158869
161616000 0.972511164185 0.00947258531285
161628000 0.972708042457 0.00939884944339
161640000 0.972420510418 0.00938251844574
161652000 0.972597351032 0.00930174260103
161664000 0.972803293213 0.00917268593988
161676000 0.972440531684 0.00878491993474
161688000 0.973133180356 0.00897309452752
161700000 0.972658294512 0.00865840778805
161712000 0.972677074203 0.00869976479765
161724000 0.97262873193 0.0087301358429
161736000 0.972696279215 0.00827319334072
161748000 0.97300135498 0.00859901179006
161760000 0.972743414358 0.00836752103466
161772000 0.972986932691 0.00838977782552
161784000 0.97290800801 0.00827555267873
161796000 0.972690916044 0.00829488489541
161808000 0.972678830829 0.00813692985509
161820000 0.97260382136 0.00796410619141
161832000 0.972691770875 0.00796390057839
161844000 0.972767226505 0.00784499753206
161856000 0.972553174367 0.00760624112622
161868000 0.972542616165 0.00761917764498
161880000 0.972550636238 0.00761491350284
161892000 0.972701174084 0.00735668864685
161904000 0.972542889771 0.00741650679168
161916000 0.972778913216 0.00736588733355
161928000 0.972694504345 0.00735726983975
161940000 0.972707293729 0.00731969012325
161952000 0.972698745944 0.00722198589359
161964000 0.972638829102 0.00719748879777
161976000 0.972740114735 0.00692151129517
161988000 0.972656441483 0.00685363856803
162000000 0.972724782096 0.00690692066879
162012000 0.972805252764 0.00692488669159
162024000 0.972543079484 0.00679494258905
162036000 0.972530890813 0.00660887961473
162048000 0.972453059261 0.00660459605799
162060000 0.972576410549 0.00652774191885
162072000 0.972558208655 0.00644388232206
162084000 0.972623135156 0.00642952498135
162096000 0.972655938347 0.00626334896179
162108000 0.972673168683 0.00621096983564
162120000 0.972557564475 0.00634616299599
162132000 0.972583226426 0.00624360375598
162144000 0.972856651753 0.00602835197673
162156000 0.972754491194 0.0059524892171
162168000 0.972832057262 0.00589117769987
162180000 0.972756177726 0.00582955312586
162192000 0.973234359714 0.00576014246046
162204000 0.972711072572 0.00593601289977
162216000 0.972829146711 0.00573785334349
162228000 0.972709887835 0.00569110227306
162240000 0.972632768507 0.00547705687973
162252000 0.972572352685 0.00545423294554
162264000 0.972510273555 0.00555833976977
162276000 0.972227436314 0.00536463057168
162288000 0.972609059498 0.00531250353688
162300000 0.972586650439 0.00513000757213
162312000 0.973014645024 0.00531372670213
162324000 0.97285829715 0.00513925117865
162336000 0.972920787391 0.00509140420214
162348000 0.972831646977 0.00497426850005
162360000 0.972876398713 0.00474815694385
162372000 0.972751709818 0.00487536867835
162384000 0.972615789807 0.00480320153089
162396000 0.972718379261 0.00484935421797
162408000 0.972625217879 0.00474561249765
162420000 0.972649129834 0.00461249403576
162432000 0.972687084665 0.00444422328759
162444000 0.973038632219 0.00433684203644
162456000 0.973808854829 0.00461143511448
162468000 0.975088859925 0.00476231981474
162480000 0.9746169701 0.00452174448874
162492000 0.975889172087 0.00489301069406
162504000 0.972292388264 0.00367910251262
162516000 0.972742585468 0.00370932323099
162528000 0.972907781678 0.00360366892556
162540000 0.972810128209 0.0035213552891
162552000 0.973008309899 0.00343136335509
162564000 0.9727346025 0.00342680452914
162576000 0.972851539305 0.0033643717982
162588000 0.97263674043 0.00335994880221
162600000 0.972785271856 0.00315976169458
162612000 0.972729955063 0.00308501254622
162624000 0.972986065988 0.00301128186777
162636000 0.973040550079 0.00293952947183
162648000 0.973052863792 0.00288890430537
162660000 0.972935460378 0.00282259493177
162672000 0.973085266908 0.00278953454607
162684000 0.972720407297 0.00261466536647
162696000 0.972552278607 0.0024941971446
162708000 0.972389650106 0.00253467312899
162720000 0.972630557233 0.00252590717261
162732000 0.97276964846 0.00231584520685
162744000 0.972804067904 0.00239573549417
162756000 0.972791811956 0.00215844620424
162768000 0.972803181004 0.00205083693265
162780000 0.972539288955 0.0018989515621
162792000 0.972501044236 0.00184370935228
162804000 0.972227597419 0.0018598253768
162816000 0.972265227352 0.00193477535705
162828000 0.972287917027 0.00176818577495
162840000 0.972503047318 0.00167000039926
162852000 0.972628277292 0.00153450500662
162864000 0.972532529757 0.00151521193123
162876000 0.972471248285 0.00138019935169
162888000 0.972412693053 0.00147381500412
162900000 0.972478784461 0.00156219113094
162912000 0.972437396749 0.00131962986925
162924000 0.972908507369 0.00129840241645
162936000 0.972691957306 0.00125085322012
162948000 0.972581451086 0.000940905080843
162960000 0.97263183014 0.000965361734155
162972000 0.972485080413 0.00103098706618
162984000 0.972609096244 0.00107127513473
162996000 0.972575345031 0.00102627289376
163008000 0.972534884545 0.000792953319697
163020000 0.972366828817 0.000796591229558
163032000 0.972479611543 0.00060166652875
163044000 0.972875487859 0.000592196579635
163056000 0.972546260621 0.000504368718749
163068000 0.9725086143 0.000457145676629
163080000 0.971963885122 0.000441328569519
163092000 0.971096627542 0.000270530267135
163104000 0.972542929538 0.000176118258877
163116000 0.972743907769 0.00021954213212
163128000 0.972703764575 0.000131689232776
163140000 0.972680952615 0.000168976932463
163152000 0.972718926824 0.000115640345279
163164000 0.972799073898 0.000115184400571
163176000 0.972739366856 -0.000176199595733
163188000 0.97274316479 -0.000331909020094
163200000 0.972749597559 -0.000513946131098
163212000 0.972688740355 -0.0005764243161
163224000 0.972580127463 -0.000615756606432
163236000 0.972378881476 -0.000774288924495
163248000 0.972574339026 -0.000907648864936
163260000 0.972617108381 -0.000983632357509
163272000 0.972781626359 -0.00105144673588
163284000 0.972592506701 -0.00101554649997
163296000 0.972450632905 -0.00112904993474
163308000 0.972570793124 -0.00116230963076
163320000 0.972450256886 -0.00130448522763
163332000 0.972602989795 -0.00122765663896
163344000 0.972662103374 -0.0013333556552
163356000 0.972419198621 -0.00168957598905
163368000 0.972538968995 -0.00172532150117
163380000 0.972560062667 -0.00178782673801
163392000 0.972532148406 -0.00195582111325
163404000 0.972704466277 -0.00189267578921
163416000 0.972281071562 -0.00180375052426
163428000 0.972220892194 -0.00169482726792
163440000 0.972463621873 -0.00201961390307
163452000 0.972413267963 -0.00228086319351
163464000 0.972359541114 -0.00233351965653
163476000 0.972275428587 -0.00267777436174
163488000 0.972322010504 -0.00257716300716
163500000 0.971820022312 -0.00258858532398
163512000 0.972263350489 -0.00268858174989
163524000 0.972350923775 -0.00261616229501
163536000 0.972498453519 -0.00262133958688
163548000 0.972817496413 -0.00283537019577
163560000 0.97227969982 -0.00290996138363
163572000 0.97276096851 -0.00277726320958
163584000 0.97266832182 -0.00292332584476
163596000 0.972352773931 -0.00297742519225
163608000 0.972441594612 -0.00318403937852
163620000 0.97260317132 -0.0031142018282
163632000 0.97230195157 -0.00321708733942
163644000 0.97214022001 -0.00345988920995
163656000 0.972058044297 -0.00350257536573
163668000 0.972077707561 -0.00354385017606
163680000 0.972021817577 -0.00345805116181
163692000 0.972219559253 -0.00369381997726
163704000 0.972460275732 -0.00364833593503
163716000 0.972389795252 -0.00372618743246
163728000 0.972456142271 -0.00370645563104
163740000 0.972313479352 -0.00380904535065
163752000 0.972170307367 -0.00388113319934
163764000 0.972100140663 -0.00395166041551
163776000 0.972093984479 -0.00412235086986
163788000 0.972186742779 -0.00402975404809
163800000 0.972190312652 -0.00422227071659
163812000 0.971985611924 -0.00427348579679
163824000 0.972369629909 -0.00423160738511
163836000 0.972232912599 -0.00448856430146
163848000 0.972238029768 -0.00450966377958
163860000 0.972174151097 -0.00452733420144
163872000 0.972099665177 -0.00464061300848
163884000 0.972091066553 -0.00454697197083
163896000 0.972346014215 -0.00462469414815
163908000 0.972285855421 -0.00482349307543
163920000 0.972174964907 -0.00469140832126
163932000 0.972562460255 -0.0047227450609
163944000 0.972254420727 -0.00550345761933
163956000 0.97252725094 -0.00641020491606
163968000 0.972714165976 -0.00692151291448
163980000 0.972658721016 -0.0061315179599
163992000 0.972844909588 -0.00551539638472
164004000 0.972229723378 -0.00543007430478
164016000 0.972136192733 -0.00559804568623
164028000 0.972081826085 -0.00563596696405
164040000 0.97223065126 -0.0057761903386
164052000 0.972204934344 -0.00580327745163
164064000 0.972179359293 -0.00596651432539
164076000 0.97181821534 -0.00584948362029
164088000 0.972021486939 -0.00603803677958
164100000 0.972089160968 -0.00613146889109
164112000 0.972773673124 -0.00608985061105
164124000 0.971937218203 -0.00606761498005
164136000 0.972118422216 -0.00642025531428
164148000 0.972086954952 -0.00647846470758
164160000 0.972119282698 -0.00660805452386
164172000 0.972167435 -0.00672183988107
164184000 0.972244976781 -0.00643145925741
164196000 0.972098459989 -0.00666403678743
164208000 0.972017312037 -0.00691753976162
164220000 0.972149585608 -0.00697892474367
164232000 0.97206830146 -0.00698569917041
164244000 0.971946413043 -0.0072805330964
164256000 0.971997124569 -0.00742919120181
164268000 0.971937582138 -0.00716477068362
164280000 0.971887569806 -0.0073334031249
164292000 0.972077923476 -0.00729970100268
164304000 0.971979367715 -0.00760428977629
164316000 0.971971778359 -0.00769495686819
164328000 0.971904021848 -0.00773655863351
164340000 0.971546604949 -0.0075646331924
164352000 0.971779661377 -0.00784770269521
164364000 0.971642558825 -0.00795870738774
164376000 0.97163599893 -0.00801703913192
164388000 0.97178022549 -0.00795707629733
164400000 0.971885794135 -0.00809638798548
164412000 0.971815496092 -0.00798269375346
164424000 0.971636123108 -0.00810192656587
164436000 0.971792302873 -0.0081843443822
164448000 0.971730297978 -0.00823704463892
164460000 0.971821692706 -0.00833443641018
164472000 0.971711547722 -0.00844792948232
164484000 0.971815694127 -0.00844690330882
164496000 0.971625130606 -0.00854898940753
164508000 0.971547182964 -0.0086216068106
164520000 0.971247084658 -0.00868753982298
164532000 0.970610763154 -0.00907317659661
164544000 0.971502300091 -0.00906483939374
164556000 0.971678084597 -0.00899885488548
164568000 0.971864371048 -0.00894064381959
164580000 0.97201479987 -0.00898506028892
164592000 0.971802725715 -0.00910211429146
164604000 0.972126699026 -0.00916641396708
164616000 0.971717257857 -0.0090404052398
164628000 0.971871551241 -0.00930708498359
164640000 0.972045137771 -0.0100349560518
164652000 0.972262964666 -0.010896286718
164664000 0.972478497778 -0.0108506723143
164676000 0.971981554401 -0.0101518810739
164688000 0.972255258963 -0.00987629159235
164700000 0.971972232571 -0.00982186488639
164712000 0.971623063063 -0.00986819893759
164724000 0.971734072813 -0.0102935768127
164736000 0.971747800849 -0.0100483323681
164748000 0.971775010464 -0.0101014713451
164760000 0.971853242874 -0.010207889919
164772000 0.971955101491 -0.0102682247716
164784000 0.971790461319 -0.0103829274485
164796000 0.971763653069 -0.010538766523
164808000 0.971727440764 -0.0105516494436
164820000 0.971558050307 -0.0106369198303
164832000 0.971682907101 -0.0107876889985
164844000 0.971648037698 -0.0109077299801
164856000 0.971716385653 -0.0110133522928
164868000 0.9715659044 -0.0110903395974
164880000 0.971554915686 -0.0111964938531
164892000 0.971480172716 -0.0110971363846
164904000 0.971685312755 -0.0112529581644
164916000 0.971835970193 -0.0114062165095
164928000 0.971728842049 -0.0113636949212
164940000 0.971595589383 -0.0115427087462
164952000 0.971655938048 -0.0116101882327
164964000 0.971489408729 -0.0115131163291
164976000 0.971396399744 -0.0116789753662
164988000 0.971606688886 -0.0120106849346
165000000 0.971662891531 -0.0119814736618
165012000 0.971766475019 -0.0121153587577
165024000 0.971521806791 -0.0119935927187
165036000 0.971456257699 -0.0119687095648
165048000 0.971434700746 -0.0120273092068
165060000 0.971334361421 -0.012194067963
165072000 0.971663873531 -0.012146147024
165084000 0.97125144715 -0.012176775738
165096000 0.971185844615 -0.0122934166393
165108000 0.971252363185 -0.0123479835114
165120000 0.9712192868 -0.0123922714242
165132000 0.971182091846 -0.012613807699
165144000 0.97112083763 -0.0125670090621
165156000 0.971303693525 -0.0127094931555
165168000 0.971597261504 -0.0126747255116
165180000 0.971505260997 -0.0128326941965
165192000 0.971239167369 -0.0128997503665
165204000 0.971100744124 -0.0130145502552
165216000 0.971144371663 -0.0131161935971
165228000 0.971113614745 -0.0130674887539
165240000 0.971142880838 -0.0130014964996
165252000 0.971370627763 -0.0131135730618
165264000 0.971349252654 -0.0129351551563
165276000 0.97118987607 -0.0133507157109
165288000 0.970770275802 -0.0133597221738
165300000 0.971041577859 -0.0133383733105
165312000 0.971043943394 -0.0135173643086
165324000 0.971010578792 -0.0135153461355
165336000 0.970927001243 -0.013450526251
165348000 0.970985450525 -0.0136392631755
165360000 0.97090101779 -0.0138096321211
165372000 0.970804099542 -0.0138937125038
165384000 0.971048941362 -0.0139866326195
165396000 0.970969129881 -0.0139340817964
165408000 0.971207608868 -0.0138845316488
165420000 0.971005944365 -0.0140601422811
165432000 0.971055618696 -0.0140973437466
165444000 0.971011438096 -0.0141712477459
165456000 0.971126099153 -0.0144261323449
165468000 0.971051799218 -0.0145498264566
165480000 0.971012650226 -0.0144089816104
165492000 0.970816851263 -0.0144727060184
165504000 0.971092308506 -0.0146381940102
165516000 0.971045367319 -0.0147315414568
165528000 0.971147589779 -0.0148348419649
165540000 0.971182931611 -0.0150047364899
165552000 0.971110751545 -0.0150726235987
165564000 0.970934492403 -0.0151541918317
165576000 0.97121908643 -0.0153461615093
165588000 0.971119997789 -0.015345861705
165600000 0.971095136662 -0.0153926796566
165612000 0.970915060486 -0.0154573867271
165624000 0.971068769464 -0.0154514108495
165636000 0.97117720071 -0.0155003358811
165648000 0.971171255057 -0.0156199182668
165660000 0.971081822134 -0.0156244524403
165672000 0.970968639257 -0.0156887791604
165684000 0.971060585883 -0.0158245141434
165696000 0.970861088456 -0.0159146938673
165708000 0.970799864631 -0.0160342154986
165720000 0.97090921863 -0.0160694888074
165732000 0.973225964478 -0.0164269023727
165744000 0.971032434929 -0.0160110492014
165756000 0.969054607733 -0.0149539345517
165768000 0.970685791677 -0.0165083964911
165780000 0.970952277993 -0.0164910383679
165792000 0.970663706585 -0.0166028778095
165804000 0.970652640257 -0.0166016908992
165816000 0.970624649233 -0.0167195692945
165828000 0.970529949023 -0.0167929514558
165840000 0.970587617328 -0.0168090312718
165852000 0.970719871054 -0.0169223546619
165864000 0.970617818758 -0.0169866654316
165876000 0.970719910566 -0.0168937639929
165888000 0.970749154954 -0.0169185887738
165900000 0.97054142329 -0.0170103146873
165912000 0.970582542928 -0.017371527013
165924000 0.970607252513 -0.0173165903484
165936000 0.97050068125 -0.0171698935888
165948000 0.970344411553 -0.0172825701054
165960000 0.970368595814 -0.0173864419253
165972000 0.97050065113 -0.0175547219189
165984000 0.970515036499 -0.0176266445164
165996000 0.970593907588 -0.0175053974401
166008000 0.970349138388 -0.0174285046627
166020000 0.970386746523 -0.0177123021252
166032000 0.970255247288 -0.0178200718286
166044000 0.970302160101 -0.0177758893264
166056000 0.970385738014 -0.0176966616786
166068000 0.970446341294 -0.0179348161311
166080000 0.970406590888 -0.0178852913553
166092000 0.970288652142 -0.0181288006631
166104000 0.970482997732 -0.0181566493122
166116000 0.970322730229 -0.0182633403558
166128000 0.970200359563 -0.0183360626459
166140000 0.970376687412 -0.0184796094096
166152000 0.970365170954 -0.0184530583677
166164000 0.970497094584 -0.0186421461742
166176000 0.970670174156 -0.0184761811498
166188000 0.970613700375 -0.018690221206
166200000 0.970283900277 -0.0187195925477
166212000 0.970119640927 -0.0188534833541
166224000 0.970038895597 -0.0189004864203
166236000 0.970125923838 -0.0189490314374
166248000 0.970222948893 -0.0188932825906
166260000 0.970552358243 -0.0188923305789
166272000 0.970513862349 -0.0190461852702
166284000 0.970431062182 -0.0192711961741
166296000 0.97019368126 -0.0192777340619
166308000 0.970225147048 -0.0194075767535
166320000 0.970231784445 -0.0195759927947
166332000 0.97023926914 -0.0196765970455
166344000 0.970482700557 -0.0196509108825
166356000 0.970240215721 -0.0198356951314
166368000 0.970180062142 -0.0199122761228
166380000 0.969894319014 -0.020072651492
166392000 0.970119241233 -0.0200227117833
166404000 0.970045993068 -0.0200052118512
166416000 0.970155843123 -0.0200402281536
166428000 0.969887678239 -0.0202751917586
166440000 0.970075529626 -0.0203337513201
166452000 0.9699782332 -0.0203611673786
166464000 0.97002683483 -0.0205908103079
166476000 0.96990783003 -0.0205001605383
166488000 0.96992014088 -0.0204801062344
166500000 0.9699169207 -0.0206904754486
166512000 0.969618880075 -0.0207864991403
166524000 0.96994401872 -0.0210047168313
166536000 0.969921882773 -0.0210331678443
166548000 0.969689490271 -0.0210293722233
166560000 0.969582023907 -0.0211366664983
166572000 0.969648548208 -0.0211525296509
166584000 0.969586684824 -0.0211999980372
166596000 0.969751233766 -0.0211855665964
166608000 0.969709670637 -0.0212036697902
166620000 0.969708272486 -0.0212183977903
166632000 0.969738301259 -0.0213363656941
166644000 0.969703703734 -0.0213419302772
166656000 0.969656236301 -0.0213585728203
166668000 0.969571727741 -0.0212932246823
166680000 0.969570765069 -0.021536440876
166692000 0.969516865458 -0.0215824845099
166704000 0.969654000902 -0.0216987459418
166716000 0.969582082592 -0.0217337709075
166728000 0.969599889203 -0.0217947450991
166740000 0.969496469399 -0.0218104207235
166752000 0.968924051903 -0.0217982037264
166764000 0.969447981906 -0.0219067870284
166776000 0.969250158355 -0.0218851127041
166788000 0.969702423015 -0.0222029786236
166800000 0.96956638758 -0.0222110684745
166812000 0.969464345938 -0.0221756981655
166824000 0.969731179395 -0.0221206698171
166836000 0.969375215637 -0.0221774457818
166848000 0.969417311907 -0.0222409680779
166860000 0.969351958876 -0.0223800109118
166872000 0.969410621643 -0.0224160097326
166884000 0.969722202371 -0.0225376653422
166896000 0.969598109772 -0.0227084020304
166908000 0.969494328752 -0.022797487033
166920000 0.969584381232 -0.022848339382
166932000 0.969527217565 -0.0229584203487
166944000 0.969452328568 -0.0231233630379
166956000 0.969527270375 -0.0232743246453
166968000 0.969194596795 -0.0234584294877
166980000 0.969640298722 -0.0229298328272
166992000 0.969514700638 -0.023127238686
167004000 0.969282263402 -0.0231769354394
167016000 0.969314548442 -0.0232271411581
167028000 0.969144168886 -0.0236709996402
167040000 0.969142628625 -0.0236552900434
167052000 0.969188527837 -0.0238504096174
167064000 0.969430233761 -0.0238321624392
167076000 0.969245327885 -0.0238059787259
167088000 0.969412570046 -0.023807929891
167100000 0.969278388561 -0.024102169077
167112000 0.96927277511 -0.0241351972736
167124000 0.969236789931 -0.0243273744511
167136000 0.96908387782 -0.0242541244625
167148000 0.96893042977 -0.0241692419862
167160000 0.968716537312 -0.0242802314043
167172000 0.969001361855 -0.0244521941446
167184000 0.969099537266 -0.0243997033887
167196000 0.969019606084 -0.0245712607451
167208000 0.969324767978 -0.0245415682126
167220000 0.969121547455 -0.0246627483948
167232000 0.96901738756 -0.0247565993701
167244000 0.968996397679 -0.02483825662
167256000 0.969004908442 -0.0249160568519
167268000 0.968758661091 -0.0249463095625
167280000 0.968650974645 -0.0250226785943
167292000 0.968488693656 -0.0249785639998
167304000 0.968451852657 -0.025099310101
167316000 0.968580758354 -0.0252115816888
167328000 0.96854407433 -0.0252078102108
167340000 0.968699208688 -0.0252629835455
167352000 0.968538685617 -0.025277882361
167364000 0.968519938741 -0.0251375636955
167376000 0.968448150562 -0.024908375198
167388000 0.968218449036 -0.0254411824913
167400000 0.96837703544 -0.0255370792624
167412000 0.968569977492 -0.0254825119568
167424000 0.96846622861 -0.0257367267316
167436000 0.968416289105 -0.0258283963954
167448000 0.968501141235 -0.0259599509752
167460000 0.968428272669 -0.0259114823573
167472000 0.968517030692 -0.0259128181518
167484000 0.968583057647 -0.0260240811626
167496000 0.968454627555 -0.0259599196246
167508000 0.968141765599 -0.0260296319015
167520000 0.968523190935 -0.0261171516739
167532000 0.968795317547 -0.0262633902951
167544000 0.969149414205 -0.0262518888991
167556000 0.968766902993 -0.0264438210944
167568000 0.968375635819 -0.0263036711172
167580000 0.968410018965 -0.0263922722019
167592000 0.968703928517 -0.0264978488391
167604000 0.968465300192 -0.0266219267765
167616000 0.968265091659 -0.0266156434434
167628000 0.968349791149 -0.0266887900849
167640000 0.968422438072 -0.0265508911712
167652000 0.968297633183 -0.0268853993219
167664000 0.968446505063 -0.026929727618
167676000 0.968529346858 -0.0269417891619
167688000 0.96812501852 -0.0270326903795
167700000 0.968149532799 -0.0271081478855
167712000 0.968288762693 -0.0268886532531
167724000 0.968122998797 -0.0271253668169
167736000 0.968631976248 -0.0272793420282
167748000 0.968062036547 -0.0275111379579
167760000 0.968247037275 -0.0274097536463
167772000 0.968187143301 -0.0275733924273
167784000 0.967962515434 -0.0275904856002
167796000 0.968128217727 -0.0277676796304
167808000 0.96822550374 -0.0279230513178
167820000 0.968379074212 -0.0279029090394
167832000 0.968190459401 -0.0280086929099
167844000 0.968118580622 -0.0281193590901
167856000 0.967998655414 -0.028113221958
167868000 0.968123213511 -0.0280584618933
167880000 0.96804661138 -0.028282548953
167892000 0.968316966353 -0.0281484141194
167904000 0.967875865022 -0.0283160986711
167916000 0.96808229525 -0.0281109530861
167928000 0.967941029693 -0.0285483410738
167940000 0.967679112007 -0.0285802755572
167952000 0.967632782447 -0.0285816261675
167964000 0.967762861311 -0.0286894443169
167976000 0.967825458622 -0.0288030445401
167988000 0.967864394469 -0.0290594930506
168000000 0.96792370005 -0.0290784290866
168012000 0.967974806074 -0.0288981031706
168024000 0.967839966753 -0.0290538493176
168036000 0.967814652108 -0.0290968917215
168048000 0.967602679658 -0.0290357402776
168060000 0.967620542643 -0.0290213809375
168072000 0.967463717711 -0.0291399576248
168084000 0.96767883412 -0.02915612199
168096000 0.967606805663 -0.0293709019965
168108000 0.967683495424 -0.0294691963616
168120000 0.967417489999 -0.0294861142141
168132000 0.967412031074 -0.0294684514136
168144000 0.967461188943 -0.0295776528874
168156000 0.96735504869 -0.0296266835787
168168000 0.967452067728 -0.029564247861
168180000 0.967320514783 -0.029778416379
168192000 0.967054187505 -0.0299435891879
168204000 0.967352366223 -0.029825178818
168216000 0.967561345641 -0.0297672873207
168228000 0.967595285845 -0.029824429331
168240000 0.967529871454 -0.0299646702384
168252000 0.967546185921 -0.0299836276657
168264000 0.967454197606 -0.0301748907997
168276000 0.96742270004 -0.030195142041
168288000 0.967469674273 -0.0301140582249
168300000 0.967175379765 -0.0301720518407
168312000 0.967228262638 -0.0301679950509
168324000 0.967378198894 -0.0302010056612
168336000 0.967259768645 -0.0303509247717
168348000 0.967287427187 -0.0305094818968
168360000 0.96737419412 -0.0305149806007
168372000 0.967469027938 -0.0307169062115
168384000 0.967311608153 -0.0308335032904
168396000 0.967196380625 -0.0309428566065
168408000 0.966641247356 -0.0308459736662
168420000 0.967233171102 -0.0309832724303
168432000 0.967084423841 -0.0310085185873
168444000 0.96713620759 -0.0310649822468
168456000 0.967032872686 -0.031047548286
168468000 0.967056985397 -0.0309222587488
168480000 0.967145071239 -0.0309313751483
168492000 0.96710598872 -0.0310412809284
168504000 0.96724616643 -0.0312189858992
168516000 0.967159059661 -0.0312631003168
168528000 0.967171459652 -0.031282852343
168540000 0.967331987236 -0.0313776049286
168552000 0.967399184462 -0.031501688633
168564000 0.967211494304 -0.031757405549
168576000 0.967353655951 -0.0317667611338
168588000 0.967394002519 -0.0317064672264
168600000 0.967446012475 -0.0318641959524
168612000 0.967145454598 -0.0318683858164
168624000 0.967010282415 -0.0320597997166
168636000 0.967026654572 -0.0321647646154
168648000 0.967170590761 -0.032299104352
168660000 0.967197028448 -0.0323263555046
168672000 0.967076462561 -0.0325036769292
168684000 0.967161862305 -0.0324848263823
168696000 0.966928867662 -0.0326603447001
168708000 0.966499693537 -0.0328438987029
168720000 0.966622059202 -0.0327232259132
168732000 0.96679897364 -0.0327765253477
168744000 0.966705595744 -0.0327391659881
168756000 0.966798774956 -0.0328240941178
168768000 0.966683317498 -0.0326284608576
168780000 0.96672331534 -0.0328776890244
168792000 0.96664942952 -0.0332201100389
168804000 0.966733193202 -0.0329789947264
168816000 0.966572044306 -0.0330712076176
168828000 0.96679717926 -0.0331815196344
168840000 0.966720466385 -0.0331682435416
168852000 0.966578844799 -0.0335421092948
168864000 0.966430420087 -0.0334130234927
168876000 0.966561382771 -0.0334703116997
168888000 0.966555237746 -0.0335189415995
168900000 0.966690638649 -0.0334831675729
168912000 0.966599861793 -0.0333502961658
168924000 0.966672082962 -0.0335743059487
168936000 0.966324184004 -0.0337080456719
168948000 0.96632704731 -0.0335810937598
168960000 0.966344001342 -0.0336703826433
168972000 0.966205725309 -0.0336964283032
168984000 0.96375407715 -0.035065910418
168996000 0.968404624653 -0.0320283522886
169008000 0.966091254892 -0.0339996851463
169020000 0.966224516784 -0.0340435792572
169032000 0.966244473957 -0.0339354996104
169044000 0.96640453902 -0.0340671112142
169056000 0.966461077488 -0.0338878585334
169068000 0.966112619211 -0.0339639412372
169080000 0.966161709212 -0.0340715368942
169092000 0.96624080635 -0.0341547228434
169104000 0.96643133044 -0.0343128715941
169116000 0.966426607216 -0.0343423300997
169128000 0.966059979201 -0.0345280713231
169140000 0.96596860648 -0.0343825584301
169152000 0.966047590774 -0.0344506892514
169164000 0.966531577217 -0.0345722183423
169176000 0.966362995855 -0.0347401805868
169188000 0.966282659738 -0.0347894481333
169200000 0.966365751981 -0.0349932029071
169212000 0.966279789931 -0.0348273478964
169224000 0.965985426977 -0.0349628383652
169236000 0.966256389542 -0.0351244558188
169248000 0.966042775803 -0.0351183688375
169260000 0.96612550161 -0.0352086241253
169272000 0.966245095428 -0.0351207681604
169284000 0.966176181442 -0.0353291306996
169296000 0.965905283814 -0.0352758980897
169308000 0.965973059044 -0.0354212393099
169320000 0.965892634679 -0.0354597499796
169332000 0.965686046262 -0.035524226015
169344000 0.965544758108 -0.0354163126931
169356000 0.965613861165 -0.0350505886441
169368000 0.965107647975 -0.034747898851
169380000 0.965374784907 -0.0351973702864
169392000 0.965485863864 -0.0357880837948
169404000 0.965601240397 -0.0360643712632
169416000 0.965755340458 -0.036298912655
169428000 0.965925855878 -0.0362125632976
169440000 0.965732795011 -0.0363700965588
169452000 0.965607928339 -0.0363629217054
169464000 0.965768601472 -0.0362580671798
169476000 0.965876001501 -0.0364784366949
169488000 0.965866004978 -0.036537341585
169500000 0.965728748614 -0.0365519983024
169512000 0.965372558384 -0.0367924366574
169524000 0.965447847263 -0.0366473016682
169536000 0.965424329808 -0.036667445181
169548000 0.965309916633 -0.0366012307254
169560000 0.965366500666 -0.0368995834425
169572000 0.965505358882 -0.0369169806032
169584000 0.965275345953 -0.0368262924848
169596000 0.965152400113 -0.0369758466437
169608000 0.965494051014 -0.0369185270272
169620000 0.96546841157 -0.0370113881539
169632000 0.965779924461 -0.0372362593355
169644000 0.965567583535 -0.0372344313779
169656000 0.965270499495 -0.0371513650498
169668000 0.965410623825 -0.0372929462605
169680000 0.965325593897 -0.0373741820617
169692000 0.965188137854 -0.0374125201696
169704000 0.965270140242 -0.0373633403056
169716000 0.965216805554 -0.0373620037434
169728000 0.965182151417 -0.0374040093794
169740000 0.964957290495 -0.0376885194502
169752000 0.964460784394 -0.0376687439647
169764000 0.964754780535 -0.0375250155457
169776000 0.965554046583 -0.0381384836817
169788000 0.96701757201 -0.0390359241023
169800000 0.96822459613 -0.0398012876849
169812000 0.96693201357 -0.0392613539236
169824000 0.965825865892 -0.0384183397514
169836000 0.965305773783 -0.0380745746261
169848000 0.965078228391 -0.0380672300098
169860000 0.965092928046 -0.0382111201998
169872000 0.965041976391 -0.038217494127
169884000 0.965159101461 -0.0382277022823
169896000 0.965160398249 -0.0384888318193
169908000 0.965369378957 -0.0383456692681
169920000 0.965208492187 -0.0383469305386
169932000 0.965313200967 -0.0385381466607
169944000 0.96524881298 -0.0384143406111
169956000 0.965107254906 -0.0386137413899
169968000 0.965188190171 -0.0387571881076
169980000 0.96509088755 -0.0388206255453
169992000 0.964939711088 -0.0389558297055
170004000 0.964999585438 -0.0390701118235
170016000 0.965541255578 -0.0392298270121
170028000 0.965097441816 -0.0390004374649
170040000 0.965178809608 -0.0391758898078
170052000 0.965498976767 -0.0391587837996
170064000 0.965276981112 -0.0391986822563
170076000 0.965231351404 -0.0394040613666
170088000 0.965048167841 -0.0393944166328
170100000 0.965120122904 -0.039557703992
170112000 0.965172603325 -0.0395553684164
170124000 0.965282085788 -0.03961081464
170136000 0.9650353151 -0.0397267690638
170148000 0.96466013404 -0.039610345296
170160000 0.96472062558 -0.0399823340113
170172000 0.965007755475 -0.0397264532258
170184000 0.965031556504 -0.0398402582543
170196000 0.964948855886 -0.0400825572228
170208000 0.964755562056 -0.0399603876157
170220000 0.964985745097 -0.0402490154266
170232000 0.965080381442 -0.0401998353311
170244000 0.964695179854 -0.0402678728004
170256000 0.964790085177 -0.040263801823
170268000 0.964638701495 -0.0402776829185
170280000 0.964517446099 -0.0404550246963
170292000 0.964384448454 -0.0405592488588
170304000 0.964464214219 -0.0405930814172
170316000 0.964674157906 -0.0405503829115
170328000 0.964508690061 -0.0405909596605
170340000 0.964314609438 -0.04080194433
170352000 0.964458409853 -0.0406455259556
170364000 0.964344674982 -0.0409489825288
170376000 0.964416617772 -0.0408401619461
170388000 0.964375904907 -0.0408153430071
170400000 0.964344216606 -0.0408253703087
170412000 0.964283512973 -0.0409632187817
170424000 0.964319434491 -0.0409464353928
170436000 0.964181450493 -0.0410278819473
170448000 0.964207153693 -0.0410934917166
170460000 0.964262856816 -0.0412200583687
170472000 0.964198698984 -0.0409986874038
170484000 0.964085183362 -0.041155581925
170496000 0.964287784727 -0.041000678784
170508000 0.964273901299 -0.0413304464272
170520000 0.964489326723 -0.041624841114
170532000 0.964380730476 -0.0414264367144
170544000 0.964304975616 -0.0414166354902
170556000 0.964236531047 -0.0415029496347
170568000 0.964200275006 -0.041625147982
170580000 0.964338567926 -0.0415109076523
170592000 0.96429380264 -0.0416392415668
170604000 0.964157856539 -0.0417440421333
170616000 0.965466756678 -0.0420598212662
170628000 0.967489325121 -0.041352270047
170640000 0.964357065029 -0.0418193954599
170652000 0.964370698554 -0.0421287175752
170664000 0.964461910962 -0.0422996742461
170676000 0.964198582599 -0.0423490037683
170688000 0.964167237755 -0.0422844719259
170700000 0.963996776109 -0.0423279750924
170712000 0.964241850248 -0.0424472952115
170724000 0.964078804676 -0.0423490647605
170736000 0.963957207551 -0.0424805269708
170748000 0.964142344561 -0.0423873194922
170760000 0.96412646137 -0.0425076092157
170772000 0.963739781914 -0.0426238997065
170784000 0.963951026323 -0.0425991999533
170796000 0.963861973285 -0.0427256342918
170808000 0.963801609948 -0.0428572602085
170820000 0.963856108652 -0.0428226293512
170832000 0.963799574557 -0.0430316905955
170844000 0.963814164343 -0.0430762268312
170856000 0.963891439016 -0.0432364268729
170868000 0.964022775727 -0.0432043144538
170880000 0.963979674493 -0.043311192581
170892000 0.96394140848 -0.0434763234392
170904000 0.963978743655 -0.0433054814719
170916000 0.963832746226 -0.0435662719672
170928000 0.963907112805 -0.0436759761369
170940000 0.963575986803 -0.043573033378
170952000 0.963577849571 -0.0437759397867
170964000 0.96361702878 -0.0438318669269
170976000 0.963868812974 -0.0437258006377
170988000 0.96374869984 -0.0437673988419
171000000 0.963420643691 -0.044025635707
171012000 0.963525236671 -0.0440574627038
171024000 0.963501123706 -0.0440431703662
171036000 0.963836486452 -0.0439308813352
171048000 0.963739002422 -0.0439872019806
171060000 0.963536348488 -0.0442383942168
171072000 0.963351324703 -0.0443009371764
171084000 0.96347975449 -0.0442962749446
171096000 0.963377288339 -0.0442762291595
171108000 0.963517544805 -0.0444179882729
171120000 0.96348154555 -0.0444651334518
171132000 0.963634566095 -0.0444047318414
171144000 0.963469498313 -0.0444012931942
171156000 0.963525132141 -0.0451153069224
171168000 0.963346512843 -0.0445860661926
171180000 0.963387172023 -0.0446174950877
171192000 0.96364568655 -0.044590754395
171204000 0.963282629028 -0.0445801771835
171216000 0.963503062537 -0.0447176108391
171228000 0.963418521069 -0.044747454466
171240000 0.9635027408 -0.044755216389
171252000 0.96326198983 -0.0448673592318
171264000 0.963263287949 -0.0450505128498
171276000 0.963370356003 -0.0450732065068
171288000 0.963485363114 -0.0450448581444
171300000 0.963495152616 -0.0450876941488
171312000 0.963353430768 -0.0450780643694
171324000 0.963282176175 -0.045055382822
171336000 0.963414580482 -0.0452085829907
171348000 0.963159806983 -0.0452061628835
171360000 0.963058395949 -0.0454210269102
171372000 0.963189528121 -0.0456106695407
171384000 0.963229361955 -0.0454484170038
171396000 0.963061754882 -0.0457168036039
171408000 0.963017746652 -0.0458278213014
171420000 0.963160451659 -0.045723970427
171432000 0.963208840429 -0.0457960299715
171444000 0.963375152163 -0.0457933815677
171456000 0.963361040594 -0.0457659216453
171468000 0.962928868473 -0.0458607129554
171480000 0.963180213336 -0.0458997809284
171492000 0.963455537832 -0.045978190396
171504000 0.963277347332 -0.0460725290937
171516000 0.963305561653 -0.046115622569
171528000 0.962885034734 -0.0461573277868
171540000 0.962998256504 -0.0462000926125
171552000 0.962957944633 -0.0463583039475
171564000 0.962939990434 -0.0466343776905
171576000 0.962985708262 -0.0463989919991
171588000 0.962966790117 -0.0466922598549
171600000 0.962893924245 -0.0467709854526
171612000 0.962750964378 -0.0466576113771
171624000 0.962896322709 -0.0469484017742
171636000 0.96301501659 -0.0470048592845
171648000 0.96280351551 -0.0470984583222
171660000 0.963165241207 -0.0472244241921
171672000 0.963170738271 -0.0472921860553
171684000 0.963017810404 -0.0471319954507
171696000 0.963300312009 -0.0473752335718
171708000 0.962953172662 -0.0472616022155
171720000 0.963118661675 -0.0473228562553
171732000 0.96296946108 -0.0475587761704
171744000 0.962929031143 -0.0475541707301
171756000 0.962782877539 -0.0476510471075
171768000 0.962700230426 -0.0477697148316
171780000 0.962809658388 -0.0478333123046
171792000 0.96267233774 -0.0478011123175
171804000 0.962790995278 -0.0477895044356
171816000 0.962934452079 -0.0479518836815
171828000 0.962595324459 -0.0479450505178
171840000 0.962693056684 -0.0480321303567
171852000 0.962563168071 -0.0480699438538
171864000 0.962872122124 -0.0480929025932
171876000 0.962662171134 -0.0483063916029
171888000 0.962605278001 -0.0480939342526
171900000 0.962616489312 -0.0480670091423
171912000 0.962618190248 -0.0482522648165
171924000 0.962633782074 -0.0481667168204
171936000 0.96262192012 -0.0482882330208
171948000 0.962468707465 -0.0484285443815
171960000 0.962644121193 -0.0484561499239
171972000 0.962584304157 -0.0485381332479
171984000 0.962339437877 -0.0486830660507
171996000 0.962520784728 -0.0485824147234
172008000 0.962623269595 -0.0485603970643
172020000 0.9626912093 -0.0487877200542
172032000 0.96245993019 -0.0487511151976
172044000 0.962145450263 -0.0489307173358
172056000 0.962250988924 -0.0488660053478
172068000 0.962404803134 -0.0488996437054
172080000 0.962265720508 -0.048976795606
172092000 0.962262039227 -0.0490600149401
172104000 0.962447666399 -0.0491589953447
172116000 0.96245723168 -0.0491130331704
172128000 0.96238896972 -0.0491337455316
172140000 0.962195308428 -0.049327063549
172152000 0.962162993383 -0.0493083942668
172164000 0.962307466072 -0.0494997864612
172176000 0.962473622891 -0.0495978913496
172188000 0.962307131295 -0.0495038502707
172200000 0.96226045425 -0.0494568100225
172212000 0.962221887204 -0.049725758248
172224000 0.962276941013 -0.0496254353835
172236000 0.961838243037 -0.0496831994191
172248000 0.962029330058 -0.0503846218527
172260000 0.96236316984 -0.0499489259784
172272000 0.962122100368 -0.0501198185096
172284000 0.962334298039 -0.0501324746435
172296000 0.962518667249 -0.0502377915038
172308000 0.962258252453 -0.0504212472205
172320000 0.962240175495 -0.0505323220183
172332000 0.962206186862 -0.0505272011913
172344000 0.962206934706 -0.0505875500972
172356000 0.962191556551 -0.0506128611947
172368000 0.962261169506 -0.0506840783079
172380000 0.962185705612 -0.0508302525285
172392000 0.962189226337 -0.0509454116111
172404000 0.962146875139 -0.050891955977
172416000 0.96220274599 -0.0509704514545
172428000 0.962162372947 -0.0510114826163
172440000 0.962065419181 -0.0510909429623
172452000 0.961939518803 -0.0510391861442
172464000 0.961977407509 -0.0512799275111
172476000 0.961969931968 -0.0513214537718
172488000 0.961785137394 -0.0514089614593
172500000 0.961583327884 -0.0514349793037
172512000 0.961739292885 -0.0514510626844
172524000 0.961590746139 -0.0514926944388
172536000 0.961688839879 -0.0515787769005
172548000 0.961842649183 -0.0516101761882
172560000 0.961816624745 -0.0516978197151
172572000 0.961977167822 -0.051830086764
172584000 0.961906679038 -0.0519024648886
172596000 0.961509636028 -0.0517560369291
172608000 0.96152332288 -0.051893816479
172620000 0.961566736515 -0.0519198891847
172632000 0.961326583046 -0.0520191208005
172644000 0.961189403399 -0.0520446743163
172656000 0.961380166514 -0.0522965192455
172668000 0.961470875989 -0.0522990784852
172680000 0.961548793545 -0.0523205220244
172692000 0.961491403236 -0.0524052275456
172704000 0.96050051167 -0.0515844166985
172716000 0.963361093294 -0.0528917487718
172728000 0.961510786485 -0.0525964077925
172740000 0.961673455539 -0.0524240064714
172752000 0.961523508469 -0.0525143668203
172764000 0.961739337162 -0.0526944304135
172776000 0.961586611471 -0.0525666822675
172788000 0.961497660289 -0.052505488097
172800000 0.961520994376 -0.0526869685538
172812000 0.96171484343 -0.0525947917857
172824000 0.961704105658 -0.0527091138815
172836000 0.961759004814 -0.0528933011426
172848000 0.961944555257 -0.0529880703754
172860000 0.961871273881 -0.0530522838456
172872000 0.961820202227 -0.0531368129928
172884000 0.961885924731 -0.0532537092521
172896000 0.961747450467 -0.0533250009406
172908000 0.961599269568 -0.0535148437814
172920000 0.961534828921 -0.0533833420228
172932000 0.961356139473 -0.0534756390533
172944000 0.961150859051 -0.0534777251997
172956000 0.961396598366 -0.0536475690535
172968000 0.961358492451 -0.0534530569908
172980000 0.961278978487 -0.0535372837605
172992000 0.961412393954 -0.0536601984745
173004000 0.961428977642 -0.0538193509674
173016000 0.96186819541 -0.0540440785994
173028000 0.961340750853 -0.0540251576471
173040000 0.960974828809 -0.0540314178764
173052000 0.961115277198 -0.0545030191115
173064000 0.961431582785 -0.054256178026
173076000 0.961230231975 -0.0540559286508
173088000 0.961190391543 -0.0543293822943
173100000 0.961455900998 -0.054597620546
173112000 0.961055557275 -0.0545696127983
173124000 0.961433999984 -0.0549352892624
173136000 0.961381566811 -0.0549044706876
173148000 0.961119670366 -0.0549029120781
173160000 0.961026084426 -0.0548118424414
173172000 0.961131232745 -0.0549390997009
173184000 0.961124599219 -0.0550777355605
173196000 0.960954477248 -0.0551759996973
173208000 0.961142644796 -0.0552811070465
173220000 0.961158879149 -0.0550189083473
173232000 0.961145546878 -0.0551522895888
173244000 0.961285453548 -0.0551803102543
173256000 0.960938339241 -0.055058773783
173268000 0.961041713929 -0.0553412926204
173280000 0.960911767487 -0.0555151228909
173292000 0.960926160619 -0.0556186955542
173304000 0.960822266695 -0.0556773470383
173316000 0.961006774633 -0.0557257935301
173328000 0.960639514356 -0.0557142162342
173340000 0.960565808897 -0.0558135708064
173352000 0.96064907449 -0.0560001547739
173364000 0.960670534055 -0.0559231926582
173376000 0.960773755615 -0.0559922953773
173388000 0.960805002322 -0.0561306280829
173400000 0.96058815746 -0.055991757916
173412000 0.960469018176 -0.0561396855027
173424000 0.960678151842 -0.0560985155129
173436000 0.96079150053 -0.0561702042316
173448000 0.960269876048 -0.0560890958503
173460000 0.960806864458 -0.0564375807409
173472000 0.960620097642 -0.0564705131995
173484000 0.960420733357 -0.056405112682
173496000 0.960006183203 -0.0561841329763
173508000 0.959724658053 -0.0557228945929
173520000 0.959832485221 -0.0560992343668
173532000 0.960391919492 -0.0564416502255
173544000 0.96068541297 -0.0566478919256
173556000 0.960622441304 -0.0568081534359
173568000 0.960618770921 -0.0568345113252
173580000 0.960632953804 -0.0568877531226
173592000 0.960434070953 -0.0571314754658
173604000 0.960542061064 -0.0572212498227
173616000 0.960562803104 -0.0573171313669
173628000 0.960301535037 -0.0573370120573
173640000 0.960362302005 -0.0574116814217
173652000 0.96028474967 -0.0573537365488
173664000 0.960190571103 -0.0574339346067
173676000 0.96001874852 -0.0574407005411
173688000 0.960299572076 -0.0575576076867
173700000 0.96051854886 -0.0575666838899
173712000 0.960568005864 -0.0577090037749
173724000 0.960580234753 -0.0579137813723
173736000 0.960473104364 -0.0581288908527
173748000 0.960269225249 -0.0581391857135
173760000 0.960509199451 -0.0580122589615
173772000 0.960412898684 -0.0580805672855
173784000 0.96050338471 -0.0582724036012
173796000 0.960136521543 -0.0584684425864
173808000 0.96013766707 -0.0582432029308
173820000 0.960109740471 -0.0583661643896
173832000 0.960308645963 -0.0582056470432
173844000 0.960138080945 -0.0583114664293
173856000 0.959928387441 -0.0585628248824
173868000 0.960005506915 -0.0586140480818
173880000 0.960199776993 -0.0586235604733
173892000 0.960136316279 -0.0589872061047
173904000 0.960130537655 -0.0587961458321
173916000 0.960098815112 -0.0585825129402
173928000 0.960049160064 -0.0589344506677
173940000 0.960115046502 -0.0590510287177
173952000 0.959850591022 -0.0591374624357
173964000 0.959879272986 -0.0594478841081
173976000 0.959932184517 -0.059326839452
173988000 0.9598689211 -0.059231053486
174000000 0.959693440983 -0.0591030234256
