! Calibrated averaged scanner-service zoom
# Hz S RI R 50
144000000 0.698353783641 -0.197923871819
144004000 0.699269139798 -0.198222621232
144008000 0.698999730587 -0.19882807024
144012000 0.699142690977 -0.198930976205
144016000 0.698783079197 -0.198180309788
144020000 0.698315824004 -0.198253794564
144024000 0.699367220265 -0.199106644626
144028000 0.699258319572 -0.198806867536
144032000 0.698660016475 -0.19850577638
144036000 0.698267822504 -0.198007075855
144040000 0.69965759624 -0.198783620257
144044000 0.699212823329 -0.198982480792
144048000 0.699143654466 -0.198685915938
144052000 0.698600891631 -0.198187525325
144056000 0.699284441109 -0.198764564777
144060000 0.699065650462 -0.199037015777
144064000 0.699044455018 -0.198852684673
144068000 0.698690757603 -0.198006353551
144072000 0.699070351575 -0.198317812058
144076000 0.699243628563 -0.199034887011
144080000 0.699235741653 -0.198943153188
144084000 0.697605138791 -0.19841678238
144088000 0.699081854008 -0.198347199964
144092000 0.699553544628 -0.199118064176
144096000 0.699362295959 -0.19864569778
144100000 0.698775137059 -0.197971526245
144104000 0.699041795137 -0.197817859493
144108000 0.699495135809 -0.198737667734
144112000 0.699347456944 -0.198408518324
144116000 0.698937683463 -0.198046035408
144120000 0.698854827279 -0.198105201178
144124000 0.699692369459 -0.198849456274
144128000 0.699703140222 -0.198749703601
144132000 0.698876354803 -0.198270578422
144136000 0.698809301238 -0.197941952915
144140000 0.699763744568 -0.198816076299
144144000 0.699537897342 -0.198693933396
144148000 0.699128213616 -0.1985494474
144152000 0.699160312846 -0.198044620478
144156000 0.699825959741 -0.198721842836
144160000 0.699657474087 -0.198806541347
144164000 0.699737418999 -0.19875343499
144168000 0.699214084295 -0.197715317961
144172000 0.699879746295 -0.198529032122
144176000 0.699494594064 -0.19895073331
144180000 0.699648504722 -0.198631121891
144184000 0.699512421879 -0.197793533962
144188000 0.699716902891 -0.198184269763
144192000 0.699858875591 -0.198933267563
144196000 0.699757939364 -0.198708647556
144200000 0.699327665651 -0.197920040836
144204000 0.699308395398 -0.198047075709
144208000 0.699870729465 -0.198722816249
144212000 0.699949877973 -0.198676443623
144216000 0.699461553477 -0.197989282617
144220000 0.699441627105 -0.19781871478
144224000 0.700266106821 -0.198908467785
144228000 0.699943643314 -0.198455977864
144232000 0.699531130287 -0.198084265244
144236000 0.699188173843 -0.197778345146
144240000 0.700350688377 -0.198436757414
144244000 0.700088993168 -0.198552709447
144248000 0.699697214407 -0.198271192542
144252000 0.699189887394 -0.197732376614
144256000 0.700042276696 -0.198260855793
144260000 0.700261937657 -0.198267256616
144264000 0.699890018694 -0.198382065281
144268000 0.698843350142 -0.197527995864
144272000 0.700235977701 -0.198362186624
144276000 0.699888954614 -0.198575609807
144280000 0.699985426213 -0.198368353672
144284000 0.699771202592 -0.197672332986
144288000 0.700021161403 -0.19803007824
144292000 0.700270949411 -0.198735928577
144296000 0.700125484344 -0.198304852068
144300000 0.699967998173 -0.197895155442
144304000 0.7000639471 -0.197832502309
144308000 0.700601662539 -0.198555493857
144312000 0.700385048374 -0.198457076747
144316000 0.700098082368 -0.197871915144
144320000 0.699918840948 -0.197652008595
144324000 0.700587210581 -0.198771511606
144328000 0.700607462542 -0.198454002152
144332000 0.699987690856 -0.197963257059
144336000 0.700131888232 -0.197574465739
144340000 0.701098156181 -0.198596030902
144344000 0.700853694181 -0.198373391144
144348000 0.700294753276 -0.198184119631
144352000 0.700274850386 -0.197649165406
144356000 0.700752665265 -0.198411502249
144360000 0.700726910158 -0.198646087039
144364000 0.700643801808 -0.198388351948
144368000 0.700333622935 -0.197484789867
144372000 0.701065599961 -0.198150806176
144376000 0.70096940461 -0.198380448637
144380000 0.700612940376 -0.197951591419
144384000 0.700409269992 -0.197434408826
144388000 0.700576678825 -0.197839073293
144392000 0.700103394434 -0.198413295293
144396000 0.700944168096 -0.198225766385
144400000 0.700588115382 -0.197579654345
144404000 0.700415783585 -0.197737682989
144408000 0.701001103675 -0.197791533206
144412000 0.700938587917 -0.198174926588
144416000 0.700806551351 -0.198272387001
144420000 0.700531630365 -0.197723175981
144424000 0.700882880138 -0.197597892767
144428000 0.700621797938 -0.198070888542
144432000 0.701445774517 -0.19856822136
144436000 0.700608110522 -0.197810816691
144440000 0.700847817158 -0.197680365494
144444000 0.701174515411 -0.198055356161
144448000 0.701464413441 -0.198539209473
144452000 0.700545007641 -0.197531212599
144456000 0.700926612981 -0.197732415039
144460000 0.700964224554 -0.197955640093
144464000 0.701646164118 -0.198477857883
144468000 0.700889053661 -0.19785538355
144472000 0.700880243649 -0.197530515095
144476000 0.700993283704 -0.197809601061
144480000 0.701725049685 -0.198708060161
144484000 0.700990577252 -0.19787238931
144488000 0.700926823205 -0.197608929519
144492000 0.701054227946 -0.197489146326
144496000 0.701570842231 -0.198129754407
144500000 0.701120130444 -0.198025467275
144504000 0.70109184363 -0.197590460714
144508000 0.701381772905 -0.197787833589
144512000 0.701481493331 -0.198257279279
144516000 0.70148165135 -0.198257050063
144520000 0.701159394852 -0.197564312329
144524000 0.70137382412 -0.197672342225
144528000 0.701250268883 -0.198069966877
144532000 0.701577734835 -0.198575502507
144536000 0.701279582774 -0.197779057384
144540000 0.701297727595 -0.197769693546
144544000 0.701339387052 -0.19798659664
144548000 0.702001873889 -0.198478792522
144552000 0.701388429324 -0.197722263667
144556000 0.701545972181 -0.197795538807
144560000 0.701707786564 -0.198070517988
144564000 0.702222752905 -0.198612076071
144568000 0.701523804881 -0.197755011375
144572000 0.701497554072 -0.197418850972
144576000 0.701606898165 -0.197725270384
144580000 0.702435324666 -0.198328792154
144584000 0.70194136083 -0.197860476016
144588000 0.701593178988 -0.197486078137
144592000 0.702013804386 -0.197768951582
144596000 0.70233971085 -0.198089048299
144600000 0.701881591822 -0.198033607199
144604000 0.701787767614 -0.197396292258
144608000 0.702047813244 -0.197481105021
144612000 0.70246952467 -0.199022063924
144616000 0.6982587383 -0.195116738669
144620000 0.701807875837 -0.197446937686
144624000 0.701183623898 -0.197878170127
144628000 0.705191359 -0.196360974254
144632000 0.702173850741 -0.198460865282
144636000 0.701678574333 -0.197398481089
144640000 0.70200965047 -0.197620087519
144644000 0.701849480799 -0.197749213998
144648000 0.702451219133 -0.198422336808
144652000 0.701816173862 -0.19753359988
144656000 0.701791434601 -0.197618406873
144660000 0.701967144327 -0.197685848149
144664000 0.702296340673 -0.198362497949
144668000 0.701804825417 -0.197509872642
144672000 0.701715257355 -0.197398229177
144676000 0.702116745621 -0.197593981345
144680000 0.702623072064 -0.198245821552
144684000 0.702302312491 -0.197679062864
144688000 0.702121279405 -0.197557133368
144692000 0.70226001192 -0.197470854517
144696000 0.703001669918 -0.198214109863
144700000 0.702475526149 -0.198065412099
144704000 0.702429261212 -0.197673217489
144708000 0.702735576383 -0.197683826152
144712000 0.702547821037 -0.198219891382
144716000 0.702594184108 -0.198123439901
144720000 0.702564391683 -0.197481099736
144724000 0.702730473199 -0.197615780841
144728000 0.70223025334 -0.197952837089
144732000 0.702679749871 -0.198280812232
144736000 0.702358434306 -0.197489655506
144740000 0.702250490477 -0.197304535099
144744000 0.702608741852 -0.197709666675
144748000 0.703225160127 -0.198245054043
144752000 0.702357690915 -0.197531245828
144756000 0.702293303596 -0.197428209527
144760000 0.702443650039 -0.19747770102
144764000 0.702921859231 -0.198302168031
144768000 0.702495938026 -0.197349579581
144772000 0.702391862211 -0.197168399342
144776000 0.702802899475 -0.197344020151
144780000 0.703247771864 -0.198214678117
144784000 0.702666020094 -0.197296092471
144788000 0.702524655905 -0.197130088769
144792000 0.703073699149 -0.197207747943
144796000 0.703088103777 -0.197877255518
144800000 0.70268027463 -0.197520040653
144804000 0.703640960387 -0.198017304181
144808000 0.702996166561 -0.197529639263
144812000 0.702615735228 -0.196938907363
144816000 0.702983689509 -0.197145182807
144820000 0.70357106312 -0.198052373239
144824000 0.703297548135 -0.197600956364
144828000 0.702626173576 -0.196838073193
144832000 0.703124966991 -0.197100751311
144836000 0.703549703195 -0.198082090046
144840000 0.703415771858 -0.197972624729
144844000 0.702768006491 -0.196902432515
144848000 0.702965239761 -0.196801973064
144852000 0.703520563653 -0.197701596963
144856000 0.703550244764 -0.197651412421
144860000 0.70318415325 -0.196842148693
144864000 0.703247597891 -0.196421450818
144868000 0.703407238398 -0.197096342405
144872000 0.703812379858 -0.197394902352
144876000 0.703520743588 -0.196840767717
144880000 0.703679749636 -0.196186563296
144884000 0.703764113044 -0.197172615149
144888000 0.703796887735 -0.197305852097
144892000 0.70354666013 -0.197162019469
144896000 0.703558767645 -0.196507196873
144900000 0.70323852437 -0.196906106458
144904000 0.70384573338 -0.197633616612
144908000 0.703718605996 -0.197389531332
144912000 0.703265459169 -0.196320515734
144916000 0.703659118759 -0.1968217473
144920000 0.704119735501 -0.197504276387
144924000 0.704098973212 -0.19714338723
144928000 0.703508243549 -0.196345053637
144932000 0.704086888587 -0.196567572189
144936000 0.704415846428 -0.197359963047
144940000 0.704176083183 -0.197251727312
144944000 0.703637580891 -0.196512860547
144948000 0.703704068728 -0.196569834979
144952000 0.704372088752 -0.197530014249
144956000 0.70385473726 -0.197569511272
144960000 0.703930833604 -0.196708647189
144964000 0.703984296411 -0.196328907603
144968000 0.704249478713 -0.196923679947
144972000 0.704360558583 -0.197424959821
144976000 0.704120229865 -0.196790102544
144980000 0.704030794328 -0.196350275189
144984000 0.704081347304 -0.196804259499
144988000 0.704555586941 -0.197419685258
144992000 0.704425380667 -0.197027942619
144996000 0.704269605095 -0.196129970194
145000000 0.704596775145 -0.19683290075
145004000 0.704907193583 -0.197364819059
145008000 0.704472750392 -0.1967816969
145012000 0.704316900626 -0.196061962605
145016000 0.70445021003 -0.196510230949
145020000 0.705214574912 -0.197143789989
145024000 0.704836141813 -0.196880485163
145028000 0.704362539036 -0.196171701833
145032000 0.705470243881 -0.19699285659
145036000 0.705239165208 -0.197251881801
145040000 0.704046454302 -0.196449811897
145044000 0.704482567275 -0.196021089934
145048000 0.704457083431 -0.196157063672
145052000 0.705975877492 -0.197638267118
145056000 0.70489733528 -0.19700086593
145060000 0.704785305987 -0.196114234599
145064000 0.7046780105 -0.195968935999
145068000 0.705409961803 -0.196458898064
145072000 0.70523949954 -0.197118772317
145076000 0.704753980505 -0.196365351519
145080000 0.70494351573 -0.195876650968
145084000 0.705033919052 -0.196378257217
145088000 0.705325037765 -0.196843522249
145092000 0.705040522405 -0.196251128193
145096000 0.704972366476 -0.195649400284
145100000 0.70510867562 -0.196145571991
145104000 0.705783075297 -0.196964853799
145108000 0.705323770524 -0.196248355565
145112000 0.705073633445 -0.195696806881
145116000 0.705391523971 -0.196158126511
145120000 0.705575529964 -0.196822539039
145124000 0.705424899551 -0.196378012438
145128000 0.704776631242 -0.195676706228
145132000 0.705186338083 -0.195940206328
145136000 0.705584594137 -0.196880333227
145140000 0.705543599652 -0.196679517485
145144000 0.705186147281 -0.195868970199
145148000 0.705227477875 -0.195877884239
145152000 0.705861593574 -0.196748068319
145156000 0.705919768154 -0.19593368396
145160000 0.705408205732 -0.195717105779
145164000 0.705064647424 -0.195450564741
145168000 0.706461151993 -0.196273226226
145172000 0.705887171104 -0.196799161278
145176000 0.70543259041 -0.19619601991
145180000 0.705714588451 -0.195598961747
145184000 0.706042379971 -0.196246215362
145188000 0.706378917794 -0.19674587866
145192000 0.705995566595 -0.196143606256
145196000 0.70604006533 -0.195618693762
145200000 0.706109040338 -0.196066740227
145204000 0.706201851746 -0.196054709452
145208000 0.706092559714 -0.19636773322
145212000 0.705724285738 -0.195642385952
145216000 0.706330862898 -0.195983925364
145220000 0.706247586953 -0.195799148378
145224000 0.706361562958 -0.196191025477
145228000 0.706375166023 -0.195865429406
145232000 0.706368052416 -0.195850372821
145236000 0.706406323811 -0.195709265453
145240000 0.706201381859 -0.196128217505
145244000 0.706306045549 -0.196076301876
145248000 0.706264978427 -0.195941414977
145252000 0.706266844311 -0.195727906128
145256000 0.706540952232 -0.196486927378
145260000 0.706883689722 -0.196451977083
145264000 0.70677581627 -0.19606596663
145268000 0.706659886238 -0.195800768982
145272000 0.706863714074 -0.196137031472
145276000 0.707151904507 -0.196356393312
145280000 0.70673725752 -0.1960353591
145284000 0.706753543614 -0.195993385079
145288000 0.70688305882 -0.196261611994
145292000 0.706915921634 -0.196583660545
145296000 0.706956131249 -0.196153253924
145300000 0.707120730435 -0.195850420577
145304000 0.707182092405 -0.195914259337
145308000 0.707320817852 -0.196147035445
145312000 0.706889211907 -0.195845147884
145316000 0.706942058894 -0.195728366704
145320000 0.707028571324 -0.1957534581
145324000 0.707081654139 -0.196101644525
145328000 0.70695994106 -0.196018639373
145332000 0.707163020969 -0.195829432285
145336000 0.70724142101 -0.195519550678
145340000 0.707351598031 -0.196057992913
145344000 0.707463076804 -0.196006558941
145348000 0.707307709324 -0.195589003511
145352000 0.706900770797 -0.195318144152
145356000 0.707257315237 -0.196100440688
145360000 0.707760891351 -0.196225675177
145364000 0.70717679352 -0.195616636865
145368000 0.707489657477 -0.195677720236
145372000 0.707668744161 -0.196142018253
145376000 0.708101866749 -0.196189737797
145380000 0.70783015819 -0.195855295996
145384000 0.707571478376 -0.195678975942
145388000 0.708155618949 -0.195849225762
145392000 0.708078697736 -0.196184181341
145396000 0.707577339119 -0.195703558585
145400000 0.707829709249 -0.195612334287
145404000 0.707923231269 -0.19574601654
145408000 0.708067264628 -0.196011678024
145412000 0.707703021072 -0.195633415027
145416000 0.708090046517 -0.195350039265
145420000 0.708032712224 -0.195429008762
145424000 0.710628085477 -0.195371173027
145428000 0.707885020243 -0.195518942563
145432000 0.70798431486 -0.195235342146
145436000 0.709336541449 -0.19586399989
145440000 0.708142526207 -0.19563514666
145444000 0.70814691845 -0.195746353976
145448000 0.708231312003 -0.195372112376
145452000 0.707937724964 -0.195399558681
145456000 0.708365742897 -0.195724818447
145460000 0.708589606394 -0.195997753608
145464000 0.708215104457 -0.195290000925
145468000 0.708159963746 -0.195185023857
145472000 0.708281905206 -0.195676576005
145476000 0.70893433543 -0.19597295489
145480000 0.708401339805 -0.195512304077
145484000 0.708299337411 -0.195628237742
145488000 0.708527661448 -0.195727864873
145492000 0.709095176688 -0.196185418675
145496000 0.708572044522 -0.195488460011
145500000 0.708534289078 -0.195311179516
145504000 0.70910036875 -0.195661056132
145508000 0.708843762944 -0.195810004563
145512000 0.708555027361 -0.195345988049
145516000 0.708901854883 -0.195340945767
145520000 0.708932272034 -0.195227772969
145524000 0.709288838888 -0.195791725756
145528000 0.709189660584 -0.195613901257
145532000 0.709224444777 -0.19501768695
145536000 0.709269374343 -0.195182510419
145540000 0.70947400997 -0.195578376904
145544000 0.709717077966 -0.195355449918
145548000 0.70932828532 -0.195141862195
145552000 0.709163687293 -0.195094439127
145556000 0.70948934411 -0.195627901825
145560000 0.709696864416 -0.195737955073
145564000 0.709565697732 -0.195094798998
145568000 0.709419659488 -0.19511147251
145572000 0.709785295798 -0.195474411521
145576000 0.709824657682 -0.195639510062
145580000 0.709716711551 -0.195180791845
145584000 0.709527464232 -0.195211797514
145588000 0.709897957709 -0.195317134584
145592000 0.709794142978 -0.195725512852
145596000 0.709812370227 -0.194996653495
145600000 0.709721156414 -0.19511114587
145604000 0.710105567748 -0.194796494758
145608000 0.710062827679 -0.195559527963
145612000 0.709977189106 -0.195799131972
145616000 0.709936607374 -0.194774142639
145620000 0.709673677302 -0.194638224897
145624000 0.709983775753 -0.195426665874
145628000 0.710173465242 -0.195837610414
145632000 0.710254586689 -0.194921409478
145636000 0.71000752698 -0.194516004528
145640000 0.71038314038 -0.195137469008
145644000 0.710651360315 -0.196033172039
145648000 0.710039350875 -0.19517315521
145652000 0.710139172986 -0.194505744971
145656000 0.710109323151 -0.195224286769
145660000 0.710727566695 -0.195874773398
145664000 0.710455216702 -0.195293531473
145668000 0.71007033921 -0.194324391276
145672000 0.710430307112 -0.194998412516
145676000 0.710777310695 -0.195900637678
145680000 0.710815775074 -0.195202403023
145684000 0.710482178814 -0.194411840179
145688000 0.710681103479 -0.194638896108
145692000 0.711107180606 -0.19551260758
145696000 0.711336183801 -0.195438178935
145700000 0.710852741757 -0.194251868602
145704000 0.710903853383 -0.194423562439
145708000 0.711602980761 -0.195127747589
145712000 0.711201067549 -0.195331012973
145716000 0.710929289745 -0.194370068867
145720000 0.711098429518 -0.19434780959
145724000 0.711291704708 -0.195039589961
145728000 0.711553514457 -0.195483926719
145732000 0.711415096294 -0.19448573593
145736000 0.711215977961 -0.194064175907
145740000 0.711310264109 -0.19466939242
145744000 0.711530116071 -0.195450959003
145748000 0.711483766373 -0.194740827065
145752000 0.7113155593 -0.194092752626
145756000 0.711219738374 -0.194828211725
145760000 0.711704912988 -0.195688893161
145764000 0.711444245111 -0.194856648924
145768000 0.711242298554 -0.194051200145
145772000 0.709753702604 -0.194325398232
145776000 0.711947056043 -0.195558994975
145780000 0.711916907937 -0.19485030154
145784000 0.711462147715 -0.193489413406
145788000 0.711748542123 -0.19450784983
145792000 0.712106206386 -0.195308349882
145796000 0.712242187416 -0.195098086026
145800000 0.711898498404 -0.194025189057
145804000 0.712042402076 -0.194340293538
145808000 0.712367265618 -0.195252439025
145812000 0.712381252552 -0.195327396269
145816000 0.712232740238 -0.194043600102
145820000 0.712235966898 -0.1941702005
145824000 0.71236800652 -0.195052754115
145828000 0.712383836523 -0.195444833854
145832000 0.712086402245 -0.194410179612
145836000 0.712434401547 -0.194087850355
145840000 0.712561419621 -0.194815475926
145844000 0.712742024795 -0.19556679668
145848000 0.7126843591 -0.194756321573
145852000 0.712455501055 -0.194031584729
145856000 0.712715990969 -0.194506668484
145860000 0.712938704422 -0.195347753226
145864000 0.712853429729 -0.194864750957
145868000 0.712891370713 -0.193729502308
145872000 0.713100917391 -0.194757042988
145876000 0.71315109891 -0.19556305168
145880000 0.713328127811 -0.194967319803
145884000 0.712882029517 -0.194041655051
145888000 0.713207851072 -0.194404390269
145892000 0.713559207959 -0.195626543077
145896000 0.713418746842 -0.194867546471
145900000 0.713043951684 -0.19375744294
145904000 0.713331939801 -0.194193742566
145908000 0.713538792201 -0.194993000422
145912000 0.713539568744 -0.19470999829
145916000 0.713324071715 -0.19406258793
145920000 0.713416852901 -0.193880681436
145924000 0.713582044301 -0.194773889868
145928000 0.713831744032 -0.19514397884
145932000 0.713774082393 -0.194236056915
145936000 0.713623133864 -0.19373477271
145940000 0.713660516972 -0.194606602061
145944000 0.714304340244 -0.195456749375
145948000 0.713999147095 -0.194624939714
145952000 0.714055479435 -0.193898251841
145956000 0.713881042851 -0.194738205424
145960000 0.714624326157 -0.195544227172
145964000 0.714264927113 -0.194805667226
145968000 0.714280833757 -0.19396028932
145972000 0.714395234934 -0.194675074366
145976000 0.71460812924 -0.195512480102
145980000 0.714379930965 -0.19490765486
145984000 0.713969181598 -0.193936377313
145988000 0.714341316517 -0.194526067971
145992000 0.714676984627 -0.195510530582
145996000 0.714829754098 -0.19530289794
146000000 0.714577755971 -0.193996084707
146004000 0.714422381483 -0.194613412226
146008000 0.714835015592 -0.194902962214
146012000 0.714980360936 -0.195074247604
146016000 0.714856227116 -0.194645910962
146020000 0.714627789836 -0.194495692854
146024000 0.715011012586 -0.194777275894
146028000 0.715059349671 -0.194728024831
146032000 0.714925424685 -0.194383448306
146036000 0.71513675017 -0.194456376032
146040000 0.715054297106 -0.194488117563
146044000 0.715108737224 -0.194741323966
146048000 0.715200250056 -0.19454952184
146052000 0.715297735459 -0.194618699237
146056000 0.715314285807 -0.194274158612
146060000 0.715318959285 -0.194687892006
146064000 0.715585737985 -0.194748490671
146068000 0.715720659212 -0.194644302277
146072000 0.715373358042 -0.194123003764
146076000 0.715230082679 -0.194587192502
146080000 0.715801796207 -0.194664424551
146084000 0.71554264307 -0.194697896251
146088000 0.715503476785 -0.194508967601
146092000 0.715702691456 -0.194987957297
146096000 0.716030209541 -0.194967279724
146100000 0.71589780725 -0.194842179851
146104000 0.715846615216 -0.194591467867
146108000 0.716002516127 -0.195057434419
146112000 0.716218815592 -0.195282165779
146116000 0.715887019052 -0.194953589394
146120000 0.715793245572 -0.194666951277
146124000 0.716122521405 -0.195101033235
146128000 0.716099899021 -0.195096147208
146132000 0.716038925029 -0.194730946215
146136000 0.716271551529 -0.194688053561
146140000 0.716596641427 -0.194701280316
146144000 0.716484572763 -0.194784880864
146148000 0.716443852542 -0.194799977241
146152000 0.716436543744 -0.194632939452
146156000 0.716501954415 -0.194536395991
146160000 0.716381136105 -0.194720867378
146164000 0.716683677532 -0.195118349377
146168000 0.716841730373 -0.194951463383
146172000 0.716828957818 -0.194437760646
146176000 0.71706980971 -0.194817857761
146180000 0.717054628978 -0.195022457183
146184000 0.717196832296 -0.194697330308
146188000 0.716732785803 -0.194462949246
146192000 0.717072544478 -0.194803190759
146196000 0.717251288615 -0.194950124687
146200000 0.717076894469 -0.194636111152
146204000 0.717226170449 -0.194609570563
146208000 0.717440034897 -0.194964183096
146212000 0.717692209919 -0.195009365372
146216000 0.717210657434 -0.194568424902
146220000 0.717128019856 -0.19429399215
146224000 0.717473877084 -0.194798076161
146228000 0.717614689407 -0.19486803769
146232000 0.729194407464 -0.194672855162
146236000 0.720125159882 -0.194184327961
146240000 0.721054292419 -0.195263684543
146244000 0.71784446932 -0.191335383688
146248000 0.720275694062 -0.193042684853
146252000 0.717838013413 -0.196104304234
146256000 0.718229028638 -0.186448713564
146260000 0.717383288 -0.194579498376
146264000 0.717595925033 -0.194490593804
146268000 0.717606351477 -0.194657294354
146272000 0.717703444852 -0.194229471614
146276000 0.71795668941 -0.194768521866
146280000 0.718018063819 -0.194965327171
146284000 0.718333223575 -0.194788770162
146288000 0.718225116554 -0.194639207354
146292000 0.718148410068 -0.194977083673
146296000 0.718298099795 -0.195195408831
146300000 0.718297087128 -0.194740105367
146304000 0.718091824775 -0.194530271783
146308000 0.718315386334 -0.194930436379
146312000 0.718645696663 -0.195287162848
146316000 0.718105629699 -0.194628874583
146320000 0.718359240136 -0.194535497007
146324000 0.718581270359 -0.194881189075
146328000 0.718650298217 -0.194810754525
146332000 0.718587043748 -0.194386621809
146336000 0.718891627191 -0.194699206536
146340000 0.718724234059 -0.194599841595
146344000 0.718856319265 -0.194804113518
146348000 0.718734069791 -0.194530247062
146352000 0.719111279661 -0.194587837783
146356000 0.718931624405 -0.194292040061
146360000 0.719019974367 -0.194617955672
146364000 0.719275111219 -0.194805635714
146368000 0.719524324969 -0.19470527273
146372000 0.719170250542 -0.194246989709
146376000 0.719521288785 -0.194760831308
146380000 0.719575945156 -0.194873918
146384000 0.719291535454 -0.194584373479
146388000 0.719285564163 -0.194366432795
146392000 0.719554766211 -0.194996232405
146396000 0.719526360094 -0.19507673539
146400000 0.719670998333 -0.194588327681
146404000 0.719629674411 -0.194869462058
146408000 0.719658805755 -0.194427956278
146412000 0.719966542963 -0.194342517563
146416000 0.720002702992 -0.194607279479
146420000 0.720078757303 -0.195019944558
146424000 0.720028784543 -0.194531991295
146428000 0.72021375791 -0.194457203141
146432000 0.720209581259 -0.194467579573
146436000 0.720424811361 -0.194902556344
146440000 0.720437728417 -0.194962050039
146444000 0.720446787359 -0.194363709941
146448000 0.720372481079 -0.194617075035
146452000 0.720296172752 -0.195035481479
146456000 0.72069058677 -0.195391575324
146460000 0.72043328616 -0.194685603322
146464000 0.720460209248 -0.194695569346
146468000 0.720431095797 -0.195148293821
146472000 0.720738699785 -0.195428428714
146476000 0.720789280913 -0.194618259594
146480000 0.720721117355 -0.194470542721
146484000 0.720782953463 -0.19468318213
146488000 0.721024539432 -0.195331850018
146492000 0.720658435668 -0.194770093586
146496000 0.720851019173 -0.194502431558
146500000 0.720967958732 -0.194896205553
146504000 0.72157875423 -0.195211865457
146508000 0.721544962703 -0.194789398331
146512000 0.721570142186 -0.194825808698
146516000 0.721471382459 -0.194695965315
146520000 0.721587150076 -0.195170128506
146524000 0.721567293222 -0.194671824893
146528000 0.721392629857 -0.194294732521
146532000 0.721350174702 -0.194452672044
146536000 0.721315542993 -0.19498790666
146540000 0.721270955735 -0.194932788462
146544000 0.72130691069 -0.194496428942
146548000 0.72157162607 -0.194530335157
146552000 0.721661413728 -0.195034613597
146556000 0.721820225841 -0.195269855573
146560000 0.721875027937 -0.194684665351
146564000 0.72178747897 -0.194807279397
146568000 0.721791604669 -0.195280419984
146572000 0.7223605076 -0.195903765671
146576000 0.722381570875 -0.194988623235
146580000 0.722336768996 -0.194960311407
146584000 0.722599226187 -0.194982938992
146588000 0.722914306405 -0.195611845091
146592000 0.722804608047 -0.194995544103
146596000 0.7225631382 -0.194852101824
146600000 0.722710184762 -0.195044592052
146604000 0.722985321193 -0.195360843102
146608000 0.722898521934 -0.194842659949
146612000 0.722978984807 -0.194976082914
146616000 0.722965613297 -0.195011250129
146620000 0.722931316167 -0.195257585801
146624000 0.723297942016 -0.195087412682
146628000 0.723282467667 -0.194796949264
146632000 0.723554690357 -0.194901999628
146636000 0.723097431565 -0.19539751909
146640000 0.723428993078 -0.195408109232
146644000 0.723532614384 -0.194938209643
146648000 0.723353940902 -0.195061770338
146652000 0.723383143374 -0.195584088096
146656000 0.723559145759 -0.19603304652
146660000 0.72373988002 -0.195448676248
146664000 0.723527967222 -0.195185160916
146668000 0.723442626744 -0.195651908268
146672000 0.723521551964 -0.195907047549
146676000 0.723575170606 -0.19519651334
146680000 0.72360066211 -0.195289448875
146684000 0.723617803515 -0.195612550393
146688000 0.723822427799 -0.195996067382
146692000 0.723792054455 -0.195425206821
146696000 0.723843989137 -0.195068007191
146700000 0.723837563716 -0.195443898125
146704000 0.72506940767 -0.193992830549
146708000 0.724102411957 -0.195224151309
146712000 0.724103169627 -0.195047752446
146716000 0.726508454505 -0.195224659321
146720000 0.724306624785 -0.195720411187
146724000 0.724440154467 -0.195432044101
146728000 0.724436493574 -0.195213131034
146732000 0.724463222674 -0.195388106465
146736000 0.724589631527 -0.195769992086
146740000 0.724966949124 -0.19566585891
146744000 0.724781110376 -0.195307581858
146748000 0.72496438175 -0.195363713413
146752000 0.724925834274 -0.195867083105
146756000 0.725171021827 -0.196147565435
146760000 0.724954611923 -0.19559979481
146764000 0.725118981988 -0.195630648053
146768000 0.725021231215 -0.196083355002
146772000 0.725357928324 -0.196553212253
146776000 0.725177369292 -0.195632615644
146780000 0.725367500129 -0.195485414843
146784000 0.725423905932 -0.195951213041
146788000 0.725825273102 -0.196325804423
146792000 0.725611582624 -0.195789452534
146796000 0.725524498674 -0.19553018747
146800000 0.725329385418 -0.195841105909
146804000 0.725488081309 -0.196631859722
146808000 0.725743723333 -0.196652583753
146812000 0.726003206453 -0.195504914921
146816000 0.725619823137 -0.195290194677
146820000 0.725758845379 -0.196520035981
146824000 0.726042381977 -0.196705241204
146828000 0.726091865324 -0.195790817972
146832000 0.725683692927 -0.195312323015
146836000 0.725875158955 -0.196358073594
146840000 0.726326105142 -0.196821255429
146844000 0.726241075597 -0.196168115788
146848000 0.72612301686 -0.195258433482
146852000 0.726009331576 -0.196090064258
146856000 0.726226654747 -0.196989856392
146860000 0.726644997158 -0.196413837863
146864000 0.726643311498 -0.195365369534
146868000 0.726363517746 -0.196054044198
146872000 0.726461354529 -0.197158865151
146876000 0.726740919663 -0.196857771951
146880000 0.726887002328 -0.195533316987
146884000 0.726611363051 -0.195811843923
146888000 0.726748549429 -0.197100304925
146892000 0.727012890676 -0.197225289013
146896000 0.726996927378 -0.195787237315
146900000 0.726621777431 -0.195954734914
146904000 0.727013090553 -0.197087356024
146908000 0.72724766505 -0.1972856259
146912000 0.727353619866 -0.196178282562
146916000 0.727035496923 -0.195984117551
146920000 0.727235451078 -0.197107832737
146924000 0.727485996174 -0.197426037328
146928000 0.727693137032 -0.196290924191
146932000 0.727391484018 -0.195892206317
146936000 0.72750948428 -0.196835939907
146940000 0.72785512891 -0.197308846971
146944000 0.728141163948 -0.196067830842
146948000 0.727617709713 -0.19567611252
146952000 0.727661846112 -0.19667256773
146956000 0.726814816375 -0.19706515147
146960000 0.728080459166 -0.19696090389
146964000 0.727859823816 -0.195848117735
146968000 0.72793519089 -0.196443813955
146972000 0.727690221926 -0.19765157612
146976000 0.72827468913 -0.197329547068
146980000 0.72786883211 -0.196023466046
146984000 0.72821440334 -0.196334550885
146988000 0.727979130154 -0.197742298762
146992000 0.728431961319 -0.197618653862
146996000 0.72831974909 -0.19644180627
147000000 0.728001907784 -0.196336252311
147004000 0.72827475837 -0.197796395648
147008000 0.7285239754 -0.197775879581
147012000 0.728621602065 -0.196782682287
147016000 0.728172532704 -0.196309573146
147020000 0.72855481269 -0.197634477717
147024000 0.728877310034 -0.197594651226
147028000 0.728893482357 -0.197130257392
147032000 0.728538410236 -0.196302425574
147036000 0.728612196537 -0.197383341784
147040000 0.728905006543 -0.197863141271
147044000 0.729212555682 -0.197239621321
147048000 0.729017049965 -0.196168183678
147052000 0.730091315661 -0.197315098802
147056000 0.728929282053 -0.197918752773
147060000 0.729449167117 -0.197584373181
147064000 0.727904223409 -0.196787083292
147068000 0.729105836405 -0.197086759503
147072000 0.72906878254 -0.198205062576
147076000 0.729606702771 -0.197960442162
147080000 0.729525171535 -0.196626062667
147084000 0.729278877876 -0.197032151107
147088000 0.729346025796 -0.198244193672
147092000 0.729756076021 -0.198222548238
147096000 0.729630594482 -0.196985533132
147100000 0.729286885613 -0.196846683953
147104000 0.729350449839 -0.198316198341
147108000 0.729721096022 -0.198328217485
147112000 0.72982311105 -0.197480842958
147116000 0.72971312756 -0.1967659366
147120000 0.72941403995 -0.197875511379
147124000 0.729605516865 -0.198581762156
147128000 0.730299942182 -0.19732423932
147132000 0.730052904761 -0.196820256355
147136000 0.729312520208 -0.197926683159
147140000 0.730284386506 -0.198229278054
147144000 0.730625461429 -0.197793823591
147148000 0.730450433324 -0.196854338595
147152000 0.730029726616 -0.197739894456
147156000 0.73045444497 -0.198550968956
147160000 0.730955537006 -0.198134507565
147164000 0.730491284986 -0.196923605804
147168000 0.730495482361 -0.1976328962
147172000 0.730460413483 -0.198684098721
147176000 0.730847134445 -0.198619026977
147180000 0.731035101879 -0.197197715925
147184000 0.730744418437 -0.197607828564
147188000 0.730673753673 -0.198734151477
147192000 0.731394919879 -0.198810864521
147196000 0.731416463521 -0.197454626907
147200000 0.731033019163 -0.19749419559
147204000 0.731154967607 -0.1979638765
147208000 0.731184854443 -0.198056038989
147212000 0.73129217818 -0.198345293061
147216000 0.731366305632 -0.198403954918
147220000 0.731601812831 -0.198097052241
147224000 0.731774988833 -0.198143606278
147228000 0.731489705566 -0.198110212412
147232000 0.731555391715 -0.198282613963
147236000 0.731303895742 -0.198116680862
147240000 0.73166258802 -0.198472152801
147244000 0.731539708135 -0.197769850487
147248000 0.731699988506 -0.198403855888
147252000 0.731745081178 -0.198636285413
147256000 0.732113995434 -0.198956438373
147260000 0.73196554515 -0.198174982169
147264000 0.732318059644 -0.19860853774
147268000 0.732184902562 -0.198680980555
147272000 0.73259033796 -0.198666625244
147276000 0.731880510302 -0.198302485039
147280000 0.732212919617 -0.198737027285
147284000 0.732612731078 -0.198772661103
147288000 0.732702536646 -0.198797080312
147292000 0.732535277185 -0.198521683069
147296000 0.732416301194 -0.199006028404
147300000 0.732538158114 -0.199035198568
147304000 0.732688481366 -0.198795959194
147308000 0.732921732859 -0.198629983215
147312000 0.73262368791 -0.198953753346
147316000 0.732512746039 -0.19907788161
147320000 0.733241437262 -0.199098763491
147324000 0.73289458615 -0.198961747581
147328000 0.733172481925 -0.199066834863
147332000 0.732862416285 -0.197603314127
147336000 0.733284150405 -0.199043150263
147340000 0.733216014392 -0.199287505157
147344000 0.733538540954 -0.198918008861
147348000 0.733145342805 -0.199163622884
147352000 0.733313925682 -0.199366515763
147356000 0.733362758606 -0.199602895048
147360000 0.7333863172 -0.199012682895
147364000 0.733570635644 -0.199324745973
147368000 0.733471225007 -0.19968716514
147372000 0.734134309222 -0.19958441705
147376000 0.733934120686 -0.199204481764
147380000 0.733708067048 -0.199701324194
147384000 0.734193136136 -0.1999770832
147388000 0.73400302797 -0.199650380904
147392000 0.733826099934 -0.199540955281
147396000 0.733884937701 -0.199930678716
147400000 0.733843053127 -0.200077309184
147404000 0.734025146544 -0.199787240411
147408000 0.733899641258 -0.199749764443
147412000 0.734191841197 -0.199960066244
147416000 0.734168133102 -0.200135444569
147420000 0.734506540555 -0.19984519534
147424000 0.734259473693 -0.199959624177
147428000 0.734266404761 -0.199867890348
147432000 0.734486746814 -0.20014922633
147436000 0.734488790933 -0.199893854003
147440000 0.734499138239 -0.200150222028
147444000 0.734420678787 -0.199689912918
147448000 0.735397459639 -0.200020938635
147452000 0.734579604931 -0.200401627501
147456000 0.734713059612 -0.200062860742
147460000 0.73480033687 -0.199942129262
147464000 0.734836826528 -0.20010412011
147468000 0.734439077 -0.200167820444
147472000 0.734994712809 -0.200444510895
147476000 0.734863953711 -0.20011666123
147480000 0.734777582815 -0.200539690482
147484000 0.73495358618 -0.200638847665
147488000 0.73528493095 -0.20067257274
147492000 0.735373734774 -0.200443240955
147496000 0.735256776698 -0.200819267974
147500000 0.735371229974 -0.200796047916
147504000 0.735434992901 -0.200710333638
147508000 0.735477729017 -0.200516126225
147512000 0.735214672651 -0.200865278844
147516000 0.735515199354 -0.201051162685
147520000 0.735737620552 -0.20088936771
147524000 0.73581106831 -0.200960190817
147528000 0.735653069078 -0.200783746975
147532000 0.73574763389 -0.201102471467
147536000 0.735577299504 -0.200993979612
147540000 0.735973415425 -0.201023166334
147544000 0.735873469061 -0.20048828578
147548000 0.735801570514 -0.201008392198
147552000 0.735841259631 -0.201246743622
147556000 0.735956360487 -0.201275680193
147560000 0.736090383569 -0.200862849217
147564000 0.73611908313 -0.201062019559
147568000 0.735936931477 -0.201393772336
147572000 0.736306165583 -0.201456670837
147576000 0.736283353583 -0.201164721528
147580000 0.736182903621 -0.201347916569
147584000 0.736146169087 -0.201531728306
147588000 0.736525123579 -0.201756273007
147592000 0.73595224583 -0.201416772334
147596000 0.736224213553 -0.201810088503
147600000 0.736447662258 -0.201799918345
147604000 0.736243468496 -0.201645991967
147608000 0.736546330222 -0.201589452066
147612000 0.736558047031 -0.201545569312
147616000 0.736437339938 -0.201696800029
147620000 0.736452337897 -0.201774464317
147624000 0.736772900911 -0.20167745084
147628000 0.736971045482 -0.201665193066
147632000 0.736709080241 -0.201888817061
147636000 0.737088587364 -0.202022759906
147640000 0.7369256211 -0.201888032566
147644000 0.736735881879 -0.201896352199
147648000 0.737110564717 -0.201560624316
147652000 0.737118787626 -0.202004846681
147656000 0.736957423124 -0.201963227853
147660000 0.737154627898 -0.202352131947
147664000 0.737187099668 -0.201730962411
147668000 0.737197441181 -0.202141380408
147672000 0.736813815779 -0.20214460305
147676000 0.737330368794 -0.202602673948
147680000 0.737464958895 -0.201923721306
147684000 0.737676275728 -0.202209233324
147688000 0.737459636268 -0.202551232106
147692000 0.737606995082 -0.202710989124
147696000 0.737716875389 -0.20233450853
147700000 0.737611785856 -0.202521156014
147704000 0.737477695547 -0.202698989174
147708000 0.738077286618 -0.20293899926
147712000 0.73784194737 -0.202554749164
147716000 0.738125858485 -0.202522151217
147720000 0.737964626822 -0.202907498143
147724000 0.738221316961 -0.202789863387
147728000 0.738342416319 -0.202853900014
147732000 0.73820242997 -0.203006221061
147736000 0.737784196353 -0.203065929201
147740000 0.737993984115 -0.203166153636
147744000 0.738290530583 -0.203482930068
147748000 0.73794991996 -0.203082660904
147752000 0.738011320822 -0.203372805493
147756000 0.738012453051 -0.203392666453
147760000 0.738373806306 -0.203448310751
147764000 0.738345573005 -0.202996639498
147768000 0.738373552833 -0.203149409567
147772000 0.738079206556 -0.20359175025
147776000 0.738595875017 -0.203562696244
147780000 0.738535916614 -0.202892489963
147784000 0.73847866987 -0.20319192044
147788000 0.738551083156 -0.203459178919
147792000 0.738839843922 -0.203836901856
147796000 0.738651730187 -0.203333152113
147800000 0.738940552278 -0.203684958435
147804000 0.73882343738 -0.2036526799
147808000 0.738938002191 -0.203929678633
147812000 0.739004871405 -0.203547199215
147816000 0.738910573729 -0.20374425391
147820000 0.738976526152 -0.20364861743
147824000 0.739126617389 -0.203721627845
147828000 0.739197752109 -0.203692178347
147832000 0.73902700266 -0.203735721347
147836000 0.738875643728 -0.203850812722
147840000 0.739048786485 -0.203839323373
147844000 0.739120300172 -0.203949003574
147848000 0.739410998359 -0.203732785312
147852000 0.739221837853 -0.203864135068
147856000 0.739325669657 -0.204026177751
147860000 0.737247851024 -0.205008212649
147864000 0.7390446272 -0.204752146681
147868000 0.739433796219 -0.204102843764
147872000 0.736843435335 -0.201654652674
147876000 0.740373324295 -0.204718839293
147880000 0.739737998125 -0.203957333072
147884000 0.739606039492 -0.204321748626
147888000 0.739747448314 -0.204548995281
147892000 0.739980948944 -0.204887887942
147896000 0.739976464136 -0.204387092742
147900000 0.740217196107 -0.204470578547
147904000 0.74006351121 -0.204664352839
147908000 0.740270175112 -0.204788429848
147912000 0.74005954204 -0.20455036496
147916000 0.739969434976 -0.204682628851
147920000 0.740155802683 -0.204686120636
147924000 0.74038936466 -0.204781162041
147928000 0.740236344143 -0.204768240294
147932000 0.740239416825 -0.204836655814
147936000 0.740257303148 -0.205006776985
147940000 0.740304866731 -0.204832892865
147944000 0.740483475562 -0.205057412979
147948000 0.740433248572 -0.204852774552
147952000 0.740427527033 -0.205043141418
147956000 0.740226884458 -0.205232467764
147960000 0.740646504041 -0.205435160559
147964000 0.740806180316 -0.204890756476
147968000 0.740712415205 -0.205288525163
147972000 0.740705152746 -0.20546938555
147976000 0.740876581678 -0.205715922869
147980000 0.741035122847 -0.205361984521
147984000 0.740795620595 -0.205445201903
147988000 0.740798359811 -0.205749312008
147992000 0.74090329807 -0.205909890805
147996000 0.741427710829 -0.205430578594
148000000 0.741029628688 -0.205550942378
