! Calibrated averaged scanner-service zoom
# Hz S RI R 50
902000000 0.569138236228 -0.565714113229
902013000 0.566778496449 -0.567455871102
902026000 0.564746632578 -0.562719082644
902039000 0.565839726996 -0.563056922975
902052000 0.567940581768 -0.562884194762
902065000 0.569801099654 -0.564268281318
902078000 0.566295557337 -0.559894562489
902091000 0.560941663712 -0.562007090996
902104000 0.568174791043 -0.559846289753
902117000 0.570984520945 -0.563935426494
902130000 0.567620439706 -0.56491230332
902143000 0.568150626215 -0.563300266359
902156000 0.564821652196 -0.561521208764
902169000 0.56828645788 -0.561779741352
902182000 0.568220038021 -0.56034566537
902195000 0.563754284483 -0.561006443772
902208000 0.566011562171 -0.563107920646
902221000 0.567063137402 -0.56182147953
902234000 0.567470850802 -0.562802250634
902247000 0.57082495291 -0.562036200358
902260000 0.568606243193 -0.563302092713
902273000 0.569206605305 -0.564976715966
902286000 0.56725335346 -0.563015043374
902299000 0.567432070732 -0.560413690817
902312000 0.566641192581 -0.560730945196
902325000 0.568173710441 -0.562794856148
902338000 0.568120141922 -0.560095482268
902351000 0.56618553843 -0.558873197465
902364000 0.565480296774 -0.562601361114
902377000 0.56816189323 -0.563267176671
902390000 0.567949574847 -0.560466602189
902403000 0.567300993225 -0.561558214524
902416000 0.566928904937 -0.559796252557
902429000 0.568633868627 -0.562520013937
902442000 0.567373024113 -0.563424413956
902455000 0.565132072991 -0.562994580879
902468000 0.56716864726 -0.55858115176
902481000 0.567298664347 -0.563073686481
902494000 0.567126782967 -0.559364470679
902507000 0.566978955028 -0.561196553148
902520000 0.570912514818 -0.562048048273
902533000 0.569127831647 -0.561908929968
902546000 0.568612592267 -0.563800998859
902559000 0.559559574724 -0.564126555039
902572000 0.563137298717 -0.56208052032
902585000 0.56419203245 -0.566239573728
902598000 0.566255916318 -0.564983055789
902611000 0.569673599001 -0.566272693492
902624000 0.569349444675 -0.563700656101
902637000 0.571425230079 -0.560019225677
902650000 0.571887776874 -0.560440234281
902663000 0.569927465163 -0.56361208607
902676000 0.57055901042 -0.564793877906
902689000 0.568243875341 -0.565593057786
902702000 0.565325990795 -0.562518244123
902715000 0.567647444153 -0.562398718542
902728000 0.567282114151 -0.560663373933
902741000 0.566567978182 -0.559792958229
902754000 0.566439978892 -0.562486436982
902767000 0.565288823309 -0.563020448219
902780000 0.565306382747 -0.563099798972
902793000 0.56631581708 -0.567099218828
902806000 0.572831240755 -0.557676239485
902819000 0.566912270365 -0.564869131167
902832000 0.566843975597 -0.561035858871
902845000 0.564588784118 -0.565098623239
902858000 0.564394118822 -0.564599606476
902871000 0.567076668033 -0.564020589859
902884000 0.567394401243 -0.561112819087
902897000 0.5686512354 -0.560807080992
902910000 0.567064096739 -0.562466871288
902923000 0.564765871825 -0.566011733491
902936000 0.56563717934 -0.565252293921
902949000 0.566769108703 -0.564506996545
902962000 0.568662746177 -0.563021424178
902975000 0.567254868342 -0.562669995366
902988000 0.565927639219 -0.562081843269
903001000 0.567410619143 -0.562432470476
903014000 0.567052045553 -0.565964303771
903027000 0.572898071658 -0.561609213849
903040000 0.575275228982 -0.562907184307
903053000 0.574711852076 -0.561892086052
903066000 0.579536256097 -0.560578818483
903079000 0.568211181811 -0.562170173331
903092000 0.566511650276 -0.559373986464
903105000 0.565546785741 -0.559568617199
903118000 0.566908867057 -0.559266676056
903131000 0.568008421105 -0.561062490215
903144000 0.563929960794 -0.56307639533
903157000 0.565421982698 -0.562446463887
903170000 0.565935443009 -0.561990539817
903183000 0.564772055453 -0.560930481766
903196000 0.563369806357 -0.56089703991
903209000 0.568937655707 -0.563875146292
903222000 0.564262823188 -0.567188762802
903235000 0.565818178861 -0.570744762855
903248000 0.564752544747 -0.560658943909
903261000 0.566591417632 -0.562002311426
903274000 0.569627052344 -0.560764840497
903287000 0.565386664916 -0.566337339596
903300000 0.56865434679 -0.564858399068
903313000 0.567866081685 -0.563310298221
903326000 0.566410808504 -0.562214321279
903339000 0.566102327736 -0.562015940441
903352000 0.570159793929 -0.565303969085
903365000 0.567374863885 -0.566211362004
903378000 0.566322496629 -0.562041954622
903391000 0.565179241001 -0.55731102876
903404000 0.56333047875 -0.561940512359
903417000 0.568622658425 -0.558655546205
903430000 0.571297529998 -0.558553054959
903443000 0.57065928583 -0.565132262671
903456000 0.567800971155 -0.561201005912
903469000 0.565817196334 -0.561272232655
903482000 0.542508447238 -0.618208212828
903495000 0.565439838951 -0.557987849203
903508000 0.569508447824 -0.560122221963
903521000 0.564918549186 -0.562928275022
903534000 0.564417434985 -0.563232784075
903547000 0.56701731228 -0.564073578971
903560000 0.56786982327 -0.562755916293
903573000 0.566357328063 -0.559402059901
903586000 0.565807308124 -0.561070957672
903599000 0.56689333864 -0.562280633025
903612000 0.564373845849 -0.560682034833
903625000 0.567389086588 -0.563506606572
903638000 0.567395561836 -0.561755857604
903651000 0.567546478043 -0.565428774411
903664000 0.567118283989 -0.562231684115
903677000 0.568788084993 -0.563827455306
903690000 0.56784071075 -0.56616670305
903703000 0.567998119779 -0.563960260459
903716000 0.564531354951 -0.562836189869
903729000 0.565368008731 -0.561387728946
903742000 0.566533808043 -0.56172793078
903755000 0.564640081417 -0.561813043307
903768000 0.564747382222 -0.562642646245
903781000 0.568891119892 -0.560733629941
903794000 0.567960956792 -0.563740071296
903807000 0.568526230287 -0.562132966288
903820000 0.566745191331 -0.560591073325
903833000 0.565199676522 -0.562172404722
903846000 0.564799625742 -0.559890062165
903859000 0.567508244729 -0.560914957417
903872000 0.565236776006 -0.561589129097
903885000 0.566850837328 -0.564313604361
903898000 0.569088239572 -0.561942936793
903911000 0.567609788142 -0.566457458884
903924000 0.566133761969 -0.561512946367
903937000 0.565381002404 -0.562827956049
903950000 0.571152651727 -0.563829859883
903963000 0.56885127416 -0.565814572508
903976000 0.569075810661 -0.564679859072
903989000 0.565304787495 -0.558697837131
904002000 0.566436570109 -0.562393007714
904015000 0.572458734864 -0.560295610015
904028000 0.572241972422 -0.56782255571
904041000 0.567380764647 -0.57038645679
904054000 0.565842187263 -0.565484021649
904067000 0.567116242016 -0.565832379707
904080000 0.567183256592 -0.562927913309
904093000 0.566329621001 -0.560883221823
904106000 0.567548577537 -0.563665161505
904119000 0.567467205629 -0.564185487926
904132000 0.562160161991 -0.56329914386
904145000 0.566244547193 -0.562573497907
904158000 0.563652425096 -0.561407967687
904171000 0.564007129702 -0.561422467029
904184000 0.562976150202 -0.563887443266
904197000 0.564779049797 -0.563409993714
904210000 0.566529323024 -0.563960951948
904223000 0.565455336387 -0.562444164816
904236000 0.565724566819 -0.561045744064
904249000 0.565683860017 -0.568073381083
904262000 0.571614203725 -0.563580843655
904275000 0.568328203319 -0.562971086553
904288000 0.570659137224 -0.562505682503
904301000 0.568619385217 -0.563131757101
904314000 0.568681322157 -0.565175627299
904327000 0.568468587732 -0.565474660367
904340000 0.57010890415 -0.563282413635
904353000 0.564363417282 -0.560895342949
904366000 0.564060321162 -0.560411543055
904379000 0.565384552703 -0.559371166722
904392000 0.561930423319 -0.562121953321
904405000 0.567972799097 -0.564298204332
904418000 0.570485091338 -0.561750977518
904431000 0.570681903867 -0.562125061218
904444000 0.567335068142 -0.560210378295
904457000 0.568513982234 -0.560732413072
904470000 0.566567381791 -0.565602068085
904483000 0.568443933575 -0.562479340031
904496000 0.569103721797 -0.565199883601
904509000 0.567855936482 -0.562870186615
904522000 0.569888852261 -0.566115411368
904535000 0.570209143312 -0.56098176805
904548000 0.569363413662 -0.566283155751
904561000 0.567220057387 -0.563439632368
904574000 0.566605980042 -0.563240521026
904587000 0.566034858253 -0.566127216411
904600000 0.567102258883 -0.561242887923
904613000 0.569990765118 -0.563602489346
904626000 0.56976496149 -0.562403405262
904639000 0.566705920594 -0.564087939208
904652000 0.563309299121 -0.56452332763
904665000 0.566685991599 -0.561790959321
904678000 0.567843803518 -0.568432376797
904691000 0.565010919622 -0.565652468488
904704000 0.563752325699 -0.566048111964
904717000 0.568820734635 -0.568835053538
904730000 0.568495359151 -0.56430021357
904743000 0.569769518352 -0.564786160245
904756000 0.568613277112 -0.563586546495
904769000 0.569085243049 -0.560281604566
904782000 0.566369221396 -0.561680782159
904795000 0.567220721525 -0.56352296219
904808000 0.56833234714 -0.563170037988
904821000 0.5670984756 -0.56424096939
904834000 0.562833612708 -0.564555929721
904847000 0.560840259458 -0.562405998007
904860000 0.565110291282 -0.56541791718
904873000 0.564251704475 -0.563984233159
904886000 0.56503964544 -0.568560684531
904899000 0.569613505015 -0.563660474151
904912000 0.569943520118 -0.56761825492
904925000 0.567700279633 -0.565571346502
904938000 0.565910274338 -0.561883846756
904951000 0.566058912365 -0.561074213158
904964000 0.565491256892 -0.557052831993
904977000 0.567665821653 -0.559502304303
904990000 0.568169066729 -0.565393379438
905003000 0.571256716255 -0.561586089623
905016000 0.567852105994 -0.564379541188
905029000 0.566648572281 -0.562969444756
905042000 0.569092614204 -0.568426926977
905055000 0.566593433821 -0.56551500624
905068000 0.565231341113 -0.564433926022
905081000 0.565545751186 -0.565256539277
905094000 0.568320676478 -0.565371329005
905107000 0.569582343238 -0.565900745494
905120000 0.569475443392 -0.566295949547
905133000 0.565152217298 -0.564235538085
905146000 0.565681910635 -0.564388189647
905159000 0.567159451981 -0.561202885977
905172000 0.57050944389 -0.566051105464
905185000 0.569921543076 -0.5648000921
905198000 0.566072454354 -0.56201083097
905211000 0.565293394672 -0.562700615296
905224000 0.567687682064 -0.566442558036
905237000 0.568331283538 -0.562999754033
905250000 0.567406758898 -0.562022828028
905263000 0.565177917885 -0.560110843415
905276000 0.568088485059 -0.565419187797
905289000 0.565946187744 -0.564691344314
905302000 0.567935709768 -0.560997504908
905315000 0.565199701477 -0.564340154143
905328000 0.56240974179 -0.562494756815
905341000 0.567449615826 -0.564870612488
905354000 0.567887082756 -0.56457438659
905367000 0.56464880918 -0.568429008111
905380000 0.564490182443 -0.565737159991
905393000 0.563780853085 -0.558952845147
905406000 0.564568904171 -0.561346056917
905419000 0.564466015307 -0.561388023785
905432000 0.560776217511 -0.56890467201
905445000 0.563546865376 -0.564375204548
905458000 0.564264017932 -0.566611863893
905471000 0.563452396053 -0.564903609394
905484000 0.564427829036 -0.561688828976
905497000 0.569905157379 -0.563944390678
905510000 0.57064885241 -0.562758363728
905523000 0.568812887683 -0.563810589019
905536000 0.566093537957 -0.560171581159
905549000 0.565169735529 -0.561705530218
905562000 0.567806586073 -0.56596632989
905575000 0.568150006724 -0.562767404476
905588000 0.569795917058 -0.564837253053
905601000 0.567336606568 -0.564114817534
905614000 0.566827229686 -0.563470357726
905627000 0.562068205882 -0.559260645712
905640000 0.56607933665 -0.563683201596
905653000 0.571670537364 -0.565463751153
905666000 0.569784249983 -0.567657468308
905679000 0.574524971315 -0.565489834297
905692000 0.569693774677 -0.565817775146
905705000 0.567936976384 -0.568359923058
905718000 0.565195053676 -0.566204576571
905731000 0.567191307479 -0.560423727527
905744000 0.564665154113 -0.567075118625
905757000 0.570139058956 -0.560828618456
905770000 0.568016485365 -0.564059105838
905783000 0.568599439928 -0.562772643377
905796000 0.571375754197 -0.56644312839
905809000 0.56482607482 -0.565039943778
905822000 0.566521736056 -0.562523441112
905835000 0.567728704658 -0.56193371349
905848000 0.56905378162 -0.566104215315
905861000 0.566148640743 -0.565047440022
905874000 0.5688420826 -0.564650738708
905887000 0.565035312304 -0.563486782884
905900000 0.564640089841 -0.562147669607
905913000 0.566617701474 -0.562429149022
905926000 0.567980251481 -0.565149790538
905939000 0.568063504269 -0.564605430251
905952000 0.567279784287 -0.566185857544
905965000 0.564781283577 -0.564288421042
905978000 0.564647952465 -0.567806672751
905991000 0.565271642537 -0.561920902806
906004000 0.561639578843 -0.565051978185
906017000 0.565403918236 -0.564286723531
906030000 0.568245852808 -0.572141616923
906043000 0.566989074736 -0.567794654277
906056000 0.564722591123 -0.568711305833
906069000 0.567591172198 -0.566875050576
906082000 0.570323906207 -0.563861710117
906095000 0.568496091901 -0.560605224894
906108000 0.569132034692 -0.561971696239
906121000 0.565010908931 -0.567821767627
906134000 0.566845764648 -0.56365739987
906147000 0.56365128326 -0.564733313011
906160000 0.564702874864 -0.56389325284
906173000 0.566837752144 -0.565340842771
906186000 0.566549332066 -0.560789176641
906199000 0.572318279984 -0.563860302578
906212000 0.565420693237 -0.563608017339
906225000 0.564939942946 -0.567090203281
906238000 0.56618634375 -0.565307222503
906251000 0.565301326226 -0.563640306321
906264000 0.56370501349 -0.56195474316
906277000 0.564390441574 -0.565582576476
906290000 0.567087017314 -0.562898163607
906303000 0.568712495799 -0.563773075082
906316000 0.56786925971 -0.565781498677
906329000 0.570607418611 -0.563172761395
906342000 0.56559442018 -0.568953640605
906355000 0.567505574071 -0.565817911734
906368000 0.570933851808 -0.566679500686
906381000 0.569224337219 -0.569668842557
906394000 0.568440511872 -0.566333128331
906407000 0.568818620197 -0.563128947982
906420000 0.563550105986 -0.564531352594
906433000 0.567687763387 -0.568249549414
906446000 0.565848311453 -0.565803290961
906459000 0.565779123757 -0.563268542584
906472000 0.572146403877 -0.565620856199
906485000 0.587394012157 -0.554441618039
906498000 0.586356938718 -0.555512256351
906511000 0.577939350569 -0.562234461592
906524000 0.570494109518 -0.562683351699
906537000 0.566896380481 -0.565129605891
906550000 0.564864959549 -0.564141636391
906563000 0.56792748658 -0.56713792367
906576000 0.56830677814 -0.565129544877
906589000 0.566957689482 -0.570683551486
906602000 0.570111612076 -0.57039629227
906615000 0.569000377411 -0.563531894232
906628000 0.573683060509 -0.564644444135
906641000 0.571909389407 -0.561086346151
906654000 0.566678775401 -0.565501488465
906667000 0.566763433429 -0.564802188167
906680000 0.567992407978 -0.565645599851
906693000 0.56839365203 -0.569012389058
906706000 0.569082634338 -0.568348133292
906719000 0.565404411065 -0.562036220585
906732000 0.564598727463 -0.563604421972
906745000 0.565750640937 -0.568848265812
906758000 0.564271659108 -0.565132667691
906771000 0.566860327358 -0.568328320169
906784000 0.566655441227 -0.565093075942
906797000 0.566543696659 -0.564213972054
906810000 0.561962332972 -0.56534040064
906823000 0.566954243918 -0.56776530305
906836000 0.567643595617 -0.568841130934
906849000 0.566612923218 -0.565456875117
906862000 0.56706742458 -0.563824438371
906875000 0.56716225628 -0.567392645661
906888000 0.569055904419 -0.564127023211
906901000 0.568561840016 -0.566519021358
906914000 0.565827440541 -0.565942947398
906927000 0.565848500981 -0.56664794392
906940000 0.565530441121 -0.563348940763
906953000 0.5659265095 -0.56673528986
906966000 0.569852326146 -0.563985799936
906979000 0.570574733435 -0.562749997684
906992000 0.570987208526 -0.5611943191
907005000 0.56750356701 -0.567788444208
907018000 0.568067825168 -0.56700824233
907031000 0.568014241138 -0.5624077444
907044000 0.567711935403 -0.563971015098
907057000 0.567639568836 -0.56938462083
907070000 0.567836931801 -0.565004811106
907083000 0.563569235485 -0.56669385777
907096000 0.562312260621 -0.562686398998
907109000 0.564268210211 -0.564068645021
907122000 0.56336391839 -0.563204286865
907135000 0.569850073942 -0.564296199035
907148000 0.561051416073 -0.562442016653
907161000 0.571508083455 -0.569546389206
907174000 0.56287968991 -0.568168901004
907187000 0.570821574792 -0.566256710349
907200000 0.571373695119 -0.562812795918
907213000 0.569785094037 -0.567611794094
907226000 0.570256051782 -0.567010617783
907239000 0.56468709092 -0.564382919092
907252000 0.568712743057 -0.564406705825
907265000 0.569392745132 -0.565153298772
907278000 0.565781439566 -0.568446955875
907291000 0.56871091396 -0.567524753074
907304000 0.569759035324 -0.568705300095
907317000 0.570509187783 -0.56517089078
907330000 0.571108089123 -0.569445770311
907343000 0.572365625438 -0.563858710314
907356000 0.564138168993 -0.561893120857
907369000 0.565783649888 -0.563063937241
907382000 0.566710282985 -0.566984689142
907395000 0.563446103127 -0.562891242041
907408000 0.569182343674 -0.566410067869
907421000 0.567218707772 -0.558190900426
907434000 0.564296833749 -0.562047872828
907447000 0.563815348501 -0.56431443506
907460000 0.562742598114 -0.564190178193
907473000 0.565402112521 -0.565764564016
907486000 0.561979280195 -0.564313989445
907499000 0.562514868537 -0.563043644766
907512000 0.563854031092 -0.564735285729
907525000 0.564712169917 -0.562563255942
907538000 0.562856051547 -0.564925652456
907551000 0.563595171821 -0.565624257027
907564000 0.567156843869 -0.562467467544
907577000 0.563660899588 -0.562193559818
907590000 0.565891582251 -0.561987088594
907603000 0.56449806043 -0.563775666334
907616000 0.562100472993 -0.566196678041
907629000 0.564138610072 -0.566222989526
907642000 0.562596620087 -0.567802998474
907655000 0.56437970793 -0.564018271753
907668000 0.566475169731 -0.562139313301
907681000 0.567765165853 -0.561139537708
907694000 0.565240601238 -0.563339627006
907707000 0.565413069666 -0.562665482966
907720000 0.566540180681 -0.564853443401
907733000 0.565199502636 -0.564221205251
907746000 0.566026288454 -0.568375312646
907759000 0.567936417678 -0.567027876909
907772000 0.567282062011 -0.569346702936
907785000 0.565441614072 -0.569583120623
907798000 0.567520231338 -0.565744154716
907811000 0.564916170751 -0.564252740441
907824000 0.563344019058 -0.563945277289
907837000 0.564346114902 -0.565889600693
907850000 0.563384770783 -0.567721464743
907863000 0.570535274251 -0.56592976675
907876000 0.568068980538 -0.563607565144
907889000 0.566986341413 -0.563601413652
907902000 0.565180385242 -0.562598814614
907915000 0.563035811977 -0.564632308415
907928000 0.56464941462 -0.566140181482
907941000 0.565889262212 -0.56574185686
907954000 0.569958505011 -0.567909973342
907967000 0.565940668932 -0.563624456059
907980000 0.563606383102 -0.563611745414
907993000 0.566509664068 -0.563638500929
908006000 0.563951788738 -0.567047400304
908019000 0.565222006337 -0.567760768601
908032000 0.567449658449 -0.565579631695
908045000 0.567864146053 -0.565025136324
908058000 0.563782541277 -0.565428042311
908071000 0.561913754037 -0.564836508148
908084000 0.566025957411 -0.562777871543
908097000 0.566212080605 -0.563159492133
908110000 0.570015888385 -0.563358543253
908123000 0.56941658536 -0.564533816212
908136000 0.567062425535 -0.562899980689
908149000 0.568260771361 -0.564645641996
908162000 0.567210363134 -0.559938077544
908175000 0.564657966229 -0.563031963029
908188000 0.56364753234 -0.559993666633
908201000 0.562910216755 -0.564680557144
908214000 0.566225395986 -0.567164730585
908227000 0.563846720689 -0.565956768989
908240000 0.563726762087 -0.562514911241
908253000 0.564300505046 -0.564485780181
908266000 0.561294370026 -0.562313967663
908279000 0.564413921817 -0.562437413078
908292000 0.565324056606 -0.567678874377
908305000 0.566625298245 -0.570351419932
908318000 0.563775259129 -0.568331863232
908331000 0.564684225165 -0.568248489352
908344000 0.566843190308 -0.569021877814
908357000 0.570058660147 -0.571956920897
908370000 0.565822610004 -0.569000987008
908383000 0.560642104934 -0.5657200712
908396000 0.561354894278 -0.565022650603
908409000 0.564234068063 -0.556934218554
908422000 0.569577352454 -0.559916551229
908435000 0.567088473068 -0.562098259687
908448000 0.564153198118 -0.567519719919
908461000 0.568786531876 -0.567575354881
908474000 0.567062020568 -0.567340084957
908487000 0.561334108933 -0.566636997064
908500000 0.557697166593 -0.565831947993
908513000 0.559254021186 -0.564491113137
908526000 0.565434658823 -0.5647026946
908539000 0.567849813215 -0.565844812187
908552000 0.567505341261 -0.565490658078
908565000 0.564857177956 -0.567494885268
908578000 0.563852829611 -0.569249963619
908591000 0.566484472544 -0.567062993846
908604000 0.565910285038 -0.567877376668
908617000 0.566513116946 -0.564967274277
908630000 0.565897189304 -0.565468179962
908643000 0.564551464136 -0.562879190476
908656000 0.562973990821 -0.566923987099
908669000 0.560844916894 -0.565565310939
908682000 0.564638119521 -0.57029284339
908695000 0.56535276667 -0.567592460634
908708000 0.565269198381 -0.567145028059
908721000 0.570855536051 -0.566258174306
908734000 0.568751695282 -0.567841601388
908747000 0.567483597928 -0.56905762581
908760000 0.568311101446 -0.56697326117
908773000 0.56656165462 -0.563672664657
908786000 0.566942538288 -0.56296983006
908799000 0.565685493822 -0.56050053592
908812000 0.566469757869 -0.566858984223
908825000 0.562827886259 -0.56936363387
908838000 0.568095659933 -0.568720041836
908851000 0.568582827391 -0.562194234963
908864000 0.56625948576 -0.56332711321
908877000 0.564663562628 -0.5606109665
908890000 0.565587363609 -0.56402605466
908903000 0.566586157261 -0.566890147106
908916000 0.564865536742 -0.571560775081
908929000 0.563871901452 -0.567878973176
908942000 0.566417242993 -0.56773015347
908955000 0.568887629033 -0.567965284747
908968000 0.565142606281 -0.567384310254
908981000 0.566708372846 -0.567638471908
908994000 0.566484919258 -0.568697702567
909007000 0.56860708258 -0.56634550244
909020000 0.566808879852 -0.570393899406
909033000 0.565726079684 -0.565487462078
909046000 0.563581311196 -0.564029140262
909059000 0.565204643473 -0.570309179447
909072000 0.56633606326 -0.569419466216
909085000 0.565666451486 -0.571284370046
909098000 0.569255156942 -0.568178124839
909111000 0.573756203587 -0.570087833098
909124000 0.570153849456 -0.568704574034
909137000 0.567920519582 -0.56513593882
909150000 0.564215662824 -0.567035108106
909163000 0.561554026627 -0.565208091166
909176000 0.566789214008 -0.564609354202
909189000 0.569133438694 -0.571921439627
909202000 0.569245411731 -0.566230467401
909215000 0.564932451737 -0.565723609648
909228000 0.566283612323 -0.565400459342
909241000 0.567704130431 -0.566250362779
909254000 0.568932906377 -0.565833528972
909267000 0.568851195963 -0.564797312682
909280000 0.565844887648 -0.563556165471
909293000 0.566953480674 -0.564202703429
909306000 0.559925251103 -0.569937095018
909319000 0.565783198444 -0.567183068788
909332000 0.563928205549 -0.567078208707
909345000 0.564517574649 -0.567289623233
909358000 0.559001763697 -0.566706899571
909371000 0.561341910889 -0.56891314717
909384000 0.562191099762 -0.569557608879
909397000 0.56298454092 -0.571410433647
909410000 0.567779828659 -0.563920149017
909423000 0.562909500742 -0.567293855212
909436000 0.567635111854 -0.567478371883
909449000 0.566144916795 -0.567792005641
909462000 0.571463797409 -0.565179131803
909475000 0.577629385579 -0.564981731953
909488000 0.569487191342 -0.563641379164
909501000 0.56664925927 -0.559680149139
909514000 0.565780156953 -0.560517563423
909527000 0.56148645686 -0.561636319032
909540000 0.562975003271 -0.561590613615
909553000 0.566838263192 -0.564525464547
909566000 0.569770603605 -0.569571303435
909579000 0.567254998502 -0.569725482296
909592000 0.567562612663 -0.568444569165
909605000 0.564206243302 -0.567330715041
909618000 0.56159356673 -0.566907734641
909631000 0.560792095686 -0.570005022786
909644000 0.56648916973 -0.568640514087
909657000 0.563700629844 -0.567729213634
909670000 0.564971380239 -0.568268295335
909683000 0.563392151026 -0.568716902572
909696000 0.568522268403 -0.565493254971
909709000 0.571396955888 -0.567264983204
909722000 0.565633354304 -0.570805635695
909735000 0.567584310522 -0.570378648669
909748000 0.559718166471 -0.565669041015
909761000 0.565311035311 -0.565955455096
909774000 0.571506173232 -0.563862605299
909787000 0.573548652231 -0.564747546923
909800000 0.585637516955 -0.564922254973
909813000 0.577683484612 -0.572039528392
909826000 0.638829108649 -0.515426166088
909839000 0.593927578054 -0.558854110818
909852000 0.573969910069 -0.561189831271
909865000 0.559311542601 -0.56205245248
909878000 0.564241645015 -0.559457149672
909891000 0.565692352129 -0.560436321013
909904000 0.563644380974 -0.562272252843
909917000 0.567366933448 -0.567973289736
909930000 0.565138624143 -0.544324501424
909943000 0.593038510979 -0.526158513461
909956000 0.574853611661 -0.548214543067
909969000 0.61802873605 -0.548217553974
909982000 0.52638323253 -0.5838754315
909995000 0.478730877164 -0.493790349166
910008000 0.491140204282 -0.573285611581
910021000 0.523067703379 -0.585196695063
910034000 0.546134321556 -0.574062976039
910047000 0.557682658906 -0.576108076577
910060000 0.575734498536 -0.559874473558
910073000 0.564011807737 -0.56519396906
910086000 0.561002646532 -0.562357208787
910099000 0.567701038687 -0.559006759721
910112000 0.561349529785 -0.568349331852
910125000 0.564535773146 -0.573191414797
910138000 0.564533813972 -0.569418853262
910151000 0.572407055596 -0.567593131576
910164000 0.569792694164 -0.571017703859
910177000 0.571034136404 -0.568257993669
910190000 0.574978566874 -0.562479318894
910203000 0.569988226489 -0.563790756262
910216000 0.549890758835 -0.574231903309
910229000 0.533711117503 -0.576832691275
910242000 0.554531510287 -0.576972232014
910255000 0.555683802294 -0.565318416305
910268000 0.570892964536 -0.56789707709
910281000 0.568812332825 -0.569333620526
910294000 0.57262095958 -0.572245842323
910307000 0.567036390087 -0.566233209757
910320000 0.562946372708 -0.56172849024
910333000 0.555837161585 -0.566139051778
910346000 0.561556677966 -0.56073613893
910359000 0.560716461351 -0.561726813212
910372000 0.56252692225 -0.562588203568
910385000 0.569452767107 -0.563939222068
910398000 0.569074065709 -0.570161629749
910411000 0.571206394459 -0.57306858693
910424000 0.561980461166 -0.568076229355
910437000 0.560223644955 -0.569273123459
910450000 0.564165618818 -0.563747547968
910463000 0.562513493312 -0.561480041489
910476000 0.562655923091 -0.564277366751
910489000 0.566176980148 -0.569606510836
910502000 0.566627332532 -0.560348797771
910515000 0.56686101135 -0.561784864826
910528000 0.561034994898 -0.561822475978
910541000 0.565171031907 -0.561825691973
910554000 0.565544572093 -0.561009977502
910567000 0.566473168528 -0.560535094472
910580000 0.568316292898 -0.566514351497
910593000 0.562306499075 -0.565312174524
910606000 0.566694100141 -0.567763141015
910619000 0.564813720782 -0.565335511635
910632000 0.564835732779 -0.567143525474
910645000 0.56755244962 -0.568506230381
910658000 0.572166950858 -0.560330177648
910671000 0.564081037823 -0.565626064194
910684000 0.572558808623 -0.564747229561
910697000 0.571343069051 -0.564095666868
910710000 0.564374549255 -0.562344030912
910723000 0.563909048343 -0.564338458126
910736000 0.563124612082 -0.562728268865
910749000 0.557444295457 -0.561387392851
910762000 0.563567520852 -0.56638196317
910775000 0.562892598994 -0.564600415301
910788000 0.567785246259 -0.56607038585
910801000 0.568329777773 -0.564194091019
910814000 0.568192952465 -0.559988658567
910827000 0.56471701934 -0.568186267369
910840000 0.56303688907 -0.568592709195
910853000 0.560585154198 -0.571868491951
910866000 0.555010466708 -0.569885573395
910879000 0.561000571992 -0.567560339103
910892000 0.559847415283 -0.568178965989
910905000 0.561604908108 -0.565273835609
910918000 0.560034977903 -0.559731603577
910931000 0.568782396178 -0.56534558465
910944000 0.570932904677 -0.563164952014
910957000 0.571327533493 -0.563188867587
910970000 0.568355479589 -0.569231152414
910983000 0.564041198378 -0.5631090267
910996000 0.564174793913 -0.565847876498
911009000 0.570124151928 -0.565100898774
911022000 0.566845744153 -0.565356853297
911035000 0.565382652085 -0.565965472699
911048000 0.564318573062 -0.560573514089
911061000 0.565460784694 -0.565765546787
911074000 0.565684594443 -0.573564382892
911087000 0.564548201499 -0.565893395628
911100000 0.565197921704 -0.5679882067
911113000 0.563295999367 -0.567226644326
911126000 0.560933100957 -0.566953160999
911139000 0.564553131183 -0.56503853281
911152000 0.566117652868 -0.564444606168
911165000 0.566271588857 -0.571856120338
911178000 0.560722938037 -0.572455853742
911191000 0.568139142263 -0.570676194066
911204000 0.569644100011 -0.563246611287
911217000 0.569043005036 -0.565637022425
911230000 0.565299191884 -0.564789985917
911243000 0.567429025601 -0.564055090136
911256000 0.568546483081 -0.567000860036
911269000 0.567198177822 -0.569398841188
911282000 0.56634899427 -0.568172413437
911295000 0.561109807181 -0.568815258241
911308000 0.569273310359 -0.565039341494
911321000 0.570852691213 -0.566615897524
911334000 0.571570000917 -0.567624098529
911347000 0.565726339912 -0.562679208333
911360000 0.565421715757 -0.563489535455
911373000 0.560365938134 -0.564038431822
911386000 0.562551693797 -0.565927352412
911399000 0.562245588667 -0.568499227012
911412000 0.562540255164 -0.567375107164
911425000 0.56357630638 -0.568103132251
911438000 0.568200470761 -0.566953152684
911451000 0.564882078015 -0.56801876386
911464000 0.566160877952 -0.571395095267
911477000 0.564984335931 -0.569941725968
911490000 0.562135591434 -0.564752465069
911503000 0.56739204476 -0.561909233437
911516000 0.564591886526 -0.557964672878
911529000 0.56565313299 -0.564214757162
911542000 0.564096277883 -0.564407741222
911555000 0.56095592691 -0.570766623503
911568000 0.563436515677 -0.566783206908
911581000 0.566997134383 -0.566999362369
911594000 0.562587595859 -0.565222804364
911607000 0.561455774088 -0.565131493311
911620000 0.562469468957 -0.566364631969
911633000 0.564630511247 -0.567690290575
911646000 0.563568881077 -0.568204772502
911659000 0.564174041051 -0.56965001425
911672000 0.565210301664 -0.567962533719
911685000 0.567879716226 -0.565854218315
911698000 0.567898114477 -0.564138537794
911711000 0.560255655132 -0.565802935731
911724000 0.560546166072 -0.569841391041
911737000 0.559362770779 -0.561489490531
911750000 0.564111830081 -0.562357387694
911763000 0.563051742381 -0.563286196072
911776000 0.566972301889 -0.562581843957
911789000 0.566432093075 -0.565251288493
911802000 0.564958964873 -0.56430562383
911815000 0.566426733966 -0.566116064322
911828000 0.565497505979 -0.565173623399
911841000 0.566634168654 -0.564012127732
911854000 0.564466398613 -0.562539062429
911867000 0.563221357924 -0.564452498175
911880000 0.560534215685 -0.561830997148
911893000 0.557705489537 -0.564215687652
911906000 0.564830423438 -0.568896499417
911919000 0.559908243481 -0.572819282012
911932000 0.56420173412 -0.567366563809
911945000 0.566715698756 -0.564900591819
911958000 0.566699054895 -0.5631214759
911971000 0.566973883357 -0.562025698441
911984000 0.56613771641 -0.565165970597
911997000 0.56487351238 -0.56395509793
912010000 0.568906173051 -0.564912642032
912023000 0.567399050752 -0.562413398121
912036000 0.565761748865 -0.56581957127
912049000 0.566735639058 -0.564782160356
912062000 0.564943163579 -0.566686684749
912075000 0.564212646726 -0.568823626137
912088000 0.563888681289 -0.56980737978
912101000 0.561250376035 -0.570521509213
912114000 0.567227408754 -0.567916583111
912127000 0.566392541004 -0.56379980342
912140000 0.565244081494 -0.562942357585
912153000 0.565825735017 -0.564707434786
912166000 0.566491115039 -0.567745783106
912179000 0.560023579215 -0.568584579927
912192000 0.56539502381 -0.572459535126
912205000 0.564818576245 -0.568121546665
912218000 0.561041004682 -0.570772398538
912231000 0.560152370541 -0.571488500015
912244000 0.562535604349 -0.571351800398
912257000 0.563066495981 -0.568043261286
912270000 0.564405636261 -0.571140070972
912283000 0.565283177712 -0.569374740957
912296000 0.566402494186 -0.567360855572
912309000 0.571452747773 -0.566595129244
912322000 0.56733605373 -0.568087710428
912335000 0.565871059402 -0.565525824795
912348000 0.567662306379 -0.567944854428
912361000 0.561075858937 -0.563573407347
912374000 0.559711423887 -0.560775069154
912387000 0.553900283193 -0.561333153577
912400000 0.560141156168 -0.565460784842
912413000 0.566647381587 -0.568479287911
912426000 0.566569571504 -0.5665456774
912439000 0.560316874925 -0.5674069671
912452000 0.561619348297 -0.565161792719
912465000 0.565333814216 -0.566535987701
912478000 0.567870339981 -0.566752531247
912491000 0.566073595497 -0.564410679307
912504000 0.565211802183 -0.564229021517
912517000 0.56226810892 -0.566091898142
912530000 0.559632277838 -0.573444960184
912543000 0.558791873198 -0.569443637926
912556000 0.568274362774 -0.564345105719
912569000 0.567195539365 -0.567546171606
912582000 0.563664396095 -0.567771294039
912595000 0.563187923485 -0.56403845961
912608000 0.567691310567 -0.567554589193
912621000 0.567663349413 -0.569857559988
912634000 0.564600207588 -0.568855933394
912647000 0.562231884145 -0.56627639215
912660000 0.563396219738 -0.569933486802
912673000 0.564100089051 -0.567511198734
912686000 0.560471844763 -0.568429032954
912699000 0.561554518208 -0.567514059399
912712000 0.563295790416 -0.567712027906
912725000 0.561494983213 -0.566978676665
912738000 0.564558321999 -0.568743341261
912751000 0.564098594791 -0.56538183704
912764000 0.56593523638 -0.568824866456
912777000 0.564854237997 -0.567209972736
912790000 0.562572782363 -0.566018348795
912803000 0.565038575369 -0.570136157169
912816000 0.567779632036 -0.570719991118
912829000 0.564015895884 -0.566442360331
912842000 0.565205482774 -0.564304842226
912855000 0.564848694339 -0.568650899791
912868000 0.564936025334 -0.566691015911
912881000 0.564556982773 -0.567991217853
912894000 0.563786135659 -0.567699909408
912907000 0.562744516567 -0.570750429029
912920000 0.567047447217 -0.569126657681
912933000 0.564634706331 -0.569172683819
912946000 0.564840571601 -0.56984367076
912959000 0.559812970165 -0.573101116293
912972000 0.562795122664 -0.568952915419
912985000 0.564996941779 -0.566346903031
912998000 0.564039391438 -0.567335570606
913011000 0.569189749481 -0.570042742953
913024000 0.566091867501 -0.571440652872
913037000 0.568088815228 -0.565103957855
913050000 0.565475760494 -0.562840591019
913063000 0.562235001516 -0.568876492378
913076000 0.560965965549 -0.570475899192
913089000 0.563950410394 -0.569907914366
913102000 0.559804854838 -0.56885783094
913115000 0.560654063346 -0.564321401028
913128000 0.562805590444 -0.570036956521
913141000 0.562968153893 -0.56919379329
913154000 0.564941670087 -0.567153270219
913167000 0.56728317723 -0.567197077988
913180000 0.567677377087 -0.570177503284
913193000 0.569058456919 -0.570723373203
913206000 0.564932841419 -0.570455727905
913219000 0.56177040241 -0.565084742231
913232000 0.562256060059 -0.571076505897
913245000 0.561011851907 -0.567695159158
913258000 0.56226780828 -0.570916868649
913271000 0.561191545423 -0.565897368729
913284000 0.562631297966 -0.566636694271
913297000 0.563184905033 -0.568884625138
913310000 0.564986366952 -0.571910098493
913323000 0.562904524342 -0.571947157534
913336000 0.559448554198 -0.570341311201
913349000 0.563819973075 -0.571255600561
913362000 0.565021627852 -0.575023724875
913375000 0.564886694974 -0.570681206439
913388000 0.564628670804 -0.56940670885
913401000 0.56732825171 -0.570660549737
913414000 0.567683156046 -0.564633611047
913427000 0.567170505776 -0.567850229478
913440000 0.566125951696 -0.56903871747
913453000 0.564429988786 -0.568937972826
913466000 0.567111831727 -0.566920788265
913479000 0.564880615842 -0.566714270746
913492000 0.566976788934 -0.570004392629
913505000 0.565284207989 -0.571790032895
913518000 0.568135512152 -0.5694465863
913531000 0.56814860506 -0.567062879932
913544000 0.565084251799 -0.568534600351
913557000 0.565537918944 -0.568133055551
913570000 0.565799380248 -0.571926841038
913583000 0.564862368802 -0.571258911504
913596000 0.568085096154 -0.567859809155
913609000 0.567605429312 -0.567170903713
913622000 0.567860419359 -0.569475206331
913635000 0.565711078458 -0.569619873066
913648000 0.569629959738 -0.565724471983
913661000 0.567128822782 -0.565625281876
913674000 0.565342323507 -0.563338330918
913687000 0.563636685653 -0.566940846456
913700000 0.566149661314 -0.568473644122
913713000 0.567646982319 -0.573042208253
913726000 0.565726924155 -0.573078016802
913739000 0.567785216746 -0.571779587797
913752000 0.565101628647 -0.566687688197
913765000 0.56548654667 -0.568545683563
913778000 0.57191756256 -0.570680735736
913791000 0.5701872363 -0.571033105051
913804000 0.568153029746 -0.567096157813
913817000 0.569522060361 -0.562431819925
913830000 0.56366182863 -0.56391575925
913843000 0.564281625994 -0.56767163961
913856000 0.564739539817 -0.570172632297
913869000 0.568345858555 -0.570386892967
913882000 0.567946753616 -0.57307555162
913895000 0.566396517725 -0.570304971793
913908000 0.562698314038 -0.568995900727
913921000 0.564483476626 -0.569096615454
913934000 0.567618337993 -0.567542192189
913947000 0.569608213266 -0.571096200757
913960000 0.563120167504 -0.567341525119
913973000 0.565237515834 -0.568740748963
913986000 0.562934673852 -0.566663121073
913999000 0.566160852986 -0.571036387172
914012000 0.561016104917 -0.574297674299
914025000 0.560422742303 -0.569156092182
914038000 0.558382961082 -0.566538594816
914051000 0.561433141955 -0.564966465051
914064000 0.567312532093 -0.571778778126
914077000 0.567176342846 -0.565784850264
914090000 0.570886678302 -0.57328266563
914103000 0.571784664131 -0.573848920785
914116000 0.568032952647 -0.572365837832
914129000 0.565779358945 -0.566026489379
914142000 0.565503075505 -0.564511040111
914155000 0.558903885842 -0.56310390555
914168000 0.56255823354 -0.569511238091
914181000 0.566710657406 -0.56373712866
914194000 0.570134200521 -0.56406008593
914207000 0.56483040279 -0.567542395828
914220000 0.563604235756 -0.569249128657
914233000 0.563253111979 -0.566132946565
914246000 0.569273083947 -0.56581699563
914259000 0.562683977708 -0.566669301934
914272000 0.563059912898 -0.568842574221
914285000 0.566888359775 -0.571281928261
914298000 0.564924761951 -0.569916953003
914311000 0.56081913786 -0.566627539427
914324000 0.561641902239 -0.568056195258
914337000 0.562403783042 -0.564937437848
914350000 0.55971084036 -0.565616699013
914363000 0.567716211137 -0.570176272991
914376000 0.566293018941 -0.570940324167
914389000 0.563407218474 -0.568193787085
914402000 0.562892733335 -0.567469763812
914415000 0.564132675997 -0.567808159096
914428000 0.560589405445 -0.568263495989
914441000 0.563580276307 -0.568585123619
914454000 0.566148713361 -0.569955530245
914467000 0.566698088261 -0.570438712138
914480000 0.565943677335 -0.573256693409
914493000 0.565083857908 -0.572281053685
914506000 0.570198818226 -0.568687211155
914519000 0.572055566464 -0.568447930451
914532000 0.56888163834 -0.567790728122
914545000 0.57130899451 -0.569793913329
914558000 0.566646487936 -0.567607566889
914571000 0.562370217531 -0.568146848172
914584000 0.564744484973 -0.570401126852
914597000 0.559590231479 -0.57297215352
914610000 0.563403447259 -0.569564790363
914623000 0.565546652631 -0.568057319102
914636000 0.562783825053 -0.569170115518
914649000 0.560646958146 -0.572850618967
914662000 0.558761441911 -0.565859079293
914675000 0.560294720189 -0.567681737466
914688000 0.558616524636 -0.565579670107
914701000 0.565430593297 -0.572829574004
914714000 0.563276680298 -0.570832728662
914727000 0.564945276223 -0.570651740715
914740000 0.563127468731 -0.569398246926
914753000 0.565495132274 -0.569247795125
914766000 0.562831231637 -0.567303021684
914779000 0.564222409403 -0.565784754007
914792000 0.566305792816 -0.567360750088
914805000 0.565305937405 -0.568760323835
914818000 0.561361833521 -0.566631463396
914831000 0.565452847659 -0.567146021292
914844000 0.563458725543 -0.56869540651
914857000 0.56193424742 -0.567180339976
914870000 0.564514620197 -0.56977074449
914883000 0.565560340795 -0.5674228296
914896000 0.563706987881 -0.572226303761
914909000 0.563525622486 -0.568862940437
914922000 0.563015638506 -0.567069630139
914935000 0.560905030836 -0.563423155094
914948000 0.560548714364 -0.566085747473
914961000 0.562766888413 -0.566043030823
914974000 0.566941769575 -0.564419497258
914987000 0.563670947012 -0.566985202315
915000000 0.563363471094 -0.569674719172
915013000 0.5639939529 -0.571590759812
915026000 0.56390605991 -0.572572652027
915039000 0.53335365901 -0.58135996758
915052000 0.565009676795 -0.571033570289
915065000 0.564499908559 -0.568034693456
915078000 0.561498749679 -0.570393077898
915091000 0.560542315706 -0.572180049345
915104000 0.563171214293 -0.566927390351
915117000 0.567122430813 -0.568752249696
915130000 0.563473129085 -0.568384955556
915143000 0.563684144272 -0.565393169162
915156000 0.563094515749 -0.56882648981
915169000 0.564452112518 -0.567963114594
915182000 0.56521066261 -0.571467114964
915195000 0.565810484655 -0.569478381561
915208000 0.570401655821 -0.567986423685
915221000 0.565530963418 -0.570632232817
915234000 0.561567472935 -0.569554658446
915247000 0.563019575826 -0.573993053556
915260000 0.561402405953 -0.568555082294
915273000 0.564628329149 -0.567531244261
915286000 0.567098655902 -0.571074737847
915299000 0.565950408773 -0.571576928864
915312000 0.565911997339 -0.568039993368
915325000 0.567097994233 -0.566729457602
915338000 0.566986662818 -0.564822781702
915351000 0.567204704473 -0.569150865719
915364000 0.560682301885 -0.57088155459
915377000 0.564872721914 -0.574942250695
915390000 0.564265704183 -0.572384573642
915403000 0.566356764549 -0.570058644167
915416000 0.562732522808 -0.567960126746
915429000 0.562653367875 -0.568085375492
915442000 0.565725391553 -0.573308964374
915455000 0.561975924657 -0.572608795043
915468000 0.561438272352 -0.571939436232
915481000 0.564924063589 -0.57147628639
915494000 0.561660641327 -0.568609229386
915507000 0.564023148692 -0.569505678168
915520000 0.570266516252 -0.566471223738
915533000 0.566764701383 -0.567161468597
915546000 0.564469714936 -0.570575934684
915559000 0.565259145217 -0.576004515281
915572000 0.561168093526 -0.573546522587
915585000 0.562100659652 -0.573060105055
915598000 0.564924692658 -0.571294482804
915611000 0.564914686124 -0.566096976659
915624000 0.566899371893 -0.572565440048
915637000 0.567977386128 -0.570143885579
915650000 0.56088037348 -0.571410043174
915663000 0.559150787593 -0.567675022911
915676000 0.560822378539 -0.571626283762
915689000 0.566742290851 -0.567620025343
915702000 0.567967731163 -0.568534901575
915715000 0.566882752328 -0.568984815252
915728000 0.564401162116 -0.570443609299
915741000 0.563408112804 -0.566654223998
915754000 0.564693997602 -0.565099917621
915767000 0.560334277697 -0.566141302407
915780000 0.564999213488 -0.570139190629
915793000 0.564317534128 -0.571630766043
915806000 0.566194122838 -0.570768751524
915819000 0.565036864843 -0.567868881788
915832000 0.561820997628 -0.570480142768
915845000 0.563133769176 -0.571396306478
915858000 0.563821894926 -0.568684141655
915871000 0.566493482318 -0.568110524238
915884000 0.563418846981 -0.564545520611
915897000 0.563850598818 -0.566946461896
915910000 0.567798043771 -0.568107373475
915923000 0.567718659725 -0.567427447542
915936000 0.564508933193 -0.573128786477
915949000 0.564380748151 -0.570847149885
915962000 0.563714110973 -0.573439184126
915975000 0.563634479573 -0.572387368704
915988000 0.561921052812 -0.572034306807
916001000 0.562551663997 -0.570528975557
916014000 0.562949803014 -0.568036444263
916027000 0.561182458066 -0.569431849798
916040000 0.563874739912 -0.569724708458
916053000 0.565501736857 -0.568785421704
916066000 0.567605140914 -0.569027821635
916079000 0.566675746945 -0.57209068764
916092000 0.567134814437 -0.569082681562
916105000 0.567498970449 -0.56822957539
916118000 0.564319284083 -0.568143204091
916131000 0.561208990445 -0.566165085765
916144000 0.557971929675 -0.567619525517
916157000 0.559434788117 -0.568796573407
916170000 0.563157957641 -0.568952922873
916183000 0.565849747571 -0.565685262704
916196000 0.562671696583 -0.572710500709
916209000 0.561444669293 -0.575141442496
916222000 0.566182199228 -0.569196448229
916235000 0.567329470676 -0.569857473092
916248000 0.564398434792 -0.568579965006
916261000 0.560567346888 -0.56828203701
916274000 0.56280598844 -0.569561244857
916287000 0.561330361812 -0.570536653729
916300000 0.563701819566 -0.575798937131
916313000 0.567161382902 -0.571992810806
916326000 0.566004483815 -0.573875774497
916339000 0.569808155255 -0.570954184485
916352000 0.566085491697 -0.568352563904
916365000 0.567632729026 -0.568527596702
916378000 0.564127354496 -0.566043761123
916391000 0.567999565134 -0.568176654113
916404000 0.570720337402 -0.570464403761
916417000 0.569078545542 -0.568647812765
916430000 0.565609265947 -0.565957283782
916443000 0.564717660156 -0.570280452119
916456000 0.563340590234 -0.568307458964
916469000 0.565447628032 -0.569213617611
916482000 0.492866337348 -0.572654753237
916495000 0.567614111582 -0.570690370117
916508000 0.566553011614 -0.568661879184
916521000 0.561698612378 -0.570365711229
916534000 0.566111663025 -0.572035049311
916547000 0.563061016409 -0.570214107935
916560000 0.562579866196 -0.569487242939
916573000 0.56338385555 -0.569122873426
916586000 0.564208333706 -0.569953919562
916599000 0.561896942157 -0.570384206838
916612000 0.562026517822 -0.571192829267
916625000 0.561280290347 -0.571524800241
916638000 0.563124319396 -0.57498911455
916651000 0.563112063583 -0.570861183892
916664000 0.562493349384 -0.568521022216
916677000 0.562861852133 -0.568557312966
916690000 0.562935479564 -0.56988683535
916703000 0.564118169183 -0.572513196853
916716000 0.565841084203 -0.572505687202
916729000 0.568174056043 -0.568964906744
916742000 0.564861990754 -0.570710667077
916755000 0.565423421223 -0.572132831968
916768000 0.563949363068 -0.572051248606
916781000 0.560540913921 -0.571972810767
916794000 0.561861060351 -0.569127636542
916807000 0.558432201921 -0.569591737027
916820000 0.559242177805 -0.568758839431
916833000 0.56405033755 -0.570309479738
916846000 0.566260434138 -0.567612031849
916859000 0.563716515532 -0.570672249426
916872000 0.564382687698 -0.565926272095
916885000 0.564147863593 -0.571505914316
916898000 0.56631446398 -0.568558899982
916911000 0.550545248764 -0.569834122476
916924000 0.560355265719 -0.569152776701
916937000 0.56451654623 -0.569245816588
916950000 0.564418243871 -0.566921310258
916963000 0.566641633576 -0.569022619439
916976000 0.568273525768 -0.569568899389
916989000 0.568129703602 -0.569980837145
917002000 0.566098991493 -0.575155624213
917015000 0.569622961047 -0.573672971218
917028000 0.566351131676 -0.572627120156
917041000 0.563088904332 -0.568142272127
917054000 0.56320511664 -0.569103291352
917067000 0.561275122369 -0.569086288385
917080000 0.561951772718 -0.569801379043
917093000 0.559719159327 -0.570120964962
917106000 0.562361319657 -0.571252263634
917119000 0.564780543785 -0.570486284937
917132000 0.566815297138 -0.572399119401
917145000 0.563514787266 -0.57192226341
917158000 0.562132968761 -0.568838820731
917171000 0.559523477182 -0.571245298951
917184000 0.562504978642 -0.570657444647
917197000 0.565304970254 -0.56595736203
917210000 0.566668859022 -0.569668087042
917223000 0.570179238585 -0.568898657438
917236000 0.567607375878 -0.569200924235
917249000 0.563728595354 -0.57130056246
917262000 0.562881869781 -0.569032741354
917275000 0.565134768281 -0.569798520394
917288000 0.563890539793 -0.565240102492
917301000 0.562694640566 -0.563016400974
917314000 0.564007275191 -0.567881329355
917327000 0.563213753244 -0.569983848649
917340000 0.566227983559 -0.573263832811
917353000 0.562826767167 -0.570754444738
917366000 0.56311076307 -0.571886812736
917379000 0.563128893039 -0.571622175987
917392000 0.564847193895 -0.572357196206
917405000 0.561860252131 -0.567343795516
917418000 0.561325635406 -0.568964342513
917431000 0.56207640228 -0.572028899229
917444000 0.564558885069 -0.574926174235
917457000 0.559740587791 -0.570675247004
917470000 0.557064786913 -0.569614895518
917483000 0.559172184457 -0.56993483938
917496000 0.561255032265 -0.569615505234
917509000 0.562546416064 -0.572433446774
917522000 0.56315065457 -0.571091584872
917535000 0.562349352003 -0.569983944473
917548000 0.559144453145 -0.573339188769
917561000 0.561729301074 -0.577138362327
917574000 0.563487135905 -0.574823248182
917587000 0.566828479603 -0.568081239758
917600000 0.56173850816 -0.568944368363
917613000 0.563289981672 -0.571438193965
917626000 0.563012057393 -0.568021917692
917639000 0.563128469061 -0.566175792904
917652000 0.564617323709 -0.562981123533
917665000 0.562820710054 -0.563461224022
917678000 0.567253043827 -0.56319598885
917691000 0.566850824136 -0.564522790888
917704000 0.565344674059 -0.572996715867
917717000 0.565915736351 -0.570190341126
917730000 0.5683544244 -0.573070058865
917743000 0.568059178551 -0.572826601361
917756000 0.563458829989 -0.572235498166
917769000 0.562316287251 -0.56962591832
917782000 0.562106276351 -0.567374667079
917795000 0.563724776282 -0.567948963373
917808000 0.563245162047 -0.564403876376
917821000 0.563313326293 -0.565558950311
917834000 0.560274043283 -0.569209350733
917847000 0.563884907378 -0.57325181253
917860000 0.56730858985 -0.573909001479
917873000 0.566691633486 -0.57135974826
917886000 0.569141582957 -0.572530051524
917899000 0.567294703418 -0.57326576406
917912000 0.568309346626 -0.573073014904
917925000 0.565248410076 -0.571391207259
917938000 0.566637624238 -0.569727838542
917951000 0.568377035647 -0.572043792905
917964000 0.562735862012 -0.57141942854
917977000 0.564223231053 -0.569767252825
917990000 0.56323129669 -0.572666229239
918003000 0.564926871179 -0.57052344974
918016000 0.566902455913 -0.573078785943
918029000 0.565185246922 -0.57134340161
918042000 0.559173397725 -0.569998468671
918055000 0.564249205759 -0.567392203394
918068000 0.567784825668 -0.569243346645
918081000 0.568655282955 -0.570252126095
918094000 0.563751071081 -0.573874786491
918107000 0.560845763142 -0.573438037374
918120000 0.561777234496 -0.574921382779
918133000 0.560067803304 -0.571789826046
918146000 0.562314999346 -0.573206608185
918159000 0.563285896563 -0.572318059041
918172000 0.566418464339 -0.57395135364
918185000 0.564695259178 -0.571157044837
918198000 0.565099248308 -0.573418771795
918211000 0.56518683088 -0.56883281608
918224000 0.564644919874 -0.568493867666
918237000 0.564613130664 -0.56694247402
918250000 0.564252595174 -0.570984707046
918263000 0.562291881209 -0.570487891251
918276000 0.563136781931 -0.570940295494
918289000 0.561293242191 -0.569451002748
918302000 0.564683697684 -0.575792605116
918315000 0.561931814223 -0.575029634939
918328000 0.564688016923 -0.572935937025
918341000 0.567059066142 -0.573385228177
918354000 0.566015596286 -0.569908615405
918367000 0.569979157282 -0.572131763674
918380000 0.565585470767 -0.573262935827
918393000 0.563630309571 -0.568571880696
918406000 0.561165165042 -0.570292927244
918419000 0.562094008533 -0.57233081859
918432000 0.562732181465 -0.569260573748
918445000 0.56223817675 -0.57051969629
918458000 0.559927896172 -0.572458124229
918471000 0.561235406079 -0.5729785029
918484000 0.563755993301 -0.575132787756
918497000 0.564073983626 -0.569845029237
918510000 0.564187118313 -0.567974745412
918523000 0.561850205968 -0.568366660564
918536000 0.559137396931 -0.568326243816
918549000 0.562894963438 -0.568879363337
918562000 0.566009111717 -0.570187189382
918575000 0.565060993173 -0.572113974876
918588000 0.566513368004 -0.571655707719
918601000 0.569726795887 -0.574600143145
918614000 0.564795431467 -0.577255129879
918627000 0.561666145884 -0.571275417328
918640000 0.561672962163 -0.573452257776
918653000 0.56294457415 -0.571519870867
918666000 0.563757194099 -0.572504034581
918679000 0.564157009054 -0.573381017007
918692000 0.561915435496 -0.574114710242
918705000 0.561931705791 -0.572357764602
918718000 0.563669606671 -0.568563676245
918731000 0.565150949229 -0.56959340839
918744000 0.563107375308 -0.568384887846
918757000 0.569083932045 -0.570934768135
918770000 0.565078342135 -0.573921307318
918783000 0.562966965429 -0.571441375206
918796000 0.565902987547 -0.568431046253
918809000 0.557363905263 -0.571593941011
918822000 0.556097803612 -0.571740830377
918835000 0.558125704212 -0.571883774457
918848000 0.562349137188 -0.572249749968
918861000 0.56298567369 -0.568982146823
918874000 0.561363931488 -0.570604660086
918887000 0.561545976182 -0.566516664139
918900000 0.563863777895 -0.570033823023
918913000 0.561632065685 -0.56793765003
918926000 0.56650974034 -0.5701137637
918939000 0.564568451436 -0.574349132746
918952000 0.563325780955 -0.56894661783
918965000 0.568063427145 -0.571345232522
918978000 0.568814424947 -0.575138090455
918991000 0.568360997751 -0.570636740118
919004000 0.569251857202 -0.570590717471
919017000 0.564990516441 -0.573347118723
919030000 0.5644047603 -0.574691192149
919043000 0.564203599041 -0.572529877624
919056000 0.561912886294 -0.574193160398
919069000 0.555826852306 -0.578474825714
919082000 0.547934819095 -0.588269020407
919095000 0.549745223954 -0.578762738401
919108000 0.55528302404 -0.576908658572
919121000 0.560637024707 -0.570948391734
919134000 0.559816263311 -0.568304069704
919147000 0.564766874974 -0.569607350495
919160000 0.565905930167 -0.571914779511
919173000 0.564464877263 -0.570301010779
919186000 0.563107506735 -0.571441329889
919199000 0.56324339775 -0.57693928307
919212000 0.564039156465 -0.569463758996
919225000 0.564660953506 -0.567754751411
919238000 0.564230833597 -0.566937928539
919251000 0.566304271435 -0.570890246631
919264000 0.566323514973 -0.568257070373
919277000 0.565570300765 -0.565551391074
919290000 0.557066487864 -0.570295826642
919303000 0.560352228996 -0.574648050542
919316000 0.565834181746 -0.568744630841
919329000 0.562785514341 -0.570392191643
919342000 0.561187113347 -0.56733061841
919355000 0.561156453205 -0.567659138401
919368000 0.565456355506 -0.569574336555
919381000 0.561851885263 -0.573524005698
919394000 0.56203656601 -0.5781625856
919407000 0.565437284198 -0.571731757666
919420000 0.557159657651 -0.57222241086
919433000 0.557181494036 -0.580176390951
919446000 0.555982507254 -0.570726298701
919459000 0.558066265614 -0.577028198998
919472000 0.561268926047 -0.571682960197
919485000 0.56960940585 -0.573724041999
919498000 0.566962987532 -0.571510467692
919511000 0.570327125558 -0.571113876332
919524000 0.562773302801 -0.574202883391
919537000 0.564732625456 -0.569434302891
919550000 0.565260845506 -0.570738623553
919563000 0.564783063827 -0.570568788335
919576000 0.563411414671 -0.570555381989
919589000 0.563823829782 -0.569657409472
919602000 0.563522206819 -0.571767455797
919615000 0.562700444862 -0.571572237118
919628000 0.563242155032 -0.569398130439
919641000 0.564849735504 -0.570247253981
919654000 0.56562123236 -0.572827666211
919667000 0.564804522109 -0.573421370281
919680000 0.566482479312 -0.569277924318
919693000 0.566994207189 -0.569904138408
919706000 0.568409144176 -0.573499992266
919719000 0.563806442353 -0.571589747086
919732000 0.56413793392 -0.572319090863
919745000 0.559328501202 -0.570708644851
919758000 0.563181549777 -0.574134985045
919771000 0.563871284438 -0.568811172095
919784000 0.564514946243 -0.567826063307
919797000 0.565736950712 -0.570790639164
919810000 0.567569116081 -0.571789885021
919823000 0.564758597692 -0.569955372555
919836000 0.56149556221 -0.572202527394
919849000 0.563019909863 -0.575523379444
919862000 0.562357403321 -0.572025832194
919875000 0.561721642831 -0.569969567704
919888000 0.556954805555 -0.566756125732
919901000 0.56279281971 -0.57581198908
919914000 0.567386563562 -0.57042342795
919927000 0.564564684561 -0.571055915286
919940000 0.564989808308 -0.57197560132
919953000 0.568828374819 -0.573161407348
919966000 0.568613397183 -0.569212722451
919979000 0.562257825786 -0.568855462726
919992000 0.566158514166 -0.572217508601
920005000 0.56546157038 -0.567656447144
920018000 0.561416233643 -0.568345306486
920031000 0.567844024565 -0.574705307157
920044000 0.561445616499 -0.572639241191
920057000 0.562108152019 -0.567211250068
920070000 0.554253151147 -0.566124496022
920083000 0.566267149036 -0.565957797419
920096000 0.558676510696 -0.576430425507
920109000 0.564812872485 -0.576263553059
920122000 0.564416001137 -0.575671547317
920135000 0.558516137689 -0.576114066996
920148000 0.563253204143 -0.571813908521
920161000 0.565170267583 -0.571202546771
920174000 0.565926730646 -0.573665106045
920187000 0.564515057405 -0.575923719463
920200000 0.559250819314 -0.573801262407
920213000 0.561285982404 -0.570759299408
920226000 0.568929165039 -0.567969570661
920239000 0.562689121812 -0.572719437899
920252000 0.564826579119 -0.572438618948
920265000 0.566711971201 -0.573378048088
920278000 0.560602749638 -0.570973504922
920291000 0.562972965912 -0.580016500472
920304000 0.562609674574 -0.574366527634
920317000 0.561553495817 -0.573463667812
920330000 0.563997793193 -0.569936632565
920343000 0.557275466166 -0.571630971834
920356000 0.558489696514 -0.568485768818
920369000 0.56502339768 -0.573487439677
920382000 0.56514717102 -0.571701418096
920395000 0.567718018996 -0.570477354538
920408000 0.569550897915 -0.573037059766
920421000 0.568548182296 -0.575095880525
920434000 0.563656938915 -0.571976635714
920447000 0.561601720471 -0.574467406024
920460000 0.561952291442 -0.575936563851
920473000 0.56214131558 -0.580933256605
920486000 0.561507347768 -0.574582007784
920499000 0.5622345133 -0.572837210612
920512000 0.560819301802 -0.570588241717
920525000 0.560367228032 -0.57228796453
920538000 0.559651187405 -0.576517979675
920551000 0.562663393708 -0.576779730875
920564000 0.559350916857 -0.572065664091
920577000 0.566539509527 -0.568964213733
920590000 0.562917795956 -0.569783954168
920603000 0.567190415251 -0.574536939287
920616000 0.56342136537 -0.577282942168
920629000 0.563866105222 -0.577871374308
920642000 0.563005631219 -0.574374692139
920655000 0.565040095085 -0.571903474923
920668000 0.564470029744 -0.570965952472
920681000 0.567649604998 -0.575833654194
920694000 0.567557764093 -0.565822715012
920707000 0.56552249591 -0.572159749656
920720000 0.566469489744 -0.569498405422
920733000 0.563498322806 -0.574649866187
920746000 0.561773916803 -0.572864936272
920759000 0.567602020891 -0.570194532463
920772000 0.560337517802 -0.574842068811
920785000 0.560502371223 -0.572277219393
920798000 0.561110367339 -0.571868750734
920811000 0.556823653462 -0.572059815049
920824000 0.561817755533 -0.572835792233
920837000 0.559533284386 -0.574353819333
920850000 0.567286153768 -0.571354250033
920863000 0.562820535142 -0.569820204619
920876000 0.564322940328 -0.573586101283
920889000 0.565755926609 -0.572006484969
920902000 0.562229177741 -0.571957559394
920915000 0.560005184123 -0.571110289921
920928000 0.564007047399 -0.57748017715
920941000 0.559753842797 -0.573061350781
920954000 0.559747095359 -0.576508259707
920967000 0.560181895413 -0.570614922415
920980000 0.557946055534 -0.569726722672
920993000 0.563310276398 -0.568175246263
921006000 0.563021730554 -0.562392980798
921019000 0.565837462742 -0.571332870866
921032000 0.57050128474 -0.57683146891
921045000 0.566161942959 -0.568470245474
921058000 0.562841559664 -0.570170304887
921071000 0.565674787978 -0.574216402605
921084000 0.565760693305 -0.573145559658
921097000 0.565211298889 -0.568614455904
921110000 0.563283998282 -0.569462253009
921123000 0.561003608528 -0.575580570014
921136000 0.561131502984 -0.572451647981
921149000 0.561265431048 -0.572561126029
921162000 0.562775421442 -0.575137051195
921175000 0.563947568122 -0.577395076592
921188000 0.566423532572 -0.578009377664
921201000 0.56692551159 -0.577387985403
921214000 0.56338965111 -0.572024053997
921227000 0.562010625716 -0.574225573688
921240000 0.563220174482 -0.573129310046
921253000 0.564145677046 -0.57313242538
921266000 0.563768720667 -0.57773486452
921279000 0.563858539679 -0.573469646937
921292000 0.559984915136 -0.569422319661
921305000 0.562509980802 -0.567238774081
921318000 0.56352303074 -0.570198555839
921331000 0.561322223858 -0.569479494123
921344000 0.566000970731 -0.568014957261
921357000 0.565755523129 -0.570836433399
921370000 0.564970686057 -0.567940580539
921383000 0.561431124244 -0.568367969109
921396000 0.559935629734 -0.568542741098
921409000 0.558000909966 -0.569398493813
921422000 0.562792139034 -0.568256586853
921435000 0.561601246194 -0.578975233481
921448000 0.562718485333 -0.575896067972
921461000 0.560989942023 -0.574864789515
921474000 0.562026285844 -0.570287454006
921487000 0.567024810757 -0.571551086503
921500000 0.562156862669 -0.575758677676
921513000 0.565068987496 -0.572538564124
921526000 0.560940611631 -0.576438729395
921539000 0.563689930474 -0.574525913612
921552000 0.56091258368 -0.569798635221
921565000 0.565160006144 -0.575779934995
921578000 0.561015622224 -0.568950368005
921591000 0.558211782808 -0.570210616326
921604000 0.558652451488 -0.576280184034
921617000 0.560694911349 -0.570105031159
921630000 0.562812854488 -0.574976425539
921643000 0.562807664891 -0.576031084476
921656000 0.566939550427 -0.574645221244
921669000 0.561688061269 -0.571001898846
921682000 0.55990372954 -0.576870624823
921695000 0.561023243469 -0.578356413738
921708000 0.564341804868 -0.574155675574
921721000 0.561544195771 -0.575105184183
921734000 0.562203330019 -0.570519381
921747000 0.558964748951 -0.57053473896
921760000 0.555521226326 -0.571849820264
921773000 0.564723547656 -0.572778194579
921786000 0.559297737716 -0.573096354754
921799000 0.561443126651 -0.577152536263
921812000 0.560592775714 -0.572438832534
921825000 0.563983018514 -0.574282475888
921838000 0.562214937277 -0.577186504186
921851000 0.561902052395 -0.572755022803
921864000 0.560048042973 -0.575192438568
921877000 0.561696808221 -0.568247355535
921890000 0.563122261376 -0.568607076777
921903000 0.561374481116 -0.569804339693
921916000 0.564014188696 -0.570156063676
921929000 0.566335072164 -0.574457871529
921942000 0.564481357688 -0.573343092929
921955000 0.559765695555 -0.573836230115
921968000 0.559513598765 -0.57624504844
921981000 0.563102439185 -0.573955667865
921994000 0.567395945431 -0.575473620068
922007000 0.563508404699 -0.570601272851
922020000 0.563918293743 -0.570620128018
922033000 0.562914582299 -0.571550183498
922046000 0.566079136649 -0.568415877366
922059000 0.568181290503 -0.573900488266
922072000 0.567376099166 -0.579580804056
922085000 0.566541282864 -0.575092770712
922098000 0.560728206095 -0.572638566709
922111000 0.562050172479 -0.570174753892
922124000 0.562646097784 -0.575107304456
922137000 0.561103441907 -0.577267740432
922150000 0.565318970046 -0.573378200944
922163000 0.565691213607 -0.579483105506
922176000 0.560604917183 -0.576071848093
922189000 0.557002974615 -0.574196625103
922202000 0.561273163457 -0.575648461719
922215000 0.563681784662 -0.574803902659
922228000 0.565681969284 -0.572871074455
922241000 0.562628820959 -0.574092148735
922254000 0.565204970804 -0.572436116105
922267000 0.563289887635 -0.574098372148
922280000 0.564256431642 -0.573687278307
922293000 0.568371614002 -0.570838577489
922306000 0.562170972583 -0.570119218302
922319000 0.562605901919 -0.574432150903
922332000 0.556745300629 -0.577844906314
922345000 0.565066851548 -0.57575086877
922358000 0.567086189833 -0.577971664384
922371000 0.565994977432 -0.572962496634
922384000 0.561286802923 -0.576330700548
922397000 0.563886233983 -0.578385411973
922410000 0.559660044678 -0.575491160858
922423000 0.560073991808 -0.570243353063
922436000 0.563704093463 -0.569803973435
922449000 0.568656766341 -0.57405336763
922462000 0.567925322233 -0.570225244867
922475000 0.562627018005 -0.575891294668
922488000 0.561482456072 -0.5753777711
922501000 0.561991000028 -0.575691750295
922514000 0.565078020634 -0.573020208799
922527000 0.565564701237 -0.573790197294
922540000 0.56494557961 -0.575433575686
922553000 0.565274348625 -0.575094559364
922566000 0.562878066528 -0.578659812821
922579000 0.561735489378 -0.574230643983
922592000 0.56341976292 -0.57366799565
922605000 0.563202265296 -0.571250231822
922618000 0.562369240639 -0.56893633323
922631000 0.564491210601 -0.571260004677
922644000 0.563055092789 -0.571804960277
922657000 0.562867455363 -0.575103663524
922670000 0.562052598781 -0.5755573301
922683000 0.563327459209 -0.57446845917
922696000 0.563201443653 -0.569485188514
922709000 0.564860861226 -0.570417562294
922722000 0.561651299179 -0.57008025823
922735000 0.562703399858 -0.572681171517
922748000 0.561546099168 -0.574368265053
922761000 0.558713729964 -0.575549430438
922774000 0.558322526545 -0.573105001571
922787000 0.562453171003 -0.569854626119
922800000 0.562012170616 -0.573688141205
922813000 0.559442577204 -0.576619832361
922826000 0.559761712247 -0.574495303454
922839000 0.559067529174 -0.573779772535
922852000 0.560034741197 -0.576212005737
922865000 0.560141934025 -0.574738218548
922878000 0.555698641886 -0.579446217122
922891000 0.560306053945 -0.576107285215
922904000 0.563028721049 -0.57389778902
922917000 0.568806116147 -0.576380377252
922930000 0.561666212162 -0.567625844857
922943000 0.559061040156 -0.570285283588
922956000 0.562831502804 -0.573546018382
922969000 0.56146727832 -0.576538656278
922982000 0.586304501758 -0.532921903617
922995000 0.562807673977 -0.572330750079
923008000 0.560960727039 -0.572491918158
923021000 0.55905262761 -0.57140297556
923034000 0.55935110151 -0.573198391421
923047000 0.564923302375 -0.580013261654
923060000 0.561782049614 -0.572168626612
923073000 0.565033472941 -0.580318533736
923086000 0.565188650511 -0.575098230917
923099000 0.566724947507 -0.570040712286
923112000 0.568601865205 -0.572017141002
923125000 0.562895671617 -0.5683516432
923138000 0.562619050244 -0.571606141845
923151000 0.552740489695 -0.566156953184
923164000 0.569432726104 -0.574799027937
923177000 0.564391057293 -0.574228153473
923190000 0.563357974105 -0.570943854933
923203000 0.559401458326 -0.57303381267
923216000 0.563863376123 -0.574211067623
923229000 0.561312893213 -0.575880738054
923242000 0.565387382183 -0.575970611543
923255000 0.566757982694 -0.576823452379
923268000 0.567416752101 -0.578479517274
923281000 0.561204419846 -0.579059819389
923294000 0.566909406616 -0.576784673714
923307000 0.561845800302 -0.575642881751
923320000 0.566695449207 -0.572170881411
923333000 0.565405117161 -0.577352576944
923346000 0.569070067562 -0.574703650514
923359000 0.565143925186 -0.574499777361
923372000 0.564645153111 -0.576952320516
923385000 0.564910651823 -0.573938322444
923398000 0.560821609169 -0.573645784423
923411000 0.557724752879 -0.57281188953
923424000 0.561924319438 -0.569484690201
923437000 0.560302656994 -0.572043098781
923450000 0.563423428412 -0.574741391199
923463000 0.560694632852 -0.575410203226
923476000 0.560353833797 -0.575008800051
923489000 0.562066874323 -0.578147308583
923502000 0.562418547421 -0.574126329335
923515000 0.56006219753 -0.574168486011
923528000 0.564142486972 -0.571551646229
923541000 0.569239005199 -0.574432971242
923554000 0.566568657042 -0.574658822194
923567000 0.559794346459 -0.570264129542
923580000 0.558219362231 -0.574685640612
923593000 0.565372033226 -0.576368090633
923606000 0.563993752364 -0.577585886657
923619000 0.56014378059 -0.575744153061
923632000 0.565264129288 -0.569886726711
923645000 0.566865620077 -0.579242749565
923658000 0.564022714002 -0.580122405789
923671000 0.567568468422 -0.573674882506
923684000 0.567520248778 -0.572447867344
923697000 0.562154643381 -0.567046347227
923710000 0.558544867664 -0.570769154974
923723000 0.56255155933 -0.569926289098
923736000 0.561811042847 -0.576009374144
923749000 0.561623144736 -0.580635727268
923762000 0.560186859283 -0.571711708641
923775000 0.560851608332 -0.579206168925
923788000 0.562729187239 -0.578777975378
923801000 0.561421379847 -0.57596759868
923814000 0.558975920487 -0.575693654903
923827000 0.568739660186 -0.5687244343
923840000 0.563359335177 -0.579226176967
923853000 0.565945314607 -0.582408909178
923866000 0.556614479493 -0.583294323915
923879000 0.56967747976 -0.585336166175
923892000 0.559632322668 -0.570581403529
923905000 0.557751974373 -0.581185103124
923918000 0.553742617948 -0.575923512171
923931000 0.557219094049 -0.57100470637
923944000 0.560983200242 -0.575493813511
923957000 0.561602525595 -0.574063630444
923970000 0.559044323362 -0.581555770887
923983000 0.564238329256 -0.57811407813
923996000 0.559133086201 -0.576998030051
924009000 0.562745890019 -0.573512282455
924022000 0.559102313363 -0.573847048984
924035000 0.557361588545 -0.574958463893
924048000 0.560077537317 -0.588494014523
924061000 0.547154154952 -0.566062147871
924074000 0.56387273594 -0.569750140925
924087000 0.561815016429 -0.571927795709
924100000 0.560191966919 -0.572452516043
924113000 0.567663181605 -0.582777029209
924126000 0.56442681105 -0.575606872941
924139000 0.561037783966 -0.575469362483
924152000 0.56403489053 -0.580170221746
924165000 0.561324349638 -0.578038924225
924178000 0.564814532986 -0.580845098451
924191000 0.565254987604 -0.574117122867
924204000 0.560911548093 -0.57645822136
924217000 0.558409762772 -0.578746814539
924230000 0.562028147489 -0.581355733902
924243000 0.556808779614 -0.579830805247
924256000 0.555847594972 -0.57199899363
924269000 0.56097549248 -0.577307792025
924282000 0.562395663502 -0.580856988802
924295000 0.55940162018 -0.576873681115
924308000 0.559634038622 -0.577273337264
924321000 0.559186288658 -0.575066234528
924334000 0.559491271686 -0.573990790587
924347000 0.557882758019 -0.572346777241
924360000 0.557057537587 -0.578582978855
924373000 0.562210029062 -0.573728653602
924386000 0.564094071188 -0.578167225432
924399000 0.561451232814 -0.576600255063
924412000 0.565394886115 -0.58030227518
924425000 0.551431355304 -0.575327605398
924438000 0.559419981102 -0.576933640486
924451000 0.567155855184 -0.580582428437
924464000 0.567123171745 -0.577486472244
924477000 0.56816320115 -0.570079059632
924490000 0.563012166591 -0.566707808815
924503000 0.558619959778 -0.570943570148
924516000 0.560780097978 -0.572622210298
924529000 0.550829499454 -0.571693839155
924542000 0.555359059011 -0.570139347574
924555000 0.560762762435 -0.577211653739
924568000 0.563223601229 -0.579472794262
924581000 0.563112361871 -0.576345141214
924594000 0.563653652071 -0.573849768632
924607000 0.555398759889 -0.56602949122
924620000 0.551823446126 -0.583459258776
924633000 0.56829592859 -0.576104079479
924646000 0.564842431685 -0.578592843974
924659000 0.56677939678 -0.572842492611
924672000 0.56327643725 -0.590161044988
924685000 0.573586520891 -0.573037055246
924698000 0.566146726768 -0.576229354356
924711000 0.558759475677 -0.573560516893
924724000 0.56346837211 -0.571041690185
924737000 0.563558058294 -0.571104145241
924750000 0.564080314281 -0.5768072537
924763000 0.558852542435 -0.577932947426
924776000 0.568531887635 -0.585217153665
924789000 0.556416034729 -0.559633361021
924802000 0.555854279142 -0.582864025252
924815000 0.57066109119 -0.574241291933
924828000 0.552536518494 -0.571193425952
924841000 0.56383067162 -0.586300509209
924854000 0.561879695053 -0.576986955172
924867000 0.56359893602 -0.580641585011
924880000 0.565200841403 -0.577018813092
924893000 0.559562372228 -0.580922314881
924906000 0.560785526591 -0.575748930793
924919000 0.556780475024 -0.57350712377
924932000 0.562100007577 -0.577378682332
924945000 0.556301551913 -0.574219782277
924958000 0.560600508348 -0.576729533118
924971000 0.559523470443 -0.575148835212
924984000 0.558194842018 -0.573408339678
924997000 0.56162839456 -0.574326643512
925010000 0.563776985132 -0.580020514523
925023000 0.564782504248 -0.579768309049
925036000 0.568517618847 -0.577175583633
925049000 0.561456762012 -0.57552532373
925062000 0.5614204616 -0.576912780296
925075000 0.560940699797 -0.576780780778
925088000 0.561727503493 -0.583019672083
925101000 0.563903335827 -0.577276569756
925114000 0.557956277032 -0.579090125485
925127000 0.56043919375 -0.56730651677
925140000 0.556509605772 -0.558873602527
925153000 0.568603043219 -0.554038362384
925166000 0.562660997556 -0.559672092737
925179000 0.561217502987 -0.574607370057
925192000 0.557897744204 -0.57066807199
925205000 0.555544126933 -0.583903100732
925218000 0.553328835945 -0.565082683383
925231000 0.569486113183 -0.568722323872
925244000 0.559025671745 -0.573760299937
925257000 0.559525315914 -0.569613836862
925270000 0.555218678835 -0.565982369225
925283000 0.567310068521 -0.576338268961
925296000 0.557938295021 -0.575912485212
925309000 0.555816129704 -0.571006570703
925322000 0.559086593281 -0.582604985567
925335000 0.559820208955 -0.580304007863
925348000 0.559902781501 -0.575268021343
925361000 0.562274358302 -0.577281930614
925374000 0.565195230293 -0.574269796052
925387000 0.565634523281 -0.578542643799
925400000 0.570299309462 -0.581069297112
925413000 0.564969821604 -0.5756584938
925426000 0.563134252644 -0.578217354393
925439000 0.564129236576 -0.569641082483
925452000 0.562293104242 -0.571109721925
925465000 0.560239461575 -0.576566201162
925478000 0.567558089478 -0.575150672175
925491000 0.568141685432 -0.56959029427
925504000 0.569803995741 -0.57105667359
925517000 0.571299393368 -0.575525265728
925530000 0.563713073326 -0.569293672878
925543000 0.55666210056 -0.579156032845
925556000 0.558514871684 -0.583515462142
925569000 0.557473444843 -0.570468019544
925582000 0.555428077525 -0.578023639414
925595000 0.556909265353 -0.574565034257
925608000 0.556302134007 -0.575436025776
925621000 0.557341579599 -0.585351703741
925634000 0.564343630664 -0.576149748247
925647000 0.560925224368 -0.582344763907
925660000 0.561318888853 -0.575841693156
925673000 0.556229131737 -0.581025761095
925686000 0.565862856869 -0.581859383187
925699000 0.563145120862 -0.574575303866
925712000 0.564404551691 -0.582663225575
925725000 0.556779443781 -0.582725754611
925738000 0.555477830873 -0.577590195319
925751000 0.556975175803 -0.57532980744
925764000 0.557146695036 -0.581868774217
925777000 0.562260737898 -0.571970231803
925790000 0.558624606214 -0.575104771325
925803000 0.56588720675 -0.575631806391
925816000 0.56242728744 -0.582881597396
925829000 0.562633250242 -0.576836995365
925842000 0.556364798579 -0.579653702564
925855000 0.565042142824 -0.581980844435
925868000 0.559762121895 -0.575052001425
925881000 0.563580121965 -0.574971423463
925894000 0.568499754879 -0.57691206641
925907000 0.561606124848 -0.57679218786
925920000 0.56570399891 -0.580825170532
925933000 0.570032081474 -0.580983191084
925946000 0.55918293061 -0.577875713173
925959000 0.562182149856 -0.574687400692
925972000 0.562093388189 -0.570063442057
925985000 0.556466391439 -0.580804626523
925998000 0.554468788691 -0.583586245729
926011000 0.550928154299 -0.577177838835
926024000 0.563029060904 -0.577484297853
926037000 0.561127369295 -0.580914473626
926050000 0.55774577308 -0.571607435336
926063000 0.545947594775 -0.579205275544
926076000 0.572509759541 -0.584231791848
926089000 0.561001702761 -0.578348314399
926102000 0.559384635174 -0.576015445378
926115000 0.569811732325 -0.570129204609
926128000 0.572708602345 -0.577154068541
926141000 0.553984107371 -0.574238172595
926154000 0.557506085194 -0.567436155512
926167000 0.554164951299 -0.572164681055
926180000 0.566678548093 -0.575766360987
926193000 0.559258936959 -0.572692812829
926206000 0.568967618401 -0.580675824426
926219000 0.564350831586 -0.565488564727
926232000 0.553614234885 -0.571359247787
926245000 0.554018553028 -0.565850240116
926258000 0.552521040883 -0.569274336638
926271000 0.563479513735 -0.57677798406
926284000 0.567916400418 -0.571558094418
926297000 0.564176850751 -0.573609846453
926310000 0.553917790689 -0.567488026286
926323000 0.574398033536 -0.584889084912
926336000 0.562486900299 -0.576841443494
926349000 0.555399839991 -0.573001180922
926362000 0.554893715105 -0.583694575919
926375000 0.562758479221 -0.580494358627
926388000 0.557229539224 -0.577121871881
926401000 0.562853793613 -0.572304758548
926414000 0.561319609193 -0.575318935614
926427000 0.561705021609 -0.579758731989
926440000 0.562476547123 -0.57563224646
926453000 0.565839630033 -0.57003150192
926466000 0.564101359861 -0.572608479594
926479000 0.557444708632 -0.577548771147
926492000 0.561097904822 -0.576803225095
926505000 0.562766254953 -0.584740586577
926518000 0.565738053575 -0.577947368386
926531000 0.560400734423 -0.574502364652
926544000 0.55770383683 -0.573788601551
926557000 0.559848091683 -0.576481241928
926570000 0.559564579413 -0.576320603452
926583000 0.555945353146 -0.573332695611
926596000 0.559985950687 -0.569199524325
926609000 0.557333341205 -0.575304654029
926622000 0.566028179305 -0.580040832119
926635000 0.558581462901 -0.583693603282
926648000 0.562012878593 -0.58373437871
926661000 0.562041765205 -0.58073757107
926674000 0.559041450214 -0.575594013013
926687000 0.569057661571 -0.57940626536
926700000 0.562839719349 -0.578551803162
926713000 0.566131109996 -0.578038115008
926726000 0.557660608262 -0.566229954865
926739000 0.564059239514 -0.583700246625
926752000 0.556854313506 -0.5731837096
926765000 0.56451349219 -0.569827970534
926778000 0.551009813571 -0.581526819369
926791000 0.562991992176 -0.590257555719
926804000 0.549820001781 -0.58284331226
926817000 0.555967092327 -0.582937891443
926830000 0.554713588844 -0.574737592108
926843000 0.554961879785 -0.565820677032
926856000 0.551251663986 -0.569982061205
926869000 0.565604109302 -0.590169437716
926882000 0.558024871381 -0.577528268863
926895000 0.552163400679 -0.584226012685
926908000 0.553067201005 -0.584643208822
926921000 0.561105666303 -0.572760424917
926934000 0.553046776677 -0.585058537717
926947000 0.557096775896 -0.581696782899
926960000 0.556822119006 -0.579997118476
926973000 0.556225043637 -0.573959477099
926986000 0.554527402062 -0.575751406225
926999000 0.562087553215 -0.580679607253
927012000 0.561970078282 -0.575517614982
927025000 0.562465344743 -0.57417410291
927038000 0.563835704375 -0.583357676167
927051000 0.562700406127 -0.575692729909
927064000 0.562342941724 -0.570823335041
927077000 0.545868713799 -0.581210127138
927090000 0.558614877721 -0.577575782443
927103000 0.561976920244 -0.57368697816
927116000 0.556929279205 -0.574171173812
927129000 0.55853118972 -0.577312679601
927142000 0.549475701441 -0.58908655387
927155000 0.555925253885 -0.573149436903
927168000 0.561810653808 -0.578794218771
927181000 0.565567346432 -0.575559856476
927194000 0.556671731043 -0.577661907394
927207000 0.564990783253 -0.577516617286
927220000 0.565065818307 -0.578464312131
927233000 0.559854012436 -0.580940382247
927246000 0.558858597531 -0.576403567736
927259000 0.556956003553 -0.577724597795
927272000 0.561192336756 -0.576609633495
927285000 0.560651906449 -0.579517564781
927298000 0.557286142589 -0.581918016922
927311000 0.560282172694 -0.586919439515
927324000 0.564355866892 -0.582124868285
927337000 0.560555931852 -0.58507495093
927350000 0.561113604818 -0.58085113357
927363000 0.5568094019 -0.581292899017
927376000 0.560152898968 -0.576678468737
927389000 0.562286192265 -0.582166962858
927402000 0.561172940789 -0.574002766123
927415000 0.56110946668 -0.576176688782
927428000 0.551993430863 -0.572882459175
927441000 0.558375985438 -0.579266533182
927454000 0.557952845963 -0.581670276081
927467000 0.548729425171 -0.57639321338
927480000 0.565299143753 -0.567179579333
927493000 0.551734881953 -0.579417305695
927506000 0.555877044918 -0.578961344118
927519000 0.574807759321 -0.57856488986
927532000 0.561124915941 -0.583218598191
927545000 0.563120621091 -0.567579341115
927558000 0.555546865146 -0.568901293578
927571000 0.562481947011 -0.56846321271
927584000 0.563057756155 -0.571571655542
927597000 0.562231262715 -0.574125173015
927610000 0.554631089541 -0.568984573189
927623000 0.561319259865 -0.578956558239
927636000 0.562820747947 -0.579145175263
927649000 0.568743300585 -0.591258815619
927662000 0.556187663082 -0.577392461055
927675000 0.561747308272 -0.587440471195
927688000 0.552274499883 -0.586045164913
927701000 0.576058773245 -0.579660299835
927714000 0.574198311925 -0.581869920376
927727000 0.558983292725 -0.578966480015
927740000 0.562713041048 -0.567233950729
927753000 0.548626672309 -0.578754523845
927766000 0.573155883358 -0.597433442533
927779000 0.552301280994 -0.581055449782
927792000 0.560190407441 -0.562930996341
927805000 0.558505017752 -0.575856334297
927818000 0.545157462304 -0.582800130668
927831000 0.548966372702 -0.58792926392
927844000 0.553848937395 -0.580639017006
927857000 0.560155897611 -0.56989850113
927870000 0.557078829253 -0.579709524071
927883000 0.559006092688 -0.575048108431
927896000 0.563894463523 -0.581497619571
927909000 0.562080737937 -0.583697401548
927922000 0.552744445454 -0.576843209207
927935000 0.566662362827 -0.578374510026
927948000 0.551101913023 -0.581406674901
927961000 0.556828740072 -0.576522703195
927974000 0.556206005675 -0.578865304328
927987000 0.560835884193 -0.57498885987
928000000 0.561640222996 -0.577431667317
