! Calibrated averaged scanner-service zoom
# Hz S RI R 50
769000000 0.641220666951 -0.404778349576
769006000 0.640103582689 -0.405314630603
769012000 0.640684440281 -0.404925871588
769018000 0.640716838742 -0.404974578495
769024000 0.640983139069 -0.404586548305
769030000 0.641279754156 -0.405297852103
769036000 0.641345191182 -0.404488786353
769042000 0.64080437838 -0.404487305703
769048000 0.640487869091 -0.404500133444
769054000 0.641112623674 -0.404565933237
769060000 0.640359161333 -0.405290955846
769066000 0.639591914737 -0.405685021739
769072000 0.640533353016 -0.405055163506
769078000 0.639886994489 -0.40493521291
769084000 0.640387022832 -0.404999166946
769090000 0.641083058498 -0.405310383455
769096000 0.640614948633 -0.404876972948
769102000 0.640172831179 -0.40508682068
769108000 0.640537999404 -0.404875172374
769114000 0.64044476245 -0.405404435742
769120000 0.640832206814 -0.404482098632
769126000 0.641036593689 -0.405742351978
769132000 0.640590240301 -0.405316989226
769138000 0.640652973663 -0.405103827608
769144000 0.637086193925 -0.4123273779
769150000 0.637955298784 -0.404960578036
769156000 0.640558674353 -0.404610924927
769162000 0.639773353366 -0.403486285012
769168000 0.640556809943 -0.405067199461
769174000 0.640722080175 -0.40552739626
769180000 0.640344266938 -0.405161650424
769186000 0.640218769845 -0.40521345151
769192000 0.640493888367 -0.40541932637
769198000 0.64030055206 -0.404874639535
769204000 0.640230208703 -0.404089577686
769210000 0.640029161776 -0.403831153751
769216000 0.640207091308 -0.404015166618
769222000 0.640885032289 -0.404493449654
769228000 0.640961473024 -0.404217912647
769234000 0.640963864212 -0.404654452536
769240000 0.640930880217 -0.404608823718
769246000 0.64110244349 -0.404053244396
769252000 0.641325971873 -0.405281910348
769258000 0.642100057867 -0.405098050044
769264000 0.641246044741 -0.405658467342
769270000 0.64123872419 -0.404897538529
769276000 0.641580154238 -0.4050501478
769282000 0.641744973268 -0.405120798198
769288000 0.641288370499 -0.405369338136
769294000 0.64143771765 -0.40485214794
769300000 0.641695061959 -0.40490261437
769306000 0.641378141117 -0.404693971092
769312000 0.641673212022 -0.404929728291
769318000 0.640864834874 -0.404640085963
769324000 0.641280510459 -0.405879010869
769330000 0.641429546076 -0.405283668926
769336000 0.64116006604 -0.405205977084
769342000 0.640749740799 -0.405695457857
769348000 0.640529281895 -0.405073581271
769354000 0.640461780691 -0.405763039774
769360000 0.640434945658 -0.405047122168
769366000 0.640621302531 -0.404837343063
769372000 0.641012154549 -0.404587510215
769378000 0.641069091637 -0.404936789388
769384000 0.640917669387 -0.405109542164
769390000 0.640611859513 -0.40515471288
769396000 0.641390811988 -0.405678375164
769402000 0.641633665761 -0.404829461709
769408000 0.641371822477 -0.405816176725
769414000 0.641437235 -0.405629770781
769420000 0.64131544718 -0.40445733445
769426000 0.641984677947 -0.404013149183
769432000 0.64104294561 -0.40408590804
769438000 0.642258250645 -0.403855595746
769444000 0.64120166802 -0.403602122093
769450000 0.641095793937 -0.404266993007
769456000 0.641051552332 -0.403847309091
769462000 0.641231725994 -0.404035597499
769468000 0.64026569831 -0.404062411438
769474000 0.64110804744 -0.405041747974
769480000 0.641497440379 -0.405140762217
769486000 0.641138063522 -0.404886683335
769492000 0.642301789136 -0.404844527354
769498000 0.641780877504 -0.40474532141
769504000 0.641284934527 -0.404605460395
769510000 0.641868512434 -0.404693448135
769516000 0.641568761316 -0.405138232688
769522000 0.641103570108 -0.405231097504
769528000 0.641193933594 -0.404780024773
769534000 0.641081605349 -0.404969276058
769540000 0.641014774741 -0.405311327942
769546000 0.641066794446 -0.405900487014
769552000 0.640467600334 -0.405912169275
769558000 0.641336913843 -0.405735037863
769564000 0.640992207974 -0.405729900549
769570000 0.64105187616 -0.405349120445
769576000 0.641204588561 -0.405458207141
769582000 0.640666994039 -0.405169917293
769588000 0.641188493598 -0.405035165148
769594000 0.641353692945 -0.405818301189
769600000 0.641265485643 -0.405390818808
769606000 0.641159313884 -0.406441543125
769612000 0.641530204472 -0.406576783019
769618000 0.64117789663 -0.407333422081
769624000 0.641729457493 -0.406375820516
769630000 0.641359941813 -0.406212186918
769636000 0.641768142745 -0.406302883594
769642000 0.640818487492 -0.406344287677
769648000 0.642135889988 -0.406266681466
769654000 0.641802461793 -0.40600221115
769660000 0.641324561725 -0.405384354676
769666000 0.641654426357 -0.405972083626
769672000 0.642477819824 -0.40548532395
769678000 0.641965736979 -0.405395694245
769684000 0.641520144459 -0.405301591715
769690000 0.641169433434 -0.405783059372
769696000 0.640985705149 -0.405010908089
769702000 0.64050169924 -0.405563087909
769708000 0.640987735184 -0.405698222638
769714000 0.64146024705 -0.404797396191
769720000 0.640772028825 -0.405564740957
769726000 0.640779202999 -0.406288321878
769732000 0.640732596234 -0.405800865816
769738000 0.640779556323 -0.405830433475
769744000 0.640826415569 -0.406633032406
769750000 0.640965248217 -0.405896211679
769756000 0.64034013396 -0.406681971897
769762000 0.641593802766 -0.406342337819
769768000 0.640682771124 -0.406189204949
769774000 0.640127180769 -0.405462017616
769780000 0.641919561086 -0.405582707107
769786000 0.641613439817 -0.405524459882
769792000 0.641633796695 -0.405658448289
769798000 0.642027460269 -0.405692442606
769804000 0.642336161495 -0.405098534791
769810000 0.641567442469 -0.405890411298
769816000 0.641600296556 -0.405730532804
769822000 0.641475569588 -0.405146762507
769828000 0.641316159562 -0.406009399364
769834000 0.64211753059 -0.405626991709
769840000 0.641640339077 -0.404941423155
769846000 0.641722550594 -0.405581156822
769852000 0.641723000255 -0.405287904163
769858000 0.641497421214 -0.404776343527
769864000 0.642092088135 -0.405213475029
769870000 0.642075119055 -0.405272284538
769876000 0.642236549342 -0.405025130768
769882000 0.641971168922 -0.405278868848
769888000 0.642356428959 -0.40574615503
769894000 0.642525533353 -0.405714463678
769900000 0.642741485004 -0.405820533106
769906000 0.6426229127 -0.405817663977
769912000 0.641853095949 -0.405802301421
769918000 0.640820808123 -0.404813053729
769924000 0.641129738892 -0.405719207539
769930000 0.64053265537 -0.405554035857
769936000 0.6411081313 -0.405839511182
769942000 0.639979132081 -0.405296300324
769948000 0.641777088313 -0.405663916615
769954000 0.642024669253 -0.405160247968
769960000 0.641098571954 -0.405912515302
769966000 0.641537016776 -0.40649200319
769972000 0.641589614601 -0.406795343718
769978000 0.641253443936 -0.406852521645
769984000 0.642091761616 -0.406793147904
769990000 0.642646590364 -0.406754209333
769996000 0.641816608691 -0.406564117945
770002000 0.642198167818 -0.406195263074
770008000 0.642469353587 -0.406060515067
770014000 0.64232003499 -0.406222155684
770020000 0.642313582504 -0.405512360824
770026000 0.642149599467 -0.405912168751
770032000 0.64119005087 -0.406107443354
770038000 0.642306600761 -0.405052292487
770044000 0.641748196915 -0.405585646289
770050000 0.641319000536 -0.405560388483
770056000 0.641892896419 -0.405083830269
770062000 0.640978008824 -0.405674557085
770068000 0.640472361412 -0.405636741891
770074000 0.641102687294 -0.405524682823
770080000 0.64085809411 -0.405869090196
770086000 0.640879968379 -0.405555109177
770092000 0.64180112031 -0.405378687288
770098000 0.64318075347 -0.40629293781
770104000 0.641756571453 -0.405427668877
770110000 0.641489782605 -0.405319395652
770116000 0.64169227242 -0.40599173468
770122000 0.641551248025 -0.405887360436
770128000 0.641915715244 -0.406966310334
770134000 0.641962819353 -0.406462007604
770140000 0.641627099689 -0.405956940815
770146000 0.641925653577 -0.406511055569
770152000 0.642126249394 -0.405981864764
770158000 0.641619157862 -0.406266400441
770164000 0.641648966352 -0.405943837444
770170000 0.641065252398 -0.406198435852
770176000 0.64179018667 -0.40665020658
770182000 0.641625522845 -0.40597345041
770188000 0.641786503675 -0.406263355044
770194000 0.641842740881 -0.406092533551
770200000 0.642054866882 -0.406873186982
770206000 0.6421697175 -0.406418184653
770212000 0.641796056483 -0.406835509289
770218000 0.641872306939 -0.40700356993
770224000 0.642099916674 -0.406303656267
770230000 0.641974121526 -0.407031071172
770236000 0.642156045469 -0.406311934235
770242000 0.641890258346 -0.405426195758
770248000 0.642001966705 -0.406423003673
770254000 0.642515646261 -0.407381793632
770260000 0.642759446754 -0.407357265383
770266000 0.642351370578 -0.40658250285
770272000 0.642325276559 -0.407378488019
770278000 0.641948069492 -0.407358335024
770284000 0.642246639317 -0.407033541621
770290000 0.642201793233 -0.406909760515
770296000 0.642365336952 -0.405845784763
770302000 0.641517773626 -0.406551609031
770308000 0.642185262887 -0.406311505936
770314000 0.641969733778 -0.40655899329
770320000 0.64179648963 -0.406180594841
770326000 0.642269263648 -0.40660007396
770332000 0.641933429114 -0.406800329636
770338000 0.642318251216 -0.406901165288
770344000 0.641658315717 -0.406807205705
770350000 0.641166423269 -0.406228553968
770356000 0.641348327232 -0.406847171657
770362000 0.641500004791 -0.406259601242
770368000 0.641078010204 -0.406554585808
770374000 0.641549248002 -0.406661940161
770380000 0.641798461311 -0.406987694149
770386000 0.641402818413 -0.406354555602
770392000 0.640947677339 -0.406899185097
770398000 0.640936501734 -0.40703087788
770404000 0.640990333367 -0.406472127033
770410000 0.640794549474 -0.407288342145
770416000 0.641519562163 -0.406557258855
770422000 0.640630665736 -0.406809644168
770428000 0.641373608216 -0.407902596295
770434000 0.641629938295 -0.406325646906
770440000 0.641407245169 -0.406714204463
770446000 0.641599860127 -0.407073213297
770452000 0.641405639214 -0.407081131097
770458000 0.64203478476 -0.406855008492
770464000 0.641506951648 -0.406173982132
770470000 0.641885822957 -0.406394549376
770476000 0.641261005591 -0.406296500097
770482000 0.641838357349 -0.406402273015
770488000 0.642196870084 -0.406691279811
770494000 0.641519613827 -0.406448752454
770500000 0.640709656042 -0.407581009563
770506000 0.641416659047 -0.406759455913
770512000 0.641108539727 -0.4074857341
770518000 0.641871775377 -0.405620933299
770524000 0.642138025163 -0.406440962679
770530000 0.642515597845 -0.407034534186
770536000 0.642492148279 -0.406601992199
770542000 0.642292969993 -0.405756933856
770548000 0.641660052722 -0.406232785917
770554000 0.641827442881 -0.406098786358
770560000 0.641662441284 -0.406154486644
770566000 0.64126920896 -0.406628558441
770572000 0.641896837066 -0.407049876922
770578000 0.642106881253 -0.406767319298
770584000 0.641906612186 -0.407148857828
770590000 0.642127130858 -0.407348147381
770596000 0.642132296814 -0.407385248986
770602000 0.642057391812 -0.406985303252
770608000 0.642248448381 -0.406467858136
770614000 0.641558891004 -0.406685177313
770620000 0.641884499648 -0.406666614782
770626000 0.641744859231 -0.405893564237
770632000 0.642211594508 -0.40656637601
770638000 0.641974003353 -0.406440055453
770644000 0.641755714629 -0.406766859504
770650000 0.642351572111 -0.406510820574
770656000 0.642106682316 -0.407047630577
770662000 0.642110387067 -0.406920529096
770668000 0.642303809662 -0.407593667554
770674000 0.642493040399 -0.407595849414
770680000 0.641723335691 -0.4073490045
770686000 0.641766967722 -0.407706514102
770692000 0.641649354392 -0.407249541411
770698000 0.625923858872 -0.409876523143
770704000 0.641052971924 -0.407157564277
770710000 0.641919767677 -0.407551986649
770716000 0.640875131285 -0.407094399872
770722000 0.641846512673 -0.40801307172
770728000 0.641086255437 -0.407307000579
770734000 0.641884268439 -0.40679492666
770740000 0.641610427027 -0.407286885981
770746000 0.641567534147 -0.407126865603
770752000 0.642341993096 -0.40681902955
770758000 0.641261497182 -0.407745157935
770764000 0.642635606819 -0.407029907082
770770000 0.641948105468 -0.407203813263
770776000 0.641559414785 -0.407501814735
770782000 0.641303926018 -0.406860092433
770788000 0.6416373112 -0.40659294484
770794000 0.641611931852 -0.406575849985
770800000 0.641811376003 -0.407315496704
770806000 0.642611074734 -0.406800158291
770812000 0.641990580004 -0.40701561021
770818000 0.643055231958 -0.407347487106
770824000 0.643554386783 -0.407425532406
770830000 0.642245969175 -0.407479817088
770836000 0.641652371002 -0.407749977081
770842000 0.642213607461 -0.407279725464
770848000 0.642103098497 -0.407141725059
770854000 0.642094275022 -0.407256490415
770860000 0.642300451265 -0.40723576333
770866000 0.641790418072 -0.407490962548
770872000 0.642371668685 -0.407500576224
770878000 0.642718610251 -0.407043564131
770884000 0.642069436856 -0.407299129832
770890000 0.642117058079 -0.407520936679
770896000 0.641893178034 -0.407276219224
770902000 0.641527635712 -0.40725457092
770908000 0.64143562956 -0.40801181441
770914000 0.642241313118 -0.407445251742
770920000 0.64187100251 -0.407598931103
770926000 0.642525051525 -0.407581565488
770932000 0.642830383994 -0.407706360809
770938000 0.642856404282 -0.407660139344
770944000 0.643496298905 -0.407979928366
770950000 0.642410105119 -0.407559206978
770956000 0.643033354677 -0.407703732124
770962000 0.642246584547 -0.409017570962
770968000 0.642609453242 -0.407347695396
770974000 0.642789502941 -0.407571806532
770980000 0.64221946665 -0.407813970331
770986000 0.641779301768 -0.407855407091
770992000 0.641763541051 -0.408232959665
770998000 0.639197218206 -0.406921756883
771004000 0.641370326749 -0.407562638554
771010000 0.641777807949 -0.408068138837
771016000 0.641832176825 -0.407902364646
771022000 0.641953751299 -0.407505675958
771028000 0.641475222369 -0.407586392643
771034000 0.64114091898 -0.407459110483
771040000 0.642329607792 -0.407794886167
771046000 0.641999520112 -0.407583964274
771052000 0.642001520584 -0.407786545459
771058000 0.641709587068 -0.408029485792
771064000 0.641894446484 -0.407305734345
771070000 0.64215903697 -0.407347263985
771076000 0.642438021565 -0.407770605059
771082000 0.642212138413 -0.407998070875
771088000 0.642057538649 -0.408070459906
771094000 0.642076131517 -0.408311684633
771100000 0.642098575763 -0.407873735657
771106000 0.642136846113 -0.407362115985
771112000 0.641803694768 -0.407790121019
771118000 0.641393992417 -0.407861365037
771124000 0.64216657773 -0.407753885934
771130000 0.642261147778 -0.407726021749
771136000 0.642460828502 -0.407663655026
771142000 0.642180439584 -0.408103878048
771148000 0.642417566608 -0.407278368785
771154000 0.6418346806 -0.407295602188
771160000 0.6422600368 -0.408326275409
771166000 0.642470789655 -0.408014565852
771172000 0.642010644872 -0.407550461224
771178000 0.641941966516 -0.407801628702
771184000 0.642769123108 -0.40785658429
771190000 0.642555455932 -0.407786131336
771196000 0.642408571018 -0.407044114634
771202000 0.642478856678 -0.407626572096
771208000 0.642959719585 -0.407718794459
771214000 0.641618146232 -0.407386027319
771220000 0.642196290994 -0.407610117368
771226000 0.641989851087 -0.40834067263
771232000 0.641588097298 -0.407616577164
771238000 0.641856815973 -0.407279208431
771244000 0.641591470688 -0.407386857846
771250000 0.641203644494 -0.408092048032
771256000 0.641469470082 -0.408152957455
771262000 0.641094108465 -0.407852608279
771268000 0.641514141312 -0.40839925885
771274000 0.641879706742 -0.408560752486
771280000 0.642073122272 -0.408262742878
771286000 0.641882745982 -0.408006714024
771292000 0.642306348866 -0.407872340081
771298000 0.642567931131 -0.40848620872
771304000 0.642087208616 -0.408367531325
771310000 0.641983507423 -0.408677957987
771316000 0.642591778545 -0.407907283051
771322000 0.644124254839 -0.406566213063
771328000 0.642305090842 -0.407858891154
771334000 0.642526479161 -0.408260338533
771340000 0.642932702417 -0.407678500455
771346000 0.643056221742 -0.408175757334
771352000 0.641993737772 -0.408944478441
771358000 0.642997146325 -0.408112089078
771364000 0.642264147527 -0.40845230838
771370000 0.641987222096 -0.407974949626
771376000 0.642855671009 -0.408148325042
771382000 0.642304528423 -0.407840282433
771388000 0.642371644084 -0.40762073726
771394000 0.642028682945 -0.407791941429
771400000 0.642583080648 -0.407994439486
771406000 0.642166209381 -0.407955378057
771412000 0.641847136109 -0.408006946376
771418000 0.641035859921 -0.408678599497
771424000 0.642054408463 -0.408022300215
771430000 0.642119379039 -0.40902710229
771436000 0.642702519201 -0.408077258139
771442000 0.642155643455 -0.408346375653
771448000 0.642637304742 -0.408013301288
771454000 0.642320169219 -0.408055820801
771460000 0.642294873521 -0.407952980079
771466000 0.641770671959 -0.408247881071
771472000 0.64154314889 -0.408264841984
771478000 0.642032515529 -0.408297102189
771484000 0.641373798063 -0.407580627301
771490000 0.64168431206 -0.407414595733
771496000 0.641705878109 -0.40782383225
771502000 0.641915406104 -0.407656311199
771508000 0.642218245567 -0.408197606522
771514000 0.642299295526 -0.408598089999
771520000 0.641477522116 -0.407969601347
771526000 0.642155294506 -0.407942173897
771532000 0.642225774794 -0.409591305868
771538000 0.64226504359 -0.409518204162
771544000 0.642072219427 -0.407983741757
771550000 0.64210169531 -0.408580505828
771556000 0.641873898662 -0.40891360571
771562000 0.641971964347 -0.408280953381
771568000 0.641690603037 -0.407920381539
771574000 0.642392935696 -0.408412255454
771580000 0.642362796993 -0.408054606653
771586000 0.642209376771 -0.407761866901
771592000 0.641847701745 -0.407995258936
771598000 0.642547027035 -0.408124807774
771604000 0.642576042421 -0.408029638526
771610000 0.642082614478 -0.408831255755
771616000 0.642247404722 -0.408672018013
771622000 0.641967309537 -0.408262317547
771628000 0.642318482177 -0.40823534434
771634000 0.642231173362 -0.408188427804
771640000 0.642199075856 -0.408358752976
771646000 0.642146066569 -0.408515989139
771652000 0.643103589745 -0.408460551796
771658000 0.642520072516 -0.409268262622
771664000 0.642975295052 -0.40832580245
771670000 0.642099870527 -0.408590089889
771676000 0.641958979016 -0.408356680852
771682000 0.64247436919 -0.408028240881
771688000 0.642999414521 -0.408070622123
771694000 0.642184343872 -0.408943869588
771700000 0.642626192996 -0.408878244519
771706000 0.642822821752 -0.408940238626
771712000 0.642315819555 -0.408857682879
771718000 0.642456037878 -0.40871986197
771724000 0.641616253721 -0.408601941547
771730000 0.641559721792 -0.408398553997
771736000 0.641822518143 -0.408205858627
771742000 0.642424796662 -0.407697695906
771748000 0.642451397729 -0.409093011555
771754000 0.641912381563 -0.409393766786
771760000 0.642422399619 -0.409634742671
771766000 0.643141591989 -0.409738344611
771772000 0.642773696951 -0.409795868275
771778000 0.6424337776 -0.409102385583
771784000 0.642108028082 -0.409236977899
771790000 0.642151943447 -0.408829755878
771796000 0.641773449698 -0.408985266591
771802000 0.641921564809 -0.408879680822
771808000 0.642915159362 -0.408391409081
771814000 0.641877235103 -0.409199301818
771820000 0.642800794597 -0.408182712352
771826000 0.643456590303 -0.408129105735
771832000 0.643665974986 -0.4088653917
771838000 0.643767066575 -0.409350848907
771844000 0.643621015598 -0.409248833208
771850000 0.643641493704 -0.409794375278
771856000 0.650085841354 -0.409865488602
771862000 0.643939696098 -0.41088188519
771868000 0.644063401428 -0.409387434221
771874000 0.64230158569 -0.409357018576
771880000 0.642267847406 -0.409388096874
771886000 0.642269884357 -0.408615874355
771892000 0.642519258485 -0.408804767208
771898000 0.642500581993 -0.408928667961
771904000 0.64291621392 -0.408850573591
771910000 0.643052245506 -0.408689827733
771916000 0.642851588161 -0.408569001232
771922000 0.642937614077 -0.408707995357
771928000 0.642461388867 -0.408920783166
771934000 0.642900129753 -0.409092619929
771940000 0.643721646538 -0.408727183808
771946000 0.642982876912 -0.409517535929
771952000 0.643231595125 -0.409398110381
771958000 0.642495579179 -0.408834282645
771964000 0.642784494361 -0.408805862571
771970000 0.643155955556 -0.40819307081
771976000 0.642904597137 -0.408659248575
771982000 0.643103461227 -0.408751289431
771988000 0.64308110177 -0.409206680829
771994000 0.643265767377 -0.409439823157
772000000 0.642611662578 -0.409077551658
772006000 0.642932691251 -0.409148179043
772012000 0.642242541212 -0.40912198341
772018000 0.642531399455 -0.409100740632
772024000 0.640961273614 -0.408781855083
772030000 0.641637428712 -0.408053940072
772036000 0.641780070346 -0.40866483874
772042000 0.641927784025 -0.40892387443
772048000 0.642211682669 -0.408806480934
772054000 0.641673707554 -0.408593878129
772060000 0.642388111896 -0.408935979028
772066000 0.641951025301 -0.409747851876
772072000 0.642183874574 -0.408660594099
772078000 0.641498995843 -0.409396655778
772084000 0.641634670254 -0.409454002825
772090000 0.642178348765 -0.409329574554
772096000 0.642045823658 -0.409748998443
772102000 0.641943041534 -0.409758596193
772108000 0.642018207289 -0.409790756561
772114000 0.642537371807 -0.409418815838
772120000 0.642559213703 -0.409394293508
772126000 0.642720292335 -0.409063040023
772132000 0.642677142823 -0.409673292981
772138000 0.642185950778 -0.409139557048
772144000 0.642303121168 -0.409524527896
772150000 0.642612850114 -0.409982399386
772156000 0.642794988714 -0.409487353337
772162000 0.642377872806 -0.409688412891
772168000 0.642695921646 -0.409551722951
772174000 0.6421018378 -0.409792185966
772180000 0.643437281625 -0.40967330949
772186000 0.642716543683 -0.41003637788
772192000 0.642672095369 -0.409414711889
772198000 0.642196733965 -0.408763107414
772204000 0.643247250847 -0.409202742295
772210000 0.642894587383 -0.409694500762
772216000 0.643482606756 -0.409269032928
772222000 0.643383906948 -0.410138114004
772228000 0.643024035773 -0.410499443721
772234000 0.642604450261 -0.410203927167
772240000 0.642616603715 -0.409861799074
772246000 0.642784808635 -0.409700598393
772252000 0.643259122442 -0.409488583369
772258000 0.642560356194 -0.408385187504
772264000 0.643431235183 -0.409747901816
772270000 0.643351713238 -0.409535419774
772276000 0.643375980871 -0.408782006368
772282000 0.642932895312 -0.409168886856
772288000 0.642983706581 -0.40936600803
772294000 0.643088248178 -0.409471246259
772300000 0.643621248378 -0.409807637754
772306000 0.64324266563 -0.40847922443
772312000 0.64258334966 -0.408915222664
772318000 0.642345551764 -0.408965078597
772324000 0.6427264441 -0.408780997154
772330000 0.642637986566 -0.40937927653
772336000 0.642376946084 -0.409361380078
772342000 0.641866275533 -0.40925463582
772348000 0.642094996414 -0.409833914557
772354000 0.642222052482 -0.40921366208
772360000 0.641769950004 -0.409226308885
772366000 0.642522282852 -0.409306505026
772372000 0.642089891319 -0.409566056097
772378000 0.642484739594 -0.409470714262
772384000 0.642504339026 -0.409570422261
772390000 0.642855792596 -0.408987736496
772396000 0.643185886779 -0.409374417805
772402000 0.642450916223 -0.40891448748
772408000 0.642672984727 -0.409564002407
772414000 0.6422051804 -0.409512185622
772420000 0.642618106426 -0.409953369729
772426000 0.642773547799 -0.409939012553
772432000 0.642769220306 -0.410661763067
772438000 0.642489369855 -0.41041951752
772444000 0.642900686595 -0.410383483055
772450000 0.64302275609 -0.410847674071
772456000 0.642683487424 -0.410331050425
772462000 0.641353087677 -0.411484051345
772468000 0.642479313669 -0.410397052404
772474000 0.642823736798 -0.410433775914
772480000 0.642908008703 -0.409970253142
772486000 0.643068576797 -0.409109397767
772492000 0.642699900322 -0.409989372117
772498000 0.642921643982 -0.409918540741
772504000 0.642781404327 -0.409681250498
772510000 0.643011867499 -0.409803489868
772516000 0.642757947 -0.409241184507
772522000 0.64289116362 -0.409899550195
772528000 0.643195995399 -0.409837566359
772534000 0.642135317557 -0.410509057626
772540000 0.64333648501 -0.41079180627
772546000 0.643207773444 -0.410407263451
772552000 0.642773219058 -0.410335717129
772558000 0.642737675954 -0.410290720807
772564000 0.642968883774 -0.409790598221
772570000 0.643059279002 -0.409346426455
772576000 0.643481883221 -0.409520547557
772582000 0.643216542995 -0.41018939378
772588000 0.64259254823 -0.40909265644
772594000 0.643873287729 -0.409282992559
772600000 0.642857387818 -0.409903875212
772606000 0.643319327768 -0.409795212402
772612000 0.642823181927 -0.409978650621
772618000 0.643548356907 -0.409491096156
772624000 0.642112608063 -0.409450576214
772630000 0.642949882543 -0.409487140561
772636000 0.642835981612 -0.409641815767
772642000 0.642352283234 -0.409124271642
772648000 0.642640092116 -0.409705905305
772654000 0.642538403765 -0.409308278797
772660000 0.642720133621 -0.409497506616
772666000 0.642166264992 -0.409723691556
772672000 0.642371641546 -0.409700442724
772678000 0.642490943392 -0.410076060635
772684000 0.642892774643 -0.410135696675
772690000 0.642711552241 -0.40956650696
772696000 0.642181747346 -0.40920380227
772702000 0.642816399255 -0.410126753814
772708000 0.642487123674 -0.409215435647
772714000 0.642172740418 -0.409656018866
772720000 0.641879849813 -0.409755370441
772726000 0.642157367167 -0.409727643759
772732000 0.642447987153 -0.409849744742
772738000 0.64220336704 -0.408928113985
772744000 0.641859031477 -0.410208122522
772750000 0.642686495294 -0.409591585068
772756000 0.642823404754 -0.410129833147
772762000 0.642743592256 -0.410572807158
772768000 0.642068842794 -0.409666386966
772774000 0.642343599238 -0.410085397416
772780000 0.642959162401 -0.4102617531
772786000 0.642828372406 -0.410404730078
772792000 0.642430712372 -0.410688705402
772798000 0.642859347617 -0.410760394682
772804000 0.64344386241 -0.410897929356
772810000 0.642593541333 -0.411182066814
772816000 0.642471028892 -0.410573387259
772822000 0.64195371412 -0.410571604511
772828000 0.641495155879 -0.410160566079
772834000 0.641260470761 -0.410047621826
772840000 0.642552709931 -0.410179587898
772846000 0.64194383629 -0.410572884603
772852000 0.642801026069 -0.40995809078
772858000 0.643388632862 -0.409894394279
772864000 0.642821883473 -0.409821625674
772870000 0.642873674838 -0.409900745884
772876000 0.642540193902 -0.410514562902
772882000 0.643422886416 -0.409674604893
772888000 0.643508179653 -0.410719421608
772894000 0.643203360348 -0.410837280287
772900000 0.642381349039 -0.410492449004
772906000 0.64349340967 -0.41022571781
772912000 0.642537327105 -0.410455719664
772918000 0.642797406509 -0.41091638139
772924000 0.642888465611 -0.410806741066
772930000 0.642477599459 -0.410880877151
772936000 0.642880372284 -0.410711912213
772942000 0.6426929914 -0.410600269891
772948000 0.642588928551 -0.410655838627
772954000 0.642644284984 -0.410067458363
772960000 0.642547278498 -0.410771937294
772966000 0.642731782758 -0.410704289361
772972000 0.642749032167 -0.410494253435
772978000 0.641798563637 -0.410900799235
772984000 0.642733500377 -0.410129782236
772990000 0.642501847428 -0.410527475825
772996000 0.642520928541 -0.410484072945
773002000 0.642135623268 -0.409768710286
773008000 0.642638945551 -0.410501054886
773014000 0.642145474775 -0.410439812219
773020000 0.64261823502 -0.410315428768
773026000 0.64351117832 -0.410440091877
773032000 0.641964027874 -0.410521304516
773038000 0.642230250915 -0.410507081625
773044000 0.642272310074 -0.410827056695
773050000 0.642836097053 -0.4111542174
773056000 0.642546905303 -0.41120061459
773062000 0.642621090661 -0.410288410793
773068000 0.642946776688 -0.410687518821
773074000 0.643376441974 -0.410628851488
773080000 0.64298420778 -0.410801842249
773086000 0.643443817555 -0.410154395255
773092000 0.643005561535 -0.409479810809
773098000 0.643280954289 -0.409639571954
773104000 0.642997754614 -0.410166856197
773110000 0.643309896513 -0.410803815146
773116000 0.642845215517 -0.410671981846
773122000 0.642928698309 -0.410851869144
773128000 0.642872779129 -0.410586473497
773134000 0.643658980915 -0.411965299064
773140000 0.643233930245 -0.411212011355
773146000 0.643432017351 -0.411701062706
773152000 0.643015717415 -0.411753907991
773158000 0.642192438011 -0.411646926751
773164000 0.64227237661 -0.411260593458
773170000 0.642717816543 -0.410860154303
773176000 0.642420304082 -0.410403760191
773182000 0.642161991334 -0.410109672085
773188000 0.641736432841 -0.410881451587
773194000 0.642130538224 -0.410635350804
773200000 0.64272708234 -0.411404461172
773206000 0.642273399903 -0.410943002333
773212000 0.642935458298 -0.410243488493
773218000 0.642645226711 -0.410968844429
773224000 0.642575876493 -0.410452175892
773230000 0.642646962378 -0.410581285381
773236000 0.643456772342 -0.409980395935
773242000 0.642711294737 -0.410920711614
773248000 0.643115686053 -0.410679320122
773254000 0.642862466156 -0.411377091308
773260000 0.642464979228 -0.411218871922
773266000 0.642766782223 -0.411530394698
773272000 0.642294000003 -0.411275886215
773278000 0.642264075688 -0.410647859609
773284000 0.642959832276 -0.411181245489
773290000 0.642816550255 -0.410125315666
773296000 0.642350847134 -0.411843120079
773302000 0.642638372485 -0.41062677351
773308000 0.643119671289 -0.411174849467
773314000 0.64250434491 -0.411777693387
773320000 0.642585694532 -0.411588020376
773326000 0.642017669976 -0.411085922918
773332000 0.64237750935 -0.411581241532
773338000 0.642630028821 -0.410996947031
773344000 0.64259707101 -0.411442503949
773350000 0.642885833334 -0.411965637516
773356000 0.643605272804 -0.411051781466
773362000 0.642515297954 -0.41094090435
773368000 0.642977986628 -0.411300686852
773374000 0.642265840011 -0.411226237358
773380000 0.642210065956 -0.411327916713
773386000 0.642255973033 -0.41075579567
773392000 0.64198474324 -0.410712350924
773398000 0.642261369223 -0.411335668962
773404000 0.642916228806 -0.411293378878
773410000 0.643118926806 -0.411714151461
773416000 0.643305929812 -0.411139336946
773422000 0.643234101211 -0.411451825839
773428000 0.642927665926 -0.411466105436
773434000 0.643560014614 -0.411226805333
773440000 0.643108704219 -0.411157466083
773446000 0.643295195667 -0.411001569132
773452000 0.643349074912 -0.410627780979
773458000 0.642308339572 -0.410711904779
773464000 0.642219133924 -0.410744497318
773470000 0.642130346629 -0.410944850707
773476000 0.643323949366 -0.409914510646
773482000 0.638766457957 -0.399164327881
773488000 0.642332982323 -0.411399627468
773494000 0.658181553176 -0.433333958587
773500000 0.64291761732 -0.411075352577
773506000 0.645011128711 -0.41213617822
773512000 0.643889430633 -0.411758522646
773518000 0.642441522095 -0.411693966499
773524000 0.643463375058 -0.412167666469
773530000 0.64309033135 -0.411944092651
773536000 0.642962773596 -0.411689271685
773542000 0.642570138625 -0.412327981582
773548000 0.643172718136 -0.41209114969
773554000 0.642425478029 -0.411690720417
773560000 0.643437478722 -0.411935311963
773566000 0.642581942108 -0.411810190373
773572000 0.642633655036 -0.412014745676
773578000 0.642993016582 -0.411962629581
773584000 0.642803499893 -0.41164818881
773590000 0.642964229483 -0.412334926169
773596000 0.643380424807 -0.411711385823
773602000 0.642439903977 -0.411805910422
773608000 0.642839709544 -0.411064331872
773614000 0.642800328858 -0.411538455847
773620000 0.642437415623 -0.411811535177
773626000 0.643456569454 -0.411192579321
773632000 0.64264355704 -0.41150902693
773638000 0.642492466297 -0.411544424689
773644000 0.643751033163 -0.411757297158
773650000 0.643006907423 -0.410887503383
773656000 0.643215141293 -0.410792916042
773662000 0.642970092625 -0.411197383368
773668000 0.643147741034 -0.410577025416
773674000 0.643627121741 -0.41131114757
773680000 0.643775022075 -0.411342728397
773686000 0.643256409182 -0.411533707718
773692000 0.642540379148 -0.410973707566
773698000 0.643662803686 -0.412560720473
773704000 0.642267748673 -0.41192893372
773710000 0.642730502452 -0.411073741296
773716000 0.642781054914 -0.411543889392
773722000 0.6435350982 -0.411321813716
773728000 0.643391864604 -0.411548549297
773734000 0.642998687632 -0.411426306591
773740000 0.642774200971 -0.41207708828
773746000 0.642793634858 -0.411558404051
773752000 0.643207464836 -0.411538308177
773758000 0.642924060651 -0.411747143889
773764000 0.642681107072 -0.412044211827
773770000 0.64265937395 -0.411507164738
773776000 0.642624306519 -0.411353625175
773782000 0.642581849485 -0.411686079468
773788000 0.643213240372 -0.410612908028
773794000 0.642557361715 -0.410716479577
773800000 0.643010173041 -0.410879818506
773806000 0.642808764369 -0.410519537097
773812000 0.642525903991 -0.411339869776
773818000 0.64303016618 -0.411343878995
773824000 0.642734708733 -0.410675417669
773830000 0.642433090169 -0.410831673335
773836000 0.642128052414 -0.411026023904
773842000 0.64272328505 -0.410129402921
773848000 0.64221767722 -0.410692260621
773854000 0.642652059608 -0.411321664071
773860000 0.642549500284 -0.410687873065
773866000 0.643155313867 -0.41130661891
773872000 0.642919109892 -0.411392485899
773878000 0.642582066576 -0.411586888795
773884000 0.642910475355 -0.411364793936
773890000 0.64306287943 -0.41133729345
773896000 0.641816577071 -0.412193129261
773902000 0.643063672292 -0.411214732091
773908000 0.643540139442 -0.411383768726
773914000 0.643469423196 -0.41189853242
773920000 0.642990280078 -0.412022304433
773926000 0.643192233688 -0.412430158739
773932000 0.642553883661 -0.412249877757
773938000 0.642527292735 -0.411879298909
773944000 0.643349038898 -0.412706659311
773950000 0.643004263522 -0.412070890258
773956000 0.642817072791 -0.412438869075
773962000 0.642776070938 -0.411539083341
773968000 0.64271754613 -0.412003906109
773974000 0.643215211386 -0.411446630979
773980000 0.643654318001 -0.411981802626
773986000 0.64318369352 -0.411459322473
773992000 0.643137316126 -0.41228360751
773998000 0.642903516897 -0.412343619633
774004000 0.642929822708 -0.411947903623
774010000 0.642485588092 -0.41270608106
774016000 0.643028980842 -0.413013707894
774022000 0.642982485244 -0.412503282608
774028000 0.64343567781 -0.412446007963
774034000 0.643225959717 -0.411851885503
774040000 0.643619504261 -0.41238824019
774046000 0.643390357055 -0.412109248238
774052000 0.643484111909 -0.41199903025
774058000 0.6433136508 -0.412609027861
774064000 0.643448128131 -0.41190232996
774070000 0.6439213319 -0.412255909908
774076000 0.64237937914 -0.41126588765
774082000 0.643072747052 -0.412217119194
774088000 0.643054581873 -0.412169895052
774094000 0.643136856401 -0.410931912571
774100000 0.643219155777 -0.411352187371
774106000 0.642935379779 -0.412049922466
774112000 0.643866959529 -0.411984121374
774118000 0.643862961216 -0.412494717948
774124000 0.643204209096 -0.412377773655
774130000 0.64438383498 -0.41266068952
774136000 0.643536045453 -0.412978211417
774142000 0.643619074595 -0.412803059155
774148000 0.643705701225 -0.413003768822
774154000 0.642993208214 -0.412896851986
774160000 0.643625408862 -0.412569680716
774166000 0.643809084683 -0.413210257965
774172000 0.643834973865 -0.412774130976
774178000 0.643578081166 -0.413133949032
774184000 0.643712050817 -0.413040066093
774190000 0.643269356818 -0.412593808114
774196000 0.64292050992 -0.413233619267
774202000 0.642634338874 -0.413025882184
774208000 0.642566119934 -0.413300511998
774214000 0.642360166926 -0.412985541511
774220000 0.642393577171 -0.412564776185
774226000 0.642491321702 -0.412968285261
774232000 0.643416404228 -0.412739422286
774238000 0.643131143138 -0.412521864434
774244000 0.643346894806 -0.412561621346
774250000 0.642936981778 -0.412436423772
774256000 0.643265781429 -0.412818681721
774262000 0.643566470077 -0.412336891788
774268000 0.6435319775 -0.413412068353
774274000 0.643356350204 -0.412715630248
774280000 0.643417770365 -0.412226344434
774286000 0.643773801777 -0.413049443166
774292000 0.643168517006 -0.412659718847
774298000 0.642541310307 -0.412694021556
774304000 0.643192768898 -0.412341552777
774310000 0.642933042048 -0.411677436867
774316000 0.643503935506 -0.41277299433
774322000 0.643468077733 -0.412978486323
774328000 0.6430199604 -0.411866483638
774334000 0.643245723178 -0.413176580436
774340000 0.64359429677 -0.41273899421
774346000 0.642838321728 -0.412631822694
774352000 0.64304814337 -0.413215473615
774358000 0.643374626922 -0.412722557222
774364000 0.643305470698 -0.413464604654
774370000 0.643906367791 -0.413277539447
774376000 0.643740719152 -0.413379440883
774382000 0.644257109144 -0.413237306697
774388000 0.643675080568 -0.412632129243
774394000 0.644003699053 -0.413040127262
774400000 0.643728916589 -0.412721381858
774406000 0.643491703078 -0.412734600464
774412000 0.643599602679 -0.412718780279
774418000 0.643704676692 -0.412770711225
774424000 0.643554134349 -0.412696684897
774430000 0.643143605728 -0.412561970279
774436000 0.643940003967 -0.41263991167
774442000 0.643911057453 -0.412874255192
774448000 0.643753871881 -0.413063939078
774454000 0.643004998654 -0.412333353768
774460000 0.642380489104 -0.412236184313
774466000 0.64299472449 -0.412615383978
774472000 0.642122362542 -0.411750522546
774478000 0.643075907936 -0.411901186084
774484000 0.643104344141 -0.411837994602
774490000 0.642825610813 -0.412233137681
774496000 0.642700117607 -0.411544881459
774502000 0.642407537574 -0.411649951663
774508000 0.643121815812 -0.41206546906
774514000 0.642087030777 -0.411971999189
774520000 0.642608738187 -0.412338062782
774526000 0.642983610815 -0.412513331483
774532000 0.642661794741 -0.412758805384
774538000 0.642905129741 -0.412153069968
774544000 0.643619431825 -0.413427822776
774550000 0.642702872558 -0.412745979676
774556000 0.643345411098 -0.413449863992
774562000 0.644042631064 -0.413351732858
774568000 0.64253205265 -0.413525349872
774574000 0.643576045915 -0.414457164685
774580000 0.642899162158 -0.412056167466
774586000 0.642210237119 -0.41299418336
774592000 0.642782061874 -0.412629976236
774598000 0.642737871687 -0.413248878297
774604000 0.64348804756 -0.413356609872
774610000 0.643109472618 -0.4134698357
774616000 0.643692369071 -0.413550498967
774622000 0.643541871611 -0.413119908917
774628000 0.643428122811 -0.412809697464
774634000 0.643608403345 -0.412857105803
774640000 0.642928598976 -0.413123099062
774646000 0.64287862906 -0.413033256513
774652000 0.643466743637 -0.412920377554
774658000 0.643204237808 -0.413560487225
774664000 0.643144473001 -0.413378639891
774670000 0.641965062954 -0.413446152839
774676000 0.642020593796 -0.412769671883
774682000 0.642194584314 -0.412469833939
774688000 0.642992495227 -0.413184895053
774694000 0.642555535762 -0.413665295802
774700000 0.642536928191 -0.413033452895
774706000 0.642977059755 -0.413473159308
774712000 0.643113917162 -0.412843795436
774718000 0.643504828357 -0.412296698489
774724000 0.643085889163 -0.412879530027
774730000 0.642810673916 -0.413759707984
774736000 0.643051788875 -0.412958949078
774742000 0.643335558333 -0.413013668251
774748000 0.64280410611 -0.41238428602
774754000 0.643463365999 -0.4125207024
774760000 0.642715265018 -0.412797272511
774766000 0.643933032324 -0.412652070358
774772000 0.643110842896 -0.412737871276
774778000 0.643814026642 -0.41309859174
774784000 0.643283941486 -0.413391954303
774790000 0.643500048036 -0.413284701273
774796000 0.643032885023 -0.412879425871
774802000 0.643361022844 -0.412894800466
774808000 0.643159992504 -0.413153085704
774814000 0.642441180257 -0.412416106038
774820000 0.643299564986 -0.412423607421
774826000 0.643268754949 -0.413366281239
774832000 0.642923639059 -0.413251024362
774838000 0.64425862554 -0.413414130549
774844000 0.643122182156 -0.413506429674
774850000 0.644060196582 -0.413621953396
774856000 0.643975835929 -0.413448950932
774862000 0.642829318684 -0.41290394227
774868000 0.64313387478 -0.412976554379
774874000 0.644021096845 -0.412951661379
774880000 0.642995533515 -0.412840531443
774886000 0.64312083731 -0.413934888111
774892000 0.643398040316 -0.413513425036
774898000 0.6439652871 -0.413056897551
774904000 0.644094863343 -0.414171846475
774910000 0.643138353982 -0.41421819776
774916000 0.643257486803 -0.413362103626
774922000 0.642792408924 -0.413825062809
774928000 0.64263816176 -0.413397984436
774934000 0.642654300793 -0.413180487534
774940000 0.642573628534 -0.412979818908
774946000 0.64322756026 -0.411974830249
774952000 0.643702234639 -0.413491437098
774958000 0.643286109148 -0.413185399163
774964000 0.643470722435 -0.41298205526
774970000 0.643546568786 -0.41349162332
774976000 0.642583293521 -0.414881786437
774982000 0.643020760633 -0.41452736984
774988000 0.642285342858 -0.414094488289
774994000 0.642723119478 -0.414285771002
775000000 0.642852320962 -0.414050868548
