! Calibrated averaged scanner-service zoom
# Hz S RI R 50
162400000 0.802715786943 -0.363045413696
162401500 0.803195196256 -0.363449065811
162403000 0.802840871806 -0.36321877369
162404500 0.803214610857 -0.363190337818
162406000 0.802557113808 -0.363007334282
162407500 0.803180126202 -0.363378372155
162409000 0.802947270829 -0.363172654994
162410500 0.80302182769 -0.363439670291
162412000 0.802590770539 -0.363077536548
162413500 0.802977114378 -0.363458762905
162415000 0.802810310548 -0.363403522181
162416500 0.803135802838 -0.363385721156
162418000 0.802711280734 -0.36338129326
162419500 0.802960758916 -0.363677508484
162421000 0.802805289618 -0.363672046242
162422500 0.802877697202 -0.363530629312
162424000 0.802790486976 -0.363543862416
162425500 0.802768091035 -0.363518820593
162427000 0.802917678275 -0.363762077069
162428500 0.802809044573 -0.36361184675
162430000 0.802692687111 -0.36358165356
162431500 0.802764940804 -0.363661763917
162433000 0.802958360646 -0.363877774769
162434500 0.802866691715 -0.363788169735
162436000 0.802541575005 -0.363773912019
162437500 0.80253689553 -0.3637375503
162439000 0.802839524165 -0.364035898424
162440500 0.802724253 -0.363828608958
162442000 0.802670418963 -0.364072054324
162443500 0.802627881669 -0.363950584728
162445000 0.803148543314 -0.36445397455
162446500 0.802850489289 -0.364239602231
162448000 0.803217670169 -0.364370595919
162449500 0.802904989438 -0.364393028063
162451000 0.803392150852 -0.364642384575
162452500 0.803421941273 -0.364797017159
162454000 0.803695622224 -0.364727226148
162455500 0.803567810413 -0.364667947473
162457000 0.803828115767 -0.365068123608
162458500 0.80371943481 -0.365059242592
162460000 0.804012355317 -0.365102802039
162461500 0.803777592815 -0.365323503488
162463000 0.804220364511 -0.365365406353
162464500 0.804156311094 -0.365435942646
162466000 0.8043027902 -0.365388777141
162467500 0.804074318505 -0.365567265473
162469000 0.804378251777 -0.365548714539
162470500 0.804469238703 -0.365858206001
162472000 0.804197444327 -0.365626056819
162473500 0.804042662693 -0.365555179076
162475000 0.803955528306 -0.365434820182
162476500 0.804033856056 -0.365729613903
162478000 0.803490741744 -0.36522485868
162479500 0.803654709074 -0.365447099894
162481000 0.803131607475 -0.36509698815
162482500 0.803496213648 -0.365392017586
162484000 0.803655014321 -0.367720924398
162485500 0.803458976064 -0.365429908695
162487000 0.805437117475 -0.365917407206
162488500 0.806148367748 -0.367283861648
162490000 0.798435781521 -0.37434429833
162491500 0.802931207085 -0.36513668151
162493000 0.802495653269 -0.364750705053
162494500 0.802714892181 -0.365262029489
162496000 0.803807215419 -0.364709049218
162497500 0.802429976023 -0.364973672456
162499000 0.800779629172 -0.362774507274
162500500 0.801330505505 -0.364540812226
162502000 0.820031374099 -0.359332850872
162503500 0.802396068849 -0.364859735065
162505000 0.802289684139 -0.365125665475
162506500 0.802145299129 -0.365070349211
162508000 0.802295716031 -0.364937714095
162509500 0.802279576377 -0.364990607156
162511000 0.802097575362 -0.365037309122
162512500 0.801844966309 -0.364893340119
162514000 0.802155118754 -0.365338886539
162515500 0.802271548625 -0.365046695502
162517000 0.802250293797 -0.365331459361
162518500 0.801961313145 -0.365029154599
162520000 0.802554299196 -0.365478863018
162521500 0.802001165523 -0.36525285952
162523000 0.802172162058 -0.365334828783
162524500 0.80171122168 -0.364976152757
162526000 0.802547365404 -0.365387191769
162527500 0.802112896809 -0.365599336385
162529000 0.802207432673 -0.365371546695
162530500 0.802058825336 -0.365322207624
162532000 0.802167748803 -0.365600863864
162533500 0.802198424654 -0.365697355946
162535000 0.80231722294 -0.365643040172
162536500 0.801842390652 -0.365603458305
162538000 0.802166611046 -0.365661684684
162539500 0.801885691086 -0.365673435398
162541000 0.802220255003 -0.365437193768
162542500 0.80189938916 -0.365657362967
162544000 0.801835330242 -0.365679620845
162545500 0.802049174666 -0.366078284308
162547000 0.802123526651 -0.365646907759
162548500 0.802017366229 -0.36596507637
162550000 0.801800970512 -0.365748500849
