! Calibrated averaged scanner-service zoom
# Hz S RI R 50
470000000 0.645333983903 -0.471991041249
470010500 0.645567350923 -0.472726088506
470021000 0.64566139479 -0.472993755834
470031500 0.645932884225 -0.473454171867
470042000 0.646459517225 -0.472919620894
470052500 0.646520653476 -0.472541314651
470063000 0.646115200136 -0.47255611456
470073500 0.645752194251 -0.473339883786
470084000 0.645864849114 -0.473219393798
470094500 0.645634838909 -0.472887073187
470105000 0.64582653598 -0.472938379123
470115500 0.643946750558 -0.472548306731
470126000 0.645033288597 -0.472038091085
470136500 0.644905852641 -0.472613023369
470147000 0.644373130199 -0.47174792971
470157500 0.644510874659 -0.473347754397
470168000 0.645775189819 -0.473466578534
470178500 0.64580621938 -0.473899786121
470189000 0.645121973437 -0.473252106487
470199500 0.64659775619 -0.473152617927
470210000 0.646591201758 -0.473144925754
470220500 0.646630012085 -0.472323415995
470231000 0.645821571734 -0.472713308015
470241500 0.644950515226 -0.473429877129
470252000 0.646002267984 -0.474390378999
470262500 0.646991858923 -0.473173156548
470273000 0.648082155068 -0.473890767896
470283500 0.646442489982 -0.473767854743
470294000 0.645143337922 -0.473237879329
470304500 0.645788460259 -0.473072207076
470315000 0.645598860373 -0.474267666909
470325500 0.644990974791 -0.474327575675
470336000 0.647710509687 -0.473901374899
470346500 0.64600901562 -0.473539953294
470357000 0.645698403224 -0.474767143356
470367500 0.644035292489 -0.473888734387
470378000 0.643992260573 -0.47374991012
470388500 0.645896101667 -0.47406202026
470399000 0.644689570038 -0.473732828903
470409500 0.643908718477 -0.472564523598
470420000 0.644276235372 -0.471159137292
470430500 0.644171293071 -0.473413815624
470441000 0.644723303299 -0.474284183087
470451500 0.643740728851 -0.473060169488
470462000 0.643955267608 -0.47319174211
470472500 0.645119966486 -0.474140997052
470483000 0.644939513945 -0.474003706137
470493500 0.644705683658 -0.473959977423
470504000 0.644333632654 -0.472764929393
470514500 0.64423806946 -0.473396390609
470525000 0.643536205669 -0.47385012257
470535500 0.643154072397 -0.47452723765
470546000 0.64426061656 -0.47446291755
470556500 0.643648152323 -0.473300583241
470567000 0.644844045697 -0.47295860476
470577500 0.645476881372 -0.4731375125
470588000 0.644723471731 -0.472640740649
470598500 0.644648110416 -0.473977496712
470609000 0.644523330447 -0.4744386406
470619500 0.644703414647 -0.474061475704
470630000 0.644705158422 -0.473981943308
470640500 0.644682377791 -0.473115521593
470651000 0.644836790573 -0.473551099803
470661500 0.644889682288 -0.474171130759
470672000 0.644479817295 -0.474013195282
470682500 0.643726404867 -0.473301587261
470693000 0.644444360605 -0.473709464791
470703500 0.643974219301 -0.473305745954
470714000 0.6442606055 -0.474734531551
470724500 0.64390034463 -0.474284012139
470735000 0.643992613381 -0.473924204845
470745500 0.643871116431 -0.473880400031
470756000 0.644721097439 -0.472976598573
470766500 0.642975616639 -0.473595675494
470777000 0.644163518138 -0.474255190543
470787500 0.644149026761 -0.4741798939
470798000 0.643785763938 -0.474107770986
470808500 0.644583964059 -0.474264314952
470819000 0.644290948188 -0.47407766465
470829500 0.643868524904 -0.474235070528
470840000 0.642921291469 -0.47403566658
470850500 0.643880092942 -0.473832509393
470861000 0.643746473228 -0.474153040339
470871500 0.644075621191 -0.473836938904
470882000 0.643623515289 -0.473943511341
470892500 0.643767417625 -0.474569474328
470903000 0.6435623279 -0.474306346029
470913500 0.644102838587 -0.474286173339
470924000 0.644360168489 -0.474724336719
470934500 0.644350960544 -0.474729928508
470945000 0.644105351047 -0.474436765553
470955500 0.643825110802 -0.473719396966
470966000 0.644109280635 -0.473912178916
470976500 0.643563103091 -0.474277339523
470987000 0.643336177952 -0.474570944348
470997500 0.643416115347 -0.474554016033
471008000 0.643623467915 -0.475024237545
471018500 0.643333448008 -0.474509725026
471029000 0.643342660575 -0.474407658117
471039500 0.642897620023 -0.475229447732
471050000 0.642637863177 -0.474468618816
471060500 0.643410657787 -0.475014079836
471071000 0.643197898791 -0.47525473568
471081500 0.642792876934 -0.474394074671
471092000 0.642883530661 -0.475144085448
471102500 0.64275242596 -0.474617511861
471113000 0.643114449707 -0.474872792484
471123500 0.643527644795 -0.475569835034
471134000 0.642858824726 -0.475312338978
471144500 0.643382669947 -0.475593458641
471155000 0.642921684277 -0.47551937653
471165500 0.642742244623 -0.475795520009
471176000 0.642984873649 -0.47601971587
471186500 0.642737866 -0.47627504943
471197000 0.642913339635 -0.476040336655
471207500 0.64264823716 -0.476312517658
471218000 0.641988857911 -0.475002571858
471228500 0.643474362222 -0.475593012151
471239000 0.645608541611 -0.47721466034
471249500 0.643124897272 -0.475301864703
471260000 0.64273654206 -0.475164453864
471270500 0.643376199682 -0.473859999867
471281000 0.64302442483 -0.474931791598
471291500 0.641785678656 -0.475648387404
471302000 0.641572812838 -0.475236249489
471312500 0.641931546704 -0.47570359623
471323000 0.641044307586 -0.474682179554
471333500 0.641928016672 -0.475184846308
471344000 0.641978452508 -0.475733631566
471354500 0.642175485861 -0.475139616608
471365000 0.643365566124 -0.475909153143
471375500 0.643439389602 -0.47483936102
471386000 0.642961361207 -0.475216972698
471396500 0.642243441739 -0.474674511954
471407000 0.641851799911 -0.475527577388
471417500 0.641835750102 -0.475339730919
471428000 0.64116523498 -0.475963957994
471438500 0.640251597671 -0.476291512484
471449000 0.640560248982 -0.476572941292
471459500 0.641314703738 -0.475652294551
471470000 0.642077090996 -0.475002250726
471480500 0.641669449018 -0.475917782562
471491000 0.642022553915 -0.475763458924
471501500 0.642186226369 -0.475250945836
471512000 0.641814854822 -0.475701905479
471522500 0.642975371083 -0.475866934405
471533000 0.641232185109 -0.476161646143
471543500 0.641563181145 -0.475765054483
471554000 0.640927710336 -0.476330649413
471564500 0.641051149563 -0.476681987055
471575000 0.640957413906 -0.47611817555
471585500 0.640370948858 -0.475646338256
471596000 0.640977518669 -0.476220065558
471606500 0.641664000865 -0.476091903181
471617000 0.641847618763 -0.475611826601
471627500 0.641681502676 -0.475512135226
471638000 0.641978886482 -0.475308217526
471648500 0.641172438546 -0.47545170684
471659000 0.64159421982 -0.47539599529
471669500 0.641793426685 -0.475440103869
471680000 0.641467439213 -0.475769552731
471690500 0.641679669642 -0.475659855693
471701000 0.640969844826 -0.476194907473
471711500 0.641165277572 -0.4763009673
471722000 0.64104494792 -0.476220727415
471732500 0.640820556444 -0.475733654459
471743000 0.641279606212 -0.47559926768
471753500 0.641883760677 -0.475406853389
471764000 0.641813379685 -0.474951996095
471774500 0.641461926767 -0.475532329977
471785000 0.64153151488 -0.476024404666
471795500 0.641356323614 -0.47604643906
471806000 0.640830269837 -0.476181733865
471816500 0.640379682714 -0.475975657298
471827000 0.640890063122 -0.476107709083
471837500 0.640306654686 -0.477998358567
471848000 0.640659384032 -0.476751681427
471858500 0.641204201174 -0.47584423707
471869000 0.641020925955 -0.476164137092
471879500 0.641516626046 -0.475476940278
471890000 0.640699853284 -0.476128924658
471900500 0.640404383873 -0.47647640469
471911000 0.64052123893 -0.476679914691
471921500 0.641245493772 -0.477169603495
471932000 0.64158921784 -0.477808375952
471942500 0.641579025254 -0.477006266611
471953000 0.640995000418 -0.477801379984
471963500 0.640247285486 -0.477569023777
471974000 0.639967683518 -0.476943286101
471984500 0.639332365785 -0.476851681794
471995000 0.639269797278 -0.476711057582
472005500 0.639445115145 -0.476278834153
472016000 0.640186609041 -0.476399278224
472026500 0.640065821411 -0.475753625803
472037000 0.640322999896 -0.476653409959
472047500 0.640685808902 -0.476880058372
472058000 0.640381418608 -0.476389389924
472068500 0.640124718626 -0.477026352796
472079000 0.640744473088 -0.477594926588
472089500 0.640803003104 -0.476445432762
472100000 0.639123608751 -0.474105924807
472110500 0.640365344449 -0.476593255694
472121000 0.640367738626 -0.476732253278
472131500 0.640253007906 -0.476376415208
472142000 0.64025436921 -0.475732370432
472152500 0.639888019528 -0.47565493929
472163000 0.639897270457 -0.474840649256
472173500 0.6401259627 -0.47542533103
472184000 0.640141692683 -0.476045895793
472194500 0.639359982793 -0.477260881604
472205000 0.639789033165 -0.476561719237
472215500 0.638697533114 -0.476166400425
472226000 0.638366617166 -0.47585545216
472236500 0.638879828144 -0.475718694116
472247000 0.639853435969 -0.475824659998
472257500 0.63972207259 -0.475707454381
472268000 0.639727868682 -0.476448682439
472278500 0.639431935475 -0.476862492624
472289000 0.639616320313 -0.476536681941
472299500 0.63958227954 -0.476547394845
472310000 0.640062867497 -0.476322277644
472320500 0.640430921918 -0.476012154859
472331000 0.639851737067 -0.476573354459
472341500 0.639663425801 -0.476625813918
472352000 0.639513785371 -0.476382875695
472362500 0.639549259073 -0.476196408486
472373000 0.638760856726 -0.476602641738
472383500 0.639023020719 -0.476780679836
472394000 0.638821562828 -0.477164321674
472404500 0.639201138755 -0.477262167677
472415000 0.639439253182 -0.476390877532
472425500 0.639321461164 -0.476264486332
472436000 0.639585925912 -0.476513778891
472446500 0.639274655377 -0.476848763041
472457000 0.639173873886 -0.476348259428
472467500 0.639096021714 -0.477008340856
472478000 0.639079499605 -0.475964485692
472488500 0.638495498664 -0.476939718569
472499000 0.639651330304 -0.477200182521
472509500 0.639523487649 -0.478102876272
472520000 0.639072494909 -0.477417304222
472530500 0.638482106654 -0.477077842061
472541000 0.639509525151 -0.476281696359
472551500 0.638542073654 -0.476324230168
472562000 0.639893712257 -0.476175337757
472572500 0.639551461741 -0.475487681072
472583000 0.638684167998 -0.476139432893
472593500 0.637154652653 -0.476634318498
472604000 0.638420021689 -0.476761144822
472614500 0.638134305919 -0.476815411987
472625000 0.638702802994 -0.477459463592
472635500 0.638519069505 -0.477252916981
472646000 0.639575179792 -0.477169544541
472656500 0.639614615072 -0.476952607725
472667000 0.639473048377 -0.477370395269
472677500 0.639106322647 -0.47775078139
472688000 0.63918593969 -0.478042893784
472698500 0.638341049866 -0.477411058034
472709000 0.638264445445 -0.477575180979
472719500 0.637739214858 -0.477343771084
472730000 0.638347742652 -0.477946724527
472740500 0.639017945513 -0.477395043439
472751000 0.638472650758 -0.477194652622
472761500 0.638116439496 -0.477331794201
472772000 0.638240451908 -0.477582129287
472782500 0.637897061434 -0.477288751199
472793000 0.637464903284 -0.47698205928
472803500 0.637724045869 -0.477447878191
472814000 0.638122570937 -0.477664973446
472824500 0.638028077764 -0.477329242845
472835000 0.637899897835 -0.477338504264
472845500 0.638054945607 -0.477523648505
472856000 0.637870952632 -0.477540523034
472866500 0.637651141922 -0.47737133059
472877000 0.638029901025 -0.47718950518
472887500 0.638262930548 -0.477459260492
472898000 0.637935663638 -0.477916971189
472908500 0.637863659297 -0.477945461482
472919000 0.637812720078 -0.477537664302
472929500 0.63688028682 -0.477886835307
472940000 0.636940413913 -0.478014828631
472950500 0.637350140083 -0.478056785215
472961000 0.637202148877 -0.477850253956
472971500 0.637339962106 -0.477692215248
472982000 0.637018954134 -0.478318647481
472992500 0.63709191399 -0.47830024385
473003000 0.636961188329 -0.4782272214
473013500 0.636984724571 -0.477684428524
473024000 0.636815593769 -0.47742919828
473034500 0.636949457666 -0.477389161379
473045000 0.637321709553 -0.477733810278
473055500 0.637338831687 -0.476966200905
473066000 0.637348428923 -0.477199306183
473076500 0.638143787776 -0.477955249488
473087000 0.636927385738 -0.476784966307
473097500 0.637061643714 -0.477270715552
473108000 0.637027320193 -0.477448705491
473118500 0.636848458769 -0.478035630375
473129000 0.637393754478 -0.478497920574
473139500 0.637442780846 -0.478240745177
473150000 0.63692200052 -0.47796598676
473160500 0.636656321017 -0.477785879782
473171000 0.636079464129 -0.477440357817
473181500 0.636572440903 -0.477566051638
473192000 0.636205517028 -0.478325263133
473202500 0.636138252978 -0.478451502347
473213000 0.636562311323 -0.477852657156
473223500 0.636600978664 -0.477706448703
473234000 0.636421806535 -0.477695760088
473244500 0.63647696956 -0.477684450794
473255000 0.636802968727 -0.477081666231
473265500 0.636637015016 -0.477029869882
473276000 0.636392878735 -0.477766772464
473286500 0.636376816129 -0.47735733546
473297000 0.636076792315 -0.477436892532
473307500 0.63713343779 -0.477796300794
473318000 0.63689200071 -0.477781609103
473328500 0.63672867374 -0.477518759798
473339000 0.636792522454 -0.477753273189
473349500 0.636189177458 -0.477844004628
473360000 0.636475702564 -0.476675407259
473370500 0.636666863095 -0.476352737997
473381000 0.636344342819 -0.477020622433
473391500 0.63626223053 -0.477451082257
473402000 0.635766394287 -0.478472152394
473412500 0.636335371214 -0.478356233566
473423000 0.636683134689 -0.478407202386
473433500 0.636781604803 -0.47868392736
473444000 0.63644354663 -0.478093179756
473454500 0.636833322456 -0.478249148312
473465000 0.636685416359 -0.477918374036
473475500 0.636986014052 -0.477982480161
473486000 0.63617319636 -0.477981817412
473496500 0.636240625207 -0.47847486733
473507000 0.636687722488 -0.478325612848
473517500 0.636237229662 -0.478871348824
473528000 0.63662006068 -0.478936236954
473538500 0.635777537262 -0.478690507125
473549000 0.635517418067 -0.478504815613
473559500 0.635517671586 -0.478558016749
473570000 0.636482993958 -0.479285274816
473580500 0.636014699207 -0.478957283411
473591000 0.635837680728 -0.478715769333
473601500 0.635883805968 -0.478532208667
473612000 0.63544443588 -0.478497969911
473622500 0.635700840338 -0.479150133076
473633000 0.6359632915 -0.479021279217
473643500 0.635121602649 -0.478458445916
473654000 0.635050754466 -0.478998831959
473664500 0.634748583057 -0.478748080274
473675000 0.635664251104 -0.478527051439
473685500 0.635704568823 -0.478067799669
473696000 0.635705044134 -0.4783922786
473706500 0.635571484211 -0.478795708669
473717000 0.635063540123 -0.478695661972
473727500 0.635320973605 -0.478705615778
473738000 0.635605475463 -0.478575943827
473748500 0.635975185369 -0.47819884927
473759000 0.636111238164 -0.478421929032
473769500 0.635545153583 -0.478557168296
473780000 0.634957453884 -0.478218091731
473790500 0.635468471339 -0.47859910271
473801000 0.635386369925 -0.478532489316
473811500 0.63540490442 -0.478373304138
473822000 0.636050635918 -0.47853317988
473832500 0.635384575426 -0.47842765881
473843000 0.635039773397 -0.478082558083
473853500 0.634638177724 -0.477958107376
473864000 0.634518885336 -0.478412732299
473874500 0.634041236479 -0.478381824377
473885000 0.634321829287 -0.478297868656
473895500 0.635079845669 -0.47892579154
473906000 0.634918631173 -0.47952124243
473916500 0.635392747036 -0.479850377191
473927000 0.636153694785 -0.479879805739
473937500 0.635952700431 -0.479457781694
473948000 0.636996490734 -0.479218408874
473958500 0.635940318647 -0.479170680529
473969000 0.635158152568 -0.479323469874
473979500 0.634729453927 -0.478837648525
473990000 0.635136710816 -0.478586164359
474000500 0.634874220484 -0.478691792894
474011000 0.635331621695 -0.479098680135
474021500 0.635185248718 -0.47923863279
474032000 0.635158617921 -0.480006050011
474042500 0.634797703274 -0.479549694923
474053000 0.634773860178 -0.479266989147
474063500 0.634357626161 -0.478829774888
474074000 0.63424748293 -0.478859969329
474084500 0.634769641022 -0.479585440624
474095000 0.634868173578 -0.480143004444
474105500 0.635342931232 -0.479936949403
474116000 0.635021739841 -0.479704709277
474126500 0.635289747564 -0.47958491762
474137000 0.634794174522 -0.479125132155
474147500 0.634654718823 -0.478500945429
474158000 0.634803435074 -0.479018471642
474168500 0.634556656971 -0.479422720715
474179000 0.635064418126 -0.47982870366
474189500 0.635124836027 -0.479586476762
474200000 0.634920205606 -0.478825889309
474210500 0.634992089917 -0.477749867327
474221000 0.63459672045 -0.478811763927
474231500 0.634374619729 -0.479678078119
474242000 0.636099293032 -0.480221187049
474252500 0.634070729977 -0.478948651916
474263000 0.634096073925 -0.478557028905
474273500 0.632984683268 -0.479469671249
474284000 0.633381943394 -0.479402650065
474294500 0.633245068417 -0.479077454978
474305000 0.633358249166 -0.478874697706
474315500 0.629627612841 -0.477529757847
474326000 0.634427382987 -0.479216190718
474336500 0.63324950157 -0.479784703927
474347000 0.634219819789 -0.479556184269
474357500 0.633629567553 -0.479469030252
474368000 0.634463473555 -0.479603969068
474378500 0.633529443254 -0.479782095358
474389000 0.633353803806 -0.4781553966
474399500 0.631686847601 -0.479950520049
474410000 0.632909097061 -0.477836962133
474420500 0.631829098055 -0.475823238868
474431000 0.631916446039 -0.47776000747
474441500 0.634820922289 -0.479437251934
474452000 0.631400119286 -0.476996618755
474462500 0.632558045438 -0.480332213125
474473000 0.632618200359 -0.479218297262
474483500 0.634455426099 -0.479643791593
474494000 0.626979946261 -0.477536045793
474504500 0.634103315793 -0.480142908308
474515000 0.633294036488 -0.480734214481
474525500 0.632295182108 -0.479561233507
474536000 0.630594656556 -0.476996913813
474546500 0.633206154671 -0.479500944688
474557000 0.629748946948 -0.48103574117
474567500 0.633334718584 -0.478668431575
474578000 0.632393943895 -0.483218619813
474588500 0.633690146007 -0.481673694921
474599000 0.63316390238 -0.479788524932
474609500 0.63338198728 -0.480499272272
474620000 0.632594742239 -0.480025058702
474630500 0.63318943424 -0.481278136839
474641000 0.633985304733 -0.480163314145
474651500 0.63473807425 -0.480141584553
474662000 0.633326015047 -0.480432378539
474672500 0.633257225271 -0.480266960612
474683000 0.633113853952 -0.480237167094
474693500 0.633872151636 -0.48015864342
474704000 0.633335971402 -0.479839305009
474714500 0.633751750655 -0.480496942438
474725000 0.633206265225 -0.479646344956
474735500 0.633250371849 -0.480296493601
474746000 0.633279644842 -0.480011387376
474756500 0.632904929273 -0.479618476895
474767000 0.633678395155 -0.47995318252
474777500 0.633832089684 -0.479646549517
474788000 0.633358927376 -0.479682813432
474798500 0.633336252156 -0.480360733281
474809000 0.633071239468 -0.480650796495
474819500 0.632962905756 -0.480588506044
474830000 0.632914919386 -0.480898095167
474840500 0.632355702148 -0.480744966662
474851000 0.632855600614 -0.481040483132
474861500 0.632695200435 -0.48076884608
474872000 0.632671817034 -0.480707026737
474882500 0.632806426734 -0.480435638617
474893000 0.632156348218 -0.480359651997
474903500 0.63228554892 -0.480498866383
474914000 0.632475152446 -0.480421385884
474924500 0.63266167187 -0.480157824407
474935000 0.632186662056 -0.480484395797
474945500 0.632414683541 -0.480335103036
474956000 0.632233296731 -0.480339508757
474966500 0.632180047682 -0.480377505564
474977000 0.632036199258 -0.480727722936
474987500 0.632318823166 -0.479708778454
474998000 0.632502532759 -0.480528993065
475008500 0.632457056343 -0.480244858904
475019000 0.63256113833 -0.479686900602
475029500 0.63181067567 -0.479567174021
475040000 0.632583522791 -0.479681230473
475050500 0.632835398852 -0.479572120198
475061000 0.632723438734 -0.479830487103
475071500 0.632203529504 -0.480498404774
475082000 0.632122356463 -0.480179610188
475092500 0.632180945941 -0.479713157248
475103000 0.631653451921 -0.480284806026
475113500 0.631703251657 -0.48041557862
475124000 0.631546006774 -0.481012374139
475134500 0.631463606006 -0.480414642162
475145000 0.631509937836 -0.480432397975
475155500 0.631555405372 -0.479647455411
475166000 0.631613278309 -0.480442783844
475176500 0.63156605424 -0.479893937789
475187000 0.631345963137 -0.480843140277
475197500 0.630803496741 -0.480022876679
475208000 0.631693590092 -0.479488217364
475218500 0.63122009031 -0.479366194538
475229000 0.63102162465 -0.480327651127
475239500 0.631066235621 -0.481243058594
475250000 0.631189749792 -0.480982191503
475260500 0.631179974623 -0.480724948532
475271000 0.631814003045 -0.480908799449
475281500 0.631348500502 -0.479586405858
475292000 0.631453675547 -0.479385932977
475302500 0.631210643284 -0.47944721754
475313000 0.631117587665 -0.479830585841
475323500 0.630776704807 -0.480920832352
475334000 0.631365355829 -0.480908751553
475344500 0.631233202783 -0.48071303609
475355000 0.631320848748 -0.481035287326
475365500 0.63144391241 -0.480707836562
475376000 0.631708473827 -0.481009050882
475386500 0.631668399704 -0.480835429727
475397000 0.631479225083 -0.481380691739
475407500 0.632037598787 -0.481817433923
475418000 0.631636024616 -0.481498342455
475428500 0.631103346995 -0.480359890665
475439000 0.63107931619 -0.480273353991
475449500 0.63097805454 -0.48025209767
475460000 0.631557854762 -0.479906831989
475470500 0.631516569436 -0.481004725763
475481000 0.630984502753 -0.480847826986
475491500 0.631155307008 -0.481349297273
475502000 0.631068468367 -0.481292640959
475512500 0.631063575241 -0.480913399101
475523000 0.630533390815 -0.481261528551
475533500 0.631220471176 -0.481529548976
475544000 0.630753754904 -0.481600291235
475554500 0.630571903649 -0.481854737533
475565000 0.630401269591 -0.481618805816
475575500 0.630819136513 -0.481454571858
475586000 0.630387852305 -0.481301026949
475596500 0.63057388334 -0.481070292484
475607000 0.630883842273 -0.481485744805
475617500 0.631221105369 -0.481232853759
475628000 0.630897088247 -0.481749367591
475638500 0.63108429905 -0.481724613245
475649000 0.63082049009 -0.481531840433
475659500 0.630563508769 -0.481158036234
475670000 0.63046881139 -0.481205901645
475680500 0.630720658669 -0.48123051506
475691000 0.631062063915 -0.481767037064
475701500 0.63078880269 -0.481934828007
475712000 0.630697633705 -0.48171169905
475722500 0.630276499718 -0.481281673207
475733000 0.630125846858 -0.481631826478
475743500 0.629557165923 -0.481495462425
475754000 0.629395323183 -0.481425528702
475764500 0.629389795726 -0.480981627835
475775000 0.629717999792 -0.480885294508
475785500 0.630406304399 -0.480484014842
475796000 0.630187825244 -0.481065738653
475806500 0.630192337514 -0.481409809216
475817000 0.630430733508 -0.481132651273
475827500 0.629982383083 -0.481121751144
475838000 0.630144723161 -0.481731656977
475848500 0.630042044575 -0.482308907314
475859000 0.629801197281 -0.480860033932
475869500 0.63059139194 -0.482045854413
475880000 0.63048457809 -0.482089825866
475890500 0.63017768392 -0.482130717291
475901000 0.630210546741 -0.481748737435
475911500 0.629867232644 -0.482033498496
475922000 0.630207246868 -0.481795803787
475932500 0.630352817645 -0.481640925933
475943000 0.629530578775 -0.482058277353
475953500 0.629153774876 -0.482075617384
475964000 0.629378246279 -0.48206816218
475974500 0.629422767421 -0.482278779825
475985000 0.629399460781 -0.482151663704
475995500 0.62974887034 -0.482256821072
476006000 0.62938105702 -0.48136751722
476016500 0.629430539235 -0.481986997827
476027000 0.629630095812 -0.481360248303
476037500 0.629854321603 -0.481849862081
476048000 0.629509417878 -0.481725289222
476058500 0.629811624187 -0.481950343973
476069000 0.629399903721 -0.481789469465
476079500 0.629412033666 -0.480999166676
476090000 0.629408702979 -0.481387180998
476100500 0.629822205076 -0.481205404116
476111000 0.629035511578 -0.481267097494
476121500 0.630140057467 -0.482389840616
476132000 0.63016347621 -0.480997838786
476142500 0.629905184564 -0.480858822959
476153000 0.629853257104 -0.481770610579
476163500 0.63015214062 -0.482072308328
476174000 0.630139303814 -0.481301630125
476184500 0.630027809369 -0.481699669504
476195000 0.630098280653 -0.481545718791
476205500 0.629839909613 -0.482162204107
476216000 0.63035737188 -0.481921950736
476226500 0.629894085814 -0.48227555784
476237000 0.630244303914 -0.481713389807
476247500 0.629668255962 -0.48226939167
476258000 0.629658545619 -0.481967676721
476268500 0.628798995511 -0.481809208708
476279000 0.627885544746 -0.481799706624
476289500 0.628345202103 -0.48221905118
476300000 0.629098431605 -0.482581333267
476310500 0.62856841145 -0.4833086701
476321000 0.628971618856 -0.482463836424
476331500 0.628592455057 -0.48291570566
476342000 0.628682723779 -0.482661880205
476352500 0.628406182664 -0.48251666894
476363000 0.628799943112 -0.482912979373
476373500 0.628522902025 -0.483267897608
476384000 0.62829141587 -0.482880193578
476394500 0.627981481984 -0.483141923226
476405000 0.628789102133 -0.482919937779
476415500 0.628382398668 -0.483273049283
476426000 0.628714787003 -0.482865325586
476436500 0.628688928872 -0.482409468365
476447000 0.628844764937 -0.482389293919
476457500 0.628890319372 -0.482454988352
476468000 0.629198926134 -0.482365699966
476478500 0.629132752097 -0.482615704759
476489000 0.628958642704 -0.482848913452
476499500 0.628746554485 -0.481979464765
476510000 0.628201374638 -0.481662582564
476520500 0.628197668888 -0.481963898458
476531000 0.627823945883 -0.482384766586
476541500 0.627441598072 -0.482406991856
476552000 0.628059188486 -0.482650259432
476562500 0.628261100152 -0.482457551198
476573000 0.628314302492 -0.482691410585
476583500 0.628062945227 -0.482852773315
476594000 0.628240628837 -0.482823434383
476604500 0.628449114169 -0.482409687618
476615000 0.62869243527 -0.482429991421
476625500 0.625760228578 -0.482557752699
476636000 0.623840357433 -0.481961301583
476646500 0.61457491512 -0.477796753663
476657000 0.615467205461 -0.483730823245
476667500 0.620380018336 -0.482606104313
476678000 0.628741041107 -0.484467054168
476688500 0.629234632494 -0.483910140547
476699000 0.628656004916 -0.483495607294
476709500 0.628160746227 -0.482305770583
476720000 0.627844528214 -0.482355344202
476730500 0.628568343735 -0.482649541188
476741000 0.628056024085 -0.482477228817
476751500 0.628368167327 -0.483171134183
476762000 0.627664428818 -0.482915435735
476772500 0.627925927975 -0.483167253723
476783000 0.627584191821 -0.483326154942
476793500 0.628119990818 -0.483409123458
476804000 0.627357769763 -0.483728240309
476814500 0.626924472534 -0.483083085111
476825000 0.627808576995 -0.483090784172
476835500 0.627760234553 -0.482569227265
476846000 0.628194344004 -0.48288477308
476856500 0.62807917873 -0.483323865004
476867000 0.627985671316 -0.483384318936
476877500 0.627593946567 -0.483704688598
476888000 0.628118099446 -0.483608061544
476898500 0.627741386314 -0.483397664549
476909000 0.628024817459 -0.483048502153
476919500 0.627753641802 -0.483384720321
476930000 0.627657448261 -0.483367276261
476940500 0.627521703537 -0.483101330908
476951000 0.627672217294 -0.483647411897
476961500 0.627128338699 -0.483269800397
476972000 0.627318256992 -0.483685839251
476982500 0.627984268361 -0.483704712019
476993000 0.628095469873 -0.483661059731
477003500 0.627890747831 -0.483743688654
477014000 0.627296386643 -0.483467095083
477024500 0.627223714083 -0.483918519626
477035000 0.627048223979 -0.4833502024
477045500 0.626859741543 -0.483508059213
477056000 0.626885986627 -0.483415426923
477066500 0.626927290135 -0.483698324109
477077000 0.627544366487 -0.483324976507
477087500 0.626780221879 -0.483669972228
477098000 0.627063141589 -0.483663666814
477108500 0.627199239663 -0.484057936776
477119000 0.627141458811 -0.484344360552
477129500 0.626690093461 -0.483806881371
477140000 0.626955390881 -0.484138411104
477150500 0.626654873089 -0.483735108534
477161000 0.626736828567 -0.483680290973
477171500 0.626296043121 -0.48399057195
477182000 0.626231263186 -0.484202951668
477192500 0.625949244398 -0.485370003631
477203000 0.62592745818 -0.485059388826
477213500 0.625876593432 -0.484269533928
477224000 0.625766742981 -0.483964507524
477234500 0.626378603812 -0.483210108865
477245000 0.626107506523 -0.484102253241
477255500 0.626137720346 -0.483930782284
477266000 0.626294556423 -0.484363185949
477276500 0.626362120734 -0.484161631841
477287000 0.62666891803 -0.484098905713
477297500 0.62668663295 -0.484307267081
477308000 0.626022693566 -0.484238170379
477318500 0.625872862142 -0.484289921935
477329000 0.62625402835 -0.484310099722
477339500 0.625310559885 -0.484637683396
477350000 0.625630055141 -0.483937228078
477360500 0.626572421101 -0.483673640037
477371000 0.62664899881 -0.484150739135
477381500 0.626159555321 -0.484379154382
477392000 0.626434188699 -0.484535593799
477402500 0.627462055652 -0.484022805676
477413000 0.625789987882 -0.484257683361
477423500 0.626069961185 -0.483697018831
477434000 0.625990119967 -0.484924199657
477444500 0.624655787957 -0.484737317895
477455000 0.625437485955 -0.484630218405
477465500 0.62610339466 -0.483769917025
477476000 0.625626260711 -0.485211227394
477486500 0.626583101374 -0.483864435313
477497000 0.624685148427 -0.485002252279
477507500 0.624837026032 -0.483078005149
477518000 0.62709676121 -0.484323998228
477528500 0.625026683721 -0.483646748695
477539000 0.626857893664 -0.484045473413
477549500 0.625074330372 -0.484646823755
477560000 0.624821798634 -0.482861138361
477570500 0.625246436611 -0.483929041059
477581000 0.625115962529 -0.484794636787
477591500 0.624244164952 -0.485725117743
477602000 0.624257761228 -0.483197391507
477612500 0.624859355688 -0.483191197
477623000 0.623624582575 -0.483600880866
477633500 0.626229739725 -0.484969291726
477644000 0.626728771086 -0.482404283995
477654500 0.624539730958 -0.484297225488
477665000 0.62546988492 -0.485672830398
477675500 0.625380227655 -0.48321250796
477686000 0.62623037761 -0.485237353953
477696500 0.626792277121 -0.485158832242
477707000 0.626806700621 -0.487490713552
477717500 0.622965805318 -0.484841435043
477728000 0.626027260833 -0.487188193348
477738500 0.622849889221 -0.485833164555
477749000 0.624229808559 -0.484338478693
477759500 0.625193621392 -0.483379107511
477770000 0.625024530801 -0.483691542396
477780500 0.626223491642 -0.485285441426
477791000 0.625097932557 -0.485825936673
477801500 0.625431118656 -0.485421790075
477812000 0.624886771411 -0.485485723927
477822500 0.625156228458 -0.485944306357
477833000 0.623656469658 -0.485852273193
477843500 0.625026986906 -0.486365999496
477854000 0.623273821614 -0.485154138531
477864500 0.623892597815 -0.484895873166
477875000 0.624754782134 -0.485271498839
477885500 0.625023104217 -0.486314116629
477896000 0.623921582442 -0.485156120266
477906500 0.624168250444 -0.485090486318
477917000 0.625394579443 -0.485689433213
477927500 0.624063077828 -0.484940253637
477938000 0.624373089651 -0.484811602006
477948500 0.623393740522 -0.48567747047
477959000 0.624540725188 -0.485298205751
477969500 0.622955616297 -0.484185098312
477980000 0.626073321897 -0.485155191515
477990500 0.620701095853 -0.482656582815
478001000 0.624460424658 -0.486214865767
478011500 0.626359617493 -0.481171457368
478022000 0.623851340111 -0.48578629222
478032500 0.627555212815 -0.484851946157
478043000 0.624214582618 -0.485280425473
478053500 0.624183115308 -0.482114524937
478064000 0.626396042338 -0.483433051504
478074500 0.623865099625 -0.485360387444
478085000 0.619605875568 -0.485057403297
478095500 0.616503182409 -0.494192830126
478106000 0.612595699597 -0.472787702353
478116500 0.623449659369 -0.487408082066
478127000 0.621272522812 -0.470172511817
478137500 0.627660885667 -0.48593793694
478148000 0.62046547628 -0.485973983013
478158500 0.626625692736 -0.47751815498
478169000 0.620781096844 -0.485315227794
478179500 0.622734023328 -0.487776395704
478190000 0.622204458681 -0.477608332948
478200500 0.633365750769 -0.490896925139
478211000 0.631024568549 -0.484465118833
478221500 0.638081743413 -0.488347813771
478232000 0.628506288326 -0.481284617723
478242500 0.618527216465 -0.484869126341
478253000 0.621374585627 -0.47751379435
478263500 0.612068687655 -0.489294349283
478274000 0.627363546814 -0.490331212889
478284500 0.618530685008 -0.483969284638
478295000 0.6230442237 -0.485819276484
478305500 0.626215212067 -0.482386237708
478316000 0.616432490415 -0.479291444442
478326500 0.616370381029 -0.479520147737
478337000 0.632121843138 -0.485729421236
478347500 0.616784333234 -0.491988171499
478358000 0.626073964859 -0.478338997473
478368500 0.633810893206 -0.475818402798
478379000 0.617054206249 -0.488264350455
478389500 0.623957427299 -0.487395660043
478400000 0.628239168296 -0.493702860696
478410500 0.626931255774 -0.4887502189
478421000 0.624051140514 -0.480632620394
478431500 0.619853901511 -0.488766972767
478442000 0.621583318648 -0.492359949647
478452500 0.619397795163 -0.481924372448
478463000 0.619364303273 -0.472756013333
478473500 0.618922422083 -0.488328466573
478484000 0.628722400152 -0.4817000263
478494500 0.628552634442 -0.47264312683
478505000 0.608545261898 -0.497389584521
478515500 0.62264898691 -0.481358317272
478526000 0.620263656342 -0.48204872802
478536500 0.618616248298 -0.482087978064
478547000 0.609929472508 -0.488781387046
478557500 0.617260364115 -0.486987166159
478568000 0.628688099394 -0.481534212776
478578500 0.607920963156 -0.481603279453
478589000 0.6202570704 -0.496328104472
478599500 0.631356185056 -0.478063666774
478610000 0.621239072357 -0.488126123199
478620500 0.630001413022 -0.489794648624
478631000 0.620433070896 -0.480645121679
478641500 0.621451668937 -0.493332078861
478652000 0.617510277434 -0.480578612974
478662500 0.627451316261 -0.484788695851
478673000 0.627398192323 -0.499589010351
478683500 0.628893312029 -0.474469958636
478694000 0.625342335067 -0.478741018028
478704500 0.617947786149 -0.477173426246
478715000 0.619885738383 -0.488826936286
478725500 0.616797282343 -0.486602597659
478736000 0.619343798724 -0.481394189492
478746500 0.624956945946 -0.491353259257
478757000 0.620449554357 -0.493136965364
478767500 0.618833770514 -0.493842091059
478778000 0.622327421227 -0.483594903236
478788500 0.626278197164 -0.49040316354
478799000 0.618409647504 -0.492160850026
478809500 0.620309659578 -0.489657767969
478820000 0.622417849008 -0.486572559531
478830500 0.620709448346 -0.485959107509
478841000 0.621167396945 -0.487254070287
478851500 0.621287496458 -0.486795903404
478862000 0.623756583515 -0.486597047635
478872500 0.61939131933 -0.484840474183
478883000 0.621345299278 -0.485585348043
478893500 0.620823241879 -0.484529135133
478904000 0.621518103276 -0.491341511542
478914500 0.621996293833 -0.486325446356
478925000 0.620195818102 -0.486417651926
478935500 0.620477978564 -0.4868598122
478946000 0.622578246477 -0.487345396264
478956500 0.620876147253 -0.487637125952
478967000 0.620964832876 -0.485411013188
478977500 0.620080814578 -0.48678489267
478988000 0.621340784619 -0.486675467479
478998500 0.620048257097 -0.485695088211
479009000 0.620941025028 -0.486096363157
479019500 0.620547054264 -0.487410887687
479030000 0.62032342825 -0.48671000738
479040500 0.62078349517 -0.486843823565
479051000 0.621150095377 -0.486195945323
479061500 0.621316020046 -0.486817389302
479072000 0.620885933266 -0.485870202017
479082500 0.620372782485 -0.486389934012
479093000 0.620657900153 -0.487231025613
479103500 0.621468433183 -0.488243230651
479114000 0.619440559236 -0.487527995536
479124500 0.619864724023 -0.48761819201
479135000 0.618639881368 -0.487898094422
479145500 0.620177239422 -0.487204299884
479156000 0.620341241021 -0.486644231534
479166500 0.620926168699 -0.487338199128
479177000 0.621015970926 -0.488241387686
479187500 0.620369492417 -0.487772422651
479198000 0.620537639976 -0.487574379434
479208500 0.620398027813 -0.486772074033
479219000 0.621243615677 -0.487175760095
479229500 0.6209470824 -0.487497662533
479240000 0.621636419391 -0.488286226982
479250500 0.620317409725 -0.48869603448
479261000 0.620203818582 -0.489333249658
479271500 0.619079351824 -0.488588230073
479282000 0.620747262195 -0.488692116385
479292500 0.619305554287 -0.487810281688
479303000 0.619219169746 -0.487745024874
479313500 0.620049806285 -0.487526882084
479324000 0.619397997284 -0.486096324059
479334500 0.619365453471 -0.487667128341
479345000 0.618202410196 -0.487221226438
479355500 0.619539634137 -0.48859392055
479366000 0.619339079197 -0.48708322853
479376500 0.617742357469 -0.486713598995
479387000 0.618846882754 -0.486877030099
479397500 0.618972677789 -0.487669974528
479408000 0.61857424896 -0.487483537344
479418500 0.619520986384 -0.488389796124
479429000 0.619030310317 -0.486627002414
479439500 0.619872298243 -0.487838472177
479450000 0.619170207107 -0.486790920046
479460500 0.620101612116 -0.487505217092
479471000 0.61955404382 -0.487657081025
479481500 0.619552353997 -0.486986905184
479492000 0.619498170204 -0.486198826709
479502500 0.618683082378 -0.48737241793
479513000 0.620512247245 -0.486877126085
479523500 0.618988831871 -0.48703829627
479534000 0.619784970681 -0.488003281756
479544500 0.619030580353 -0.488439339152
479555000 0.619252969601 -0.48820026284
479565500 0.618802887371 -0.487985609971
479576000 0.618427041465 -0.487062795692
479586500 0.618769574586 -0.487137068248
479597000 0.618793986444 -0.486982483594
479607500 0.618551317229 -0.487248138472
479618000 0.61842194679 -0.487614469068
479628500 0.61844285388 -0.487625155818
479639000 0.618827024223 -0.48758789804
479649500 0.618827974523 -0.487853413668
479660000 0.61865678296 -0.48829491469
479670500 0.618438696825 -0.487926662997
479681000 0.618256252586 -0.488401352717
479691500 0.617969056403 -0.488198839941
479702000 0.618212156417 -0.488274357144
479712500 0.618175638725 -0.488576267882
479723000 0.617901253702 -0.488650136914
479733500 0.61869965251 -0.488268041269
479744000 0.619064742495 -0.487789471581
479754500 0.619083450493 -0.487896742979
479765000 0.619036174247 -0.488305083441
479775500 0.618816917919 -0.48863151505
479786000 0.618772234272 -0.488533522294
479796500 0.618400078177 -0.488326821747
479807000 0.618455127606 -0.488457222154
479817500 0.61833459878 -0.488259183986
479828000 0.618891891844 -0.489175476836
479838500 0.618789001537 -0.489985846952
479849000 0.618664513505 -0.489365809843
479859500 0.6185536149 -0.489258867589
479870000 0.618135279623 -0.488270902076
479880500 0.61842082939 -0.487923470689
479891000 0.618314157903 -0.487913094885
479901500 0.618145414085 -0.48768211688
479912000 0.617633199455 -0.489089492848
479922500 0.617294689379 -0.488777518413
479933000 0.617534181858 -0.488585868829
479943500 0.618889727302 -0.488035655825
479954000 0.619664513608 -0.487348264611
479964500 0.619870959918 -0.487289044152
479975000 0.617331703459 -0.48740114995
479985500 0.617677419571 -0.487623408281
479996000 0.617559650897 -0.487275276542
480006500 0.617150764914 -0.48799968023
480017000 0.616809467643 -0.488966394203
480027500 0.61779197881 -0.488689786744
480038000 0.61753400897 -0.488982584903
480048500 0.617120639683 -0.488306869131
480059000 0.616989882882 -0.488440157704
480069500 0.617384242209 -0.48857597357
480080000 0.617019067626 -0.487934535477
480090500 0.61714884371 -0.487992556903
480101000 0.617860828966 -0.488607887599
480111500 0.617835754744 -0.488854751417
480122000 0.618130609111 -0.489074432202
480132500 0.617920527391 -0.489257423783
480143000 0.618101000437 -0.489358017207
480153500 0.617754098947 -0.489672537897
480164000 0.617731557819 -0.489502395267
480174500 0.617592171424 -0.488165914077
480185000 0.616548771949 -0.48847640937
480195500 0.616432377746 -0.488435819712
480206000 0.617070612024 -0.488578237476
480216500 0.616821081481 -0.488383087379
480227000 0.616157524319 -0.488451717872
480237500 0.615842946268 -0.48882248113
480248000 0.615940938928 -0.488522304582
480258500 0.616222239789 -0.48866550244
480269000 0.612708254334 -0.488516125419
480279500 0.616141174838 -0.488980206399
480290000 0.61666548181 -0.488400012354
480300500 0.616654988265 -0.488776201746
480311000 0.616647836728 -0.488346818775
480321500 0.616111351881 -0.488676750799
480332000 0.616092861444 -0.488810967293
480342500 0.61604800836 -0.488561856801
480353000 0.616198141638 -0.488923525012
480363500 0.616177692568 -0.48875684863
480374000 0.61614080757 -0.488657504126
480384500 0.616189061896 -0.488474341312
480395000 0.616258096076 -0.488072870984
480405500 0.616286302252 -0.488221496655
480416000 0.616345239905 -0.488595432146
480426500 0.616566576141 -0.488487439488
480437000 0.616424278631 -0.489308088423
480447500 0.616645446309 -0.488734442008
480458000 0.615955150118 -0.488301276498
480468500 0.615767826275 -0.487883975618
480479000 0.616081620832 -0.488156935247
480489500 0.616425507491 -0.488841890075
480500000 0.616849657317 -0.488859136535
480510500 0.616871689801 -0.487683204372
480521000 0.616456588922 -0.488384351777
480531500 0.616212318547 -0.487780429746
480542000 0.616243660871 -0.488423125682
480552500 0.616183954832 -0.489119368868
480563000 0.61564875347 -0.488847242067
480573500 0.615203102923 -0.488803457915
480584000 0.615829734394 -0.488541035836
480594500 0.615395680098 -0.487919457217
480605000 0.615785958258 -0.487862942122
480615500 0.61569806357 -0.488046952716
480626000 0.615256713398 -0.488470129173
480636500 0.615702389178 -0.487942456794
480647000 0.615191854567 -0.488698997331
480657500 0.615738002824 -0.488550978266
480668000 0.616063903692 -0.488293439382
480678500 0.616032591082 -0.488550586375
480689000 0.615797215166 -0.489318931239
480699500 0.615261086415 -0.48952502107
480710000 0.615499039808 -0.488991502906
480720500 0.615032456788 -0.488969445621
480731000 0.61541542885 -0.489457630185
480741500 0.615175035563 -0.489887226911
480752000 0.615314893166 -0.489678099629
480762500 0.615339395883 -0.489649977433
480773000 0.615228176727 -0.489570630106
480783500 0.61446935349 -0.488332014427
480794000 0.614823368348 -0.488672776212
480804500 0.615178446534 -0.488709380102
480815000 0.614934834027 -0.489083527526
480825500 0.615492539712 -0.488931609999
480836000 0.615747856399 -0.488395790865
480846500 0.615786734522 -0.488961910222
480857000 0.615472578834 -0.488746357732
480867500 0.614936039433 -0.489162505682
480878000 0.614951848414 -0.488630316387
480888500 0.614870568134 -0.489024143141
480899000 0.615042507136 -0.488883239977
480909500 0.615209426912 -0.489271020855
480920000 0.615218283037 -0.489022181275
480930500 0.615090894463 -0.488940838775
480941000 0.615020925148 -0.489351914441
480951500 0.614924180246 -0.488224479864
480962000 0.614351537913 -0.488157967141
480972500 0.613664159989 -0.487747659808
480983000 0.613399690008 -0.487285858079
480993500 0.612999515454 -0.487196153855
481004000 0.613730719371 -0.487590935047
481014500 0.614116561317 -0.489097437765
481025000 0.614787779815 -0.490017591367
481035500 0.613895088558 -0.488046063464
481046000 0.613758314171 -0.48856378506
481056500 0.613623403874 -0.489439988744
481067000 0.613427031976 -0.489067823845
481077500 0.613697209831 -0.489269602653
481088000 0.614555407145 -0.488646899626
481098500 0.614438458596 -0.488439859163
481109000 0.613981294517 -0.488023604985
481119500 0.613816121578 -0.488242633864
481130000 0.614125056909 -0.488448473087
481140500 0.613884711895 -0.488988571361
481151000 0.613494268003 -0.488773788979
481161500 0.613729010762 -0.48874252331
481172000 0.612879631988 -0.489069784495
481182500 0.613094796182 -0.488773192132
481193000 0.613323374119 -0.48831637211
481203500 0.613349246874 -0.488679167899
481214000 0.613476365781 -0.489516419259
481224500 0.613743551798 -0.489951756159
481235000 0.612441660463 -0.489875865497
481245500 0.61277260733 -0.490031060802
481256000 0.612476960866 -0.490187008441
481266500 0.613081281736 -0.489134007541
481277000 0.613725121874 -0.488705663259
481287500 0.613672826217 -0.489377831082
481298000 0.613173475161 -0.489710053515
481308500 0.613538571251 -0.48968896407
481319000 0.612947019645 -0.489621570573
481329500 0.613505744246 -0.489723958988
481340000 0.61294635915 -0.489012694501
481350500 0.612688441538 -0.489474538673
481361000 0.612261293478 -0.488967203247
481371500 0.612562487581 -0.489241743722
481382000 0.612970599071 -0.48847052851
481392500 0.613739354029 -0.488963149999
481403000 0.613771520785 -0.488885510508
481413500 0.613799335683 -0.489486064406
481424000 0.61359389241 -0.489415771765
481434500 0.613585992034 -0.488998838639
481445000 0.613503217396 -0.489094871994
481455500 0.61354291118 -0.489080711533
481466000 0.61324092111 -0.489694325549
481476500 0.613226768522 -0.489214200259
481487000 0.613187825827 -0.48961123268
481497500 0.613072824071 -0.489631074085
481508000 0.613535884628 -0.490085851986
481518500 0.613459546872 -0.489555510426
481529000 0.613503722072 -0.489690253375
481539500 0.613585746952 -0.489943457815
481550000 0.613029708398 -0.490037324723
481560500 0.612940667356 -0.489643696639
481571000 0.613504038681 -0.489477952095
481581500 0.613634014479 -0.488894442003
481592000 0.613893556174 -0.489866895878
481602500 0.61321724196 -0.48767485036
481613000 0.612913719175 -0.48835918655
481623500 0.61409738965 -0.488990194317
481634000 0.613113936073 -0.488753943733
481644500 0.612383608379 -0.488376646714
481655000 0.612609289395 -0.487814515207
481665500 0.612502288186 -0.489235408955
481676000 0.612030710596 -0.490250901049
481686500 0.610408423876 -0.490105795412
481697000 0.611302188782 -0.490713923018
481707500 0.611128870094 -0.492926944609
481718000 0.611476203101 -0.491270387303
481728500 0.611067081459 -0.490167878968
481739000 0.611338527753 -0.489399301598
481749500 0.611615871592 -0.488521938005
481760000 0.61207888127 -0.489918353814
481770500 0.611472736481 -0.489656771406
481781000 0.612398563846 -0.488597552906
481791500 0.614752529282 -0.486531965811
481802000 0.614287133769 -0.486480173341
481812500 0.61231020903 -0.488551756192
481823000 0.612222741498 -0.488374361864
481833500 0.61223080278 -0.489441304838
481844000 0.611936498035 -0.489054730183
481854500 0.61288046594 -0.489081754263
481865000 0.612408182396 -0.490345734098
481875500 0.611818682471 -0.490054984358
481886000 0.611398178774 -0.489294873464
481896500 0.611638616401 -0.490038812907
481907000 0.611618413128 -0.490512746298
481917500 0.611217071878 -0.49037719368
481928000 0.611778974797 -0.489683128312
481938500 0.610635917879 -0.489987709328
481949000 0.611503330622 -0.491158722337
481959500 0.610741720794 -0.492684773198
481970000 0.60987427013 -0.494627505378
481980500 0.611449511795 -0.492160673018
481991000 0.611129085044 -0.490625856143
482001500 0.611732657304 -0.489776347538
482012000 0.611160060082 -0.489970077735
482022500 0.611203397132 -0.489328060123
482033000 0.611169164055 -0.490251991769
482043500 0.610111635012 -0.489549943987
482054000 0.611258047332 -0.489781018094
482064500 0.609102641373 -0.491583858212
482075000 0.612084372104 -0.489435197543
482085500 0.60976812744 -0.488257878754
482096000 0.611950096409 -0.488702766981
482106500 0.610542684348 -0.490317349526
482117000 0.609817456111 -0.493960792828
482127500 0.613559030512 -0.48945757917
482138000 0.61492887714 -0.492164936663
482148500 0.611708330648 -0.488887504557
482159000 0.611800960063 -0.490353110154
482169500 0.612160308574 -0.490799506759
482180000 0.613609164471 -0.490658780497
482190500 0.607587912499 -0.492800293297
482201000 0.607960088582 -0.490988529197
482211500 0.614929436169 -0.488011163846
482222000 0.608396155183 -0.489858592523
482232500 0.612868978006 -0.489847558329
482243000 0.614828107697 -0.488858237338
482253500 0.611239015041 -0.492929553964
482264000 0.610579004459 -0.488237166713
482274500 0.607173973659 -0.497578598803
482285000 0.607967231485 -0.490416656942
482295500 0.613957049385 -0.488228870986
482306000 0.603787208254 -0.485282079066
482316500 0.609459288394 -0.487539627687
482327000 0.609498870038 -0.496642011362
482337500 0.612207687841 -0.496764333257
482348000 0.614404475756 -0.490124966654
482358500 0.60402680339 -0.494491468701
482369000 0.605946659847 -0.490627106089
482379500 0.609095039201 -0.494134492191
482390000 0.607585549485 -0.489818135165
482400500 0.616163789036 -0.489235826505
482411000 0.613982360053 -0.482755507488
482421500 0.627953928367 -0.495338260528
482432000 0.597997436362 -0.498077642858
482442500 0.60216253133 -0.476951732542
482453000 0.60842276804 -0.497180405589
482463500 0.605296093875 -0.48763813612
482474000 0.61292885995 -0.496360596696
482484500 0.615793887295 -0.480523014729
482495000 0.609853724354 -0.487952400905
482505500 0.618135909891 -0.490154020335
482516000 0.599463747083 -0.492007486609
482526500 0.595994787611 -0.494693159038
482537000 0.607312502225 -0.486404072971
482547500 0.614511737796 -0.485595193347
482558000 0.610849023416 -0.48500352663
482568500 0.605709095069 -0.485036319041
482579000 0.602658833529 -0.501948207996
482589500 0.60634715576 -0.493254813247
482600000 0.605100011017 -0.495650346364
482610500 0.606632366433 -0.49351700535
482621000 0.607185747297 -0.492953392103
482631500 0.60802321516 -0.480763681639
482642000 0.609142560718 -0.49228962838
482652500 0.609660609944 -0.484844876678
482663000 0.618070311167 -0.505234607922
482673500 0.609612098129 -0.493400810242
482684000 0.606470919492 -0.49652195427
482694500 0.611612713472 -0.48749102967
482705000 0.606889955918 -0.496112361337
482715500 0.603553390659 -0.494381808806
482726000 0.607939615189 -0.484313517979
482736500 0.610018660302 -0.488905461391
482747000 0.606543224981 -0.486299784769
482757500 0.614752192004 -0.490897939183
482768000 0.611024208786 -0.49189479574
482778500 0.611364035403 -0.48710508196
482789000 0.606703149837 -0.489358899387
482799500 0.60654876643 -0.49003478588
482810000 0.606376091778 -0.485086687057
482820500 0.610245913639 -0.490453021329
482831000 0.60646616043 -0.488659532488
482841500 0.614576111964 -0.491444021315
482852000 0.608947620891 -0.490438808136
482862500 0.612206787451 -0.490829350383
482873000 0.612072884965 -0.495072731513
482883500 0.606716462581 -0.488337120827
482894000 0.607747502873 -0.488439475374
482904500 0.607611992806 -0.48821727605
482915000 0.609666825393 -0.490126878387
482925500 0.609946574495 -0.489889558749
482936000 0.608277039465 -0.489897747662
482946500 0.607664618978 -0.490304928353
482957000 0.606943978664 -0.489412221482
482967500 0.60755047063 -0.489342227926
482978000 0.608864591219 -0.488986874277
482988500 0.608190115053 -0.489585027104
482999000 0.608110425885 -0.48928749409
483009500 0.609346622305 -0.488338928916
483020000 0.608472278421 -0.490090578237
483030500 0.608618871346 -0.490916218547
483041000 0.609255280353 -0.491920463691
483051500 0.609861963475 -0.488857212128
483062000 0.609092919788 -0.490780581106
483072500 0.609186337312 -0.489019699449
483083000 0.607969207739 -0.490305346941
483093500 0.607836642563 -0.490290260702
483104000 0.60646821373 -0.489587938336
483114500 0.609767260505 -0.490685748819
483125000 0.607363606423 -0.490419791587
483135500 0.609406849134 -0.489773485823
483146000 0.606621869826 -0.489353241914
483156500 0.607320770478 -0.490482825738
483167000 0.608098217064 -0.490506897587
483177500 0.605976267383 -0.489405388906
483188000 0.608150553271 -0.490166568935
483198500 0.607235859813 -0.489370726371
483209000 0.609397150165 -0.489534183559
483219500 0.608445243912 -0.491289800945
483230000 0.60788808832 -0.490677302598
483240500 0.60778738686 -0.49134531619
483251000 0.605538957081 -0.490130960886
483261500 0.606361683305 -0.491879165404
483272000 0.607797051561 -0.488924564177
483282500 0.606721523897 -0.491860670788
483293000 0.607160912836 -0.489974104716
483303500 0.608741830431 -0.488820649118
483314000 0.6085302593 -0.489365698047
483324500 0.608263932355 -0.489360171404
483335000 0.607623380276 -0.488974607855
483345500 0.607974289621 -0.490935905809
483356000 0.607274746464 -0.490098753733
483366500 0.607073597691 -0.489695777864
483377000 0.607950439021 -0.491916483488
483387500 0.607255169635 -0.49033906664
483398000 0.608201037821 -0.492205258885
483408500 0.606552412831 -0.490060370852
483419000 0.60786602598 -0.490745884484
483429500 0.607575170143 -0.49172889749
483440000 0.607392110232 -0.489531158883
483450500 0.606333413327 -0.49136640238
483461000 0.60788360906 -0.490836961214
483471500 0.608244986726 -0.489109262699
483482000 0.608025960786 -0.491399612493
483492500 0.608165630073 -0.490968733408
483503000 0.608667421088 -0.490860592561
483513500 0.607712587408 -0.490365617061
483524000 0.606879814546 -0.490287044237
483534500 0.607943721005 -0.489242594602
483545000 0.607683221841 -0.490267272451
483555500 0.607899056011 -0.490242491599
483566000 0.607419254271 -0.490214732924
483576500 0.607149890664 -0.490238655103
483587000 0.606452805817 -0.49022910467
483597500 0.60659919515 -0.490353139677
483608000 0.606763686287 -0.490695340193
483618500 0.606547842659 -0.490329150105
483629000 0.607111666067 -0.491301131525
483639500 0.60704678906 -0.491322355846
483650000 0.607204762553 -0.490794503925
483660500 0.607215393029 -0.491445864308
483671000 0.607610484175 -0.490553893337
483681500 0.607649864356 -0.490389578142
483692000 0.607229945304 -0.490235065393
483702500 0.607267647672 -0.490677586201
483713000 0.607003141015 -0.490839699007
483723500 0.60688972062 -0.49009915954
483734000 0.60643002912 -0.49087657753
483744500 0.606460532165 -0.490367047094
483755000 0.606516505229 -0.490339886688
483765500 0.606196607659 -0.490107723695
483776000 0.606091782844 -0.490192416355
483786500 0.606257181951 -0.4908294842
483797000 0.606068852271 -0.490764373659
483807500 0.606478225407 -0.49030830147
483818000 0.606528310754 -0.490144837326
483828500 0.606300500979 -0.490924193831
483839000 0.606852429558 -0.491234060447
483849500 0.606655822695 -0.490673470967
483860000 0.607297370516 -0.49050098293
483870500 0.606790369387 -0.490077057638
483881000 0.607307723838 -0.4904655594
483891500 0.605821460709 -0.489559081189
483902000 0.60576067482 -0.490084093744
483912500 0.606145531135 -0.490726762746
483923000 0.606067026859 -0.490869105748
483933500 0.606009823367 -0.490949933114
483944000 0.605741790911 -0.490880633924
483954500 0.605239785628 -0.491052719729
483965000 0.605351972575 -0.491127967425
483975500 0.605749344852 -0.49168136826
483986000 0.605695978015 -0.491693028898
483996500 0.606109433667 -0.490910980509
484007000 0.60576047918 -0.491340037727
484017500 0.605755076599 -0.49069454852
484028000 0.605387187436 -0.489936191936
484038500 0.60565916391 -0.489652605166
484049000 0.605453981378 -0.490054700831
484059500 0.605634515259 -0.489932258372
484070000 0.605279299431 -0.490700242931
484080500 0.605814745873 -0.490917118084
484091000 0.605950785413 -0.490607883581
484101500 0.606132323603 -0.490847567669
484112000 0.605847398696 -0.490442974392
484122500 0.605619735166 -0.490123938245
484133000 0.605254420277 -0.490188833929
484143500 0.605402929515 -0.490023720152
484154000 0.605583253055 -0.489901297329
484164500 0.605431628431 -0.490411274586
484175000 0.605182289313 -0.491167758364
484185500 0.604936481509 -0.491213265109
484196000 0.605675996394 -0.490726660321
484206500 0.605787901733 -0.489952732925
484217000 0.605838814125 -0.490092051489
484227500 0.605745154381 -0.490362689538
484238000 0.605777300848 -0.490367121093
484248500 0.605156774442 -0.489892765125
484259000 0.605721303546 -0.490220718277
484269500 0.605040059062 -0.490030614111
484280000 0.605101597033 -0.490123396181
484290500 0.605006307995 -0.490027105574
484301000 0.605674118483 -0.490389429703
484311500 0.60547609416 -0.490993340496
484322000 0.60547433749 -0.491499634979
484332500 0.605729880436 -0.491085402071
484343000 0.6056057223 -0.489964161801
484353500 0.605999426804 -0.490644342781
484364000 0.605345499344 -0.490698656886
484374500 0.605802942259 -0.490534152891
484385000 0.605297498245 -0.49061655718
484395500 0.605133713775 -0.490588122633
484406000 0.605440355323 -0.490814283498
484416500 0.605480882817 -0.490839321775
484427000 0.604794583985 -0.490816137243
484437500 0.604795883693 -0.490295695157
484448000 0.604743199936 -0.490520945249
484458500 0.605085957136 -0.490627905751
484469000 0.604644451195 -0.491067125955
484479500 0.605141683348 -0.490473515032
484490000 0.605326851817 -0.490647288611
484500500 0.605166384526 -0.490383593929
484511000 0.605081457511 -0.490855269472
484521500 0.605145232974 -0.490626941827
484532000 0.604971805951 -0.490991800606
484542500 0.604859521445 -0.490953097558
484553000 0.605299962192 -0.491179143943
484563500 0.604659443702 -0.491393755819
484574000 0.604606577835 -0.490812804305
484584500 0.603878621979 -0.490902418694
484595000 0.604117930209 -0.491142231803
484605500 0.603935270178 -0.490827001849
484616000 0.603250261154 -0.491533721893
484626500 0.604153569963 -0.491021163615
484637000 0.604596285263 -0.491137449823
484647500 0.60448336557 -0.491147542944
484658000 0.605008478949 -0.490722527377
484668500 0.604547075697 -0.49045138072
484679000 0.604655267406 -0.490566673445
484689500 0.605361119697 -0.491149958654
484700000 0.604845202644 -0.49111055671
484710500 0.605358620353 -0.490917814557
484721000 0.605087449613 -0.490801629475
484731500 0.604834301004 -0.490632848711
484742000 0.604297998108 -0.490891837567
484752500 0.604295088819 -0.491203588898
484763000 0.603850548055 -0.491353889283
484773500 0.604203732232 -0.491073650308
484784000 0.604146746688 -0.49161265577
484794500 0.604027459531 -0.491237810204
484805000 0.604420855554 -0.491072346614
484815500 0.604473404063 -0.490951956561
484826000 0.604850953317 -0.490495271322
484836500 0.604942724881 -0.491066873777
484847000 0.604063039276 -0.490883846004
484857500 0.603798790273 -0.490905154728
484868000 0.603558455708 -0.490942617434
484878500 0.603023149622 -0.490569997767
484889000 0.603416978193 -0.490799882771
484899500 0.603534218029 -0.491191394605
484910000 0.60385318271 -0.49156868774
484920500 0.603857920988 -0.490853699061
484931000 0.604118130643 -0.490661620574
484941500 0.603746358825 -0.490836581803
484952000 0.603932164811 -0.490819696543
484962500 0.604105270246 -0.490543700935
484973000 0.603998776974 -0.490127648777
484983500 0.604742944523 -0.489559657091
484994000 0.604208252874 -0.48979287835
485004500 0.603983140674 -0.490293251559
485015000 0.60341698842 -0.491037154255
485025500 0.603774974032 -0.491318133043
485036000 0.603887428092 -0.491059824585
485046500 0.604022244843 -0.491109479271
485057000 0.603920684417 -0.491402162095
485067500 0.603760685533 -0.491433892446
485078000 0.603620982145 -0.491338170524
485088500 0.603215115237 -0.491757959534
485099000 0.602896870462 -0.49124114966
485109500 0.602588187197 -0.491329663678
485120000 0.603186781124 -0.492090342612
485130500 0.603460439281 -0.491975048441
485141000 0.603128419235 -0.491893288617
485151500 0.603023792024 -0.490978917336
485162000 0.603338476446 -0.491186429764
485172500 0.603270664757 -0.490834202799
485183000 0.602095071925 -0.490848908255
485193500 0.603402723864 -0.491266419309
485204000 0.603348482927 -0.490737463892
485214500 0.60309325305 -0.490506020987
485225000 0.603006747074 -0.491337934166
485235500 0.602820762762 -0.4914373305
485246000 0.602827259834 -0.492003012777
485256500 0.603145693128 -0.492086691869
485267000 0.603157325219 -0.492598213542
485277500 0.603004547171 -0.492383290068
485288000 0.603270504682 -0.492517642257
485298500 0.603546658635 -0.492144302546
485309000 0.603342893179 -0.492440888184
485319500 0.603677245732 -0.492244704708
485330000 0.603360111562 -0.492300322618
485340500 0.603228159094 -0.492350875249
485351000 0.602237239746 -0.492098157485
485361500 0.602043809119 -0.491199242777
485372000 0.602305553307 -0.49165367523
485382500 0.601944091909 -0.491422314005
485393000 0.602627063187 -0.491568897622
485403500 0.602324069149 -0.492258581099
485414000 0.602811940952 -0.492067492325
485424500 0.602370769012 -0.492509020083
485435000 0.603379289327 -0.492566580561
485445500 0.602483939051 -0.493365522926
485456000 0.603218407426 -0.49204263253
485466500 0.60258128383 -0.492423440657
485477000 0.602401237003 -0.490876462605
485487500 0.603189347174 -0.492384391297
485498000 0.603010853426 -0.494000139665
485508500 0.60231065705 -0.49152297857
485519000 0.601847335111 -0.491253326665
485529500 0.601906918673 -0.492860981169
485540000 0.602572727972 -0.491981013857
485550500 0.601442110222 -0.491544557165
485561000 0.602022462235 -0.492006533205
485571500 0.601457529197 -0.492233229934
485582000 0.60218093316 -0.490373879496
485592500 0.603330800069 -0.488734324119
485603000 0.602934262364 -0.491587062054
485613500 0.602162479171 -0.493373493524
485624000 0.602074263664 -0.492150435261
485634500 0.602086430197 -0.492304259405
485645000 0.603771748423 -0.491687594209
485655500 0.604268445946 -0.491671872507
485666000 0.603604241498 -0.491505399103
485676500 0.602358739725 -0.492038825589
485687000 0.601555911124 -0.493217225493
485697500 0.60286652816 -0.491862058608
485708000 0.601882237799 -0.493040591756
485718500 0.603054193667 -0.492739870043
485729000 0.601705430693 -0.491696096393
485739500 0.601199667522 -0.493293636563
485750000 0.604993814607 -0.490054050235
485760500 0.60376607057 -0.490617547873
485771000 0.601766749556 -0.492576918221
485781500 0.602404010506 -0.492242610847
485792000 0.60338447028 -0.492103165351
485802500 0.602529110948 -0.49305561814
485813000 0.601996670299 -0.493381606408
485823500 0.60268581803 -0.492965177559
485834000 0.602568368576 -0.492895754619
485844500 0.602332175078 -0.492458450793
485855000 0.602920187775 -0.49011498933
485865500 0.600411508934 -0.492062000144
485876000 0.601424081765 -0.492083615448
485886500 0.602842862539 -0.492713286423
485897000 0.602200846325 -0.492229965927
485907500 0.602472672123 -0.492078157978
485918000 0.601672868024 -0.492361032116
485928500 0.602097334409 -0.491657846341
485939000 0.601800515617 -0.491213371884
485949500 0.602733009661 -0.492266084841
485960000 0.602276981148 -0.492472970317
485970500 0.601942599517 -0.492304139676
485981000 0.602271475188 -0.492462832996
485991500 0.601940910868 -0.491960554006
486002000 0.602740258649 -0.492294172871
486012500 0.601545336442 -0.492218449275
486023000 0.602604082986 -0.491443716829
486033500 0.60167302655 -0.492248500476
486044000 0.601969147219 -0.492887431442
486054500 0.602789161857 -0.493978197689
486065000 0.605356256987 -0.492321530992
486075500 0.602019337657 -0.498022231308
486086000 0.601589619308 -0.492810859722
486096500 0.6010418316 -0.493341270054
486107000 0.59877670443 -0.49339889671
486117500 0.602266552792 -0.497319862776
486128000 0.599008875269 -0.493274634325
486138500 0.603481333983 -0.490717525129
486149000 0.600413227071 -0.486971995937
486159500 0.602219400548 -0.492504139465
486170000 0.609289873631 -0.483197043623
486180500 0.602295068397 -0.498037585423
486191000 0.595035553741 -0.495775042289
486201500 0.603957286787 -0.487412223681
486212000 0.602192053352 -0.492873665893
486222500 0.597609022848 -0.492016723405
486233000 0.598761992576 -0.493164532961
486243500 0.598594891292 -0.483024719194
486254000 0.605182943351 -0.48902203532
486264500 0.600559868566 -0.495240680552
486275000 0.6024780148 -0.492559788777
486285500 0.599357165604 -0.496124705684
486296000 0.601519437984 -0.484432444828
486306500 0.606169273021 -0.488832154727
486317000 0.598975602589 -0.49089297523
486327500 0.598162166338 -0.492306225304
486338000 0.60460951534 -0.491829839046
486348500 0.600911873332 -0.492117249367
486359000 0.607721976634 -0.490394706067
486369500 0.59463114929 -0.494455032459
486380000 0.608377822168 -0.491607163595
486390500 0.599411243191 -0.492408581304
486401000 0.601800353022 -0.490271558348
486411500 0.608140154473 -0.489903263594
486422000 0.607489161183 -0.492451144015
486432500 0.597187947387 -0.503077229106
486443000 0.598405756048 -0.492155028783
486453500 0.599232752534 -0.496972460787
486464000 0.599089511773 -0.497160703037
486474500 0.603250859762 -0.496710771686
486485000 0.606607243656 -0.485716020294
486495500 0.602710617992 -0.494955469929
486506000 0.603240424585 -0.497652772967
486516500 0.593941938547 -0.485153783389
486527000 0.604653548298 -0.495008369237
486537500 0.6082862624 -0.494271061275
486548000 0.59692289748 -0.496947872777
486558500 0.594288656935 -0.497308010855
486569000 0.602207471371 -0.491377223942
486579500 0.603344175292 -0.495169699162
486590000 0.606034761555 -0.500887993684
486600500 0.610052502338 -0.494975827405
486611000 0.604771662171 -0.492732484255
486621500 0.596056474214 -0.486389137871
486632000 0.601483150391 -0.496314607013
486642500 0.602615698066 -0.491598943015
486653000 0.595360911141 -0.491847148967
486663500 0.598886923446 -0.491123727228
486674000 0.594008804313 -0.494184284799
486684500 0.60717290426 -0.490046842265
486695000 0.600874387313 -0.496931495503
486705500 0.599897400043 -0.492538891952
486716000 0.596734731228 -0.498346021695
486726500 0.602827524763 -0.494246827767
486737000 0.598766978044 -0.491797424344
486747500 0.599758445285 -0.492289455146
486758000 0.596936016917 -0.49274943622
486768500 0.592833734908 -0.496245187984
486779000 0.598388737864 -0.491960362638
486789500 0.600371968957 -0.491019747429
486800000 0.601568722482 -0.49935842611
486810500 0.600012719418 -0.493812219144
486821000 0.599809502321 -0.494509331172
486831500 0.601801036343 -0.492024917018
486842000 0.601965510069 -0.494838032105
486852500 0.598274559016 -0.492355584978
486863000 0.599773271638 -0.49381983227
486873500 0.598690879626 -0.495610755667
486884000 0.601143961986 -0.496127171995
486894500 0.599760771878 -0.494172196818
486905000 0.60040903818 -0.49570479202
486915500 0.599213593969 -0.493983643553
486926000 0.599478537942 -0.494578433677
486936500 0.600346955641 -0.493348362092
486947000 0.600130342828 -0.49433214482
486957500 0.599840742564 -0.493923782789
486968000 0.599765380026 -0.493420480279
486978500 0.600285253624 -0.493422031105
486989000 0.600076485055 -0.494112281115
486999500 0.599613361856 -0.493571402122
487010000 0.599750783722 -0.49368053747
487020500 0.59880205118 -0.49363235541
487031000 0.598024207118 -0.494079828437
487041500 0.599067517521 -0.493736194132
487052000 0.599292095791 -0.493901708357
487062500 0.599404548889 -0.494699284899
487073000 0.599849494041 -0.494262467193
487083500 0.599600181795 -0.493902745675
487094000 0.598977437833 -0.493729001153
487104500 0.598812074458 -0.493871996744
487115000 0.59828140871 -0.493734579183
487125500 0.598651217924 -0.49280594461
487136000 0.598531475403 -0.492752509513
487146500 0.598920202386 -0.493561202621
487157000 0.598484992373 -0.493263372658
487167500 0.599006456899 -0.494096929304
487178000 0.598442082597 -0.494289124381
487188500 0.599101816727 -0.493826485075
487199000 0.600489012526 -0.493597528018
487209500 0.598473387737 -0.494096070171
487220000 0.598738053722 -0.493493440998
487230500 0.599194391972 -0.494629842908
487241000 0.600111898991 -0.493855848418
487251500 0.59974360313 -0.494127244964
487262000 0.598834739249 -0.494174690942
487272500 0.599938076733 -0.494820996851
487283000 0.598252724399 -0.49288808807
487293500 0.598305269415 -0.493169799466
487304000 0.596761507861 -0.494851160804
487314500 0.598090896735 -0.493532519657
487325000 0.597402720146 -0.493492623685
487335500 0.598624054079 -0.494331364936
487346000 0.599072351555 -0.494580172641
487356500 0.598968475646 -0.493749746576
487367000 0.598256596776 -0.494990283915
487377500 0.597662515839 -0.494665673943
487388000 0.598051658243 -0.494146622882
487398500 0.599115702388 -0.494943923798
487409000 0.599650450941 -0.494034835733
487419500 0.599297180495 -0.495221093629
487430000 0.597293763223 -0.495290548479
487440500 0.600066530777 -0.494270297067
487451000 0.598606738729 -0.494765633256
487461500 0.598865709398 -0.494612834306
487472000 0.596956956124 -0.495727422616
487482500 0.596128222069 -0.495697484214
487493000 0.585828723791 -0.48386513095
487503500 0.594152346389 -0.493908617648
487514000 0.596648741768 -0.49184401596
487524500 0.597024589702 -0.49084893331
487535000 0.59867060761 -0.493233841503
487545500 0.597966606997 -0.49412009575
487556000 0.59851261274 -0.493798135689
487566500 0.598809591384 -0.494008254499
487577000 0.598819360486 -0.49417467106
487587500 0.598646910436 -0.494605723787
487598000 0.598790017009 -0.495486946944
487608500 0.598461996339 -0.4952208455
487619000 0.598148417849 -0.495033329311
487629500 0.597560541199 -0.494389685564
487640000 0.597684357267 -0.494636814559
487650500 0.597781405293 -0.494729605652
487661000 0.598095558257 -0.49487813613
487671500 0.598036364152 -0.495023803381
487682000 0.598361524588 -0.495050452353
487692500 0.59823627431 -0.495050233843
487703000 0.598316784372 -0.494994684305
487713500 0.598341295904 -0.495152536547
487724000 0.598156945198 -0.494503722583
487734500 0.598113924923 -0.494771212735
487745000 0.598028173869 -0.494400368788
487755500 0.598385326861 -0.49518357339
487766000 0.598249899197 -0.495242151662
487776500 0.598346419183 -0.495526488595
487787000 0.598033058289 -0.495672599854
487797500 0.59811773536 -0.49548194137
487808000 0.597769878701 -0.495770241654
487818500 0.598100729791 -0.495517210142
487829000 0.597620034069 -0.495513890323
487839500 0.597225407376 -0.495056438722
487850000 0.597273418633 -0.495305378177
487860500 0.597159169799 -0.495616596227
487871000 0.597692637987 -0.495582987456
487881500 0.598303857615 -0.495101050729
487892000 0.597997938568 -0.494680056637
487902500 0.597714647447 -0.494943650191
487913000 0.597213420405 -0.494629138058
487923500 0.597034091274 -0.494660243451
487934000 0.597825336587 -0.49518214807
487944500 0.597893185283 -0.49532382802
487955000 0.598252808223 -0.494991346689
487965500 0.597223138544 -0.495249053815
487976000 0.597438466543 -0.495063091337
487986500 0.597554172202 -0.494724980887
487997000 0.597862176116 -0.494546082372
488007500 0.598207285966 -0.494838399604
488018000 0.597881363555 -0.495019742402
488028500 0.597624647974 -0.495062434794
488039000 0.597521518004 -0.495173150472
488049500 0.597939375432 -0.495227958278
488060000 0.59832088603 -0.494873070639
488070500 0.597991603667 -0.495298419417
488081000 0.59778406577 -0.495577419798
488091500 0.597276287173 -0.496321901555
488102000 0.597583383636 -0.496077890697
488112500 0.597243536763 -0.495688443704
488123000 0.597425475699 -0.496157923185
488133500 0.597284607657 -0.496087507626
488144000 0.597010765086 -0.496064555163
488154500 0.596917866471 -0.49588040011
488165000 0.596797351708 -0.495495788863
488175500 0.597791857126 -0.495963381308
488186000 0.597107239844 -0.495902067932
488196500 0.597502977187 -0.495679079122
488207000 0.597245285083 -0.495731654846
488217500 0.597086003142 -0.496412835938
488228000 0.596791682909 -0.496188434768
488238500 0.59693209857 -0.496973497114
488249000 0.596599089506 -0.496649368602
488259500 0.596680443578 -0.496213184681
488270000 0.596760139424 -0.495838100555
488280500 0.59642248418 -0.495948504885
488291000 0.596551658057 -0.496018225261
488301500 0.596372961861 -0.495826815355
488312000 0.59726237033 -0.496906992312
488322500 0.597265822966 -0.497221134406
488333000 0.597328638812 -0.496810895002
488343500 0.597041345244 -0.496569493844
488354000 0.597025894481 -0.496355836594
488364500 0.596958706471 -0.496842014629
488375000 0.597307628733 -0.496727054831
488385500 0.59705044063 -0.496912678519
488396000 0.596611617452 -0.496248844229
488406500 0.596086091352 -0.495997288178
488417000 0.596012008593 -0.496116023465
488427500 0.596541803582 -0.496182285141
488438000 0.596411570761 -0.496374204145
488448500 0.596372057608 -0.496286366984
488459000 0.596017557329 -0.496369670045
488469500 0.596132599182 -0.496688890837
488480000 0.595643355811 -0.496227567993
488490500 0.595463117682 -0.496609799886
488501000 0.595956230045 -0.49634555432
488511500 0.595505440224 -0.496236411917
488522000 0.595568466125 -0.496483417579
488532500 0.595583195269 -0.496594146485
488543000 0.595958444262 -0.496777377749
488553500 0.595929157478 -0.497138876224
488564000 0.595984882388 -0.497289213327
488574500 0.5960652334 -0.497181889113
488585000 0.595957679147 -0.497584466328
488595500 0.595676702191 -0.496710067616
488606000 0.596179681508 -0.496981149843
488616500 0.596005054384 -0.496781983816
488627000 0.595965620188 -0.496509473963
488637500 0.595670102434 -0.496804260973
488648000 0.59574269196 -0.496810521668
488658500 0.596002032628 -0.496858746106
488669000 0.596249441761 -0.497481459402
488679500 0.596537491781 -0.497046910491
488690000 0.59578689317 -0.496655906145
488700500 0.595878155572 -0.496666114219
488711000 0.595497764154 -0.496429872492
488721500 0.595329509554 -0.497370235398
488732000 0.595895142127 -0.497372976844
488742500 0.595656740316 -0.497443338494
488753000 0.595854717659 -0.497177209112
488763500 0.595316916867 -0.496927976786
488774000 0.595403166558 -0.497233739529
488784500 0.59561171453 -0.497286607555
488795000 0.595388862283 -0.496952793842
488805500 0.594801464451 -0.497320886347
488816000 0.595001733485 -0.496719035845
488826500 0.59566931712 -0.497205769676
488837000 0.595979350003 -0.496870357596
488847500 0.595409060067 -0.497055636054
488858000 0.595393848965 -0.497568697629
488868500 0.594683576342 -0.497804345619
488879000 0.595317286072 -0.497661856672
488889500 0.595386773522 -0.497753086849
488900000 0.595306692077 -0.497926639091
488910500 0.595334250449 -0.497563694111
488921000 0.595142266317 -0.497936396354
488931500 0.595192356916 -0.497819460426
488942000 0.594730474754 -0.497796757418
488952500 0.595785921353 -0.498000300799
488963000 0.595233882301 -0.498317612483
488973500 0.595042419181 -0.498354716673
488984000 0.594642208983 -0.497759932179
488994500 0.59479762971 -0.497934174788
489005000 0.594638645977 -0.497883364902
489015500 0.594787544912 -0.498086150972
489026000 0.594802651532 -0.49764948569
489036500 0.594458814381 -0.497535791819
489047000 0.594658586408 -0.497568089628
489057500 0.594830405918 -0.498221083642
489068000 0.594282525013 -0.498487099544
489078500 0.594903534078 -0.498416683347
489089000 0.594904748059 -0.497704922301
489099500 0.594859881572 -0.497707911144
489110000 0.594564279343 -0.498337237157
489120500 0.594658416426 -0.497626034466
489131000 0.594113521294 -0.497481500625
489141500 0.593795365616 -0.497891692586
489152000 0.593884306731 -0.498084304131
489162500 0.594090141978 -0.498336257812
489173000 0.594202899806 -0.498320005406
489183500 0.594126061246 -0.49777468125
489194000 0.594631058506 -0.498637001803
489204500 0.594087301848 -0.49838017157
489215000 0.594017282179 -0.498575222133
489225500 0.593929556165 -0.498719856504
489236000 0.594050798429 -0.49875973193
489246500 0.593959157004 -0.498353335071
489257000 0.594111650818 -0.498571296576
489267500 0.594006591893 -0.498284760547
489278000 0.594389486496 -0.498323601098
489288500 0.594983866227 -0.498264843709
489299000 0.594901054156 -0.497759944108
489309500 0.594903434831 -0.497911736056
489320000 0.594659832864 -0.498127351601
489330500 0.594608708967 -0.498050251501
489341000 0.594536152794 -0.498217930949
489351500 0.59364166171 -0.498533429589
489362000 0.593459236431 -0.498598366191
489372500 0.592287588904 -0.498955707563
489383000 0.593567000643 -0.497924993877
489393500 0.592954620977 -0.498181596138
489404000 0.593106170889 -0.498349973223
489414500 0.593543984523 -0.498609661494
489425000 0.593542938969 -0.498403187421
489435500 0.593443221974 -0.498463801907
489446000 0.593609054272 -0.498887136339
489456500 0.593322864124 -0.498516342027
489467000 0.593471163777 -0.498618716988
489477500 0.594178366298 -0.498440203661
489488000 0.593561955414 -0.499296237232
489498500 0.594477714169 -0.499106631347
489509000 0.594388411059 -0.499240949367
489519500 0.593731099302 -0.498502889293
489530000 0.593332864713 -0.499225699641
489540500 0.59287107311 -0.498255623935
489551000 0.592721715973 -0.499217043394
489561500 0.592419811571 -0.498037514652
489572000 0.593416898271 -0.498519042451
489582500 0.593673409586 -0.49902227817
489593000 0.59266870376 -0.497768867615
489603500 0.593272631288 -0.49864304258
489614000 0.594065556432 -0.499371260897
489624500 0.594012371858 -0.499961246906
489635000 0.593961679468 -0.498725674738
489645500 0.59448860041 -0.499825770488
489656000 0.59273515609 -0.495653819802
489666500 0.593217247223 -0.498565156546
489677000 0.593575800739 -0.498519769136
489687500 0.593403459326 -0.49921874845
489698000 0.593126887398 -0.499998734014
489708500 0.593445035026 -0.499022241707
489719000 0.592678093887 -0.498735053683
489729500 0.592197877114 -0.498542571208
489740000 0.594169730816 -0.499172513592
489750500 0.593130476749 -0.499522117687
489761000 0.59299481826 -0.499083916009
489771500 0.592834655773 -0.500201255077
489782000 0.592467860465 -0.501706873444
489792500 0.592141409012 -0.499726583095
489803000 0.592778500831 -0.500064955768
489813500 0.593294802968 -0.499666584655
489824000 0.593053711585 -0.49922448891
489834500 0.592214686715 -0.500644037071
489845000 0.592040832142 -0.500370530875
489855500 0.591879263409 -0.500257812833
489866000 0.593119551835 -0.500372680837
489876500 0.592150784356 -0.500110127344
489887000 0.592154379675 -0.499648807207
489897500 0.592748641908 -0.499989664789
489908000 0.592865096831 -0.499278722964
489918500 0.591906169916 -0.499429635478
489929000 0.591365763588 -0.498686040148
489939500 0.59282661703 -0.498609096206
489950000 0.592501299603 -0.500544888559
489960500 0.592788932707 -0.499321009197
489971000 0.592494875715 -0.500147973253
489981500 0.592266004484 -0.500005810212
489992000 0.592105163192 -0.499890701229
490002500 0.591715611086 -0.50006330581
490013000 0.592131325592 -0.500283871226
490023500 0.592160445648 -0.500219229938
490034000 0.592027218496 -0.500324368638
490044500 0.591755290414 -0.499704727632
490055000 0.591676304712 -0.499451268293
490065500 0.591848482517 -0.499629508385
490076000 0.591961998031 -0.499352442278
490086500 0.591117292775 -0.49971162414
490097000 0.591777134694 -0.5000478408
490107500 0.590801382748 -0.50029885355
490118000 0.591326657004 -0.499998808473
490128500 0.592182552252 -0.499377239409
490139000 0.591932030913 -0.499625491941
490149500 0.591816881175 -0.499211257099
490160000 0.592285095423 -0.499374634156
490170500 0.592284532604 -0.500297633524
490181000 0.591374126954 -0.500244386971
490191500 0.590931361892 -0.50074880061
490202000 0.591388428803 -0.499144232351
490212500 0.591066673315 -0.499774202751
490223000 0.58954958717 -0.499239265392
490233500 0.591253398607 -0.499404510806
490244000 0.592018847222 -0.499916169027
490254500 0.593309862513 -0.500062570019
490265000 0.591216367599 -0.500585600932
490275500 0.592340671878 -0.498795515505
490286000 0.595535206688 -0.499643347826
490296500 0.588463796129 -0.499038622348
490307000 0.592130301599 -0.50019938828
490317500 0.59065437353 -0.499966910053
490328000 0.592138550704 -0.49972774408
490338500 0.590847615074 -0.500169686501
490349000 0.593150199046 -0.498654136716
490359500 0.597007906344 -0.494446739828
490370000 0.592803560317 -0.498688128355
490380500 0.59062181983 -0.494406507395
490391000 0.588177112 -0.501612442122
490401500 0.593044879582 -0.503109753666
490412000 0.59024037268 -0.504028601491
490422500 0.595335404573 -0.498756874092
490433000 0.594203668961 -0.498384845043
490443500 0.591601469488 -0.50367314194
490454000 0.587024694147 -0.499250017617
490464500 0.585783771965 -0.507571211059
490475000 0.591119626342 -0.504826646786
490485500 0.590845571377 -0.503201398783
490496000 0.593932068802 -0.506711607354
490506500 0.590704085097 -0.49581733606
490517000 0.588511076808 -0.500536215936
490527500 0.590465270009 -0.510752116811
490538000 0.597664766868 -0.511080831507
490548500 0.589675671408 -0.496299627994
490559000 0.598417140329 -0.511074658504
490569500 0.590877029782 -0.505424078196
490580000 0.593166047884 -0.495890612639
490590500 0.591885511503 -0.498525634285
490601000 0.59732549388 -0.501186370556
490611500 0.588741549369 -0.497239182995
490622000 0.584109094634 -0.497675271765
490632500 0.588223241429 -0.498390234402
490643000 0.589488510446 -0.504210734354
490653500 0.590316516611 -0.501372422385
490664000 0.591920876206 -0.502697627984
490674500 0.591383649199 -0.503594544385
490685000 0.591076278632 -0.501534901068
490695500 0.589385089738 -0.501418439625
490706000 0.588258255701 -0.501359260832
490716500 0.590211445164 -0.501669134971
490727000 0.594690370203 -0.501771867028
490737500 0.596881920243 -0.501149493586
490748000 0.593926513483 -0.501788541487
490758500 0.593234066724 -0.501973665791
490769000 0.590513581443 -0.502709017785
490779500 0.589471649129 -0.501510260166
490790000 0.589586531497 -0.500962969902
490800500 0.589363309134 -0.500322940639
490811000 0.588426634604 -0.501315647625
490821500 0.588735836292 -0.50121801126
490832000 0.58920707515 -0.501565696823
490842500 0.589255393588 -0.501483364958
490853000 0.589204145884 -0.502879334151
490863500 0.589389953588 -0.501541483305
490874000 0.589750880376 -0.502291504524
490884500 0.589694816715 -0.501900261702
490895000 0.589526994237 -0.502730375421
490905500 0.589720466193 -0.502302316076
490916000 0.589787832603 -0.502192473527
490926500 0.589790426358 -0.501826060465
490937000 0.590082075543 -0.502189491284
490947500 0.589717236376 -0.502073141776
490958000 0.589759508564 -0.501786197128
490968500 0.588982886575 -0.501634499424
490979000 0.588945361503 -0.501657462313
490989500 0.589337460302 -0.50157121079
491000000 0.589980215896 -0.501803014166
491010500 0.589823816058 -0.502553370597
491021000 0.589747267953 -0.502822913825
491031500 0.589492162483 -0.502677958116
491042000 0.589113383534 -0.503384454335
491052500 0.588542326515 -0.502176129044
491063000 0.58947547683 -0.502694348153
491073500 0.589349107818 -0.502551979248
491084000 0.589199673935 -0.502924969101
491094500 0.59066175576 -0.501990022375
491105000 0.590356116595 -0.502638390864
491115500 0.588771438444 -0.503187362217
491126000 0.588990770083 -0.503335619535
491136500 0.589077710755 -0.502561456331
491147000 0.58851598631 -0.502692079874
491157500 0.588040882541 -0.502789940874
491168000 0.588294078485 -0.50194410397
491178500 0.588260318993 -0.502245109062
491189000 0.587413306319 -0.501729771568
491199500 0.587607205339 -0.502186574929
491210000 0.588363917925 -0.50257771215
491220500 0.588674330315 -0.503842688446
491231000 0.588500715207 -0.503050340053
491241500 0.588388886336 -0.503520138131
491252000 0.588286098518 -0.502549396898
491262500 0.588443068635 -0.502689143002
491273000 0.588413076492 -0.503161037707
491283500 0.588541145413 -0.502632216635
491294000 0.589191726419 -0.503341558442
491304500 0.588907562861 -0.503138023897
491315000 0.588676359534 -0.502210474428
491325500 0.588493547272 -0.502446699687
491336000 0.587788575582 -0.503404000697
491346500 0.587366610416 -0.5024493003
491357000 0.588135795423 -0.502670475344
491367500 0.587346331836 -0.502692476115
491378000 0.588215853608 -0.502756220603
491388500 0.587814727706 -0.502965969041
491399000 0.586661966753 -0.503380970029
491409500 0.587388524876 -0.503897984211
491420000 0.587862611353 -0.504071666932
491430500 0.587735426948 -0.503795704356
491441000 0.587546190248 -0.503154261986
491451500 0.586736270364 -0.503171042457
491462000 0.5870563193 -0.503091238464
491472500 0.587155324005 -0.503382335975
491483000 0.587001316687 -0.503090173305
491493500 0.586896322468 -0.503818548351
491504000 0.586614746487 -0.504111474959
491514500 0.586731180795 -0.503437008862
491525000 0.58647200834 -0.50348603669
491535500 0.587241256274 -0.503258899233
491546000 0.587042070639 -0.503669407801
491556500 0.586790540897 -0.503979422329
491567000 0.586819427823 -0.50467498486
491577500 0.586337340702 -0.503565280053
491588000 0.585883397045 -0.503846277175
491598500 0.58659765251 -0.503620092928
491609000 0.586826222831 -0.503948071828
491619500 0.58695658546 -0.503343462554
491630000 0.587038298649 -0.502524031993
491640500 0.587020274305 -0.502724742164
491651000 0.586630780335 -0.503065798941
491661500 0.586314751123 -0.503482136148
491672000 0.58657795173 -0.503380758945
491682500 0.586919844125 -0.50373231642
491693000 0.586956275488 -0.503385370745
491703500 0.586511530798 -0.503950720241
491714000 0.586337289019 -0.502797347922
491724500 0.586497403268 -0.503517088107
491735000 0.586022173653 -0.503186010473
491745500 0.586157583796 -0.502784319048
491756000 0.586261653273 -0.503052381262
491766500 0.586631847433 -0.503736431215
491777000 0.586191564921 -0.503856500335
491787500 0.586370836436 -0.503852039432
491798000 0.586320152463 -0.503863517772
491808500 0.585685339941 -0.503398935383
491819000 0.586238695579 -0.503951926628
491829500 0.585904879757 -0.504186224378
491840000 0.585414419956 -0.504170407692
491850500 0.585715492611 -0.503498387368
491861000 0.585997437783 -0.503369045526
491871500 0.585371329762 -0.50350761301
491882000 0.585774350553 -0.503229901067
491892500 0.585250797607 -0.503631994595
491903000 0.585341125302 -0.503358903797
491913500 0.58566482937 -0.50378364241
491924000 0.585684400955 -0.504007524807
491934500 0.585664870348 -0.503886630183
491945000 0.585584221736 -0.504290452953
491955500 0.586035118044 -0.504425406468
491966000 0.586356262233 -0.504306203351
491976500 0.586175044987 -0.50395708516
491987000 0.585659494289 -0.504541609745
491997500 0.585988277922 -0.504345417126
492008000 0.585102392912 -0.5045901207
492018500 0.5849206159 -0.50462626657
492029000 0.584580017275 -0.504876566723
492039500 0.5842847396 -0.504733319338
492050000 0.584667187364 -0.504542853106
492060500 0.585039583334 -0.504684627104
492071000 0.58470034694 -0.504534188269
492081500 0.585062861757 -0.504762169601
492092000 0.585342081973 -0.505448563256
492102500 0.584854621301 -0.5049155589
492113000 0.585196643734 -0.505048195065
492123500 0.584556501897 -0.504754580653
492134000 0.584197328371 -0.504674628153
492144500 0.584646399685 -0.505432171348
492155000 0.584800094971 -0.505670083796
492165500 0.58477146717 -0.505398300269
492176000 0.584571591662 -0.505762166469
492186500 0.584389382253 -0.505456566892
492197000 0.584262948712 -0.505425427233
492207500 0.584561991016 -0.505171453954
492218000 0.583722302297 -0.504447191725
492228500 0.583468050089 -0.504948568121
492239000 0.583080110709 -0.504588142912
492249500 0.583420331527 -0.504906460664
492260000 0.58347053187 -0.504853814823
492270500 0.58331603386 -0.505123833962
492281000 0.583636419879 -0.505167867951
492291500 0.583559331754 -0.504884230951
492302000 0.583484623554 -0.505156365305
492312500 0.583885494473 -0.505230836158
492323000 0.583830458108 -0.504814895576
492333500 0.583761198636 -0.505036945991
492344000 0.583469202813 -0.505517062904
492354500 0.583376097661 -0.50515153861
492365000 0.583645507228 -0.505418450089
492375500 0.583585976461 -0.505354597692
492386000 0.583697032424 -0.505420997837
492396500 0.584123978113 -0.505049411842
492407000 0.584074392066 -0.504952037831
492417500 0.58386876985 -0.505234377939
492428000 0.583203292983 -0.505391336223
492438500 0.583408060147 -0.505412928471
492449000 0.582975547339 -0.505286864951
492459500 0.583218914693 -0.505521547929
492470000 0.582710101978 -0.505742809786
492480500 0.583647450342 -0.50534345081
492491000 0.583801828897 -0.505753746871
492501500 0.58350141617 -0.505388454242
492512000 0.583555370631 -0.505271669528
492522500 0.582999670912 -0.505257586789
492533000 0.583238714638 -0.505067324932
492543500 0.582812574205 -0.505758185638
492554000 0.582670851602 -0.505240221245
492564500 0.58264008134 -0.505831429968
492575000 0.582237586279 -0.505434472509
492585500 0.583140828435 -0.505611254928
492596000 0.583840140849 -0.505969503587
492606500 0.585139641421 -0.506569813829
492617000 0.583841478574 -0.505936141564
492627500 0.583213827403 -0.506188697365
492638000 0.583246991195 -0.506047872356
492648500 0.583302947575 -0.506135380206
492659000 0.583205123069 -0.506506540431
492669500 0.583388894741 -0.506676175623
492680000 0.582638028021 -0.506617527996
492690500 0.58178130627 -0.506431470351
492701000 0.581675954556 -0.506342451428
492711500 0.581775591414 -0.5065286143
492722000 0.581340905737 -0.506388247555
492732500 0.582326744818 -0.505821001211
492743000 0.58268468357 -0.505502843924
492753500 0.583472053316 -0.505749046391
492764000 0.58277749449 -0.506077502306
492774500 0.582694324302 -0.506640049456
492785000 0.582261626408 -0.507020485998
492795500 0.582681596959 -0.506518995109
492806000 0.582450248941 -0.506919341375
492816500 0.582732151044 -0.506724091957
492827000 0.582895727117 -0.507140684404
492837500 0.582995539311 -0.507256046399
492848000 0.582278869728 -0.506672544715
492858500 0.581750642512 -0.5064479653
492869000 0.581379958106 -0.506508659975
492879500 0.581615707224 -0.506467004983
492890000 0.581374097755 -0.507042845777
492900500 0.581269928203 -0.506782035986
492911000 0.582182611295 -0.507129043502
492921500 0.581434602543 -0.507027079048
492932000 0.581882336087 -0.506645683976
492942500 0.581738297433 -0.505767741807
492953000 0.581879942777 -0.505283934093
492963500 0.580824985858 -0.505814869188
492974000 0.580645550522 -0.507018535853
492984500 0.580549353031 -0.506576648656
492995000 0.580470106411 -0.507342859805
493005500 0.580955703435 -0.507802745499
493016000 0.580753140757 -0.507591856632
493026500 0.580126329238 -0.507787049755
493037000 0.579806955558 -0.507572533351
493047500 0.579773072051 -0.507732245683
493058000 0.58038892938 -0.507441573843
493068500 0.580568871127 -0.506962936722
493079000 0.580414339931 -0.50747458
493089500 0.580433131335 -0.507560341824
493100000 0.580449547729 -0.50730955684
493110500 0.580674224669 -0.507044782636
493121000 0.580581211875 -0.507124646314
493131500 0.580845886508 -0.507147055714
493142000 0.580815014713 -0.507330133086
493152500 0.580570294183 -0.507717258536
493163000 0.579918032409 -0.506914586648
493173500 0.580894261123 -0.507078835378
493184000 0.580236562864 -0.506822919012
493194500 0.580317974824 -0.507222042913
493205000 0.579731900378 -0.507535796888
493215500 0.579760581063 -0.507071631238
493226000 0.579671260809 -0.506884858435
493236500 0.579192504646 -0.507660016721
493247000 0.579326306579 -0.507152305641
493257500 0.579179590222 -0.507326349461
493268000 0.579271143422 -0.507746070073
493278500 0.579327236659 -0.506994649959
493289000 0.579065311928 -0.507217435007
493299500 0.579611796381 -0.507034850143
493310000 0.580001426846 -0.507367789015
493320500 0.580439941614 -0.507431613512
493331000 0.580666742596 -0.507405773278
493341500 0.579849396011 -0.507087902011
493352000 0.579880274527 -0.507786023626
493362500 0.579645368784 -0.507694500372
493373000 0.579556900498 -0.507793958326
493383500 0.579447618607 -0.508119827615
493394000 0.57943704793 -0.508622673292
493404500 0.579266646613 -0.507780935405
493415000 0.579645586772 -0.507776390558
493425500 0.579556448454 -0.507371926861
493436000 0.579553103074 -0.507196837085
493446500 0.579306301166 -0.50730730192
493457000 0.578982607914 -0.508357649037
493467500 0.579830140916 -0.508139645447
493478000 0.579578129123 -0.50872863842
493488500 0.578641479085 -0.507681010927
493499000 0.578709335212 -0.50849105471
493509500 0.579653048742 -0.508405765388
493520000 0.579367159555 -0.508077033028
493530500 0.579269017444 -0.508692784115
493541000 0.578862560328 -0.507615205469
493551500 0.578422399462 -0.508090578918
493562000 0.580260079674 -0.5074621943
493572500 0.57856782349 -0.507866474339
493583000 0.578704241472 -0.508651713776
493593500 0.579220333045 -0.507819277775
493604000 0.579145622219 -0.508210515393
493614500 0.577700458027 -0.507919514094
493625000 0.578884665268 -0.508813997975
493635500 0.578556632815 -0.508712652617
493646000 0.577823824099 -0.507200811418
493656500 0.578721335435 -0.508295808228
493667000 0.577686495047 -0.506416914613
493677500 0.577704399658 -0.508513273172
493688000 0.578471385937 -0.508255825073
493698500 0.577522075185 -0.507626230062
493709000 0.578299217533 -0.507785898292
493719500 0.577797198424 -0.507676361387
493730000 0.579170915133 -0.507899100724
493740500 0.577384668928 -0.508655669672
493751000 0.576649339487 -0.508092509775
493761500 0.576305829075 -0.508777031865
493772000 0.578319755979 -0.508431874875
493782500 0.578414979981 -0.508772054913
493793000 0.576549487393 -0.509722058995
493803500 0.578509904412 -0.508149747558
493814000 0.578570520414 -0.508263250534
493824500 0.576470760862 -0.507910231609
493835000 0.576989116322 -0.508772547049
493845500 0.577609325144 -0.508395140714
493856000 0.576680621796 -0.508531820613
493866500 0.57652774414 -0.508953326197
493877000 0.577086975469 -0.507779664672
493887500 0.57784501139 -0.509008576029
493898000 0.577485943635 -0.508380830228
493908500 0.577420605073 -0.50873521061
493919000 0.577372421887 -0.508567115973
493929500 0.577263904855 -0.508216434012
493940000 0.576760421648 -0.50852741456
493950500 0.576338880411 -0.509125004517
493961000 0.576701929799 -0.508140832537
493971500 0.577222891604 -0.507965905642
493982000 0.578048311909 -0.506612239552
493992500 0.577933128081 -0.507017863813
494003000 0.57679904499 -0.508227173745
494013500 0.576597136263 -0.509525621962
494024000 0.575916438575 -0.508907126134
494034500 0.576401616905 -0.509466770282
494045000 0.5761812595 -0.508467304436
494055500 0.57704846658 -0.509256806171
494066000 0.577143105991 -0.507731933104
494076500 0.577757734108 -0.508049357289
494087000 0.573901888823 -0.510425126191
494097500 0.575571644483 -0.510906710423
494108000 0.573953371029 -0.514253040843
494118500 0.575527464846 -0.511220222899
494129000 0.5761244242 -0.50712717132
494139500 0.574313021422 -0.509650815482
494150000 0.574358821623 -0.512544303484
494160500 0.574091561132 -0.509184901271
494171000 0.57912555674 -0.505525516938
494181500 0.573714869793 -0.511551539945
494192000 0.575973884314 -0.508649171558
494202500 0.570889206374 -0.512884962673
494213000 0.577788850799 -0.51048403642
494223500 0.574100051201 -0.512701081089
494234000 0.575218182344 -0.508946354526
494244500 0.577239512382 -0.514714122673
494255000 0.572208474741 -0.512647091605
494265500 0.578102888148 -0.510586413543
494276000 0.572205342394 -0.50911726481
494286500 0.569007859041 -0.515438578225
494297000 0.570885097077 -0.514547915457
494307500 0.569837163041 -0.5110374886
494318000 0.570792373024 -0.508377263185
494328500 0.570908614215 -0.511918524451
494339000 0.570356822202 -0.511989689227
494349500 0.570991341693 -0.518807602881
494360000 0.574628424077 -0.507503042957
494370500 0.567345647848 -0.511346436683
494381000 0.570236641914 -0.510437641651
494391500 0.581777930307 -0.512765918163
494402000 0.584500825304 -0.510734013743
494412500 0.577712465909 -0.512542272944
494423000 0.582385276281 -0.515475611058
494433500 0.570274553204 -0.511852326507
494444000 0.572270330087 -0.517633120017
494454500 0.569135389048 -0.503009325396
494465000 0.581132036652 -0.508966370991
494475500 0.572123989716 -0.50717861564
494486000 0.569695246117 -0.509473081386
494496500 0.572827105332 -0.515518075454
494507000 0.569043068779 -0.526539474805
494517500 0.56941722639 -0.512645887477
494528000 0.584003808567 -0.511679159135
494538500 0.564839012322 -0.509916373499
494549000 0.572846897186 -0.513766027154
494559500 0.577757212071 -0.514758819003
494570000 0.577695183059 -0.509527406891
494580500 0.573264828194 -0.506291814921
494591000 0.566451239016 -0.500378542753
494601500 0.573239776999 -0.504646433717
494612000 0.579030232213 -0.507085118325
494622500 0.576987904517 -0.505584075932
494633000 0.574597372213 -0.509456454549
494643500 0.573081452323 -0.504525891478
494654000 0.569170391821 -0.512557709299
494664500 0.577470581045 -0.510145491274
494675000 0.568384419636 -0.511044446654
494685500 0.57018999578 -0.510489003064
494696000 0.568164507421 -0.506251858523
494706500 0.571508239346 -0.50420747617
494717000 0.571739529162 -0.499601441927
494727500 0.574963558023 -0.508687656406
494738000 0.580134534579 -0.504303958533
494748500 0.574860363618 -0.509965191689
494759000 0.568826071151 -0.513025124222
494769500 0.570632947698 -0.512273997897
494780000 0.571826057203 -0.509238568789
494790500 0.574239210518 -0.51062654942
494801000 0.567737488647 -0.508268895976
494811500 0.575103353487 -0.511051508912
494822000 0.569113877416 -0.503090352911
494832500 0.571558652084 -0.508695070394
494843000 0.571221338606 -0.509676083212
494853500 0.571502844554 -0.508987764725
494864000 0.571807057362 -0.506466272404
494874500 0.567799042015 -0.509451731128
494885000 0.575699987214 -0.515184871758
494895500 0.574626981599 -0.509222815135
494906000 0.570960507694 -0.508421289187
494916500 0.571318734514 -0.510092882679
494927000 0.571572344617 -0.509099668672
494937500 0.572571289052 -0.511085234968
494948000 0.572206140113 -0.509051291355
494958500 0.57169265734 -0.510386734912
494969000 0.571920371895 -0.509319442582
494979500 0.570079985377 -0.511025457255
494990000 0.570488701778 -0.51083108486
495000500 0.570708029085 -0.51080547879
495011000 0.571186608243 -0.510481611259
495021500 0.571802193617 -0.509167865571
495032000 0.571366190316 -0.510120295315
495042500 0.570079511344 -0.509611564059
495053000 0.570076847403 -0.512542836813
495063500 0.570721452524 -0.510715301876
495074000 0.571063461389 -0.509695540272
495084500 0.572460771614 -0.5107680185
495095000 0.571067780909 -0.50985033162
495105500 0.569929910735 -0.510026184454
495116000 0.570399196849 -0.510947657326
495126500 0.569722913815 -0.510151149799
495137000 0.571177272668 -0.511741577522
495147500 0.571855235735 -0.510020901387
495158000 0.570089692731 -0.511425432705
495168500 0.571544055995 -0.510538904538
495179000 0.570503735381 -0.509891517083
495189500 0.570899302844 -0.509672324858
495200000 0.570927276454 -0.510345374006
495210500 0.570100378681 -0.509213863247
495221000 0.569041473173 -0.512248062264
495231500 0.571346589642 -0.510096901601
495242000 0.569752940085 -0.512489598212
495252500 0.572284349504 -0.510884812809
495263000 0.570559471436 -0.511464147956
495273500 0.570399732626 -0.511579973539
495284000 0.571248059149 -0.510552652262
495294500 0.570728637084 -0.511423548006
495305000 0.5697466871 -0.510460528146
495315500 0.568681921904 -0.510848766467
495326000 0.567930271117 -0.510239059746
495336500 0.570052069777 -0.512083861495
495347000 0.570291229582 -0.510391504269
495357500 0.570142138736 -0.512000651337
495368000 0.56795909554 -0.511765566726
495378500 0.568934759646 -0.511080848773
495389000 0.569387141475 -0.51255311424
495399500 0.568972464729 -0.511590444275
495410000 0.569839399361 -0.511483956163
495420500 0.569963097032 -0.511009632283
495431000 0.57033823385 -0.510783441914
495441500 0.570094329849 -0.511038673363
495452000 0.568870448312 -0.512161474089
495462500 0.569107027237 -0.510624063965
495473000 0.569286849401 -0.510471129879
495483500 0.568806822202 -0.510898895179
495494000 0.5691808705 -0.510041860648
495504500 0.569221629168 -0.51194337596
495515000 0.567961955281 -0.510444104542
495525500 0.567633762837 -0.510365886032
495536000 0.567757280301 -0.511457361819
495546500 0.567967558725 -0.511706185335
495557000 0.568390997954 -0.511215869811
495567500 0.568940881382 -0.510868580767
495578000 0.568576036402 -0.511415303204
495588500 0.568571921891 -0.511320260873
495599000 0.56834129874 -0.511076099154
495609500 0.568761312978 -0.511379853632
495620000 0.568826991287 -0.511069204235
495630500 0.568649815008 -0.511146685294
495641000 0.568445166445 -0.511075301612
495651500 0.567892907602 -0.511482173665
495662000 0.567895493436 -0.511108930752
495672500 0.567987008639 -0.511122138078
495683000 0.568576717448 -0.510806716381
495693500 0.568285297395 -0.511300556506
495704000 0.568786352753 -0.511155875165
495714500 0.568486018718 -0.511120257766
495725000 0.568133566682 -0.511126165305
495735500 0.567992518444 -0.511049602854
495746000 0.567943783138 -0.510896106463
495756500 0.567820502215 -0.511093923574
495767000 0.567682910463 -0.511627433841
495777500 0.567712350028 -0.511432522716
495788000 0.567811376882 -0.511538862488
495798500 0.567683752079 -0.511153199719
495809000 0.567770888915 -0.511874750396
495819500 0.567180266036 -0.511081913486
495830000 0.567351095812 -0.511528317949
495840500 0.567971150814 -0.511096345551
495851000 0.568215008333 -0.511206363837
495861500 0.567853976697 -0.511506019783
495872000 0.566966671536 -0.511615745861
495882500 0.566240989717 -0.51180220258
495893000 0.565941291131 -0.512109844409
495903500 0.565618692183 -0.512631909729
495914000 0.565775655558 -0.512637181478
495924500 0.566079551696 -0.512705531557
495935000 0.566404009991 -0.512482473328
495945500 0.566904218392 -0.512443227391
495956000 0.566815691558 -0.511549033749
495966500 0.566984456732 -0.511841521058
495977000 0.567282938564 -0.511356820897
495987500 0.567090963242 -0.51161533608
495998000 0.567255709936 -0.511588833921
496008500 0.56661975379 -0.511685549366
496019000 0.566175039943 -0.511992099498
496029500 0.56602089807 -0.511845260306
496040000 0.566068935235 -0.511751911029
496050500 0.56595087958 -0.511952626118
496061000 0.566195261026 -0.511677966617
496071500 0.565609150835 -0.512098428303
496082000 0.565462434145 -0.512006206036
496092500 0.564946000342 -0.511846409173
496103000 0.565269962424 -0.511890155987
496113500 0.565876309879 -0.511640606557
496124000 0.565344447876 -0.511583766636
496134500 0.565248889486 -0.511822064639
496145000 0.565014931999 -0.511884456211
496155500 0.565126876062 -0.51194819167
496166000 0.564940604757 -0.512283388957
496176500 0.565309144908 -0.512850685867
496187000 0.565245654788 -0.512704738089
496197500 0.565189891246 -0.512701229467
496208000 0.564628286709 -0.512717930149
496218500 0.565711883355 -0.512527150329
496229000 0.565428712992 -0.512329348657
496239500 0.565695218648 -0.51181364752
496250000 0.56528300248 -0.512134299928
496260500 0.56534539256 -0.511980230724
496271000 0.565402949223 -0.511989539218
496281500 0.564302413838 -0.512142224891
496292000 0.564879333428 -0.512035693247
496302500 0.564543075567 -0.512007235044
496313000 0.564748400073 -0.512235114254
496323500 0.564940157477 -0.511890000122
496334000 0.564446071359 -0.512300999376
496344500 0.564033887661 -0.512380268966
496355000 0.56460049621 -0.512376901902
496365500 0.564195217314 -0.511534423895
496376000 0.564526970866 -0.511766228596
496386500 0.563882074572 -0.512332160011
496397000 0.563634085001 -0.513142751361
496407500 0.564317348733 -0.512956921165
496418000 0.564325028535 -0.513209378669
496428500 0.564438021382 -0.512257555859
496439000 0.56412931486 -0.51208442592
496449500 0.564322026831 -0.512704071433
496460000 0.563234226195 -0.512544759609
496470500 0.563396744223 -0.512219737157
496481000 0.564114215332 -0.511701384608
496491500 0.564398501798 -0.511647061733
496502000 0.564421680128 -0.512133128287
496512500 0.564536025749 -0.512387647557
496523000 0.564688421544 -0.512230281188
496533500 0.564328697693 -0.512004721232
496544000 0.564202068961 -0.511712883994
496554500 0.563696911286 -0.512289063711
496565000 0.562833142435 -0.51266532923
496575500 0.562949101309 -0.512958435858
496586000 0.562885806761 -0.512423113088
496596500 0.562691978778 -0.5122777451
496607000 0.563346251403 -0.512257675973
496617500 0.563544424904 -0.512086817172
496628000 0.563751120695 -0.512323682398
496638500 0.562801275508 -0.512223774759
496649000 0.563177124757 -0.512504127157
496659500 0.562994178146 -0.51228448068
496670000 0.56318344589 -0.512228286004
496680500 0.563182468369 -0.512239459447
496691000 0.562990299298 -0.512640965511
496701500 0.563094990031 -0.512876917525
496712000 0.562973211088 -0.512377570917
496722500 0.562609509364 -0.512494863675
496733000 0.562236853011 -0.51240022775
496743500 0.562459798051 -0.512671028467
496754000 0.561463832792 -0.51289431881
496764500 0.56097226787 -0.513437860725
496775000 0.560275102373 -0.51389645429
496785500 0.56066095579 -0.513097895221
496796000 0.560607995301 -0.513298026134
496806500 0.561374518728 -0.512942609055
496817000 0.561663955596 -0.512535159462
496827500 0.56154053202 -0.512599285553
496838000 0.56168415282 -0.512924234013
496848500 0.561360939237 -0.512434985906
496859000 0.561375571918 -0.51194482396
496869500 0.561322057858 -0.512076513423
496880000 0.561172441094 -0.512284898047
496890500 0.560951510335 -0.512645569341
496901000 0.560881008777 -0.512494608746
496911500 0.561192430551 -0.512920471618
496922000 0.561102884185 -0.512879838967
496932500 0.561635119651 -0.51296666549
496943000 0.561402358752 -0.51278745124
496953500 0.561472402936 -0.512974833238
496964000 0.561189584065 -0.513282831968
496974500 0.560323651879 -0.513235514758
496985000 0.560433176096 -0.512695033513
496995500 0.560636501086 -0.512405014674
497006000 0.560986154862 -0.512829049225
497016500 0.560776900815 -0.513086806074
497027000 0.560681292541 -0.513298669699
497037500 0.560904873789 -0.513477275913
497048000 0.560579702811 -0.512197878437
497058500 0.560457024923 -0.512766375928
497069000 0.55985634775 -0.512657232207
497079500 0.559935372694 -0.513044062089
497090000 0.56035718892 -0.512864670572
497100500 0.560081032644 -0.512826791981
497111000 0.560238915179 -0.512804906696
497121500 0.560005262805 -0.512775391214
497132000 0.559946154021 -0.51274712979
497142500 0.55980949237 -0.512512920565
497153000 0.560004586643 -0.512842842131
497163500 0.559813033232 -0.512377580381
497174000 0.560292329949 -0.512905581672
497184500 0.559949998532 -0.51297577773
497195000 0.559802201774 -0.512886049994
497205500 0.559164663732 -0.512647972084
497216000 0.559401020005 -0.512473160585
497226500 0.559939999815 -0.512529058482
497237000 0.560230172398 -0.512484160163
497247500 0.559760643708 -0.512778689618
497258000 0.559668648005 -0.513065201485
497268500 0.559251702215 -0.51286683149
497279000 0.559359811313 -0.512614893285
497289500 0.559208005295 -0.512583326033
497300000 0.559587255246 -0.512844344657
497310500 0.559137834538 -0.512902172667
497321000 0.559861824609 -0.513070062912
497331500 0.558870541491 -0.512870168113
497342000 0.558363921467 -0.512447970179
497352500 0.55863742399 -0.512547162117
497363000 0.559189209279 -0.512699407019
497373500 0.559385070052 -0.513106066511
497384000 0.559293560907 -0.51276670434
497394500 0.558686843733 -0.513155964491
497405000 0.558687878769 -0.512822749135
497415500 0.558766101193 -0.5134401355
497426000 0.559272203262 -0.513343555934
497436500 0.559327498139 -0.512730374013
497447000 0.559104864284 -0.513365553344
497457500 0.557801695256 -0.513200513327
497468000 0.558007400214 -0.51306186072
497478500 0.558214435369 -0.513281389979
497489000 0.558319397255 -0.513157209809
497499500 0.558360776008 -0.513023291909
497510000 0.55792016185 -0.51317093499
497520500 0.557693218242 -0.51288157774
497531000 0.557786220429 -0.513010786102
497541500 0.558042035321 -0.512615738055
497552000 0.558110269358 -0.513016986388
497562500 0.557739182933 -0.513522709618
497573000 0.557378288136 -0.51279009373
497583500 0.557338233553 -0.512887514748
497594000 0.557335120667 -0.512525317802
497604500 0.557795025536 -0.51266000144
497615000 0.557640182864 -0.511942428189
497625500 0.55740044351 -0.512375085585
497636000 0.556652575488 -0.51237535348
497646500 0.55686391967 -0.512763574005
497657000 0.55739546591 -0.513287828368
497667500 0.556857332293 -0.513843635893
497678000 0.556842064906 -0.513653314586
497688500 0.556969574405 -0.513414245087
497699000 0.557027586776 -0.513576080961
497709500 0.556470998229 -0.512967848247
497720000 0.55624180276 -0.512889226174
497730500 0.556289499714 -0.512653379609
497741000 0.5563706567 -0.51208667919
497751500 0.556122118416 -0.51268634417
497762000 0.556782264123 -0.512495329463
497772500 0.556084875733 -0.51280434083
497783000 0.556808456012 -0.512374692036
497793500 0.556011048377 -0.512779510592
497804000 0.556327501779 -0.51302544116
497814500 0.556481544971 -0.513337247533
497825000 0.55620044046 -0.513282754659
497835500 0.555983854834 -0.513312249176
497846000 0.556034548226 -0.513254066265
497856500 0.555548013907 -0.513138400325
497867000 0.555306699811 -0.51318159312
497877500 0.555562594492 -0.512901875802
497888000 0.555882421841 -0.512978631856
497898500 0.555826667669 -0.513081892146
497909000 0.556147583076 -0.513083569748
497919500 0.556201535364 -0.512759612479
497930000 0.555883322042 -0.513261841056
497940500 0.554512555913 -0.512471668942
497951000 0.555170841981 -0.512793273377
497961500 0.554769486106 -0.512514459243
497972000 0.554759822208 -0.513038635119
497982500 0.554387698906 -0.513197005565
497993000 0.555150214018 -0.513150350809
498003500 0.555374322498 -0.512447315766
498014000 0.555950614126 -0.512406401098
498024500 0.554881634962 -0.513135206415
498035000 0.554982300688 -0.513057194226
498045500 0.554611886517 -0.512944749256
498056000 0.554545555367 -0.513309837341
498066500 0.554330042568 -0.513344394535
498077000 0.55465723528 -0.513373968071
498087500 0.555047168844 -0.512987588022
498098000 0.554225748243 -0.513049802913
498108500 0.554710079756 -0.512778159676
498119000 0.554506476619 -0.51312774735
498129500 0.554160501135 -0.513329634173
498140000 0.55481608862 -0.513169050649
498150500 0.555013785248 -0.513385085888
498161000 0.554401443561 -0.513347967139
498171500 0.55431627369 -0.513016204767
498182000 0.55356955367 -0.513405996276
498192500 0.553551145444 -0.513540890521
498203000 0.553584635363 -0.512740176591
498213500 0.553346450985 -0.513384389253
498224000 0.553783176185 -0.513165883794
498234500 0.553631582243 -0.513733492715
498245000 0.554063785549 -0.514037406977
498255500 0.553743435048 -0.513181989952
498266000 0.552797051194 -0.512814137432
498276500 0.554043357473 -0.511410685528
498287000 0.555729438842 -0.510337531166
498297500 0.557687126642 -0.508160449152
498308000 0.555025461504 -0.511045669048
498318500 0.556962794991 -0.513432740631
498329000 0.551029042626 -0.515415024537
498339500 0.549272434164 -0.514093387177
498350000 0.551596849421 -0.513083966033
498360500 0.552636496253 -0.512484350949
498371000 0.552602715082 -0.512403558269
498381500 0.553220608395 -0.512640664039
498392000 0.55269316355 -0.512575805329
498402500 0.553208653154 -0.512710306941
498413000 0.552781708308 -0.513167855887
498423500 0.552516232582 -0.511950944614
498434000 0.553495419961 -0.513394149287
498444500 0.55307554423 -0.513106164361
498455000 0.553032327101 -0.51275714685
498465500 0.552337228081 -0.513474579625
498476000 0.552756817358 -0.513237921521
498486500 0.553102503278 -0.513991883881
498497000 0.551020183702 -0.512223834849
498507500 0.552455688038 -0.513758638969
498518000 0.551835431583 -0.514130670531
498528500 0.554514121939 -0.514167154162
498539000 0.552731330042 -0.513593061474
498549500 0.55212233157 -0.5139571583
498560000 0.552299273369 -0.514425722254
498570500 0.551801204446 -0.515752561382
498581000 0.551486524106 -0.513538416053
498591500 0.55051144669 -0.512472418781
498602000 0.550873401048 -0.512561574616
498612500 0.552528109296 -0.51214405515
498623000 0.551102798758 -0.510531710568
498633500 0.551750437353 -0.513650248256
498644000 0.551571780541 -0.512533642915
498654500 0.549538740821 -0.512513813227
498665000 0.550761490737 -0.512601934753
498675500 0.549343461934 -0.513637479711
498686000 0.55236238146 -0.514226526284
498696500 0.551703233627 -0.513039934677
498707000 0.549415775268 -0.51204629452
498717500 0.550696844893 -0.512086626093
498728000 0.550805976329 -0.513344403768
498738500 0.549816428865 -0.515363174632
498749000 0.550017944394 -0.512721241925
498759500 0.548822285459 -0.513653825019
498770000 0.547288219564 -0.510689384217
498780500 0.548907753601 -0.51263185267
498791000 0.547264510605 -0.512129058041
498801500 0.551649594755 -0.511120142378
498812000 0.549274877701 -0.511908935222
498822500 0.550486979574 -0.512290688405
498833000 0.55100513861 -0.512448512536
498843500 0.548587340957 -0.513124063999
498854000 0.549688944994 -0.513254795806
498864500 0.548471346811 -0.5127288262
498875000 0.550450222565 -0.513145544414
498885500 0.550455337155 -0.513473636022
498896000 0.551882363452 -0.512713079784
498906500 0.550203487388 -0.512245911886
498917000 0.549973627148 -0.513075742057
498927500 0.549596685421 -0.513012805199
498938000 0.549259711263 -0.512977376969
498948500 0.550076429273 -0.513057332568
498959000 0.548926282927 -0.513338892897
498969500 0.54955158791 -0.513232647243
498980000 0.550480623744 -0.512244435874
498990500 0.549958538031 -0.513316892528
499001000 0.550866084499 -0.512776443234
499011500 0.550464028961 -0.513408464388
499022000 0.549408625353 -0.512794650867
499032500 0.548840879844 -0.512853987184
499043000 0.549178123338 -0.513247793261
499053500 0.5497792733 -0.512432261056
499064000 0.549411491552 -0.512567907338
499074500 0.548993976822 -0.513056586916
499085000 0.550516491719 -0.511552048656
499095500 0.548033759058 -0.51045329848
499106000 0.548215062757 -0.512471583805
499116500 0.547822850722 -0.512457854041
499127000 0.547692278021 -0.511482839537
499137500 0.546748123723 -0.518889329905
499148000 0.547545580897 -0.509660277027
499158500 0.548742003646 -0.513110232684
499169000 0.549112354838 -0.511664790002
499179500 0.54739266594 -0.513673808381
499190000 0.549129383587 -0.51307266161
499200500 0.547080912475 -0.51077348172
499211000 0.555499551059 -0.514419685878
499221500 0.546161527454 -0.517531673913
499232000 0.549261888576 -0.512362267902
499242500 0.546826193679 -0.513180020449
499253000 0.552192312505 -0.511256001235
499263500 0.549960204737 -0.505924197299
499274000 0.553058038842 -0.510548533109
499284500 0.546553102087 -0.515797106233
499295000 0.557583586169 -0.5144325475
499305500 0.54708834987 -0.512807545093
499316000 0.547131154949 -0.520008155235
499326500 0.552527191364 -0.518675420975
499337000 0.542277992612 -0.511477969142
499347500 0.549938912012 -0.513069289811
499358000 0.54301164925 -0.512542172031
499368500 0.542042042347 -0.51370965806
499379000 0.543667151587 -0.505894178565
499389500 0.550980620946 -0.510406221676
499400000 0.552465669348 -0.519082713256
499410500 0.550025915978 -0.513164236333
499421000 0.544595749997 -0.510969171657
499431500 0.543154432569 -0.516529800149
499442000 0.544491402647 -0.506069079386
499452500 0.546579719583 -0.510992985202
499463000 0.550804832322 -0.509822519327
499473500 0.559344716598 -0.5167371165
499484000 0.538502823422 -0.517332259338
499494500 0.547432486235 -0.517173331798
499505000 0.5439207677 -0.516750282837
499515500 0.552552325362 -0.509710748152
499526000 0.554678375599 -0.508485378551
499536500 0.542996744788 -0.519838110829
499547000 0.544255376447 -0.51672892517
499557500 0.547774082755 -0.509607157525
499568000 0.54781883192 -0.509252500018
499578500 0.544769500858 -0.511306261509
499589000 0.541450491874 -0.511019537126
499599500 0.537696209136 -0.514924464945
499610000 0.540326960087 -0.514924202405
499620500 0.541032674411 -0.506490002244
499631000 0.550794639108 -0.514316122616
499641500 0.549522381027 -0.516462251399
499652000 0.548792863244 -0.516144776701
499662500 0.535218089084 -0.515268842314
499673000 0.542885551105 -0.508328923772
499683500 0.547420099405 -0.515237333939
499694000 0.549797670249 -0.513749469117
499704500 0.545642841789 -0.513516546465
499715000 0.547294177949 -0.514339234216
499725500 0.54634277062 -0.51190856837
499736000 0.544051636266 -0.51386704136
499746500 0.549477456986 -0.514065832182
499757000 0.551543919784 -0.514329928276
499767500 0.543666523468 -0.514116519767
499778000 0.545707826715 -0.514247244524
499788500 0.545175795689 -0.51520458765
499799000 0.544483318296 -0.512392563147
499809500 0.546907580886 -0.513006668451
499820000 0.546551614029 -0.512921686751
499830500 0.544033850435 -0.510985613158
499841000 0.544367970316 -0.510891576319
499851500 0.544621419657 -0.513133680074
499862000 0.544394691023 -0.511747553675
499872500 0.543426917074 -0.512526938285
499883000 0.545068368877 -0.512431604096
499893500 0.544157053154 -0.511509067538
499904000 0.545758952594 -0.511279285993
499914500 0.544803591246 -0.512271361119
499925000 0.54374037293 -0.513925268408
499935500 0.544278881432 -0.512348369435
499946000 0.544036709775 -0.512323333171
499956500 0.543222210095 -0.51151748666
499967000 0.543718265649 -0.512445536833
499977500 0.543121749695 -0.512588193482
499988000 0.542927819472 -0.511889347577
499998500 0.54287739418 -0.511505510819
500009000 0.543542863566 -0.512110067951
500019500 0.54296468989 -0.512705929583
500030000 0.543381977614 -0.512094349951
500040500 0.542758596582 -0.511984837329
500051000 0.543210942656 -0.511966095728
500061500 0.542901666847 -0.512307036685
500072000 0.543375075803 -0.512152219944
500082500 0.542588636754 -0.510811947269
500093000 0.542848455671 -0.512656936899
500103500 0.542997921095 -0.512622891844
500114000 0.543207897953 -0.512582233519
500124500 0.540299467732 -0.511353766201
500135000 0.54134819963 -0.513212484213
500145500 0.542224880849 -0.512830518592
500156000 0.54316758902 -0.511713653035
500166500 0.542923247936 -0.512584018944
500177000 0.542886905061 -0.512471353653
500187500 0.542705815358 -0.511566458977
500198000 0.543022971339 -0.510955144792
500208500 0.542739810657 -0.513413259335
500219000 0.542989710872 -0.512112035703
500229500 0.541368049597 -0.510555976814
500240000 0.54167587724 -0.511675942686
500250500 0.541143802282 -0.51149784724
500261000 0.541251533176 -0.511708370739
500271500 0.542354029501 -0.511972492726
500282000 0.541304692451 -0.511485568299
500292500 0.5420762279 -0.512411021908
500303000 0.543246855686 -0.511029866627
500313500 0.5419974865 -0.511609339371
500324000 0.541676418557 -0.511936935365
500334500 0.540656988239 -0.509985848782
500345000 0.540344582151 -0.511634879613
500355500 0.541766093406 -0.51152886425
500366000 0.541701942082 -0.512338619467
500376500 0.539827990276 -0.511175659314
500387000 0.540934977278 -0.511972875522
500397500 0.540445727325 -0.511196768135
500408000 0.541841383378 -0.511253452976
500418500 0.541039159669 -0.510696207154
500429000 0.540705339708 -0.512107596955
500439500 0.541522890844 -0.512355441341
500450000 0.541978726435 -0.511471430381
500460500 0.541065981323 -0.511845336501
500471000 0.539996643163 -0.51155216436
500481500 0.540291579882 -0.511002478232
500492000 0.539900518546 -0.511637611026
500502500 0.540973174476 -0.5127058626
500513000 0.540588493285 -0.511543353813
500523500 0.540152646131 -0.512405808663
500534000 0.541196632665 -0.511789796967
500544500 0.540807152008 -0.512111518919
500555000 0.541038774864 -0.51179979213
500565500 0.540409395526 -0.51152519479
500576000 0.540797042946 -0.51155927927
500586500 0.540462020857 -0.510778407418
500597000 0.540856864692 -0.510992739321
500607500 0.539728890431 -0.510428933945
500618000 0.540179366932 -0.510992294061
500628500 0.539449205566 -0.510783297939
500639000 0.539972698391 -0.511109922738
500649500 0.540081528208 -0.510841585581
500660000 0.54008368378 -0.511114207785
500670500 0.539857168551 -0.51087901119
500681000 0.539756148269 -0.510905887084
500691500 0.539631590784 -0.511041843823
500702000 0.53943251978 -0.511334118772
500712500 0.540024610148 -0.511117053694
500723000 0.539477769301 -0.511366653732
500733500 0.538922120687 -0.5116716125
500744000 0.539135165292 -0.511880510665
500754500 0.539380101245 -0.511657005446
500765000 0.539583236354 -0.511091819231
500775500 0.53961259694 -0.51156535751
500786000 0.53913796658 -0.510935653907
500796500 0.539140853608 -0.511120163143
500807000 0.538999365208 -0.511006986101
500817500 0.539149519805 -0.511322436351
500828000 0.539138513374 -0.511046623639
500838500 0.538938972669 -0.511191128925
500849000 0.538796757201 -0.510750466647
500859500 0.538520757619 -0.510809337989
500870000 0.538287712645 -0.511308040491
500880500 0.538200877639 -0.511778053846
500891000 0.537818029817 -0.512056092761
500901500 0.538485444116 -0.51128649336
500912000 0.538174843844 -0.510936186752
500922500 0.538261007251 -0.511217854561
500933000 0.538293188995 -0.511243890444
500943500 0.537986681677 -0.511407214141
500954000 0.538361045106 -0.510955263743
500964500 0.538027364588 -0.511064534813
500975000 0.538092258113 -0.510941153578
500985500 0.537635176668 -0.510555612831
500996000 0.537827436018 -0.510766193989
501006500 0.537634520735 -0.510407283111
501017000 0.53730779834 -0.510207719347
501027500 0.537683919785 -0.510072411315
501038000 0.537140452813 -0.509969713577
501048500 0.53743477646 -0.509945421331
501059000 0.537419865186 -0.510549271421
501069500 0.537284112135 -0.510940516131
501080000 0.537191725404 -0.511714137558
501090500 0.536960249646 -0.511588711015
501101000 0.537001488683 -0.511447676519
501111500 0.537312021653 -0.510650782579
501122000 0.537348403789 -0.510691706243
501132500 0.536934457902 -0.510615628501
501143000 0.536962730574 -0.510638847986
501153500 0.536909933508 -0.510391780174
501164000 0.53653284414 -0.510496695518
501174500 0.536740855615 -0.51034387334
501185000 0.536930158123 -0.510246473543
501195500 0.537130232093 -0.510329038556
501206000 0.537074273385 -0.509935888696
501216500 0.53700864393 -0.510375103391
501227000 0.537000362433 -0.510088993856
501237500 0.536943643148 -0.510475656274
501248000 0.536878759363 -0.510386074625
501258500 0.536632786229 -0.509498623401
501269000 0.536200058302 -0.510472102338
501279500 0.535900278993 -0.510061915907
501290000 0.536300289219 -0.510286235828
501300500 0.536132970823 -0.510496720526
501311000 0.536034595089 -0.510690298956
501321500 0.536179781828 -0.510947285641
501332000 0.536202233434 -0.510246423535
501342500 0.536156128326 -0.510126052057
501353000 0.535932248736 -0.510206640181
501363500 0.535524529656 -0.510014674058
501374000 0.535274377878 -0.509822519442
501384500 0.535016340338 -0.510197727887
501395000 0.53582367611 -0.510645265155
501405500 0.535394403057 -0.509885537368
501416000 0.535860575581 -0.50915145107
501426500 0.535456578775 -0.509870737829
501437000 0.535336978774 -0.510004336919
501447500 0.534516496124 -0.510477565108
501458000 0.536373795121 -0.509910472763
501468500 0.534805226775 -0.51057863053
501479000 0.535363281985 -0.50985210289
501489500 0.535304251224 -0.509461411596
501500000 0.535432439108 -0.509587456668
501510500 0.534991500656 -0.509833475812
501521000 0.53489593555 -0.509731907812
501531500 0.534913701721 -0.509791961648
501542000 0.535074767276 -0.510342471525
501552500 0.534587901346 -0.510498832154
501563000 0.5346179905 -0.51032618857
501573500 0.534470019361 -0.509756468612
501584000 0.534353617186 -0.510160987523
501594500 0.534796871119 -0.509481202627
501605000 0.534990577568 -0.509287860147
501615500 0.534899960774 -0.510040798163
501626000 0.534661599609 -0.509963595492
501636500 0.534367531609 -0.510229832928
501647000 0.534383823558 -0.51005260888
501657500 0.533803718452 -0.509330376314
501668000 0.533186512013 -0.509923911252
501678500 0.53363240409 -0.510808392255
501689000 0.533166886688 -0.511194715457
501699500 0.533178194681 -0.511539674267
501710000 0.534212035288 -0.510342352111
501720500 0.535252099402 -0.509877850676
501731000 0.534218286622 -0.509520821509
501741500 0.534122646404 -0.509426582572
501752000 0.533376136089 -0.50904746387
501762500 0.53308976628 -0.509150609723
501773000 0.533354119361 -0.509078544408
501783500 0.533485899116 -0.509015666425
501794000 0.533355550819 -0.508946501235
501804500 0.534031461406 -0.509362802018
501815000 0.533431122773 -0.509148958286
501825500 0.533455952255 -0.509152232726
501836000 0.533785150785 -0.509436629959
501846500 0.53327930183 -0.509460132988
501857000 0.532807720948 -0.508756872687
501867500 0.532709765706 -0.508809440672
501878000 0.533060827068 -0.509132546066
501888500 0.533640080117 -0.509295577382
501899000 0.533394830456 -0.509313337006
501909500 0.533447516487 -0.509357916237
501920000 0.533281500109 -0.508815139499
501930500 0.533215764541 -0.50887307806
501941000 0.532554950209 -0.509585957161
501951500 0.5323978112 -0.50908745976
501962000 0.532490363061 -0.508542026436
501972500 0.532871071395 -0.50831634667
501983000 0.532720514164 -0.508250040788
501993500 0.532940461227 -0.508698670418
502004000 0.532954644374 -0.509106064969
502014500 0.532610556631 -0.508602599739
502025000 0.532846557696 -0.508727309957
502035500 0.532469705138 -0.50834540167
502046000 0.532249441033 -0.508346952906
502056500 0.532237973558 -0.508747141018
502067000 0.531947839729 -0.50918818172
502077500 0.532291736318 -0.508379077283
502088000 0.532084456497 -0.50809748797
502098500 0.531919371578 -0.507817490972
502109000 0.531933403207 -0.508384343254
502119500 0.531797348567 -0.50889200589
502130000 0.531368682045 -0.50857018256
502140500 0.531281292901 -0.5084087058
502151000 0.531018852467 -0.508182565053
502161500 0.531856969831 -0.508262732684
502172000 0.532057016318 -0.508246129566
502182500 0.532365173566 -0.507897485427
502193000 0.531521768225 -0.508272447417
502203500 0.531134565596 -0.508208924749
502214000 0.53065506018 -0.508339555724
502224500 0.5307040601 -0.508010286953
502235000 0.53125136721 -0.508595859425
502245500 0.530935903494 -0.507843115587
502256000 0.530921019059 -0.508059871431
502266500 0.530597417825 -0.508410211382
502277000 0.530879953797 -0.508178946002
502287500 0.531131513033 -0.508144705996
502298000 0.530619458648 -0.508080202344
502308500 0.531188776249 -0.507227427312
502319000 0.531271132649 -0.508321295182
502329500 0.530838606384 -0.508387567837
502340000 0.531352180746 -0.508604820799
502350500 0.530773981899 -0.508509632013
502361000 0.531139998551 -0.50865327909
502371500 0.530579014524 -0.508514977864
502382000 0.530387922988 -0.507934836427
502392500 0.530808943282 -0.508386602618
502403000 0.530531890276 -0.507893974969
502413500 0.530618049912 -0.50812465808
502424000 0.530709381694 -0.507844696886
502434500 0.530299676448 -0.507682426413
502445000 0.529848614939 -0.507415441383
502455500 0.529854611891 -0.507929449261
502466000 0.529874424552 -0.507727478383
502476500 0.529107904744 -0.508029209673
502487000 0.530010141506 -0.507829655695
502497500 0.529796484827 -0.507626144052
502508000 0.529223230131 -0.50729661246
502518500 0.529507713055 -0.507576089146
502529000 0.529355879377 -0.50726744129
502539500 0.529685129586 -0.507267450125
502550000 0.529441781657 -0.507339846029
502560500 0.529815909556 -0.508140790545
502571000 0.530143810602 -0.507793725327
502581500 0.530242827995 -0.507417201922
502592000 0.530600064056 -0.506417211735
502602500 0.529693012716 -0.506613898153
502613000 0.529791665651 -0.507075910615
502623500 0.528928514324 -0.507326166482
502634000 0.528990498301 -0.506963455155
502644500 0.528883588167 -0.507139830156
502655000 0.528350259414 -0.507405202944
502665500 0.528857799812 -0.507466522169
502676000 0.528846285143 -0.507078300485
502686500 0.528946800771 -0.507019466771
502697000 0.52861627806 -0.507626109895
502707500 0.529056177382 -0.507097803498
502718000 0.528539912436 -0.506968307988
502728500 0.528572252344 -0.506824935027
502739000 0.528715345858 -0.507032404979
502749500 0.529234728836 -0.506684836759
502760000 0.528792162509 -0.506945261774
502770500 0.52855488683 -0.50684209634
502781000 0.529043054208 -0.506434008841
502791500 0.528995216124 -0.507274161905
502802000 0.528899892254 -0.506871334271
502812500 0.528185334196 -0.507203823538
502823000 0.52898575978 -0.507107345581
502833500 0.528006750972 -0.506922302051
502844000 0.528361279957 -0.507000973202
502854500 0.528543630992 -0.507139933008
502865000 0.528241880773 -0.506819967361
502875500 0.528154307935 -0.506924623476
502886000 0.528506334318 -0.506685180184
502896500 0.528300682246 -0.506711380459
502907000 0.528497947889 -0.506802750025
502917500 0.527656696075 -0.506761022612
502928000 0.527990934504 -0.506502910852
502938500 0.527928015504 -0.507344021879
502949000 0.527908780811 -0.50724254967
502959500 0.527701702798 -0.506619841105
502970000 0.527280900092 -0.506820544731
502980500 0.528537491158 -0.507446360007
502991000 0.527469679072 -0.506670688166
503001500 0.527079395115 -0.50682763715
503012000 0.527397638369 -0.507915456337
503022500 0.526577673126 -0.507361582782
503033000 0.528469410495 -0.507630055874
503043500 0.528071032646 -0.506820178419
503054000 0.527072850889 -0.507106788601
503064500 0.528147186466 -0.506809977204
503075000 0.527819539478 -0.506121520344
503085500 0.527075607063 -0.506566783147
503096000 0.524976970299 -0.506159501453
503106500 0.525725460582 -0.505324949047
503117000 0.527673687207 -0.507877958252
503127500 0.519565709589 -0.505894538102
503138000 0.527973800564 -0.503736596899
503148500 0.528172558043 -0.504170294897
503159000 0.526021342027 -0.504805204256
503169500 0.525963826399 -0.509506987751
503180000 0.530186181588 -0.503813802545
503190500 0.530191942369 -0.51067314404
503201000 0.52550441647 -0.505676069251
503211500 0.524612040944 -0.503777034971
503222000 0.524659863461 -0.504100471685
503232500 0.5230807509 -0.506776670712
503243000 0.523643925713 -0.50581182114
503253500 0.524252129507 -0.507620306573
503264000 0.523720944965 -0.503686592406
503274500 0.525343187278 -0.50495065427
503285000 0.526600882651 -0.505626932811
503295500 0.529727748678 -0.509295265738
503306000 0.531637015863 -0.506551738355
503316500 0.52105679561 -0.503061799845
503327000 0.525044786508 -0.503799826214
503337500 0.518369987189 -0.504964928522
503348000 0.527544169786 -0.502223898439
503358500 0.523156777547 -0.505395437461
503369000 0.528854892292 -0.508641203625
503379500 0.525361707025 -0.500780275719
503390000 0.524984617666 -0.5072293597
503400500 0.522281486396 -0.509570235695
503411000 0.523676075005 -0.503154034664
503421500 0.530905140916 -0.502182419494
503432000 0.525910373516 -0.509513321695
503442500 0.526738255021 -0.501864493834
503453000 0.519053872014 -0.499152409493
503463500 0.529354217524 -0.507390024347
503474000 0.520788625647 -0.506424197494
503484500 0.523314482832 -0.505107224055
503495000 0.526011449472 -0.501915808206
503505500 0.524791743702 -0.502784066924
503516000 0.525486571437 -0.5068522715
503526500 0.52414449947 -0.509496284579
503537000 0.525942907672 -0.510993182696
503547500 0.522286662146 -0.501900793875
503558000 0.526941952929 -0.510467408592
503568500 0.520555775729 -0.509968899064
503579000 0.524278603416 -0.508917763394
503589500 0.526995440921 -0.503114769417
503600000 0.528948805019 -0.505862861635
503610500 0.527225304623 -0.50622430494
503621000 0.525169474567 -0.50517306696
503631500 0.527407199254 -0.509258150638
503642000 0.528539297701 -0.507168149247
503652500 0.524424725481 -0.508174691334
503663000 0.522361168686 -0.503627915715
503673500 0.528147419239 -0.509072425742
503684000 0.526798068615 -0.503646833808
503694500 0.529738459458 -0.50618048906
503705000 0.525375936774 -0.502569336791
503715500 0.523429604368 -0.501056040517
503726000 0.526242762908 -0.496850879367
503736500 0.530865525624 -0.502832757482
503747000 0.525369607091 -0.499844037193
503757500 0.527155620747 -0.503628892621
503768000 0.520993994265 -0.505516318511
503778500 0.525526717729 -0.502786641545
503789000 0.524758273682 -0.50281798129
503799500 0.52457116671 -0.505408937019
503810000 0.523641513328 -0.506279992499
503820500 0.52477117606 -0.505389973671
503831000 0.525706447913 -0.504232899048
503841500 0.522324142826 -0.503544378186
503852000 0.523985175243 -0.503054458893
503862500 0.524751787023 -0.505091780679
503873000 0.52121248384 -0.503487611329
503883500 0.523295395078 -0.506182112563
503894000 0.522101719455 -0.505323772787
503904500 0.523253945776 -0.505132676939
503915000 0.523397835969 -0.50643830717
503925500 0.522948730905 -0.505713959271
503936000 0.523261818371 -0.504651370572
503946500 0.522342532809 -0.504918248928
503957000 0.522789818144 -0.504621275534
503967500 0.522715230561 -0.504007182871
503978000 0.522760734247 -0.504133991272
503988500 0.522567433961 -0.504159565208
503999000 0.522542028335 -0.503951741897
504009500 0.522592785179 -0.504335503354
504020000 0.522662924451 -0.504812227885
504030500 0.523019668491 -0.504680185496
504041000 0.521949736143 -0.504061228918
504051500 0.522588487442 -0.504623090518
504062000 0.522148768187 -0.504246761774
504072500 0.522634988793 -0.5040280738
504083000 0.52266831979 -0.504360874953
504093500 0.522145354853 -0.504263262884
504104000 0.521908573518 -0.504255312469
504114500 0.521859896597 -0.504336842765
504125000 0.521941184743 -0.503912970596
504135500 0.522381672854 -0.503524012935
504146000 0.522097127212 -0.504002234936
504156500 0.521894211273 -0.503651699582
504167000 0.522207044405 -0.503489923995
504177500 0.522202353998 -0.503673205436
504188000 0.521735680726 -0.503822045271
504198500 0.521662118373 -0.503911719327
504209000 0.521928760619 -0.503361591734
504219500 0.521512824848 -0.503715926592
504230000 0.521202903862 -0.503676751804
504240500 0.521671779398 -0.503037634939
504251000 0.521689749995 -0.503042150826
504261500 0.521502231614 -0.503135379052
504272000 0.521281547191 -0.503480081021
504282500 0.521423955125 -0.503724187573
504293000 0.521356505099 -0.503424019019
504303500 0.521467775566 -0.502973660567
504314000 0.521044008913 -0.502630436111
504324500 0.520398812578 -0.502603662972
504335000 0.520820939287 -0.503073516407
504345500 0.521392517786 -0.502489884147
504356000 0.521360241041 -0.50323446677
504366500 0.521619554523 -0.502683569625
504377000 0.521325190305 -0.502224209633
504387500 0.52092809295 -0.502493152302
504398000 0.520946533608 -0.502433786454
504408500 0.520933369614 -0.503012408093
504419000 0.521181506965 -0.503111228079
504429500 0.521067514261 -0.503533056421
504440000 0.520807908895 -0.502943957219
504450500 0.520896893747 -0.502910264269
504461000 0.521119105275 -0.502606899936
504471500 0.521020314091 -0.502336528595
504482000 0.520922381567 -0.502528291152
504492500 0.51977693034 -0.502171785598
504503000 0.518698315809 -0.500913305396
504513500 0.518845071316 -0.501448968507
504524000 0.519664276536 -0.501718934091
504534500 0.520071781596 -0.502247617212
504545000 0.520758286758 -0.502167412069
504555500 0.520669597849 -0.502663382147
504566000 0.520751051497 -0.503193518592
504576500 0.520802957538 -0.502937745686
504587000 0.520434332005 -0.502593281085
504597500 0.520236576806 -0.502099730668
504608000 0.520168337822 -0.502235388998
504618500 0.520403849898 -0.502319147487
504629000 0.520547288025 -0.502022804996
504639500 0.520432626378 -0.50254371255
504650000 0.519918967643 -0.50296784226
504660500 0.520246021755 -0.502662079168
504671000 0.520856417288 -0.502286115645
504681500 0.520504781745 -0.501813728143
504692000 0.520278422474 -0.501108581535
504702500 0.520121389218 -0.500918343782
504713000 0.520010057941 -0.501000172597
504723500 0.519899564834 -0.501471204834
504734000 0.519792789025 -0.501509531791
504744500 0.519755621666 -0.501661057327
504755000 0.519774893223 -0.501769013613
504765500 0.519444057964 -0.501535231922
504776000 0.519307368143 -0.501780276855
504786500 0.519204061731 -0.501803566469
504797000 0.518654236583 -0.501854331233
504807500 0.51964815626 -0.501785624634
504818000 0.519714233584 -0.501893990313
504828500 0.52029603843 -0.50147274053
504839000 0.519290995303 -0.501594296972
504849500 0.519024546611 -0.501337604404
504860000 0.518673992255 -0.501872674219
504870500 0.518990672179 -0.501964658845
504881000 0.518900972031 -0.501899896021
504891500 0.519293970074 -0.50217037215
504902000 0.519075232959 -0.501871908504
504912500 0.519209525342 -0.501595950073
504923000 0.519075474991 -0.501811167877
504933500 0.519271288278 -0.50187659173
504944000 0.518934353322 -0.501114686541
504954500 0.51886504418 -0.501406513076
504965000 0.518520736076 -0.50113850926
504975500 0.518402497966 -0.501563032365
504986000 0.51801681981 -0.500948884656
504996500 0.518508779958 -0.501257116111
505007000 0.51831168636 -0.501248639901
505017500 0.518363557262 -0.501863920123
505028000 0.518387814663 -0.501322002039
505038500 0.518705992742 -0.501232660436
505049000 0.518636382071 -0.501005446333
505059500 0.519129632739 -0.500956460652
505070000 0.519045853164 -0.500417650202
505080500 0.518590988694 -0.499989706218
505091000 0.519013940115 -0.500724477135
505101500 0.518416325 -0.5007639535
505112000 0.518735099428 -0.501002306325
505122500 0.517830544036 -0.501112750801
505133000 0.517770466914 -0.501211359685
505143500 0.517298655974 -0.501650206906
505154000 0.517737739509 -0.501025058668
505164500 0.516487473431 -0.501392142895
505175000 0.517644115609 -0.500213528194
505185500 0.517889587066 -0.500661681021
505196000 0.518108550121 -0.500638415733
505206500 0.518067020642 -0.500572670441
505217000 0.517620935235 -0.500323039194
505227500 0.51773962577 -0.500945048846
505238000 0.517942705885 -0.500410456383
505248500 0.517540462195 -0.500439262493
505259000 0.517414703212 -0.500012159161
505269500 0.517547488 -0.500112347847
505280000 0.517290988733 -0.499957576347
505290500 0.517321210767 -0.500077357579
505301000 0.517422879247 -0.499895657653
505311500 0.517296356516 -0.500208064769
505322000 0.517587465045 -0.499824997325
505332500 0.517828156263 -0.500037279364
505343000 0.517988712154 -0.499929418359
505353500 0.517868497847 -0.500119673203
505364000 0.517546933425 -0.499668978987
505374500 0.51752372023 -0.500550109867
505385000 0.517363662264 -0.500111675507
505395500 0.517283826563 -0.500756116817
505406000 0.517026796068 -0.500491126091
505416500 0.517357626377 -0.500118677307
505427000 0.516839936651 -0.500475091498
505437500 0.517121085161 -0.499835804384
505448000 0.516798319614 -0.500560410078
505458500 0.517376681594 -0.500294008711
505469000 0.516982046469 -0.49958035846
505479500 0.51654377062 -0.499233329341
505490000 0.516444899123 -0.499104174714
505500500 0.516705501175 -0.499096536434
505511000 0.516094595125 -0.499490961513
505521500 0.516006700553 -0.499368807481
505532000 0.515461435119 -0.498878267712
505542500 0.514622053749 -0.49845525441
505553000 0.514941595881 -0.498425170365
505563500 0.51544187483 -0.499132419507
505574000 0.515696812976 -0.499551768621
505584500 0.515555809843 -0.499417530115
505595000 0.515134712313 -0.49950321985
505605500 0.514746695365 -0.499591447845
505616000 0.515693632855 -0.499361175708
505626500 0.516061633911 -0.499204553289
505637000 0.515870091182 -0.49950429173
505647500 0.51558856649 -0.499067508166
505658000 0.515557115294 -0.499019101534
505668500 0.515235543374 -0.49946727058
505679000 0.515387510156 -0.499132122495
505689500 0.51536859275 -0.499184797466
505700000 0.515926560222 -0.498746362142
505710500 0.516030815035 -0.499086506887
505721000 0.515972662356 -0.498678707521
505731500 0.515902673234 -0.498524985561
505742000 0.516008501005 -0.498672516106
505752500 0.515710121697 -0.498761790797
505763000 0.515192562347 -0.498724677684
505773500 0.514824959595 -0.498962366007
505784000 0.514631292968 -0.498824066914
505794500 0.514934589301 -0.498921442135
505805000 0.514862095328 -0.499265553116
505815500 0.515284898736 -0.499125232224
505826000 0.514832660207 -0.499148505647
505836500 0.515419914494 -0.499078773836
505847000 0.515004866485 -0.499003485277
505857500 0.515897563969 -0.499060625814
505868000 0.51538901004 -0.498390025248
505878500 0.515178143052 -0.498305059191
505889000 0.514932398233 -0.498137565236
505899500 0.515161013096 -0.497973270624
505910000 0.51487546975 -0.499367421441
505920500 0.515264276778 -0.499030001332
505931000 0.515315104122 -0.498236819481
505941500 0.515153645954 -0.497523808525
505952000 0.515190384924 -0.497702113156
505962500 0.514776073228 -0.497723165198
505973000 0.515175857264 -0.497169995602
505983500 0.514497536121 -0.497563165028
505994000 0.514488031367 -0.497579950686
506004500 0.51427172802 -0.497990354393
506015000 0.514720426169 -0.49816142925
506025500 0.514744206152 -0.498235675707
506036000 0.514569872913 -0.498503502415
506046500 0.514857321005 -0.498105062238
506057000 0.514309062848 -0.498293450812
506067500 0.513909749303 -0.498020979518
506078000 0.514688726629 -0.497562810514
506088500 0.515160076254 -0.497633569478
506099000 0.514501974307 -0.497494625316
506109500 0.514220984365 -0.498049753487
506120000 0.513817015253 -0.497809760176
506130500 0.514207731513 -0.498011210598
506141000 0.514132981557 -0.49767450647
506151500 0.514530186527 -0.497403681227
506162000 0.514112232147 -0.497340026118
506172500 0.51392839439 -0.497866211705
506183000 0.513914479838 -0.497350087466
506193500 0.513844297989 -0.497588481765
506204000 0.513337718433 -0.49669277787
506214500 0.51368745595 -0.497172825868
506225000 0.513369350405 -0.497572151123
506235500 0.514116134923 -0.497647165429
506246000 0.513925407014 -0.497387181638
506256500 0.514445603373 -0.497577277041
506267000 0.514122245779 -0.497380061355
506277500 0.513348699149 -0.497491171829
506288000 0.512487029743 -0.496343635958
506298500 0.512539096076 -0.49657580275
506309000 0.51308385933 -0.496775112288
506319500 0.512393474395 -0.497041410136
506330000 0.512834002481 -0.497191338435
506340500 0.513480912892 -0.497636391458
506351000 0.513769978777 -0.497721171168
506361500 0.513244158115 -0.497223614808
506372000 0.51382055115 -0.497559142869
506382500 0.513135190686 -0.497700775448
506393000 0.512572718759 -0.496923122855
506403500 0.512597880871 -0.49677648877
506414000 0.512780466284 -0.496116582044
506424500 0.512762970386 -0.496386513686
506435000 0.512596728563 -0.49648557952
506445500 0.513664055675 -0.497091161042
506456000 0.512082550836 -0.496743802982
506466500 0.513238799156 -0.495797061958
506477000 0.51303353565 -0.496608248826
506487500 0.513497256076 -0.49636291061
506498000 0.512463216811 -0.49698838914
506508500 0.512733420382 -0.496168059316
506519000 0.512724491051 -0.496028368674
506529500 0.513135351307 -0.496576062271
506540000 0.512805659162 -0.495796934346
506550500 0.512217949081 -0.496062630609
506561000 0.512574349599 -0.496409829267
506571500 0.513025636491 -0.497043325103
506582000 0.512666623976 -0.496114187252
506592500 0.511741958727 -0.496182414541
506603000 0.511500954706 -0.495823318476
506613500 0.511664280853 -0.496915688332
506624000 0.512358000781 -0.496073645536
506634500 0.5122056108 -0.497012937415
506645000 0.513162772934 -0.496811955212
506655500 0.512779696081 -0.495768861675
506666000 0.511509983994 -0.494815076911
506676500 0.51181552569 -0.49491227808
506687000 0.511884843168 -0.495797370888
506697500 0.512541056747 -0.495198087625
506708000 0.512545691794 -0.495894052152
506718500 0.51253742687 -0.4954780025
506729000 0.513359961459 -0.496083062044
506739500 0.512351289028 -0.495351755975
506750000 0.512764005145 -0.49664170226
506760500 0.512190743729 -0.496158867806
506771000 0.512924284498 -0.495734232186
506781500 0.512211459179 -0.495816352369
506792000 0.512360419096 -0.495881017306
506802500 0.51250978446 -0.496153036308
506813000 0.512358084199 -0.49530920745
506823500 0.51196069683 -0.494994185876
506834000 0.511846028265 -0.493873665598
506844500 0.512358136946 -0.494407776239
506855000 0.511746063601 -0.495246667787
506865500 0.511587549692 -0.495521614626
506876000 0.511735216817 -0.495295134892
506886500 0.511740092117 -0.494986409424
506897000 0.511465111828 -0.494721255515
506907500 0.51115115468 -0.494981944022
506918000 0.511503736369 -0.495155070472
506928500 0.511519052284 -0.495007257828
506939000 0.51159112503 -0.495277036286
506949500 0.511407784752 -0.494844617683
506960000 0.511721049814 -0.495209402494
506970500 0.511766448532 -0.495235530746
506981000 0.510628490174 -0.495237033662
506991500 0.511747109132 -0.495316386892
507002000 0.511455748671 -0.494657055548
507012500 0.511632803855 -0.494352470111
507023000 0.511624007816 -0.494507786212
507033500 0.511692316533 -0.494405461783
507044000 0.511308428399 -0.495120548927
507054500 0.511391770643 -0.495043973776
507065000 0.511722107443 -0.494709418605
507075500 0.511877347203 -0.49533565929
507086000 0.511890722943 -0.494498684048
507096500 0.511196788845 -0.494922675064
507107000 0.510307791716 -0.494090453264
507117500 0.511116391394 -0.494460407881
507128000 0.511680817674 -0.494187678614
507138500 0.511088593333 -0.493820337757
507149000 0.511090005131 -0.494261912827
507159500 0.510707780689 -0.494467919308
507170000 0.509752123445 -0.494605519746
507180500 0.51043039041 -0.494697808711
507191000 0.50901550922 -0.491051826608
507201500 0.511037151223 -0.49175468703
507212000 0.510817382185 -0.495690373986
507222500 0.510547516386 -0.494208541999
507233000 0.508489302687 -0.495924436061
507243500 0.50727028021 -0.493076087836
507254000 0.510830497181 -0.491481561194
507264500 0.5104261063 -0.493584815673
507275000 0.510875579973 -0.494070399994
507285500 0.510313418115 -0.493238615828
507296000 0.508673148567 -0.49236104732
507306500 0.506730972068 -0.493645097915
507317000 0.50981617241 -0.493261486948
507327500 0.509407435823 -0.492621112965
507338000 0.508024183546 -0.492916015233
507348500 0.509384084715 -0.493518441731
507359000 0.508788918092 -0.493331729883
507369500 0.51121305544 -0.495347299564
507380000 0.511022419086 -0.490166632918
507390500 0.508625275981 -0.495246061979
507401000 0.509741961925 -0.490780975295
507411500 0.508983938052 -0.492156602414
507422000 0.511432082698 -0.492213902001
507432500 0.509699142244 -0.492526601511
507443000 0.512387457778 -0.48947109027
507453500 0.510604846075 -0.492047889961
507464000 0.512602302299 -0.494844001415
507474500 0.509399702729 -0.494087418064
507485000 0.5097707066 -0.495063472307
507495500 0.509234629345 -0.493683331764
507506000 0.5112008832 -0.490627535564
507516500 0.509441653879 -0.492019622801
507527000 0.510361518363 -0.494256772743
507537500 0.508084786093 -0.495408489906
507548000 0.50998465928 -0.492753205339
507558500 0.50883895016 -0.494267402232
507569000 0.510047117541 -0.493437150608
507579500 0.510071866904 -0.491068946336
507590000 0.510623780718 -0.494434972301
507600500 0.509972338499 -0.494280620072
507611000 0.509961617906 -0.49174664222
507621500 0.509615579402 -0.496049016962
507632000 0.50945962578 -0.493584131675
507642500 0.510185426383 -0.489570327104
507653000 0.510556214657 -0.494388517101
507663500 0.508790008258 -0.495040053644
507674000 0.508622034027 -0.493040371607
507684500 0.508611177922 -0.493211904305
507695000 0.506917256737 -0.49314521667
507705500 0.507518368223 -0.491771128205
507716000 0.50772274766 -0.493131610433
507726500 0.508500377655 -0.492513041945
507737000 0.508234562557 -0.491640095379
507747500 0.508863265336 -0.492458036244
507758000 0.510441459379 -0.492591260183
507768500 0.510737862907 -0.492329715788
507779000 0.511970896301 -0.490568712837
507789500 0.508143047012 -0.491776974807
507800000 0.50844670178 -0.492790758644
507810500 0.508686978931 -0.491909307869
507821000 0.510213605007 -0.490364102976
507831500 0.50882477709 -0.493253276073
507842000 0.508656549011 -0.494008829849
507852500 0.509393433633 -0.492445971524
507863000 0.507922538342 -0.492864503206
507873500 0.508136309655 -0.493639826157
507884000 0.508990700263 -0.492056313176
507894500 0.509131314984 -0.491635632885
507905000 0.508669232347 -0.491993526694
507915500 0.508668500016 -0.492149559357
507926000 0.509029313294 -0.492754227014
507936500 0.510172594609 -0.491738688604
507947000 0.509307852326 -0.492007028488
507957500 0.508881667967 -0.491710062396
507968000 0.508304428846 -0.491667221707
507978500 0.508990359189 -0.491886933779
507989000 0.509056680458 -0.492123863369
507999500 0.508167700166 -0.492368206554
508010000 0.508435496259 -0.491461840549
508020500 0.508184042746 -0.491175561117
508031000 0.508303180806 -0.490715529699
508041500 0.508303931644 -0.490037899324
508052000 0.508506395609 -0.491404175976
508062500 0.5089631397 -0.490674768362
508073000 0.509650191221 -0.491181134698
508083500 0.50809073955 -0.490955705713
508094000 0.508145551025 -0.491570120272
508104500 0.508098703971 -0.490630495992
508115000 0.508581981759 -0.491399917392
508125500 0.50792500644 -0.491535919982
508136000 0.508194352169 -0.491193961553
508146500 0.508251385569 -0.491194620525
508157000 0.508042984891 -0.490464764016
508167500 0.507803710402 -0.490743655362
508178000 0.508418294876 -0.491196470665
508188500 0.508062079662 -0.491350360852
508199000 0.507696896491 -0.491478108086
508209500 0.507933698721 -0.491288057686
508220000 0.508084304438 -0.49195302416
508230500 0.508649028361 -0.491415877392
508241000 0.508137573574 -0.490605456777
508251500 0.50852223911 -0.490698387165
508262000 0.508105388594 -0.490529260972
508272500 0.507448375313 -0.490949083128
508283000 0.507554080005 -0.49015026269
508293500 0.507179503432 -0.490222412996
508304000 0.506993926781 -0.49117545093
508314500 0.508111935108 -0.491014818165
508325000 0.507199522605 -0.491314769476
508335500 0.508106561813 -0.490797615569
508346000 0.507586343781 -0.49111889078
508356500 0.508098285886 -0.491483064189
508367000 0.507983896454 -0.490936942097
508377500 0.508070130748 -0.491112031486
508388000 0.508135520639 -0.491382974195
508398500 0.507462285887 -0.491096282147
508409000 0.506971975997 -0.490418901025
508419500 0.507556035111 -0.4901144653
508430000 0.506927580747 -0.490627258783
508440500 0.507333603029 -0.490150600165
508451000 0.50772652822 -0.490342195936
508461500 0.507649226844 -0.490383709186
508472000 0.507496065006 -0.491343884266
508482500 0.506880288834 -0.49008523157
508493000 0.507692040671 -0.490098892606
508503500 0.507064816512 -0.490428878827
508514000 0.506728100424 -0.489876430251
508524500 0.506939506707 -0.490555062676
508535000 0.507450942152 -0.490455822184
508545500 0.507238306703 -0.490030496456
508556000 0.507047718969 -0.490548920822
508566500 0.506980709042 -0.490422536909
508577000 0.506833160495 -0.490736258453
508587500 0.506777958212 -0.490728518628
508598000 0.507293124773 -0.490341696587
508608500 0.506816519739 -0.490082305801
508619000 0.507153997489 -0.48978716257
508629500 0.506762447358 -0.490154043452
508640000 0.506951256466 -0.48934318816
508650500 0.506543940982 -0.489281325478
508661000 0.506652410035 -0.489525633148
508671500 0.506239059885 -0.489568867946
508682000 0.506174160732 -0.489629188645
508692500 0.506019045759 -0.489674385083
508703000 0.506463165775 -0.489592787163
508713500 0.506944829488 -0.489148467382
508724000 0.506905227478 -0.489101142708
508734500 0.507290389175 -0.489313789811
508745000 0.507253571835 -0.489115682775
508755500 0.507085310049 -0.489217181527
508766000 0.507017954883 -0.489278096136
508776500 0.507094182567 -0.488842094318
508787000 0.506943291864 -0.489235714939
508797500 0.506903662924 -0.488853169618
508808000 0.506241027095 -0.488837069904
508818500 0.506712974051 -0.488839873829
508829000 0.506702590399 -0.489112403715
508839500 0.506137234591 -0.487910511459
508850000 0.506586323029 -0.487896623776
508860500 0.506434474751 -0.488250244822
508871000 0.506683288159 -0.488763304517
508881500 0.506467010788 -0.489169922338
508892000 0.506218328726 -0.489040182043
508902500 0.506257333801 -0.489034045825
508913000 0.505904264475 -0.489038486009
508923500 0.505888397889 -0.488998291312
508934000 0.506179449353 -0.488780377486
508944500 0.506474198885 -0.488339910163
508955000 0.506373274881 -0.488263312456
508965500 0.50640210165 -0.488306645202
508976000 0.50574380669 -0.487945619174
508986500 0.505744048389 -0.487842396236
508997000 0.505896335447 -0.487878266445
509007500 0.505443121055 -0.487736847972
509018000 0.506157931081 -0.487689428726
509028500 0.506127931669 -0.487865435785
509039000 0.506476694071 -0.488027737132
509049500 0.50557829048 -0.487853689798
509060000 0.505685335189 -0.487574987357
509070500 0.505630781635 -0.48760318693
509081000 0.506003784178 -0.487540991847
509091500 0.506046778546 -0.488067652042
509102000 0.505790543575 -0.488246357522
509112500 0.506049051093 -0.48834504861
509123000 0.505836242175 -0.488259856608
509133500 0.506314723768 -0.487927582302
509144000 0.509802390805 -0.486704691358
509154500 0.504047767248 -0.488300242702
509165000 0.502706500867 -0.481825254504
509175500 0.503373342647 -0.488209952881
509186000 0.504605698233 -0.487894185037
509196500 0.505713542414 -0.48819790229
509207000 0.506130778023 -0.488346310193
509217500 0.505651961804 -0.488274663057
509228000 0.505618036694 -0.488180954058
509238500 0.505658060306 -0.487613675655
509249000 0.505808129141 -0.487856176949
509259500 0.505579350047 -0.487904148886
509270000 0.505158417486 -0.48782713669
509280500 0.505600772181 -0.488026251433
509291000 0.505295675486 -0.488040284895
509301500 0.504784778192 -0.48806247503
509312000 0.505184130203 -0.488442724991
509322500 0.505776781924 -0.488357264319
509333000 0.505641299894 -0.487677111958
509343500 0.505540980419 -0.487757171192
509354000 0.506026174763 -0.487510781401
509364500 0.505330013338 -0.487639490963
509375000 0.504861737887 -0.487176665622
509385500 0.505183033218 -0.487367711386
509396000 0.504784544246 -0.48741519012
509406500 0.50513006576 -0.487263937929
509417000 0.504907071394 -0.487543619937
509427500 0.504991234217 -0.487319988577
509438000 0.505209496654 -0.487513254004
509448500 0.505061798395 -0.487456388251
509459000 0.504865814543 -0.487254367255
509469500 0.505034701028 -0.487408392939
509480000 0.504922072958 -0.487165202773
509490500 0.504863758412 -0.487316512499
509501000 0.504906259056 -0.486774784692
509511500 0.505121561565 -0.486862524533
509522000 0.505056083567 -0.486664655534
509532500 0.504926578703 -0.486758050443
509543000 0.504891366971 -0.48644964191
509553500 0.504447075158 -0.486849624955
509564000 0.504619810162 -0.486993710303
509574500 0.504452556503 -0.486475926775
509585000 0.504823434682 -0.486311769142
509595500 0.50540826994 -0.485998046096
509606000 0.504913365641 -0.485896716344
509616500 0.505024926007 -0.486773468352
509627000 0.504613201717 -0.486632235293
509637500 0.505070556272 -0.48640393516
509648000 0.504436072529 -0.486464649683
509658500 0.504683660436 -0.486182488679
509669000 0.504751168057 -0.486547635119
509679500 0.504436347126 -0.486694934727
509690000 0.504766346724 -0.486356820246
509700500 0.504836304239 -0.486579112116
509711000 0.50451526443 -0.486374968468
509721500 0.504425370439 -0.486325620389
509732000 0.50403445507 -0.486059084057
509742500 0.503905727063 -0.485962144461
509753000 0.504421108481 -0.486186536291
509763500 0.505204506029 -0.486186231328
509774000 0.504439617734 -0.48646938528
509784500 0.504360194406 -0.486310104107
509795000 0.504544128695 -0.486026456997
509805500 0.504469928144 -0.486425469277
509816000 0.504898075189 -0.486207424803
509826500 0.504530952996 -0.486656409898
509837000 0.505046619091 -0.486337103349
509847500 0.50483032776 -0.486504910283
509858000 0.50478283874 -0.486693338243
509868500 0.504857463115 -0.486452665085
509879000 0.504421481574 -0.486528377811
509889500 0.504625097703 -0.486540645951
509900000 0.504142611921 -0.486271130109
509910500 0.504291713481 -0.486070683219
509921000 0.504108652427 -0.486086064508
509931500 0.505016776569 -0.485582948662
509942000 0.50502475394 -0.485635745164
509952500 0.504631188179 -0.48567008677
509963000 0.504102837185 -0.48598026123
509973500 0.503826367362 -0.485513412201
509984000 0.503744251849 -0.485876110188
509994500 0.50352206146 -0.486139562622
510005000 0.5039323137 -0.485819631008
510015500 0.504116434999 -0.485592991135
510026000 0.504028688542 -0.485477749607
510036500 0.504090042869 -0.485621367176
510047000 0.503983675837 -0.485343036038
510057500 0.504570918081 -0.485082852926
510068000 0.504451533706 -0.485294278275
510078500 0.503952241051 -0.485516876035
510089000 0.504048009501 -0.485514398094
510099500 0.503798203071 -0.485084006697
510110000 0.503761415998 -0.485119244152
510120500 0.503484621814 -0.485148365716
510131000 0.50336418917 -0.484927176513
510141500 0.503469755966 -0.484831781413
510152000 0.503200795324 -0.484982625358
510162500 0.503548823288 -0.485674664614
510173000 0.504201738437 -0.48533265455
510183500 0.50356972888 -0.485093646789
510194000 0.503624493612 -0.485257066333
510204500 0.503656242471 -0.485546921296
510215000 0.503292820133 -0.485485053211
510225500 0.503423553626 -0.485445324116
510236000 0.50315301869 -0.485352901137
510246500 0.503109551208 -0.485500541749
510257000 0.503464078153 -0.485561430713
510267500 0.504675745927 -0.485302967906
510278000 0.503969886374 -0.484955173439
510288500 0.504452907302 -0.484809346454
510299000 0.503945301473 -0.484708185445
510309500 0.503532063882 -0.484338067413
510320000 0.503037838001 -0.483666594469
510330500 0.503361620473 -0.484247196406
510341000 0.50360278911 -0.484380348712
510351500 0.503603482569 -0.484161447175
510362000 0.503424350203 -0.484029071022
510372500 0.502978705613 -0.484082772967
510383000 0.503398227133 -0.484502599033
510393500 0.502703591898 -0.48456900806
510404000 0.503177346092 -0.485111484633
510414500 0.503304613011 -0.48431590445
510425000 0.503147724662 -0.48427051584
510435500 0.502573986949 -0.484229342047
510446000 0.502563568813 -0.483909497394
510456500 0.502732466739 -0.483837578477
510467000 0.502990157044 -0.484070537935
510477500 0.503764633599 -0.484121369497
510488000 0.503712746692 -0.484122902201
510498500 0.503234892996 -0.483707958046
510509000 0.502796142406 -0.484095458411
510519500 0.502243436643 -0.484246512716
510530000 0.502371276324 -0.484438829973
510540500 0.502507096378 -0.484540038054
510551000 0.502560990721 -0.484138166986
510561500 0.502650219508 -0.484260704405
510572000 0.502655205937 -0.483758528823
510582500 0.503180881643 -0.48395584616
510593000 0.503016369439 -0.483793196421
510603500 0.502271121381 -0.48412642965
510614000 0.502440329307 -0.484366255502
510624500 0.502527912347 -0.484168821456
510635000 0.502778860792 -0.483912893498
510645500 0.502432247338 -0.484007662146
510656000 0.502728815938 -0.484158634107
510666500 0.502545585945 -0.483584966959
510677000 0.503036398148 -0.483858889647
510687500 0.50282973379 -0.483502250656
510698000 0.502804879457 -0.483609181652
510708500 0.502601092842 -0.483719525155
510719000 0.50287084562 -0.483614444002
510729500 0.502834636232 -0.483709949906
510740000 0.503054795936 -0.483305900656
510750500 0.503190961598 -0.483820417761
510761000 0.502781012316 -0.483640706889
510771500 0.503060431037 -0.483920345706
510782000 0.502903729862 -0.484013962
510792500 0.5025061286 -0.483534367878
510803000 0.502659087256 -0.48264123369
510813500 0.502695653374 -0.483032751471
510824000 0.502734336271 -0.482993182297
510834500 0.503257236901 -0.483706914677
510845000 0.502800776591 -0.482985575142
510855500 0.501998445335 -0.48281977422
510866000 0.50206006202 -0.482605520822
510876500 0.501749254227 -0.482279203614
510887000 0.502348420182 -0.482719621394
510897500 0.502488059751 -0.482647203568
510908000 0.502142140759 -0.482456567545
510918500 0.501835374841 -0.48233313822
510929000 0.502072509915 -0.482612569305
510939500 0.502146184125 -0.482612442494
510950000 0.502751627967 -0.4827805281
510960500 0.501885545274 -0.483251136219
510971000 0.502529794415 -0.482734011364
510981500 0.501974133081 -0.482900329987
510992000 0.5018308722 -0.483020687085
511002500 0.501990100354 -0.482727213521
511013000 0.50202490173 -0.482808504413
511023500 0.502556302355 -0.48288297997
511034000 0.502255285587 -0.482564535656
511044500 0.502986220305 -0.482705498224
511055000 0.502151077572 -0.483080087767
511065500 0.502432703416 -0.482743081006
511076000 0.50240552544 -0.482728139282
511086500 0.501942906212 -0.48252639537
511097000 0.501889062305 -0.482628936689
511107500 0.501843790934 -0.482424290952
511118000 0.501197924923 -0.482253749394
511128500 0.501610507092 -0.482728137872
511139000 0.501045889261 -0.482762077339
511149500 0.501396578616 -0.482927174545
511160000 0.50150763696 -0.482768203893
511170500 0.501678194978 -0.48295511621
511181000 0.501406837054 -0.483048565148
511191500 0.500163014203 -0.483217171439
511202000 0.49884450688 -0.483046057657
511212500 0.498906560114 -0.483132303852
511223000 0.499802896444 -0.482439427172
511233500 0.500922819249 -0.482166451785
511244000 0.501259211175 -0.482289040983
511254500 0.501861321366 -0.482283214757
511265000 0.501731217328 -0.481810328468
511275500 0.501290979592 -0.481952616667
511286000 0.501271199918 -0.481852196274
511296500 0.501046609556 -0.481583978803
511307000 0.501360949066 -0.481672349268
511317500 0.502110549509 -0.481130386394
511328000 0.501852496368 -0.481468778364
511338500 0.502126489194 -0.481280112862
511349000 0.501402135982 -0.481401167068
511359500 0.501024405153 -0.481761726257
511370000 0.500854927667 -0.481864700097
511380500 0.500827424219 -0.482068279071
511391000 0.50082770207 -0.481349452445
511401500 0.50127141908 -0.481247582365
511412000 0.501615959442 -0.480953584359
511422500 0.501421272084 -0.481980480401
511433000 0.501452193684 -0.481801808115
511443500 0.50112754267 -0.482525501066
511454000 0.50008431966 -0.48052282789
511464500 0.501569554101 -0.479552131238
511475000 0.500130224062 -0.480240613904
511485500 0.500920839925 -0.480657456372
511496000 0.500735639821 -0.480848860505
511506500 0.50149656782 -0.481193768489
511517000 0.501708891851 -0.481161524324
511527500 0.500881710495 -0.481342855906
511538000 0.500138540771 -0.481214930447
511548500 0.500355319403 -0.480689580579
511559000 0.501091862254 -0.480194141218
511569500 0.50124483848 -0.482148051243
511580000 0.500703447618 -0.481973413379
511590500 0.500733196902 -0.481899397932
511601000 0.501458260433 -0.482205305022
511611500 0.501420286841 -0.482179182991
511622000 0.5011480669 -0.48175191789
511632500 0.500715576328 -0.479705620623
511643000 0.501026001159 -0.481815063317
511653500 0.500208809131 -0.480198061975
511664000 0.501528000856 -0.480419118531
511674500 0.50145526895 -0.481299487525
511685000 0.501156374416 -0.481543014169
511695500 0.501029486484 -0.478989132427
511706000 0.500568423102 -0.480111597097
511716500 0.501285635648 -0.480887220581
511727000 0.49996865617 -0.481275113338
511737500 0.500998642464 -0.480152377781
511748000 0.501445591748 -0.480026632837
511758500 0.500693299368 -0.479539313356
511769000 0.501312304216 -0.479947964238
511779500 0.501042055015 -0.480650162421
511790000 0.500012564836 -0.481460448744
511800500 0.499785530308 -0.481580388092
511811000 0.49990472386 -0.479928601751
511821500 0.499862018284 -0.48046849153
511832000 0.500633107777 -0.479344810315
511842500 0.500369011768 -0.479932484635
511853000 0.499825896977 -0.481411554569
511863500 0.499874595561 -0.481344926496
511874000 0.500797922894 -0.481025091821
511884500 0.500981378938 -0.48050055128
511895000 0.499775407393 -0.481069862163
511905500 0.500618014281 -0.47964413707
511916000 0.500300430509 -0.479890859728
511926500 0.500132720319 -0.479161716439
511937000 0.499847029388 -0.479686543854
511947500 0.500050093196 -0.480521457577
511958000 0.50069330466 -0.480211415667
511968500 0.500157858425 -0.479862756536
511979000 0.500348249107 -0.480430702842
511989500 0.500785178464 -0.480533003977
512000000 0.500845161853 -0.48009608975
