! Calibrated averaged scanner-service zoom
# Hz S RI R 50
450000000 0.677615278359 -0.435006517319
450010000 0.677818457632 -0.435699481905
450020000 0.677702505829 -0.435146942089
450030000 0.678157006774 -0.434993748955
450040000 0.678001887761 -0.435071561924
450050000 0.67815000974 -0.434868682828
450060000 0.678611771234 -0.435179299209
450070000 0.678411933562 -0.435514434526
450080000 0.67871047525 -0.43587644911
450090000 0.678790995667 -0.436062409452
450100000 0.678262676516 -0.435505918976
450110000 0.678001278188 -0.435534086347
450120000 0.677787632709 -0.435430252009
450130000 0.677941015321 -0.435039587269
450140000 0.678384277431 -0.435029069383
450150000 0.67811515844 -0.434906595496
450160000 0.677459848193 -0.435214385604
450170000 0.676890519395 -0.435781962022
450180000 0.677535039848 -0.435306373301
450190000 0.677453785478 -0.43471597747
450200000 0.678261068981 -0.434985836538
450210000 0.677691521265 -0.434905575246
450220000 0.677273458829 -0.435356522269
450230000 0.676770250464 -0.434798171074
450240000 0.677148653438 -0.435726756527
450250000 0.677372314008 -0.435801866173
450260000 0.677643851765 -0.435403471392
450270000 0.677482011067 -0.435494480618
450280000 0.677247823853 -0.43590661689
450290000 0.677447276813 -0.435813082329
450300000 0.677057600991 -0.435695723747
450310000 0.676281870381 -0.436312679659
450320000 0.674782831192 -0.436236058619
450330000 0.671485678523 -0.437619485956
450340000 0.668126137612 -0.439433070198
450350000 0.668973744099 -0.439041253205
450360000 0.672420892448 -0.43800320027
450370000 0.675469815609 -0.436179141909
450380000 0.676604967143 -0.435907833823
450390000 0.677500208467 -0.435941309915
450400000 0.677914256721 -0.437476140002
450410000 0.678256113643 -0.435574089102
450420000 0.677623386696 -0.435400658275
450430000 0.677606402893 -0.435774543539
450440000 0.677526976352 -0.435473616986
450450000 0.678160215511 -0.435603381599
450460000 0.678681221516 -0.435740512504
450470000 0.678523662876 -0.435993299772
450480000 0.678033289677 -0.43601698633
450490000 0.678329108399 -0.436185757309
450500000 0.677909013902 -0.436005794751
450510000 0.677626217015 -0.435821545521
450520000 0.677842120111 -0.436142703816
450530000 0.677851001507 -0.435746097416
450540000 0.677319130379 -0.435916819309
450550000 0.677450547981 -0.435309720321
450560000 0.676833235829 -0.436099269054
450570000 0.677423988617 -0.43550989886
450580000 0.67693075131 -0.435366012178
450590000 0.677344307644 -0.436024296632
450600000 0.677654778619 -0.435472259826
450610000 0.67732298413 -0.436290166625
450620000 0.677492554818 -0.435572853287
450630000 0.677661585451 -0.435733108201
450640000 0.677485743791 -0.435590601167
450650000 0.677564512894 -0.435504352961
450660000 0.677388579462 -0.435602320846
450670000 0.677561458159 -0.435239883151
450680000 0.67707378385 -0.434780342901
450690000 0.676870919859 -0.435132914551
450700000 0.677103159625 -0.435489467405
450710000 0.676640096491 -0.435518384676
450720000 0.676954453522 -0.436074129298
450730000 0.676911046281 -0.435649469946
450740000 0.676565131988 -0.434765563899
450750000 0.676880037619 -0.435461305549
450760000 0.677277344006 -0.43550831391
450770000 0.67627240107 -0.435439330064
450780000 0.675393922947 -0.436174157464
450790000 0.67576375067 -0.436595753226
450800000 0.676085671327 -0.436965402787
450810000 0.675981963405 -0.436672283954
450820000 0.676660833288 -0.436357443446
450830000 0.676793874909 -0.436756018164
450840000 0.675693781934 -0.435899166683
450850000 0.674427143915 -0.434949600143
450860000 0.673448836096 -0.434911099861
450870000 0.674773739777 -0.434607629658
450880000 0.675954805314 -0.435265315998
450890000 0.676737986382 -0.43496353259
450900000 0.677309000185 -0.43592273203
450910000 0.677687132661 -0.436691100798
450920000 0.677483566908 -0.437320772486
450930000 0.677313356612 -0.436756378245
450940000 0.676973981944 -0.435992870827
450950000 0.676633141391 -0.435855019078
450960000 0.676338337844 -0.436063276405
450970000 0.676203636534 -0.435984779248
450980000 0.676860539598 -0.436886317887
450990000 0.676529078038 -0.436527793944
451000000 0.676868732362 -0.435817382355
451010000 0.676974186827 -0.435918136371
451020000 0.677161773476 -0.436521387113
451030000 0.67725392139 -0.436327225725
451040000 0.677000898597 -0.435768920413
451050000 0.675437219618 -0.436058586369
451060000 0.676776369088 -0.435990547627
451070000 0.676692531602 -0.435600439423
451080000 0.676499942651 -0.436381799911
451090000 0.676460317621 -0.435735258908
451100000 0.676890197348 -0.435354737994
451110000 0.677049442553 -0.435738428279
451120000 0.676137037629 -0.435795703471
451130000 0.676173392252 -0.435590341901
451140000 0.676291101242 -0.435904611171
451150000 0.675810157742 -0.435387013612
451160000 0.67681936324 -0.435743746404
451170000 0.676383487253 -0.435957721393
451180000 0.67660394259 -0.435658644489
451190000 0.676690797263 -0.435965318258
451200000 0.67681030427 -0.436405767609
451210000 0.677154823935 -0.436320064228
451220000 0.67695445779 -0.436283210315
451230000 0.677010871207 -0.436212387587
451240000 0.676545474186 -0.436406178828
451250000 0.675214435751 -0.436614297372
451260000 0.675869431716 -0.437053011504
451270000 0.67553264339 -0.436907460527
451280000 0.676010243357 -0.4374057444
451290000 0.676304486126 -0.436370432685
451300000 0.676269301387 -0.436303831816
451310000 0.676250811217 -0.43676283085
451320000 0.677036475077 -0.43584582168
451330000 0.676189458563 -0.435903210074
451340000 0.676592688395 -0.436840645463
451350000 0.676290643827 -0.436839111844
451360000 0.676511200031 -0.436110432737
451370000 0.677190614505 -0.437017169258
451380000 0.679671066956 -0.439363364919
451390000 0.676823932482 -0.437047290514
451400000 0.676960150986 -0.436748451271
451410000 0.675609668299 -0.4362322395
451420000 0.675824076016 -0.435748046785
451430000 0.675502929401 -0.435173858483
451440000 0.674356186487 -0.435546694088
451450000 0.674399050294 -0.435834530263
451460000 0.675398254491 -0.436051855307
451470000 0.675703774678 -0.436461087701
451480000 0.676040968355 -0.437054713283
451490000 0.675573208092 -0.436841317971
451500000 0.675369233781 -0.43667627958
451510000 0.675478486025 -0.43694338384
451520000 0.675656793329 -0.436878597679
451530000 0.676346735496 -0.43726294672
451540000 0.675843963231 -0.436663875724
451550000 0.675146311644 -0.43673364784
451560000 0.675664508742 -0.437146265274
451570000 0.675556452376 -0.437294334242
451580000 0.675987631914 -0.43711118931
451590000 0.675211214578 -0.437249077257
451600000 0.675776853666 -0.437456023842
451610000 0.675603799584 -0.436734684246
451620000 0.675646200396 -0.436719624787
451630000 0.675381000158 -0.436762170009
451640000 0.6759281712 -0.436804338489
451650000 0.675604843916 -0.436529578752
451660000 0.675678985027 -0.436662808583
451670000 0.675875429825 -0.436885842647
451680000 0.676118351391 -0.437059743356
451690000 0.676155600107 -0.43690184207
451700000 0.676248476382 -0.436841789685
451710000 0.676040144948 -0.437130991834
451720000 0.675592572218 -0.436849347112
451730000 0.675593525396 -0.437101537744
451740000 0.67589141271 -0.436875571828
451750000 0.675819034229 -0.436870638955
451760000 0.676027691088 -0.437414272398
451770000 0.675964633367 -0.437182936719
451780000 0.676205835176 -0.437368964444
451790000 0.675314711461 -0.43662480253
451800000 0.675510227045 -0.436991688972
451810000 0.675966428637 -0.436657449478
451820000 0.675617613693 -0.436435614879
451830000 0.675591758466 -0.436214699915
451840000 0.675363483641 -0.436290272033
451850000 0.675275421978 -0.436948386082
451860000 0.675200465148 -0.43766201459
451870000 0.675565501491 -0.437947293309
451880000 0.675875019831 -0.436779381495
451890000 0.680732470846 -0.43179791449
451900000 0.677468158149 -0.435886954883
451910000 0.676700145944 -0.436576696564
451920000 0.675410691205 -0.436594335404
451930000 0.675008717011 -0.437137910739
451940000 0.675407528888 -0.437342751212
451950000 0.674550138394 -0.437432123887
451960000 0.674403949615 -0.437072858497
451970000 0.67499409265 -0.437296036812
451980000 0.675424608725 -0.437043696537
451990000 0.675245923122 -0.437558828826
452000000 0.67516397651 -0.437406677744
452010000 0.674988613785 -0.437521838186
452020000 0.675498424279 -0.437004403234
452030000 0.674996356062 -0.436906617416
452040000 0.675185560256 -0.436993734079
452050000 0.675485125844 -0.437185919872
452060000 0.674393602716 -0.437339984677
452070000 0.67522692468 -0.437723519273
452080000 0.675181110025 -0.437408703339
452090000 0.675347062199 -0.438176513875
452100000 0.675769891571 -0.4380916366
452110000 0.675529921286 -0.43813793669
452120000 0.675646353349 -0.437868304329
452130000 0.675757684628 -0.437760021541
452140000 0.675497552917 -0.437767221688
452150000 0.675719494555 -0.438293999834
452160000 0.675132421596 -0.437919739767
452170000 0.675417057862 -0.438288395625
452180000 0.675440306702 -0.438646095746
452190000 0.675486521923 -0.438041057706
452200000 0.675626975837 -0.438544723034
452210000 0.675406407257 -0.438052097917
452220000 0.67599364184 -0.438379692658
452230000 0.675668896487 -0.43790709068
452240000 0.675734667139 -0.437652641256
452250000 0.674900725077 -0.437396492905
452260000 0.674983659024 -0.437786227696
452270000 0.674729416883 -0.437327014072
452280000 0.67412203587 -0.438021154791
452290000 0.675122342496 -0.438430867224
452300000 0.675656866779 -0.439185324578
452310000 0.675516398129 -0.438428779717
452320000 0.675578206925 -0.438268627235
452330000 0.675497799701 -0.438135014077
452340000 0.67502485869 -0.438089000823
452350000 0.675185552659 -0.437269178383
452360000 0.674573568592 -0.437135455248
452370000 0.674813328003 -0.438082667261
452380000 0.675007728412 -0.438171018666
452390000 0.674476390424 -0.438094395795
452400000 0.675329666156 -0.438295887901
452410000 0.674682197923 -0.438647564055
452420000 0.674455082089 -0.438688657697
452430000 0.674523970769 -0.438418753113
452440000 0.674618445797 -0.437609988031
452450000 0.674765522468 -0.437711360873
452460000 0.674807978172 -0.438039556746
452470000 0.674613686684 -0.437876493899
452480000 0.674803008037 -0.437949737028
452490000 0.675276721622 -0.437786745505
452500000 0.674656012701 -0.438043946501
452510000 0.674400355399 -0.438007461601
452520000 0.674777980515 -0.438010076626
452530000 0.674777483138 -0.438159045963
452540000 0.674883198818 -0.438912247367
452550000 0.674371933859 -0.437741064219
452560000 0.675003522176 -0.437928416967
452570000 0.674830492847 -0.438381542025
452580000 0.673871577396 -0.437933327525
452590000 0.674291940481 -0.437962769702
452600000 0.674161162784 -0.437865267321
452610000 0.674738390984 -0.438298157581
452620000 0.674528044061 -0.438344070527
452630000 0.674769425811 -0.43815762253
452640000 0.674389501301 -0.438394712496
452650000 0.674601252582 -0.438219483914
452660000 0.674759546169 -0.438699772644
452670000 0.674247030334 -0.439031155011
452680000 0.675028988958 -0.438661567479
452690000 0.674486175185 -0.43835085224
452700000 0.674916540056 -0.437982777859
452710000 0.674627340917 -0.438183654559
452720000 0.674283772476 -0.437933934161
452730000 0.674284910865 -0.437497556038
452740000 0.674035762654 -0.438227056555
452750000 0.674460650166 -0.437301843396
452760000 0.674255194066 -0.437279088616
452770000 0.673411456004 -0.437623397857
452780000 0.674066756463 -0.437917554317
452790000 0.674548645192 -0.437607384806
452800000 0.674546608619 -0.438030093392
452810000 0.674809243903 -0.437938305309
452820000 0.674706651488 -0.438204971948
452830000 0.674647171218 -0.438234550764
452840000 0.674571921513 -0.438187503908
452850000 0.675138093297 -0.438203188432
452860000 0.674680610041 -0.438282473995
452870000 0.67453079661 -0.438152892948
452880000 0.674175148536 -0.43734260788
452890000 0.674860724176 -0.438196044287
452900000 0.675156774127 -0.438163577545
452910000 0.674815669492 -0.438294091018
452920000 0.674073914942 -0.438481479722
452930000 0.674392164466 -0.438460068989
452940000 0.674152477136 -0.438029000651
452950000 0.673540661214 -0.438872460558
452960000 0.674016270514 -0.438673558441
452970000 0.674087396758 -0.438448265748
452980000 0.673954866985 -0.438044087653
452990000 0.67456091958 -0.437324728149
453000000 0.673938691351 -0.438158925417
453010000 0.673343992131 -0.438137596736
453020000 0.67481553087 -0.439372443822
453030000 0.674110463861 -0.438544362055
453040000 0.674337843166 -0.438396387976
453050000 0.674354235861 -0.438907484895
453060000 0.67400703641 -0.438694788826
453070000 0.673788314989 -0.438374414802
453080000 0.673711575046 -0.438104627828
453090000 0.673961519994 -0.438373338828
453100000 0.673629708866 -0.43764253292
453110000 0.673660648489 -0.437367364811
453120000 0.673792815728 -0.438446329565
453130000 0.674565815847 -0.438284926555
453140000 0.674077481211 -0.43822923944
453150000 0.674646530094 -0.438440116164
453160000 0.673608458994 -0.437642478138
453170000 0.673817707505 -0.437610952101
453180000 0.673730401672 -0.438316800401
453190000 0.674045708779 -0.438425109951
453200000 0.673295227433 -0.438569162822
453210000 0.673558466903 -0.43915590188
453220000 0.672986994022 -0.438333931788
453230000 0.673532756144 -0.43851696227
453240000 0.673521377568 -0.438787485304
453250000 0.673739335667 -0.438826886733
453260000 0.674279304112 -0.439245351092
453270000 0.674261201026 -0.439268999651
453280000 0.673898596818 -0.439015439898
453290000 0.674248337972 -0.439138789632
453300000 0.674386143468 -0.438236650398
453310000 0.674093404195 -0.438036049244
453320000 0.673863279528 -0.438318769911
453330000 0.674280024579 -0.437536276777
453340000 0.67437822736 -0.438769703454
453350000 0.673982782639 -0.441437310079
453360000 0.673044837194 -0.44401544697
453370000 0.673513007121 -0.442950227027
453380000 0.673909794306 -0.440598880818
453390000 0.673956504593 -0.438651641138
453400000 0.674279709082 -0.438028683997
453410000 0.673339420522 -0.438690302331
453420000 0.673447677157 -0.438594515984
453430000 0.673341417117 -0.438700740392
453440000 0.674286041315 -0.438147441572
453450000 0.673296442629 -0.438528043365
453460000 0.673408543081 -0.438520248954
453470000 0.672922500389 -0.438883122576
453480000 0.67278683164 -0.438914516141
453490000 0.672588110059 -0.438917010407
453500000 0.673135591894 -0.439636033148
453510000 0.67356494423 -0.439078632826
453520000 0.673119357129 -0.438140760099
453530000 0.673795423672 -0.438473768189
453540000 0.673674091917 -0.438124994398
453550000 0.674382604099 -0.438742511096
453560000 0.675003151351 -0.438559600004
453570000 0.67463500479 -0.43886154212
453580000 0.674022892389 -0.439078211856
453590000 0.673990413865 -0.439192749587
453600000 0.673417204745 -0.43933235393
453610000 0.673997041982 -0.439701845569
453620000 0.673977102938 -0.439578000882
453630000 0.673985163352 -0.439478372811
453640000 0.673615729888 -0.43928898436
453650000 0.67361587171 -0.438559391017
453660000 0.672450474578 -0.438562730724
453670000 0.672888278542 -0.438955436266
453680000 0.672752308883 -0.43880905656
453690000 0.672873165434 -0.438474764557
453700000 0.672786660867 -0.438465562173
453710000 0.673268721335 -0.439048594957
453720000 0.673500038956 -0.439164837568
453730000 0.67340772567 -0.438427033145
453740000 0.672903466217 -0.439265258784
453750000 0.672770474447 -0.43884822594
453760000 0.672897662136 -0.438497005525
453770000 0.672887328175 -0.438788542167
453780000 0.673351816456 -0.438399005947
453790000 0.673393702886 -0.439497744789
453800000 0.67359013689 -0.438642480323
453810000 0.673155784048 -0.439319201451
453820000 0.673392355688 -0.439231482341
453830000 0.673207566993 -0.439199071803
453840000 0.672979932755 -0.439203645571
453850000 0.673382016935 -0.439430825936
453860000 0.672892884552 -0.43961195928
453870000 0.673043318184 -0.439807774781
453880000 0.672656166152 -0.440136023716
453890000 0.673002859434 -0.439303869797
453900000 0.672903493401 -0.438704809904
453910000 0.672909753001 -0.438949699857
453920000 0.67364092783 -0.438491238805
453930000 0.673109628745 -0.438405841835
453940000 0.67269963145 -0.438539682786
453950000 0.672905057886 -0.438513879983
453960000 0.67265713303 -0.439018295718
453970000 0.672411471688 -0.438991542336
453980000 0.67299647844 -0.438863662781
453990000 0.672997597532 -0.438771400533
454000000 0.673076051624 -0.4389287494
454010000 0.672600223262 -0.439180233618
454020000 0.673220555521 -0.439098770877
454030000 0.673079309384 -0.439245987459
454040000 0.672699812184 -0.439241752123
454050000 0.673338160672 -0.438885515383
454060000 0.673179171964 -0.438770117812
454070000 0.67311337772 -0.438724976295
454080000 0.672932575694 -0.438749485424
454090000 0.672485447321 -0.438941418694
454100000 0.672623008988 -0.438834182738
454110000 0.672531411914 -0.439162930821
454120000 0.67283234551 -0.439262618851
454130000 0.673294377514 -0.439544493527
454140000 0.673376198744 -0.439613480349
454150000 0.673185819222 -0.439265394812
454160000 0.673030138307 -0.438852338813
454170000 0.672957254451 -0.438978762061
454180000 0.673177407269 -0.438365092637
454190000 0.672526452234 -0.439492185529
454200000 0.673044814198 -0.440059907459
454210000 0.672837878039 -0.439684098562
454220000 0.67334058899 -0.439527896385
454230000 0.673603414929 -0.439651215297
454240000 0.67339334464 -0.440097758517
454250000 0.673460286731 -0.439448967165
454260000 0.673562471294 -0.439726823884
454270000 0.673089517235 -0.439479663447
454280000 0.673648984728 -0.439590450648
454290000 0.673543761392 -0.439026288113
454300000 0.673299568016 -0.439184627152
454310000 0.673034853386 -0.439965034032
454320000 0.672849829996 -0.439913219506
454330000 0.672708830816 -0.43962643864
454340000 0.673262882252 -0.439646363066
454350000 0.672426967331 -0.439749104203
454360000 0.67279694846 -0.440241731881
454370000 0.673310707514 -0.440430700889
454380000 0.673027833657 -0.440813699416
454390000 0.673220864741 -0.440285889385
454400000 0.67285486646 -0.440329862617
454410000 0.673306427898 -0.439844994898
454420000 0.672846369745 -0.439819755802
454430000 0.672703783805 -0.43975590221
454440000 0.672238837493 -0.43979386589
454450000 0.67267284717 -0.440433359685
454460000 0.672669537953 -0.439883578351
454470000 0.67277709957 -0.440817406208
454480000 0.67247275364 -0.440288302535
454490000 0.672736712181 -0.440155997236
454500000 0.672157870464 -0.439183241199
454510000 0.671421765688 -0.43953668296
454520000 0.671270485719 -0.439840686992
454530000 0.671431626552 -0.440151761959
454540000 0.672616785661 -0.440481340875
454550000 0.67232755101 -0.440298495129
454560000 0.672959000083 -0.440125086257
454570000 0.67213827432 -0.440293420784
454580000 0.672303319318 -0.440125731219
454590000 0.672463814086 -0.440146084256
454600000 0.672693673998 -0.440078258036
454610000 0.672863441906 -0.440032238659
454620000 0.673318187562 -0.440110880198
454630000 0.673239269031 -0.440656027924
454640000 0.67313039051 -0.44060151066
454650000 0.672982632991 -0.44042946072
454660000 0.672310094593 -0.440607090949
454670000 0.671827355631 -0.440353080376
454680000 0.672080748321 -0.440488298167
454690000 0.67204940748 -0.440396178112
454700000 0.67248984787 -0.440294096201
454710000 0.672484519011 -0.440407711563
454720000 0.672903911661 -0.440272902499
454730000 0.672787920798 -0.440014492371
454740000 0.672603283574 -0.440400831764
454750000 0.672145712494 -0.439823254475
454760000 0.672436714665 -0.440422255123
454770000 0.672544933665 -0.440934012209
454780000 0.672932939922 -0.440511745
454790000 0.672875616757 -0.440413066555
454800000 0.673230757668 -0.440311905074
454810000 0.672678157973 -0.440061696515
454820000 0.672318390775 -0.440474404545
454830000 0.67265302181 -0.440995860255
454840000 0.672587268439 -0.440283901121
454850000 0.67266781935 -0.440710543722
454860000 0.672124067644 -0.440594033348
454870000 0.6724138905 -0.440902818176
454880000 0.672290505737 -0.440526934258
454890000 0.67174510576 -0.440412937772
454900000 0.672156612688 -0.440808705325
454910000 0.672350235691 -0.440313159203
454920000 0.672232945082 -0.440543396824
454930000 0.672562296577 -0.440575405592
454940000 0.672785964374 -0.44133817042
454950000 0.674476438725 -0.436600464918
454960000 0.674161243091 -0.430913573665
454970000 0.684560615455 -0.427943469468
454980000 0.672005616198 -0.432654460771
454990000 0.664394245687 -0.439450275418
455000000 0.667506859134 -0.445181066078
455010000 0.655505713403 -0.447080414068
455020000 0.671484150871 -0.444152807425
455030000 0.672418269745 -0.441184203402
455040000 0.671421371064 -0.441466292701
455050000 0.672235427789 -0.441171543669
455060000 0.672684826665 -0.440203331283
455070000 0.672042281216 -0.440876539898
455080000 0.672248759276 -0.441270427421
455090000 0.672030651023 -0.440726366055
455100000 0.672141748918 -0.441342966756
455110000 0.672195453499 -0.441720967735
455120000 0.671937298037 -0.441801844136
455130000 0.672111748726 -0.441758867206
455140000 0.671514512371 -0.441186948947
455150000 0.671114605292 -0.440757294786
455160000 0.671715118489 -0.440657800509
455170000 0.672082210925 -0.441032389457
455180000 0.6718054256 -0.441293666338
455190000 0.672039999733 -0.441575986347
455200000 0.672227548553 -0.441716486442
455210000 0.672399697538 -0.441974705702
455220000 0.672317925158 -0.441886153616
455230000 0.672095891555 -0.441688200986
455240000 0.671988734707 -0.441104733348
455250000 0.671716431984 -0.441692458867
455260000 0.672492077244 -0.440883283424
455270000 0.672374507557 -0.441076202422
455280000 0.672153886072 -0.441384281368
455290000 0.671584231545 -0.441520186074
455300000 0.671926591752 -0.441241605124
455310000 0.67194574526 -0.441525546051
455320000 0.671390896471 -0.441404448396
455330000 0.671471468975 -0.441040977133
455340000 0.671640044527 -0.441788634686
455350000 0.67162247942 -0.441119795924
455360000 0.671706521752 -0.442199320335
455370000 0.672190961623 -0.442046231275
455380000 0.671974429832 -0.442026956328
455390000 0.671829483487 -0.44139952798
455400000 0.671533505409 -0.44148528773
455410000 0.671516907786 -0.441585512818
455420000 0.671622940428 -0.441856976758
455430000 0.67081014071 -0.44203041417
455440000 0.671865039391 -0.44270033271
455450000 0.671218337813 -0.441829306917
455460000 0.671348279327 -0.441673144507
455470000 0.671454879141 -0.441503401868
455480000 0.671930981668 -0.442334520836
455490000 0.671533986624 -0.44233913588
455500000 0.671828828642 -0.441970995174
455510000 0.672134523154 -0.441943891504
455520000 0.67173218793 -0.441959987028
455530000 0.672633371923 -0.44213207859
455540000 0.671657526062 -0.442296869601
455550000 0.672362337683 -0.442430206539
455560000 0.672276195035 -0.442533153869
455570000 0.671644065445 -0.442261078371
455580000 0.671190298584 -0.442418261603
455590000 0.671566055341 -0.442556437323
455600000 0.671269299306 -0.442140116503
455610000 0.671970844956 -0.442757461776
455620000 0.671750954371 -0.442100497779
455630000 0.672430577089 -0.44298012612
455640000 0.67201454017 -0.442445198726
455650000 0.671610200609 -0.443594709636
455660000 0.670953029315 -0.442835538703
455670000 0.671364644509 -0.44246954965
455680000 0.671565737646 -0.442046613812
455690000 0.671020934444 -0.442326428164
455700000 0.671548282281 -0.442074414694
455710000 0.672168789402 -0.443005840319
455720000 0.671480607065 -0.44181607423
455730000 0.670644682264 -0.44183805132
455740000 0.670784959648 -0.442450335425
455750000 0.670347726789 -0.442406312786
455760000 0.670727213171 -0.442856640369
455770000 0.671277887166 -0.442681957554
455780000 0.67173668591 -0.4424262462
455790000 0.670979138487 -0.442527286937
455800000 0.67092387221 -0.442138274999
455810000 0.671143495578 -0.441951424017
455820000 0.671220779544 -0.442362155421
455830000 0.671182954289 -0.442750424188
455840000 0.670767158304 -0.442445135023
455850000 0.670997175197 -0.442839990016
455860000 0.670516165274 -0.442464795563
455870000 0.670029245777 -0.442650276963
455880000 0.671465672202 -0.442443049074
455890000 0.672453735426 -0.443144514626
455900000 0.671716846982 -0.442515837177
455910000 0.671799519956 -0.44282726995
455920000 0.672029394171 -0.442153144274
455930000 0.672262987723 -0.442387702512
455940000 0.671607456555 -0.442587208653
455950000 0.671138933864 -0.443253788563
455960000 0.671662610023 -0.442487780179
455970000 0.671898856534 -0.442734569868
455980000 0.672408000566 -0.442820340505
455990000 0.672077728038 -0.443232211318
456000000 0.671695656695 -0.443251911228
456010000 0.671440413812 -0.443093204599
456020000 0.671566376156 -0.442810484845
456030000 0.671207494251 -0.442700570254
456040000 0.671425360753 -0.442457782757
456050000 0.671124148758 -0.442811876371
456060000 0.671420554438 -0.442894377265
456070000 0.671237456416 -0.44259173156
456080000 0.671643124769 -0.442578855752
456090000 0.671413535818 -0.443383221233
456100000 0.670893969259 -0.443490777308
456110000 0.670923187798 -0.443110551593
456120000 0.671979695382 -0.443648207572
456130000 0.670999243425 -0.443641899005
456140000 0.671609452124 -0.444078428975
456150000 0.671670045426 -0.443633928535
456160000 0.670878125057 -0.443831157707
456170000 0.670164994969 -0.443858913645
456180000 0.670586842993 -0.443366369901
456190000 0.669654600358 -0.443114852512
456200000 0.669929360732 -0.443364800235
456210000 0.669525930287 -0.443768596535
456220000 0.670445919318 -0.444078060688
456230000 0.670293395867 -0.444486786947
456240000 0.671090570175 -0.443910807343
456250000 0.670858461875 -0.443874207488
456260000 0.67079346466 -0.443983759371
456270000 0.670599001498 -0.443987486489
456280000 0.671513057187 -0.44383127102
456290000 0.670937172187 -0.443539969267
456300000 0.670250753811 -0.443047884134
456310000 0.670542919508 -0.443972731639
456320000 0.670902712517 -0.444518464068
456330000 0.671491117713 -0.445069181933
456340000 0.670676872425 -0.443945937782
456350000 0.670520377069 -0.444214376653
456360000 0.670285525838 -0.444126177587
456370000 0.671122491617 -0.44431122559
456380000 0.671573307257 -0.443309894996
456390000 0.670935470828 -0.442974709578
456400000 0.670328920539 -0.444420892516
456410000 0.670537446252 -0.445111975661
456420000 0.670102647982 -0.444408264542
456430000 0.670347679124 -0.442823951889
456440000 0.670080932022 -0.443523270495
456450000 0.670541879265 -0.444162339767
456460000 0.670541666698 -0.443861722067
456470000 0.671439040233 -0.44352065419
456480000 0.671175660739 -0.443342503551
456490000 0.670426091205 -0.445097184138
456500000 0.670574223939 -0.44401698062
456510000 0.670082637814 -0.443343447269
456520000 0.670379053083 -0.444124958171
456530000 0.670641204057 -0.444383583924
456540000 0.670379442085 -0.443264746235
456550000 0.670350019061 -0.444458707649
456560000 0.669588019234 -0.442978123576
456570000 0.66963187016 -0.443113567398
456580000 0.669691341366 -0.444090555673
456590000 0.669838688394 -0.443965058796
456600000 0.67038432304 -0.444579329043
456610000 0.669278990097 -0.443365051359
456620000 0.670237509002 -0.444267196644
456630000 0.670349772633 -0.444144507383
456640000 0.669732090028 -0.444517091108
456650000 0.670434691309 -0.444078069332
456660000 0.670231332025 -0.444299919776
456670000 0.670087809996 -0.444992925656
456680000 0.669635719484 -0.444013212391
456690000 0.669746554208 -0.444237122463
456700000 0.669677059285 -0.443459375494
456710000 0.670448704778 -0.444562913072
456720000 0.66985116788 -0.444613147174
456730000 0.669741601282 -0.444225842671
456740000 0.669704760462 -0.445032246787
456750000 0.670157273626 -0.444135003225
456760000 0.670196175878 -0.444787516013
456770000 0.670310112801 -0.444778555354
456780000 0.670143857056 -0.444765116681
456790000 0.670150553035 -0.445286525979
456800000 0.670212330716 -0.444818370191
456810000 0.669565585262 -0.444866255491
456820000 0.670087153894 -0.444126257684
456830000 0.670516268899 -0.444242584965
456840000 0.67107702215 -0.444503372001
456850000 0.67086022753 -0.444503708568
456860000 0.669849159293 -0.444126336489
456870000 0.669572510695 -0.444104477787
456880000 0.670212812825 -0.444655741554
456890000 0.670032541221 -0.444165593955
456900000 0.670453532303 -0.444677378779
456910000 0.669620676514 -0.444317202807
456920000 0.67016620125 -0.444351547118
456930000 0.670041928961 -0.444325940598
456940000 0.669983278478 -0.444596587949
456950000 0.670166483315 -0.445436981806
456960000 0.669719079422 -0.445398632079
456970000 0.670349965852 -0.445175105734
456980000 0.670476528899 -0.444936450113
456990000 0.669603716227 -0.444771542629
457000000 0.669460226649 -0.444901514544
457010000 0.66989418127 -0.444820649538
457020000 0.670066604814 -0.444856906141
457030000 0.670161690025 -0.445075901905
457040000 0.670485051561 -0.444735498556
457050000 0.669839501129 -0.444803355398
457060000 0.669664210251 -0.444697870556
457070000 0.669246975604 -0.445101626882
457080000 0.669349163926 -0.4451122621
457090000 0.669527852312 -0.444876165262
457100000 0.669585887075 -0.444603959826
457110000 0.669829424558 -0.445328944349
457120000 0.669530061394 -0.445628783606
457130000 0.669787065734 -0.44600295015
457140000 0.66948946272 -0.445577486856
457150000 0.669799393124 -0.445737907353
457160000 0.669396245274 -0.445833935528
457170000 0.669927722269 -0.445548190472
457180000 0.670127831563 -0.444976407332
457190000 0.67018331791 -0.444915158253
457200000 0.669702898068 -0.445330086116
457210000 0.670018061917 -0.445063040893
457220000 0.669922024915 -0.445084396352
457230000 0.670635465939 -0.445317240467
457240000 0.670031955387 -0.44508516511
457250000 0.671000457361 -0.445151531802
457260000 0.669687454856 -0.44574649678
457270000 0.669413142144 -0.4456397811
457280000 0.669145307485 -0.445426012176
457290000 0.669677706438 -0.445632521111
457300000 0.669772452694 -0.445839081941
457310000 0.669762998455 -0.445294820881
457320000 0.669503860538 -0.445435154267
457330000 0.669846060192 -0.445563449168
457340000 0.668927403703 -0.445338899579
457350000 0.669543254614 -0.445183151652
457360000 0.669355987607 -0.444870758844
457370000 0.669331269462 -0.445770865454
457380000 0.668995842221 -0.445671606787
457390000 0.669375648927 -0.446064604557
457400000 0.669678267754 -0.445668706129
457410000 0.669557837415 -0.446054159888
457420000 0.669266107928 -0.445368944976
457430000 0.669108008475 -0.445678268178
457440000 0.669015762098 -0.445136329186
457450000 0.669343296309 -0.445648206027
457460000 0.669309561667 -0.445652838731
457470000 0.669457956176 -0.445074381022
457480000 0.669752871841 -0.445919750594
457490000 0.66902126484 -0.445107868047
457500000 0.668847211865 -0.445534376139
457510000 0.668868168702 -0.446039240953
457520000 0.669038912459 -0.44629064288
457530000 0.66948450385 -0.446561053118
457540000 0.66874579081 -0.446317815239
457550000 0.668906914505 -0.445826290412
457560000 0.667951446704 -0.445817460414
457570000 0.669060218748 -0.4450859319
457580000 0.670216375137 -0.443746367414
457590000 0.670736710277 -0.44319111467
457600000 0.670429216197 -0.444232503806
457610000 0.66944716412 -0.445099545909
457620000 0.669458886269 -0.445409671364
457630000 0.669626856221 -0.445425393889
457640000 0.668978413086 -0.445477193877
457650000 0.669321172639 -0.44533003494
457660000 0.669642340623 -0.445652530476
457670000 0.669231058202 -0.445676475433
457680000 0.669594137003 -0.445708163664
457690000 0.66928813047 -0.44539997854
457700000 0.669273229024 -0.445961948933
457710000 0.668620024902 -0.446095308998
457720000 0.668576588578 -0.445842257227
457730000 0.668288152752 -0.44636634591
457740000 0.668623094022 -0.446513045924
457750000 0.669084362319 -0.446205087773
457760000 0.669388591486 -0.446284898451
457770000 0.669347672994 -0.446092842114
457780000 0.669045013994 -0.446267020046
457790000 0.669344356664 -0.446017263301
457800000 0.66900967202 -0.445788589491
457810000 0.669019783198 -0.445962959686
457820000 0.668723953244 -0.445885359627
457830000 0.668743507186 -0.446145354933
457840000 0.668737286016 -0.446472142908
457850000 0.668837946978 -0.446732248503
457860000 0.668520745001 -0.446273783571
457870000 0.668742529836 -0.446045581634
457880000 0.669353715411 -0.446181172931
457890000 0.669319564785 -0.446083116275
457900000 0.669723881112 -0.446626677006
457910000 0.669998025394 -0.44754410419
457920000 0.669336425941 -0.446452213671
457930000 0.668646345045 -0.446027393784
457940000 0.668277362378 -0.446153106956
457950000 0.668648432973 -0.446674044253
457960000 0.668673183289 -0.446354612574
457970000 0.668162084041 -0.446561621322
457980000 0.668492387189 -0.446533769733
457990000 0.668150552277 -0.447120241562
458000000 0.667800621017 -0.446959099728
458010000 0.668119122439 -0.446678278898
458020000 0.668022385957 -0.446638225723
458030000 0.668765369218 -0.446523850481
458040000 0.668991238648 -0.447220541387
458050000 0.668996608456 -0.447175295054
458060000 0.668833197438 -0.447229260008
458070000 0.668631676621 -0.446525242376
458080000 0.668452450277 -0.444829562468
458090000 0.668747814316 -0.446513721702
458100000 0.668763055744 -0.446611606251
458110000 0.669469626026 -0.446708410769
458120000 0.668758400622 -0.445854813113
458130000 0.669170497609 -0.445514767364
458140000 0.668862007504 -0.445236474417
458150000 0.669064162012 -0.44548228005
458160000 0.669380312192 -0.445798288306
458170000 0.669158808681 -0.446318383265
458180000 0.668706558868 -0.446356022576
458190000 0.668331173669 -0.446941874789
458200000 0.668194706174 -0.446769056031
458210000 0.668460647823 -0.446702481294
458220000 0.668874269908 -0.446703086557
458230000 0.668747482616 -0.446982589287
458240000 0.668094086956 -0.447038335041
458250000 0.668002648834 -0.447543248203
458260000 0.668359833899 -0.447136375485
458270000 0.668050687877 -0.446999439023
458280000 0.668006475984 -0.446519137702
458290000 0.668289081469 -0.446597320793
458300000 0.668556307639 -0.447328816433
458310000 0.668172747098 -0.447240048501
458320000 0.668581211571 -0.447169124865
458330000 0.668461113167 -0.447340468424
458340000 0.668291400734 -0.447178556557
458350000 0.66876708648 -0.447882732148
458360000 0.668809614517 -0.447244677705
458370000 0.66938402522 -0.44663347462
458380000 0.668311857133 -0.446920643193
458390000 0.66851872071 -0.447095666949
458400000 0.667747259216 -0.446961087848
458410000 0.66756617013 -0.447055888071
458420000 0.668262843781 -0.4466936124
458430000 0.667855537999 -0.446589367023
458440000 0.668275053701 -0.446835184486
458450000 0.668805714595 -0.446776686602
458460000 0.668302856385 -0.447131204398
458470000 0.667963121952 -0.447647875101
458480000 0.66751276767 -0.448247591744
458490000 0.667346189879 -0.448053569493
458500000 0.66848455614 -0.449669966628
458510000 0.667195137098 -0.44852083244
458520000 0.667583162683 -0.448524109416
458530000 0.667597924771 -0.448642200988
458540000 0.667472318549 -0.448179285709
458550000 0.667358967412 -0.448048094728
458560000 0.667960742661 -0.448353030239
458570000 0.668211537933 -0.448233898622
458580000 0.668290425967 -0.447848334877
458590000 0.668722228719 -0.446918483871
458600000 0.667958354346 -0.446842890031
458610000 0.668767868551 -0.446831878417
458620000 0.668018487071 -0.446870293587
458630000 0.668254035593 -0.447986590969
458640000 0.667967061379 -0.447406333693
458650000 0.667779069732 -0.447209860257
458660000 0.668596070153 -0.447123523443
458670000 0.668075778458 -0.447717994136
458680000 0.668545645751 -0.447046512287
458690000 0.667584200864 -0.447391343959
458700000 0.667869964032 -0.447200483036
458710000 0.66797352499 -0.447441730188
458720000 0.667954094973 -0.447927233508
458730000 0.667607622958 -0.447310427565
458740000 0.668160841435 -0.447824483277
458750000 0.667784327414 -0.448080390622
458760000 0.668243204109 -0.44795697326
458770000 0.667765564561 -0.448049242328
458780000 0.66725035002 -0.448023220262
458790000 0.667450174783 -0.447778140306
458800000 0.66689647059 -0.447207879073
458810000 0.66656074985 -0.446702733604
458820000 0.665732926331 -0.446001452073
458830000 0.666545286202 -0.446624935301
458840000 0.666479966383 -0.447827717161
458850000 0.667158176427 -0.448449249736
458860000 0.667066360685 -0.449006928383
458870000 0.6675377529 -0.448344449357
458880000 0.667289960435 -0.448019062331
458890000 0.667570897125 -0.448024710183
458900000 0.667902447557 -0.448250632538
458910000 0.668143292235 -0.44867341395
458920000 0.668043938349 -0.448100040689
458930000 0.667681287268 -0.448839915581
458940000 0.667753996732 -0.448304029685
458950000 0.667687547275 -0.448399541843
458960000 0.667877796837 -0.44876537592
458970000 0.668011666011 -0.448602240574
458980000 0.667791741673 -0.44836534964
458990000 0.666996243685 -0.448331928774
459000000 0.667610046422 -0.44933631411
459010000 0.667645393761 -0.44834193952
459020000 0.668456819677 -0.448315972874
459030000 0.668122558393 -0.448553462402
459040000 0.668023923721 -0.447939284373
459050000 0.667966416249 -0.448196478813
459060000 0.667701709764 -0.448193003799
459070000 0.66709105613 -0.448850787699
459080000 0.666900064044 -0.449038230914
459090000 0.666750167839 -0.449062388679
459100000 0.666802702175 -0.448664886191
459110000 0.667415675157 -0.448286409705
459120000 0.666852227618 -0.448272448419
459130000 0.666882081993 -0.448189206099
459140000 0.667991657935 -0.448673304416
459150000 0.667851974713 -0.448423410981
459160000 0.667146533631 -0.44815206579
459170000 0.667091287349 -0.44743080997
459180000 0.667501688669 -0.448230672856
459190000 0.667650118713 -0.448135957753
459200000 0.667430112246 -0.448030124232
459210000 0.667949293556 -0.448434078435
459220000 0.667236075408 -0.449499667425
459230000 0.66737531283 -0.449019096409
459240000 0.667493914652 -0.448771666936
459250000 0.667644685213 -0.448146044686
459260000 0.668192567409 -0.448232863692
459270000 0.667609998171 -0.449241204887
459280000 0.667639512714 -0.448829460517
459290000 0.667562141156 -0.449599195043
459300000 0.667162752181 -0.449816540153
459310000 0.666979270132 -0.449717701139
459320000 0.659631718977 -0.441600040733
459330000 0.666994486138 -0.448577034907
459340000 0.667033692954 -0.448229016652
459350000 0.667300567769 -0.448489935313
459360000 0.667074750543 -0.448883824609
459370000 0.666720084845 -0.448913733036
459380000 0.666994286313 -0.448403140302
459390000 0.667153682471 -0.448676512828
459400000 0.66795876583 -0.448539593716
459410000 0.667484343096 -0.448687508303
459420000 0.667631881132 -0.44882992539
459430000 0.666670225476 -0.448963773557
459440000 0.667714452111 -0.448680069052
459450000 0.667261622745 -0.449138950855
459460000 0.667067552683 -0.448951497269
459470000 0.667050653625 -0.449230958073
459480000 0.667038538743 -0.449271183989
459490000 0.66712817596 -0.449258361538
459500000 0.667403190598 -0.448948091387
459510000 0.667614390987 -0.448720489342
459520000 0.667252273289 -0.44912741647
459530000 0.667212411536 -0.449306513112
459540000 0.666828526191 -0.448956708079
459550000 0.666400975771 -0.44960763303
459560000 0.666409854477 -0.449112777353
459570000 0.666811763264 -0.449556478879
459580000 0.666996906271 -0.449485455776
459590000 0.667030469788 -0.448995692289
459600000 0.667024507501 -0.448814396597
459610000 0.666761103232 -0.448617524615
459620000 0.667523912289 -0.449049499105
459630000 0.667999635046 -0.44935857349
459640000 0.666919238193 -0.449283307661
459650000 0.666642012779 -0.44998532755
459660000 0.666552727934 -0.449882694902
459670000 0.666742838902 -0.450046185144
459680000 0.667052065142 -0.449890969371
459690000 0.667366462035 -0.449428679863
459700000 0.667139055477 -0.449434917918
459710000 0.667161931915 -0.448628159264
459720000 0.667417814933 -0.44905925752
459730000 0.667297627672 -0.449211007011
459740000 0.667199131552 -0.449385598764
459750000 0.666621778998 -0.449183948617
459760000 0.666920021996 -0.449503359357
459770000 0.666847826194 -0.449450241491
459780000 0.667719538842 -0.448533796692
459790000 0.669238539572 -0.448359550992
459800000 0.671301035351 -0.448319725417
459810000 0.67034181343 -0.448339464968
459820000 0.668621104821 -0.449239079378
459830000 0.666968819514 -0.449747862357
459840000 0.666714417051 -0.44973262171
459850000 0.666642423239 -0.450017821518
459860000 0.666953510622 -0.449570841181
459870000 0.666420389465 -0.449941764631
459880000 0.666889014058 -0.449666744174
459890000 0.666634737347 -0.44943109538
459900000 0.667528263547 -0.449927630383
459910000 0.667417025391 -0.450183373446
459920000 0.667466963548 -0.45041530076
459930000 0.667234412362 -0.450104097227
459940000 0.666975600431 -0.449950776163
459950000 0.666547366645 -0.449599865215
459960000 0.666301238127 -0.450022019855
459970000 0.666104195217 -0.450445505004
459980000 0.666132814898 -0.450161052302
459990000 0.6662961894 -0.450119271337
460000000 0.666951628157 -0.450357983735
460010000 0.666960548839 -0.449754465416
460020000 0.666604120638 -0.450373665683
460030000 0.666634202726 -0.450137881492
460040000 0.666721242933 -0.450523342911
460050000 0.666213900702 -0.450336254934
460060000 0.666235679751 -0.449941754926
460070000 0.66661987413 -0.450044062013
460080000 0.66655708044 -0.449768648361
460090000 0.666729807997 -0.449658666014
460100000 0.666614933075 -0.450037224703
460110000 0.666197736329 -0.45020277053
460120000 0.666059994467 -0.450421352359
460130000 0.665853495015 -0.450112976275
460140000 0.666275386386 -0.449592539361
460150000 0.666901357985 -0.449490672408
460160000 0.666658717086 -0.450168179277
460170000 0.666654869842 -0.450495802276
460180000 0.666369632332 -0.450380207476
460190000 0.666178313338 -0.450211201095
460200000 0.666168999261 -0.449918701594
460210000 0.665636606551 -0.4501667921
460220000 0.665487761682 -0.450133415524
460230000 0.664958813649 -0.450436235135
460240000 0.665801236507 -0.450329985656
460250000 0.666691001884 -0.450727146632
460260000 0.666099595605 -0.450420337585
460270000 0.666429162977 -0.450323690999
460280000 0.666364221842 -0.451004249603
460290000 0.665743768377 -0.450907974845
460300000 0.665202381668 -0.450558818501
460310000 0.665592993224 -0.451072923105
460320000 0.665508033151 -0.45065573174
460330000 0.665078479089 -0.450726619831
460340000 0.665359682013 -0.450502810281
460350000 0.66543927955 -0.45064606791
460360000 0.664945565974 -0.451059406857
460370000 0.665294480357 -0.45142262249
460380000 0.665646314995 -0.452060231154
460390000 0.665010458701 -0.454076079357
460400000 0.661790262659 -0.45470614279
460410000 0.665464544195 -0.455171982585
460420000 0.665455106069 -0.453914091226
460430000 0.665782191817 -0.452604458644
460440000 0.665330209181 -0.451676109934
460450000 0.665747250058 -0.451104072258
460460000 0.665644382586 -0.451409072687
460470000 0.665516225731 -0.450586465432
460480000 0.666166630063 -0.450448515447
460490000 0.665905039438 -0.450301441679
460500000 0.666114263386 -0.450461060215
460510000 0.665652794316 -0.450352361058
460520000 0.665856760609 -0.451305436851
460530000 0.665747087442 -0.450950231346
460540000 0.665285609874 -0.45065509266
460550000 0.665058043894 -0.450375018213
460560000 0.665405080471 -0.445731017527
460570000 0.667504563997 -0.445510915048
460580000 0.66827670053 -0.444282186825
460590000 0.667253392058 -0.446601807918
460600000 0.666481135881 -0.448641968798
460610000 0.665597235893 -0.451565848942
460620000 0.665434159478 -0.451094428589
460630000 0.665605376066 -0.451412483754
460640000 0.666060585666 -0.452421688127
460650000 0.665859884417 -0.451175995286
460660000 0.666054925706 -0.45156161507
460670000 0.666112478546 -0.451067132898
460680000 0.665703670526 -0.45085698116
460690000 0.665841708119 -0.450974981377
460700000 0.6657131885 -0.450672868909
460710000 0.665230804291 -0.450684830661
460720000 0.665138881101 -0.451239331372
460730000 0.665386476302 -0.451176625099
460740000 0.665496220521 -0.45185959155
460750000 0.665655335098 -0.451355214262
460760000 0.665564620907 -0.451859691649
460770000 0.664824820404 -0.451854431352
460780000 0.665010232323 -0.452053193694
460790000 0.664724574169 -0.451216897071
460800000 0.664696305351 -0.451118499675
460810000 0.664190194732 -0.450321192856
460820000 0.664634080604 -0.451061892861
460830000 0.664313538037 -0.451350897208
460840000 0.664858050059 -0.451917240442
460850000 0.664697602305 -0.452133196923
460860000 0.665007724945 -0.45168695549
460870000 0.665376097351 -0.452385999537
460880000 0.665495361497 -0.451131161697
460890000 0.665377669553 -0.450649415959
460900000 0.665464158679 -0.45096462034
460910000 0.665395918338 -0.450848898235
460920000 0.664803097363 -0.451835711051
460930000 0.664759999309 -0.451593997092
460940000 0.664899241803 -0.451716778733
460950000 0.664699713498 -0.452657938342
460960000 0.664860024435 -0.452307278266
460970000 0.664727685187 -0.451708569785
460980000 0.664908322766 -0.451007707793
460990000 0.664920635948 -0.45170935984
461000000 0.665482965967 -0.451694577219
461010000 0.665040865674 -0.452572688435
461020000 0.665181594406 -0.452317226134
461030000 0.665540347743 -0.452329818803
461040000 0.66519404389 -0.452580059491
461050000 0.665438561037 -0.451937177733
461060000 0.664925313666 -0.451857389009
461070000 0.664548407962 -0.451838459777
461080000 0.665047070072 -0.45197553301
461090000 0.664410167999 -0.451872551874
461100000 0.664659898178 -0.452071300494
461110000 0.665123138344 -0.452110008298
461120000 0.664800949577 -0.452236507299
461130000 0.665657315708 -0.452429835905
461140000 0.664793551573 -0.452538117386
461150000 0.664294944437 -0.452341158555
461160000 0.663847879568 -0.452132191661
461170000 0.664366863699 -0.452355184442
461180000 0.663528817674 -0.451947638366
461190000 0.664974030546 -0.452104988167
461200000 0.664832353479 -0.452253493702
461210000 0.664346692463 -0.452316631973
461220000 0.664393373192 -0.452115439806
461230000 0.664671106507 -0.452224167132
461240000 0.66437418915 -0.452133232247
461250000 0.664478818688 -0.452032399313
461260000 0.664287297271 -0.452211845354
461270000 0.664267044659 -0.45227943381
461280000 0.664294251619 -0.452662931911
461290000 0.664666796814 -0.452295858062
461300000 0.664572445674 -0.452894247561
461310000 0.664510240762 -0.452521027627
461320000 0.664294725844 -0.452921076355
461330000 0.664369241377 -0.452489447535
461340000 0.665115419088 -0.452753936277
461350000 0.664656371457 -0.452128149714
461360000 0.665004513924 -0.452126394539
461370000 0.664296198436 -0.452866990464
461380000 0.664140759919 -0.452492835077
461390000 0.663701971824 -0.45249588755
461400000 0.664383643322 -0.451995257116
461410000 0.664847164671 -0.453008021724
461420000 0.664613327013 -0.452859939592
461430000 0.664475868464 -0.453170808365
461440000 0.664220370195 -0.453432577756
461450000 0.664669438219 -0.452614747773
461460000 0.665090469607 -0.453213178271
461470000 0.665415292823 -0.45342477027
461480000 0.664975112335 -0.452815971573
461490000 0.67161071144 -0.45276558471
461500000 0.664255266237 -0.452991343436
461510000 0.664541479509 -0.452784012817
461520000 0.664355170295 -0.45292090116
461530000 0.664319199622 -0.453401866109
461540000 0.664147366567 -0.453068857942
461550000 0.66384652117 -0.453601946805
461560000 0.663344152163 -0.453704319682
461570000 0.663562100636 -0.452942714942
461580000 0.663704973085 -0.45338187935
461590000 0.663996524138 -0.452612093425
461600000 0.664413308619 -0.453208140752
461610000 0.663732292236 -0.453389996371
461620000 0.664003341093 -0.453589616819
461630000 0.663716739363 -0.45318953309
461640000 0.663301851486 -0.452648219968
461650000 0.663427227646 -0.452955402097
461660000 0.663558069127 -0.452848701403
461670000 0.663019419701 -0.453112746955
461680000 0.663666429732 -0.453347565303
461690000 0.664043312293 -0.452948904647
461700000 0.664042460061 -0.453533443228
461710000 0.664341925373 -0.453716729826
461720000 0.664740796152 -0.453523329263
461730000 0.663886904683 -0.453869224575
461740000 0.663047546186 -0.454580929581
461750000 0.661258221118 -0.454573778674
461760000 0.660359236398 -0.453176947776
461770000 0.661727833674 -0.454459668316
461780000 0.663098448014 -0.454243588559
461790000 0.663705159675 -0.454428800635
461800000 0.663398762174 -0.454710487091
461810000 0.663845942804 -0.454166113658
461820000 0.664001024871 -0.454235615356
461830000 0.663338381977 -0.454178513317
461840000 0.663684717425 -0.453954412277
461850000 0.663062353213 -0.453946350784
461860000 0.663589258732 -0.453737084699
461870000 0.663137684273 -0.453699370803
461880000 0.663382450548 -0.454048234572
461890000 0.663295578871 -0.453456134071
461900000 0.663216707858 -0.453096918492
461910000 0.663335092995 -0.45354551815
461920000 0.663693005399 -0.454073263701
461930000 0.663847569806 -0.453953491127
461940000 0.663346176219 -0.453877183385
461950000 0.6639959977 -0.45452590091
461960000 0.663499786449 -0.453994640782
461970000 0.663875235258 -0.454116199695
461980000 0.664182021607 -0.45459501152
461990000 0.664092460682 -0.454120289926
462000000 0.664184938124 -0.454119497828
462010000 0.664302717636 -0.454549190632
462020000 0.663660978097 -0.453625890139
462030000 0.66364605947 -0.453815479294
462040000 0.663249013023 -0.454095672071
462050000 0.663102364787 -0.454603808863
462060000 0.663308976868 -0.454775905222
462070000 0.663170108678 -0.452491043225
462080000 0.659515091581 -0.453463037672
462090000 0.66249648656 -0.455989458227
462100000 0.662898047968 -0.456102646058
462110000 0.664541694867 -0.454305018071
462120000 0.663024885574 -0.453731646882
462130000 0.664458474585 -0.455860283675
462140000 0.661995896595 -0.454388693575
462150000 0.662990007797 -0.453992066044
462160000 0.662751335027 -0.453561104838
462170000 0.664867878967 -0.454778334864
462180000 0.663986055088 -0.455098112583
462190000 0.662854359146 -0.457789657009
462200000 0.660772198415 -0.457494220123
462210000 0.658602475934 -0.459444164076
462220000 0.656507983342 -0.463818200088
462230000 0.662133585526 -0.462304752906
462240000 0.6644198103 -0.459038263437
462250000 0.662908978154 -0.453465637173
462260000 0.663754482761 -0.454817888834
462270000 0.662683125502 -0.453851105254
462280000 0.66244792491 -0.455776286139
462290000 0.663118874733 -0.452849035093
462300000 0.662927370536 -0.454822403442
462310000 0.66159688397 -0.454992008937
462320000 0.664645756924 -0.456792698396
462330000 0.661907610806 -0.454319177981
462340000 0.661693501833 -0.45806583925
462350000 0.664378950092 -0.454368190932
462360000 0.667229718521 -0.454851014644
462370000 0.662789391204 -0.453235940439
462380000 0.664413506044 -0.453119698351
462390000 0.664565473242 -0.455422410444
462400000 0.663980347493 -0.454544207964
462410000 0.662165044779 -0.453923203496
462420000 0.660347115422 -0.451524413215
462430000 0.661705511392 -0.456178967127
462440000 0.662520143136 -0.457579758273
462450000 0.660436424613 -0.455933814447
462460000 0.662820109382 -0.454009650416
462470000 0.662879110532 -0.455192706162
462480000 0.662546370564 -0.453725981623
462490000 0.660345631073 -0.456495398098
462500000 0.6654489186 -0.452781588979
462510000 0.662443265529 -0.452755019744
462520000 0.664348071691 -0.454947986088
462530000 0.663574914656 -0.45549817808
462540000 0.661524275597 -0.457560213154
462550000 0.661559034267 -0.455686104388
462560000 0.662882631523 -0.455172461473
462570000 0.663400609107 -0.456536358748
462580000 0.663473653695 -0.456602652698
462590000 0.663807793106 -0.457081414777
462600000 0.66475125831 -0.454851265778
462610000 0.664455810974 -0.455187850566
462620000 0.66224841528 -0.457016222327
462630000 0.660312082589 -0.453945472331
462640000 0.6629558689 -0.456006457447
462650000 0.659729431074 -0.456918505955
462660000 0.662952123903 -0.455749376784
462670000 0.664625657322 -0.455775539333
462680000 0.662414330723 -0.457224086097
462690000 0.663108152181 -0.458616822462
462700000 0.661967467057 -0.456463506289
462710000 0.663907962663 -0.456225845792
462720000 0.662413080031 -0.454681116402
462730000 0.663590384814 -0.456556773231
462740000 0.663012191421 -0.455674884139
462750000 0.664843364891 -0.456173295254
462760000 0.663176049373 -0.45534414574
462770000 0.662215062791 -0.455641582359
462780000 0.662151512696 -0.455244838501
462790000 0.662808873005 -0.455281009971
462800000 0.662854412325 -0.455898322051
462810000 0.6629623104 -0.456609545236
462820000 0.662036793189 -0.455956057453
462830000 0.661450885984 -0.456644904767
462840000 0.662312118776 -0.456563506157
462850000 0.6627541025 -0.456016551121
462860000 0.662684877641 -0.456156835238
462870000 0.661990314345 -0.45572790685
462880000 0.663080191965 -0.454373280795
462890000 0.662077275084 -0.455514828863
462900000 0.66265689632 -0.456123207784
462910000 0.662516976256 -0.455849172696
462920000 0.661739890151 -0.45564219837
462930000 0.661666786978 -0.455904313166
462940000 0.661315038554 -0.456101140319
462950000 0.662423915189 -0.455841734794
462960000 0.662112195293 -0.456459847531
462970000 0.661963818461 -0.456162367949
462980000 0.662036250209 -0.456119062089
462990000 0.662769398919 -0.455853985042
463000000 0.662651385915 -0.455840539342
463010000 0.66282991245 -0.456424842466
463020000 0.662620846073 -0.456615642239
463030000 0.662207064859 -0.456754024195
463040000 0.661912801595 -0.456486296921
463050000 0.661933683224 -0.456559921767
463060000 0.662247968371 -0.456697289736
463070000 0.663006072543 -0.456274897517
463080000 0.663020698565 -0.456559039212
463090000 0.662247281088 -0.455966520949
463100000 0.6624875943 -0.455506370201
463110000 0.661342548213 -0.455955506336
463120000 0.658591039829 -0.455748485692
463130000 0.661279840913 -0.456405730311
463140000 0.661199079463 -0.4568158993
463150000 0.662147799253 -0.45684418345
463160000 0.662345035446 -0.457070008936
463170000 0.662215274627 -0.457263258714
463180000 0.661739045448 -0.456982512708
463190000 0.66173237861 -0.457149893586
463200000 0.661578743012 -0.456757861798
463210000 0.662470553831 -0.457459266672
463220000 0.663416264049 -0.458216235719
463230000 0.66310040502 -0.457864447125
463240000 0.662826310356 -0.457074825045
463250000 0.66183358031 -0.456621524744
463260000 0.661872828254 -0.456648547742
463270000 0.661517489423 -0.456691748238
463280000 0.661696478676 -0.456609652791
463290000 0.661485992519 -0.457152054915
463300000 0.661197615404 -0.457292394802
463310000 0.661653765775 -0.457461995522
463320000 0.661618154555 -0.456681226465
463330000 0.661608018188 -0.456855769747
463340000 0.661728617476 -0.456242992209
463350000 0.661538866948 -0.456579236541
463360000 0.661649485429 -0.456758029921
463370000 0.661211819764 -0.457585277297
463380000 0.66081150161 -0.456910161209
463390000 0.66038430489 -0.456389645064
463400000 0.660834667018 -0.456120793833
463410000 0.660778445219 -0.457171790553
463420000 0.660980689136 -0.457217542523
463430000 0.661350547765 -0.457188210064
463440000 0.661107133978 -0.457967967749
463450000 0.660702442786 -0.457549941593
463460000 0.660526654383 -0.457325191292
463470000 0.661288163625 -0.457669547374
463480000 0.661151408529 -0.456752021077
463490000 0.660739370804 -0.456967716187
463500000 0.660664945885 -0.456927501751
463510000 0.660615979672 -0.457370329946
463520000 0.66066920436 -0.457233842428
463530000 0.661112074874 -0.456950027538
463540000 0.661489365947 -0.45684492048
463550000 0.661021312668 -0.457278008161
463560000 0.661271698524 -0.457633350883
463570000 0.660987784375 -0.458478460128
463580000 0.660891557567 -0.458212999963
463590000 0.661015781615 -0.458430060494
463600000 0.660719478359 -0.458161501
463610000 0.660590784828 -0.457777094707
463620000 0.660958879843 -0.457417440893
463630000 0.660895424259 -0.456494420144
463640000 0.661555217114 -0.454458720999
463650000 0.662044770808 -0.452626846464
463660000 0.662769803337 -0.453007103407
463670000 0.661619717546 -0.455006939194
463680000 0.662015504908 -0.457181100251
463690000 0.661607246743 -0.457995682159
463700000 0.661602443275 -0.457820152451
463710000 0.661317599759 -0.458015114596
463720000 0.661077023012 -0.458477515481
463730000 0.661151883041 -0.457805933107
463740000 0.660557347952 -0.45775715788
463750000 0.660461573232 -0.457888733785
463760000 0.659948030364 -0.457978612209
463770000 0.659316389445 -0.458513016051
463780000 0.659876167964 -0.456960083941
463790000 0.660300493723 -0.457607114347
463800000 0.66049107698 -0.458384117495
463810000 0.660935254432 -0.458516829325
463820000 0.660907657402 -0.458577002776
463830000 0.660383077356 -0.458654430555
463840000 0.660182425378 -0.458524638616
463850000 0.660136504883 -0.458360456459
463860000 0.660003846428 -0.458274389121
463870000 0.660074573019 -0.458584098454
463880000 0.660116214019 -0.458868343456
463890000 0.660329555386 -0.45935483305
463900000 0.660418491069 -0.45906486424
463910000 0.660847824886 -0.458799102689
463920000 0.66079849478 -0.458644823145
463930000 0.66067530815 -0.457970391605
463940000 0.660808232343 -0.457945762756
463950000 0.660818723369 -0.460146184758
463960000 0.661795014042 -0.46272710528
463970000 0.662412828004 -0.46474867148
463980000 0.662095766767 -0.463817516639
463990000 0.66077446427 -0.461650996229
464000000 0.660343534368 -0.459306685439
464010000 0.660442317762 -0.459114781896
464020000 0.660137487368 -0.45855242517
464030000 0.659996307735 -0.458011484114
464040000 0.659983749254 -0.45841515777
464050000 0.66075363235 -0.458832327382
464060000 0.661035485452 -0.45913076153
464070000 0.660816113164 -0.458794296345
464080000 0.660247985763 -0.459215059438
464090000 0.660718509166 -0.45893843508
464100000 0.66069784294 -0.459341310857
464110000 0.660504273656 -0.458741193062
464120000 0.660536897772 -0.459020885453
464130000 0.660645943919 -0.45866761032
464140000 0.660965025317 -0.458077650598
464150000 0.660900365163 -0.458167912728
464160000 0.660987380955 -0.458704156825
464170000 0.660843060287 -0.458691766266
464180000 0.66044594746 -0.458947373703
464190000 0.660321256436 -0.45902167523
464200000 0.660012261913 -0.459041459524
464210000 0.660188485946 -0.459107520237
464220000 0.659674134269 -0.459311545253
464230000 0.659845062098 -0.459518667293
464240000 0.659382555675 -0.45948334708
464250000 0.659280165695 -0.459337765607
464260000 0.658824607346 -0.459327025219
464270000 0.65974003923 -0.459042621045
464280000 0.660592388268 -0.458946899933
464290000 0.661235019398 -0.459131629788
464300000 0.660940519281 -0.459067199421
464310000 0.660344494611 -0.458933166196
464320000 0.659998868438 -0.459142277712
464330000 0.660072920632 -0.45940412692
464340000 0.660004691167 -0.459983514022
464350000 0.659646337647 -0.459952836644
464360000 0.660668662616 -0.459512096444
464370000 0.659318412895 -0.459178243414
464380000 0.660015910134 -0.459828773215
464390000 0.660266787251 -0.459276544353
464400000 0.660181691203 -0.459159804417
464410000 0.660022481386 -0.459158961202
464420000 0.659542787134 -0.459235631897
464430000 0.659768674387 -0.459519496291
464440000 0.659804079924 -0.459469537933
464450000 0.660115139525 -0.459656945865
464460000 0.659906735833 -0.460339479509
464470000 0.660066682951 -0.46035582645
464480000 0.66002635538 -0.459993023958
464490000 0.659934140394 -0.460028788596
464500000 0.659940268966 -0.460109116498
464510000 0.659628891772 -0.460267968069
464520000 0.65973147741 -0.460489332597
464530000 0.658437625767 -0.460989424007
464540000 0.656731814753 -0.462484414908
464550000 0.656739350338 -0.462292060522
464560000 0.658064969063 -0.461335010672
464570000 0.659267409072 -0.46089320326
464580000 0.659770710363 -0.459871233738
464590000 0.659823567212 -0.460076048814
464600000 0.659834576616 -0.460263915236
464610000 0.659598664626 -0.460875015485
464620000 0.662052124786 -0.461044965181
464630000 0.659192258163 -0.460113737712
464640000 0.659234426183 -0.46017776843
464650000 0.659592287157 -0.460544015825
464660000 0.65990269841 -0.460991035397
464670000 0.659490874982 -0.460915878222
464680000 0.659922143245 -0.461111176827
464690000 0.659965061788 -0.461212439608
464700000 0.66038798927 -0.460311253515
464710000 0.659699881722 -0.460537773396
464720000 0.659150782947 -0.460019083782
464730000 0.659932602939 -0.460149227774
464740000 0.659610859344 -0.460188653626
464750000 0.6594783277 -0.459350665153
464760000 0.659445522403 -0.460068166852
464770000 0.659357167146 -0.46044505815
464780000 0.659142197641 -0.460298136535
464790000 0.659045141466 -0.460675275892
464800000 0.658692231357 -0.460813531276
464810000 0.658960070742 -0.460568891887
464820000 0.659383140391 -0.460388473957
464830000 0.659666098865 -0.460527617659
464840000 0.659351293862 -0.459967453116
464850000 0.659180983972 -0.460204709042
464860000 0.658877819053 -0.459848925345
464870000 0.659538056059 -0.459921606044
464880000 0.65863446972 -0.460167972115
464890000 0.658412276306 -0.459759887479
464900000 0.65829012827 -0.460151777786
464910000 0.658501538408 -0.460824706325
464920000 0.658321677117 -0.460707489502
464930000 0.658363103795 -0.46064645978
464940000 0.6575801116 -0.460508085093
464950000 0.657329270956 -0.46077264709
464960000 0.657855246022 -0.460713834356
464970000 0.658160937507 -0.460680205752
464980000 0.658594304318 -0.460851737842
464990000 0.658481163859 -0.461231071752
465000000 0.658387273644 -0.460518917441
465010000 0.658203617244 -0.460724065891
465020000 0.658572590368 -0.461317806272
465030000 0.658401109345 -0.461238388581
465040000 0.658673516486 -0.461481074396
465050000 0.658425438297 -0.461098276904
465060000 0.658059349884 -0.461174521727
465070000 0.657937541822 -0.461023875502
465080000 0.658429564119 -0.461251056996
465090000 0.658370962243 -0.46155001805
465100000 0.658176837317 -0.461962039095
465110000 0.658118680329 -0.461518218487
465120000 0.658128109877 -0.462223591656
465130000 0.658436814275 -0.46147582775
465140000 0.657733882292 -0.461427704337
465150000 0.657770886856 -0.46112007152
465160000 0.657861306533 -0.461334569526
465170000 0.658475900865 -0.461591633552
465180000 0.658570317749 -0.461859364159
465190000 0.658522903386 -0.461664634001
465200000 0.658128081129 -0.461897555242
465210000 0.658000234682 -0.461879383775
465220000 0.657392968929 -0.461260558147
465230000 0.657392413894 -0.461373983627
465240000 0.657476751011 -0.461326533279
465250000 0.657685935481 -0.462199151976
465260000 0.658237659973 -0.46277958202
465270000 0.658496481359 -0.462630766297
465280000 0.658365622422 -0.462427594718
465290000 0.658583915499 -0.462105843504
465300000 0.658205125323 -0.461257337737
465310000 0.657905095263 -0.461901685533
465320000 0.657726426776 -0.461852770103
465330000 0.658523097504 -0.462182770262
465340000 0.658751951466 -0.462369707714
465350000 0.659225051969 -0.462769090817
465360000 0.658836097732 -0.46274020897
465370000 0.658492737662 -0.462022140826
465380000 0.657374383145 -0.461646869533
465390000 0.657780103815 -0.461615139871
465400000 0.657808166951 -0.46099002559
465410000 0.65790438102 -0.461679969897
465420000 0.657878328458 -0.462009222036
465430000 0.657637174529 -0.462120368862
465440000 0.657541555671 -0.461956685282
465450000 0.657442621288 -0.46213507803
465460000 0.657343672448 -0.461482302078
465470000 0.658059446694 -0.461245594426
465480000 0.657557851689 -0.462175731983
465490000 0.657716079558 -0.462407463575
465500000 0.657363794835 -0.462225390696
465510000 0.657434266191 -0.462323801682
465520000 0.657543513841 -0.46261387123
465530000 0.657580499169 -0.46257681913
465540000 0.657583926526 -0.46218814055
465550000 0.657345347697 -0.462818783744
465560000 0.657637302186 -0.46269751889
465570000 0.657485067314 -0.462621362559
465580000 0.657127968501 -0.462937592536
465590000 0.657478660992 -0.462732091426
465600000 0.656941209855 -0.46216083341
465610000 0.657208326439 -0.461903785645
465620000 0.657458337293 -0.462741565356
465630000 0.657074292802 -0.462361716983
465640000 0.658073504368 -0.462928479108
465650000 0.657408503597 -0.462112418301
465660000 0.657409635362 -0.462792133924
465670000 0.656956898671 -0.463412471559
465680000 0.656649921454 -0.463080555151
465690000 0.657303959471 -0.462311998456
465700000 0.657448310472 -0.46243632919
465710000 0.65795805022 -0.463298924064
465720000 0.657301516732 -0.463858258601
465730000 0.657369030883 -0.463380209473
465740000 0.656968810154 -0.463373513092
465750000 0.656776604828 -0.463364738075
465760000 0.657013193072 -0.462593303847
465770000 0.657859929349 -0.463103931232
465780000 0.657116047049 -0.463461649059
465790000 0.674396762572 -0.445343600658
465800000 0.695813274027 -0.419127923572
465810000 0.712343827805 -0.391233626421
465820000 0.701930669733 -0.414148858711
465830000 0.685775011343 -0.439289275914
465840000 0.658136967939 -0.463472804685
465850000 0.658162827115 -0.463241738025
465860000 0.657285562122 -0.463302075992
465870000 0.656645370155 -0.463702199217
465880000 0.656566161531 -0.463533421563
465890000 0.65604083024 -0.463352463241
465900000 0.656298775394 -0.463043286105
465910000 0.656519677288 -0.463991403828
465920000 0.656919754312 -0.464267601417
465930000 0.656910137012 -0.464064798275
465940000 0.6568282408 -0.462750913712
465950000 0.657072586684 -0.463755312446
465960000 0.656784705917 -0.462503822517
465970000 0.656250772192 -0.462950340398
465980000 0.656273378691 -0.462789584128
465990000 0.656559657426 -0.46331639631
466000000 0.656753803432 -0.46369464216
466010000 0.656725601655 -0.463692455983
466020000 0.656738377306 -0.464523072526
466030000 0.656677141165 -0.464395227255
466040000 0.656410586732 -0.463968334606
466050000 0.657014827255 -0.463832930901
466060000 0.6557121277 -0.463957649464
466070000 0.661406280487 -0.462751055067
466080000 0.658304583291 -0.463938499967
466090000 0.656768382874 -0.463891978917
466100000 0.656532856385 -0.46429571997
466110000 0.655882032402 -0.462199106558
466120000 0.656521800563 -0.464042419749
466130000 0.656900271713 -0.463588484293
466140000 0.655483807611 -0.461924935675
466150000 0.656666150637 -0.464011260174
466160000 0.655967154047 -0.465193280858
466170000 0.656259931837 -0.468414679744
466180000 0.655044894657 -0.463153802428
466190000 0.654776440701 -0.463926965908
466200000 0.656459463884 -0.465483696591
466210000 0.653304385835 -0.463604291401
466220000 0.648481954893 -0.458404104383
466230000 0.656489590457 -0.465104914295
466240000 0.655664742291 -0.464142953819
466250000 0.648978161474 -0.459814484694
466260000 0.655860511646 -0.465586246457
466270000 0.655988465188 -0.45904965545
466280000 0.657636930087 -0.461567572525
466290000 0.662218587751 -0.465049984165
466300000 0.655715793018 -0.464833770032
466310000 0.657398100766 -0.457847661516
466320000 0.654997295521 -0.461915081793
466330000 0.656510605544 -0.467270893433
466340000 0.657974316361 -0.468845450745
466350000 0.664158405238 -0.470812162341
466360000 0.664674017624 -0.463174272635
466370000 0.659247710679 -0.463443205808
466380000 0.654295300505 -0.471806109423
466390000 0.662269706389 -0.468496339282
466400000 0.645203971233 -0.465484161211
466410000 0.64285295819 -0.463376858946
466420000 0.651201859456 -0.458122506384
466430000 0.651168682018 -0.468934202697
466440000 0.638379977539 -0.472144393253
466450000 0.650558949718 -0.457495326571
466460000 0.660605769833 -0.469949692011
466470000 0.660903355298 -0.450156590621
466480000 0.656261316017 -0.482407618075
466490000 0.669144243099 -0.465061763581
466500000 0.653957860644 -0.463936784769
466510000 0.649759053054 -0.468234601886
466520000 0.666318131429 -0.473418011479
466530000 0.645810251671 -0.467539873977
466540000 0.664822311587 -0.425003887621
466550000 0.67370635381 -0.474561157164
466560000 0.648560900002 -0.477762005102
466570000 0.677504232408 -0.476975360307
466580000 0.65141284396 -0.465884172358
466590000 0.654120662825 -0.467875922504
466600000 0.650668712415 -0.460861383577
466610000 0.65218883909 -0.467767921785
466620000 0.65469686795 -0.466167490428
466630000 0.656097902478 -0.465214327944
466640000 0.658291922054 -0.463120320247
466650000 0.658584870755 -0.464909523524
466660000 0.65557865822 -0.460290082714
466670000 0.655336182398 -0.464744733791
466680000 0.651050052709 -0.464284338594
466690000 0.652819661283 -0.463889433599
466700000 0.654853473092 -0.465013841962
466710000 0.655508689027 -0.468542545389
466720000 0.654448230634 -0.464424247232
466730000 0.654892650484 -0.46592683531
466740000 0.65506748951 -0.462125749108
466750000 0.655009733183 -0.465407059259
466760000 0.660287788973 -0.469058499983
466770000 0.654324403106 -0.465562439596
466780000 0.651161678001 -0.465827909396
466790000 0.65861193468 -0.465192505987
466800000 0.65459605267 -0.465651356205
466810000 0.651540698202 -0.46951524601
466820000 0.653809176125 -0.465248742644
466830000 0.654799338864 -0.465849936431
466840000 0.654061863801 -0.465377756013
466850000 0.653855092834 -0.465274862644
466860000 0.651853084952 -0.466623106229
466870000 0.655062389156 -0.466789959585
466880000 0.654493056878 -0.46542573762
466890000 0.654784315715 -0.465343233829
466900000 0.654497653906 -0.465121650012
466910000 0.660090150751 -0.469187041175
466920000 0.654651484788 -0.465254242843
466930000 0.653657099389 -0.465518841883
466940000 0.653971003835 -0.465941294055
466950000 0.653955676966 -0.465980504364
466960000 0.655773493143 -0.465276614716
466970000 0.654409746221 -0.465665107835
466980000 0.654287275962 -0.46600824124
466990000 0.654153362368 -0.465946957577
467000000 0.654402679387 -0.466569703693
467010000 0.65456539223 -0.466499395315
467020000 0.654356269523 -0.46680886049
467030000 0.653858730134 -0.466381732729
467040000 0.653953678947 -0.466265191409
467050000 0.653537860652 -0.466673024195
467060000 0.653621003352 -0.466192410943
467070000 0.653857371487 -0.465276850508
467080000 0.653442496763 -0.466090437318
467090000 0.653882531777 -0.466190175799
467100000 0.654190704101 -0.466605688767
467110000 0.654086190558 -0.467168756117
467120000 0.654315999209 -0.466823630156
467130000 0.654112800403 -0.46644962778
467140000 0.653740020483 -0.466942098776
467150000 0.653550281785 -0.466529632194
467160000 0.653023971822 -0.466922747501
467170000 0.65351321226 -0.466891958419
467180000 0.653405572729 -0.466538999232
467190000 0.654063205619 -0.465971038748
467200000 0.653536044002 -0.466494974238
467210000 0.654208097346 -0.466343561038
467220000 0.653704321511 -0.467029097812
467230000 0.653607343332 -0.466620776569
467240000 0.653846677279 -0.466493200219
467250000 0.654070050816 -0.466052604894
467260000 0.653739179621 -0.466384032488
467270000 0.653658590737 -0.465926647447
467280000 0.653245047007 -0.466245547052
467290000 0.65365189884 -0.466654505063
467300000 0.653205874941 -0.467074184798
467310000 0.653324017481 -0.467451410195
467320000 0.653263948482 -0.467586415547
467330000 0.652709337092 -0.467496043508
467340000 0.653937398061 -0.466859112989
467350000 0.653692716212 -0.467247492668
467360000 0.653665380874 -0.467926962292
467370000 0.65358943524 -0.466923093477
467380000 0.653522393215 -0.467680114284
467390000 0.653599951552 -0.467475223182
467400000 0.653286943376 -0.467635025853
467410000 0.654040082668 -0.468200219522
467420000 0.653471434289 -0.467796740666
467430000 0.653394217449 -0.46769067839
467440000 0.653139748384 -0.46734072993
467450000 0.652932270304 -0.467450999617
467460000 0.652783655395 -0.467628671117
467470000 0.653342685066 -0.467436658132
467480000 0.652970994961 -0.467291946994
467490000 0.65308387497 -0.46804345384
467500000 0.653757385206 -0.467870431111
467510000 0.653618208867 -0.467850534941
467520000 0.653278938886 -0.468009859282
467530000 0.65347475229 -0.467920165142
467540000 0.652637418477 -0.467640347245
467550000 0.65248463532 -0.468025851248
467560000 0.65243272712 -0.46751301798
467570000 0.652217472702 -0.467849976469
467580000 0.652850821028 -0.467605454687
467590000 0.652177183176 -0.466993526334
467600000 0.652386561062 -0.467084069755
467610000 0.652807420578 -0.467616985552
467620000 0.652915114657 -0.467662070841
467630000 0.652776985456 -0.46744613798
467640000 0.652859598266 -0.467551133704
467650000 0.652958204085 -0.467331475738
467660000 0.652609922938 -0.467649440357
467670000 0.652818486569 -0.468219140987
467680000 0.652649996431 -0.46772124275
467690000 0.652826404646 -0.468195291766
467700000 0.652578171856 -0.468188372507
467710000 0.653242399617 -0.468338857299
467720000 0.651773469018 -0.468542483016
467730000 0.65248994679 -0.468572929523
467740000 0.652229463134 -0.468469346823
467750000 0.652317127854 -0.468674030737
467760000 0.651781706031 -0.46874282999
467770000 0.652639043813 -0.468392729255
467780000 0.652294050368 -0.468552366691
467790000 0.651824351753 -0.468408892713
467800000 0.65199962995 -0.468254832785
467810000 0.65191933445 -0.467943738667
467820000 0.652268398557 -0.468566263277
467830000 0.652483572831 -0.468563073106
467840000 0.652512535736 -0.468618385029
467850000 0.652560049683 -0.468773716385
467860000 0.652913113993 -0.469263235892
467870000 0.652817151897 -0.468686711516
467880000 0.653087875982 -0.468479943435
467890000 0.652758561364 -0.468475467628
467900000 0.652601997433 -0.468151866483
467910000 0.652469053569 -0.467789512664
467920000 0.651977148999 -0.467741247882
467930000 0.651502575023 -0.467825661626
467940000 0.65169948907 -0.467670672105
467950000 0.651843557075 -0.468205250416
467960000 0.651891026691 -0.468578823121
467970000 0.652302418814 -0.468045904351
467980000 0.653184790589 -0.467999134414
467990000 0.641221570247 -0.461593771723
468000000 0.660491231452 -0.473457022168
468010000 0.653742087941 -0.467407949749
468020000 0.652985646294 -0.467909120798
468030000 0.652199398107 -0.468283907257
468040000 0.653075383328 -0.468591500861
468050000 0.65288462575 -0.468008232243
468060000 0.652678038486 -0.468152431957
468070000 0.651746748477 -0.468386827794
468080000 0.651274064217 -0.468286749716
468090000 0.651686233347 -0.468646401267
468100000 0.652049410188 -0.469022260196
468110000 0.652147179832 -0.469200475805
468120000 0.652273891634 -0.469640846485
468130000 0.651531436063 -0.4692379629
468140000 0.651600999667 -0.468991814675
468150000 0.650924466295 -0.469135473328
468160000 0.650737256435 -0.469573981923
468170000 0.650379955356 -0.46935755122
468180000 0.65043416669 -0.469233950706
468190000 0.650899395022 -0.46906165423
468200000 0.650807151981 -0.468791740335
468210000 0.650886354082 -0.468956078017
468220000 0.651125627727 -0.46917015262
468230000 0.651825590768 -0.468906600422
468240000 0.651372193237 -0.468788174895
468250000 0.651044166099 -0.468637193512
468260000 0.651392185865 -0.468881078333
468270000 0.651025743707 -0.468437100557
468280000 0.650568164112 -0.468869769089
468290000 0.651139314245 -0.468855189404
468300000 0.651154043084 -0.469020680948
468310000 0.651606115776 -0.469471348408
468320000 0.651553404848 -0.469297154842
468330000 0.651091138858 -0.469515029905
468340000 0.650764266957 -0.470007760655
468350000 0.650022863057 -0.469302530107
468360000 0.649781106884 -0.468864266105
468370000 0.64989132604 -0.468432279953
468380000 0.650296097461 -0.468595618205
468390000 0.650134200917 -0.469284274969
468400000 0.650003978798 -0.469976459087
468410000 0.649767912766 -0.469984294562
468420000 0.649927780412 -0.469415699925
468430000 0.650061919687 -0.469544400399
468440000 0.650682730377 -0.469646210369
468450000 0.651542675727 -0.469256816492
468460000 0.651686816629 -0.469443510888
468470000 0.650540322168 -0.469275915988
468480000 0.65004875861 -0.469491852434
468490000 0.64983543965 -0.469335551366
468500000 0.650245541411 -0.469730928732
468510000 0.650784869544 -0.469794201434
468520000 0.650598185879 -0.469685904886
468530000 0.650948873608 -0.469514179966
468540000 0.650804651728 -0.46990063538
468550000 0.65039613843 -0.469905559203
468560000 0.650658376097 -0.470102400894
468570000 0.650506413759 -0.47076923153
468580000 0.650035360297 -0.470112559073
468590000 0.650216841299 -0.469744042897
468600000 0.649707973581 -0.469731986621
468610000 0.649726498716 -0.469863961287
468620000 0.64975288644 -0.469974499796
468630000 0.650374288227 -0.469841193554
468640000 0.650153541924 -0.470078028122
468650000 0.649925485673 -0.469778211593
468660000 0.649523422344 -0.469829337367
468670000 0.64980541928 -0.469938081887
468680000 0.649772495137 -0.469862310889
468690000 0.650058902356 -0.469700598666
468700000 0.650023032522 -0.4700623228
468710000 0.649937514229 -0.469509252016
468720000 0.649662471579 -0.470487637701
468730000 0.649534875418 -0.470209007122
468740000 0.649464807875 -0.470219276292
468750000 0.649357222077 -0.469904402031
468760000 0.649528641982 -0.470136490953
468770000 0.649093109188 -0.469897610258
468780000 0.649820008327 -0.469778938636
468790000 0.649400303129 -0.470185344769
468800000 0.649702913278 -0.470146553286
468810000 0.650211266304 -0.470451864566
468820000 0.649354883181 -0.470690562917
468830000 0.648851196319 -0.471669305397
468840000 0.649146786069 -0.471068654221
468850000 0.649629121081 -0.471110466219
468860000 0.649850911076 -0.471097104211
468870000 0.649535594019 -0.470843456841
468880000 0.649034654086 -0.470473645849
468890000 0.648438535655 -0.470105712096
468900000 0.648564636966 -0.471085765486
468910000 0.64898599073 -0.472162428398
468920000 0.648813661612 -0.47216624375
468930000 0.649024656112 -0.47205289048
468940000 0.649116935663 -0.471463254888
468950000 0.649033984391 -0.471047901987
468960000 0.649717895355 -0.470541112955
468970000 0.649239758207 -0.470354988729
468980000 0.649529706347 -0.470286491866
468990000 0.649562399888 -0.470180625511
469000000 0.649483288437 -0.469958794822
469010000 0.649055568665 -0.470458659755
469020000 0.649396640777 -0.4709908757
469030000 0.649065465166 -0.470933347968
469040000 0.649187789344 -0.470886613823
469050000 0.648946653462 -0.470638337136
469060000 0.64880301529 -0.47050860238
469070000 0.648260514235 -0.470802813075
469080000 0.647949912118 -0.470803124499
469090000 0.647642768271 -0.4711492619
469100000 0.647735444098 -0.471787071985
469110000 0.648064132087 -0.472281096554
469120000 0.648345601255 -0.472720308669
469130000 0.647824187523 -0.471796203171
469140000 0.648290778775 -0.471397574808
469150000 0.647950479393 -0.471279111375
469160000 0.647830774449 -0.471694599971
469170000 0.648279837141 -0.471951736425
469180000 0.648021225501 -0.472033495266
469190000 0.648391152507 -0.471605361808
469200000 0.64789778662 -0.471514459687
469210000 0.648475553972 -0.471306684134
469220000 0.648101239272 -0.471083670226
469230000 0.647922913192 -0.471506407347
469240000 0.648101292528 -0.471329493001
469250000 0.647837055648 -0.470950106774
469260000 0.648001259101 -0.470964872785
469270000 0.647790529363 -0.470555984938
469280000 0.647602451014 -0.471269611548
469290000 0.647988632251 -0.471005060786
469300000 0.647469967909 -0.471131242483
469310000 0.647929636762 -0.472159128883
469320000 0.647927960588 -0.471673833636
469330000 0.647828527708 -0.471683754512
469340000 0.647563817904 -0.471677994122
469350000 0.647284437774 -0.471209489242
469360000 0.647599248977 -0.471550111493
469370000 0.646956958426 -0.471416683686
469380000 0.647152760224 -0.471572541071
469390000 0.647778768403 -0.471362476083
469400000 0.648061198974 -0.472178598114
469410000 0.646888553011 -0.470372465298
469420000 0.643692654077 -0.464956330547
469430000 0.639426902766 -0.462426858207
469440000 0.640379971653 -0.462477490854
469450000 0.64442587372 -0.46623030374
469460000 0.647645642194 -0.471436106546
469470000 0.647750031162 -0.472391224066
469480000 0.647953405283 -0.471668744522
469490000 0.648270701866 -0.471875254766
469500000 0.648535850713 -0.471543702841
469510000 0.64777021866 -0.472315663788
469520000 0.647510776921 -0.471429701305
469530000 0.647893577508 -0.471303087456
469540000 0.647473719773 -0.472054667024
469550000 0.646964258563 -0.472168013085
469560000 0.647624402264 -0.472044314683
469570000 0.646872981666 -0.472249366731
469580000 0.647431949476 -0.472130072821
469590000 0.647557604972 -0.472296983089
469600000 0.648459379536 -0.47199057957
469610000 0.647793720149 -0.472024791
469620000 0.646771310821 -0.472007109306
469630000 0.646727500175 -0.470829815971
469640000 0.647027006211 -0.472018068253
469650000 0.646842356122 -0.472123459176
469660000 0.64712828656 -0.472691756464
469670000 0.646861102137 -0.472555860125
469680000 0.647678762767 -0.472492766863
469690000 0.647154878835 -0.471642173936
469700000 0.648013588682 -0.471864089577
469710000 0.647213432851 -0.47188374448
469720000 0.646789591351 -0.471698208464
469730000 0.64738440969 -0.47171651999
469740000 0.647681367127 -0.472276609294
469750000 0.64659797493 -0.473040947305
469760000 0.64670063755 -0.473279081969
469770000 0.646428167315 -0.473219464566
469780000 0.647213223576 -0.472817131606
469790000 0.647415854483 -0.472852129506
469800000 0.647081367661 -0.472988170735
469810000 0.647195783569 -0.472907605983
469820000 0.647086846511 -0.473179433036
469830000 0.647013661525 -0.472937376163
469840000 0.646683716426 -0.472829536355
469850000 0.646271208984 -0.473319443001
469860000 0.646403812592 -0.472310583197
469870000 0.646192124175 -0.472895894757
469880000 0.646688698494 -0.472966404262
469890000 0.645982772757 -0.473006234304
469900000 0.646162559582 -0.473344139605
469910000 0.646349566481 -0.472772626278
469920000 0.646186371848 -0.472064611612
469930000 0.645818147945 -0.472430676459
469940000 0.646004980676 -0.472458178605
469950000 0.64619168834 -0.472437496854
469960000 0.645880575512 -0.47266348553
469970000 0.645809110149 -0.472231900233
469980000 0.64573740825 -0.472443030538
469990000 0.646099074856 -0.472520754895
470000000 0.64570163749 -0.472643580614
