! Calibrated averaged scanner-service zoom
# Hz S RI R 50
118000000 0.644724794442 -0.531945745706
118009500 0.64485121694 -0.532350416476
118019000 0.644537232645 -0.532344197377
118028500 0.644137627069 -0.532236266518
118038000 0.643572773548 -0.532241746919
118047500 0.643563370169 -0.531751321561
118057000 0.643460042222 -0.531966410283
118066500 0.64312137329 -0.532063802088
118076000 0.642904772025 -0.531902129461
118085500 0.64220633701 -0.531847610135
118095000 0.642218117452 -0.531522747938
118104500 0.642206383321 -0.531501189575
118114000 0.641815877957 -0.531766127001
118123500 0.641588603391 -0.531332525533
118133000 0.641210461292 -0.531253382507
118142500 0.641170600771 -0.53127111673
118152000 0.640940354165 -0.531039445671
118161500 0.640633491177 -0.531292482635
118171000 0.64015423444 -0.530994008735
118180500 0.640094384092 -0.530479019016
118190000 0.640100112695 -0.530985012271
118199500 0.639887622917 -0.530868011927
118209000 0.639341000716 -0.530829659823
118218500 0.638894450338 -0.530707003427
118228000 0.638958161135 -0.530365101428
118237500 0.638939060766 -0.530576583495
118247000 0.638587141749 -0.530632121705
118256500 0.638285107864 -0.530534023961
118266000 0.637584390403 -0.530376282242
118275500 0.637676149985 -0.530006827627
118285000 0.63761076489 -0.530094206596
118294500 0.637139716838 -0.530333815422
118304000 0.636994388892 -0.529883388216
118313500 0.636609500791 -0.529766596882
118323000 0.63656199484 -0.529762016326
118332500 0.636444975817 -0.529538085658
118342000 0.63606151176 -0.529870438834
118351500 0.635650836049 -0.529448796423
118361000 0.635603592824 -0.529023088735
118370500 0.635578028308 -0.529480282814
118380000 0.635323165108 -0.52942472283
118389500 0.634721259669 -0.529335678935
118399000 0.634343403981 -0.529210371807
118408500 0.634551669978 -0.528745946832
118418000 0.634334121736 -0.529135827129
118427500 0.634084196357 -0.529140297698
118437000 0.633707446648 -0.529091394476
118446500 0.633014744002 -0.52887457492
118456000 0.633235625212 -0.528331346011
118465500 0.633155445028 -0.528577092565
118475000 0.632596484081 -0.528831032309
118484500 0.632491576474 -0.528267126523
118494000 0.632081280638 -0.528223580521
118503500 0.632075391477 -0.528175430027
118513000 0.631957870844 -0.527934712615
118522500 0.631426273243 -0.528318016085
118532000 0.631138792249 -0.52782306295
118541500 0.631204084512 -0.527341863562
118551000 0.631065897206 -0.527847008364
118560500 0.630884551947 -0.52772368254
118570000 0.630240356416 -0.527650727344
118579500 0.629882412338 -0.527494421453
118589000 0.630149658557 -0.527103411248
118598500 0.629762970781 -0.527488465775
118608000 0.629582127201 -0.527367616567
118617500 0.629186473172 -0.527403077021
118627000 0.628542259486 -0.527156872399
118636500 0.628865062463 -0.52666675934
118646000 0.628666091295 -0.526966164945
118655500 0.628157302431 -0.527110231719
118665000 0.628032715903 -0.526631085413
118674500 0.627625904904 -0.526586183062
118684000 0.627623553699 -0.52649176458
118693500 0.627454617534 -0.526276485498
118703000 0.62694418165 -0.526603635673
118712500 0.626795801903 -0.526075467185
118722000 0.626781246902 -0.525726410309
118731500 0.626550602357 -0.526120814534
118741000 0.626442149349 -0.526016801153
118750500 0.625688266015 -0.525908972945
118760000 0.625428482194 -0.525679700381
118769500 0.62580427211 -0.52539339523
118779000 0.625280390635 -0.525705142631
118788500 0.625168483276 -0.525579430736
118798000 0.624630233845 -0.525639547891
118807500 0.624019211015 -0.525238922982
118817000 0.624527884175 -0.524886782454
118826500 0.624232455669 -0.525185991854
118836000 0.623740470528 -0.525360140733
118845500 0.623576012056 -0.524828908323
118855000 0.623114785615 -0.52479214555
118864500 0.623265653878 -0.524675712242
118874000 0.623079766884 -0.524512933283
118883500 0.622469856945 -0.52483600716
118893000 0.622362124852 -0.524285189824
118902500 0.622329405615 -0.523944690282
118912000 0.62205461538 -0.524271945315
118921500 0.622057472061 -0.52415764791
118931000 0.621184848996 -0.524004171814
118940500 0.621062438403 -0.523752956658
118950000 0.621483638676 -0.523593670482
118959500 0.620830562647 -0.524323776315
118969000 0.620848252862 -0.523709493023
118978500 0.620503651599 -0.523897180358
118988000 0.620421404124 -0.523786355957
118997500 0.620315556081 -0.52356737479
119007000 0.619571452643 -0.523664480764
119016500 0.619485165824 -0.523360084587
119026000 0.619726232367 -0.52313701399
119035500 0.619321258921 -0.523375582445
119045000 0.619194883282 -0.523492869346
119054500 0.618454063793 -0.522977752828
119064000 0.618168409872 -0.522823117869
119073500 0.618714771977 -0.52270328304
119083000 0.618250106366 -0.522702668229
119092500 0.618039538023 -0.52288549435
119102000 0.617449784028 -0.522552003751
119111500 0.616809034233 -0.52229585306
119121000 0.617491808254 -0.522130773283
119130500 0.617245795473 -0.522170020752
119140000 0.616527139296 -0.522310027477
119149500 0.616543176037 -0.521635183766
119159000 0.616072374969 -0.521905351061
119168500 0.616274634814 -0.521755047717
119178000 0.616130919045 -0.521558009615
119187500 0.615276433865 -0.52160159633
119197000 0.615279284396 -0.521298161474
119206500 0.615410007344 -0.521203232157
119216000 0.615061430935 -0.521313435235
119225500 0.614947647705 -0.52141689881
119235000 0.614106873336 -0.520828089316
119244500 0.613869334538 -0.520813866778
119254000 0.61444077897 -0.520710571899
119263500 0.613907734242 -0.5206937208
119273000 0.613810782107 -0.520817786315
119282500 0.613164128202 -0.520420310209
119292000 0.61263448443 -0.520165225377
119301500 0.613374635907 -0.520080852551
119311000 0.613037325622 -0.520150678576
119320500 0.612324232887 -0.520167925348
119330000 0.612373481804 -0.519570323845
119339500 0.611846349147 -0.519718512137
119349000 0.612082284598 -0.519732528047
119358500 0.611932307792 -0.519454935312
119368000 0.610963760352 -0.519299054732
119377500 0.611076786869 -0.519062829668
119387000 0.611115293112 -0.518992505885
119396500 0.610835178739 -0.519167439482
119406000 0.61073564503 -0.519261340232
119415500 0.60989647296 -0.518519780437
119425000 0.609808782409 -0.51849966828
119434500 0.610316121874 -0.518643458643
119444000 0.609850271647 -0.518426516797
119453500 0.609717276013 -0.518618151157
119463000 0.608980941044 -0.518100741731
119472500 0.608504196805 -0.517744644645
119482000 0.609246873338 -0.517884269017
119491500 0.608879945907 -0.517814921432
119501000 0.608258065713 -0.517842550716
119510500 0.608276139613 -0.517203487975
119520000 0.607594108429 -0.517306459673
119529500 0.607946391938 -0.517500838807
119539000 0.607747135734 -0.51713783011
119548500 0.60691102833 -0.516916765179
119558000 0.607024438162 -0.516743269211
119567500 0.60703155058 -0.516682734734
119577000 0.606828725252 -0.516818007998
119586500 0.606732001695 -0.516963418039
119596000 0.605870166062 -0.516079326434
119605500 0.605838920409 -0.51612868304
119615000 0.606287114119 -0.516304192548
119624500 0.605784910879 -0.516070635192
119634000 0.605756708478 -0.51622877904
119643500 0.604864770225 -0.515535513989
119653000 0.604566381624 -0.515291191611
119662500 0.605252842177 -0.515611808542
119672000 0.604807210745 -0.515498497485
119681500 0.604292854132 -0.515570998735
119691000 0.604374438319 -0.514860855912
119700500 0.603522074053 -0.51488521118
119710000 0.604067190069 -0.515071918735
119719500 0.603972106788 -0.514812475616
119729000 0.603011133799 -0.514528661329
119738500 0.603121881403 -0.514397218789
119748000 0.603034899528 -0.514325943232
119757500 0.602904224801 -0.514432212846
119767000 0.602703403093 -0.514552371459
119776500 0.601943767221 -0.513563900714
119786000 0.601947576616 -0.51367429487
119795500 0.602291536551 -0.513948054928
119805000 0.601875653502 -0.51366258229
119814500 0.601851302767 -0.513832421155
119824000 0.601059552333 -0.513065446676
119833500 0.600685603928 -0.512930045966
119843000 0.601347785473 -0.513295327349
119852500 0.600886469346 -0.513057317828
119862000 0.600406957434 -0.513128204684
119871500 0.600492273071 -0.512354740161
119881000 0.59967370718 -0.51235279776
119890500 0.600235248659 -0.512696717984
119900000 0.600103812769 -0.512363203531
119909500 0.600176670241 -0.512137435871
119919000 0.600110741662 -0.512336164261
119928500 0.600262978175 -0.511522493829
119938000 0.599200707155 -0.511136566148
119947500 0.597905705165 -0.511256642263
119957000 0.599173494032 -0.51170725312
119966500 0.599221199578 -0.511796209359
119976000 0.598981677418 -0.510678787988
119985500 0.597957932066 -0.510627313412
119995000 0.597280120609 -0.510516931862
120004500 0.598231445006 -0.511302046326
120014000 0.598344784457 -0.510867973971
120023500 0.597748898954 -0.509682652494
120033000 0.596622605245 -0.510076172406
120042500 0.596661726352 -0.510071237774
120052000 0.597250849665 -0.510739450672
120061500 0.597485955101 -0.509969688556
120071000 0.596720904017 -0.508849125337
120080500 0.595557346953 -0.509198567742
120090000 0.596326188092 -0.509677399904
120099500 0.596391773744 -0.509993952594
120109000 0.596715339852 -0.50905323247
120118500 0.595633530579 -0.508507743148
120128000 0.594241642465 -0.508564112609
120137500 0.595427557418 -0.509252280231
120147000 0.595552367015 -0.509413958354
120156500 0.595398668424 -0.508241952435
120166000 0.594347304677 -0.507974444
120175500 0.593558480042 -0.507823138879
120185000 0.594473071996 -0.508892359082
120194500 0.59460103808 -0.508541449769
120204000 0.59431273506 -0.507112646197
120213500 0.593120519042 -0.50738487415
120223000 0.592990872058 -0.507552176473
120232500 0.593470296866 -0.508326115722
120242000 0.593876562233 -0.507527203817
120251500 0.593235625885 -0.506317846953
120261000 0.592014753243 -0.50661645446
120270500 0.592568137547 -0.507186669949
120280000 0.592686469324 -0.507570774284
120289500 0.593170148547 -0.506682630771
120299000 0.592220095142 -0.505876076256
120308500 0.590742076348 -0.505936050862
120318000 0.591722999196 -0.506802298203
120327500 0.591912173464 -0.50698133675
120337000 0.592011389658 -0.505860114544
120346500 0.59093888008 -0.50539092334
120356000 0.590076236177 -0.505255855158
120365500 0.59079772899 -0.506534673418
120375000 0.591147645644 -0.506277519967
120384500 0.59099529199 -0.504759346576
120394000 0.589675027139 -0.504876107812
120403500 0.58939298351 -0.5050211686
120413000 0.589696699324 -0.506070948937
120422500 0.590358275914 -0.505279601823
120432000 0.58988381462 -0.5038630172
120441500 0.58850827106 -0.504101049647
120451000 0.58885610905 -0.504828719408
120460500 0.588997701552 -0.505319735136
120470000 0.589758381724 -0.504422156981
120479500 0.588849508111 -0.503535721057
120489000 0.587356754685 -0.503539449736
120498500 0.588081693014 -0.504532903137
120508000 0.588354992878 -0.504711820187
120517500 0.588665242112 -0.503558750395
120527000 0.587623781518 -0.5029485619
120536500 0.586573461192 -0.502747827436
120546000 0.587047795197 -0.504235001277
120555500 0.587472739593 -0.504018997375
120565000 0.587550391334 -0.502537518796
120574500 0.5862304994 -0.502507750093
120584000 0.585807447166 -0.502532320315
120593500 0.586145605977 -0.503856448259
120603000 0.586845653301 -0.503116939246
120612500 0.586599294826 -0.50159223184
120622000 0.585161867741 -0.501770631361
120631500 0.585231817747 -0.502446160661
120641000 0.585373010968 -0.503111386188
120650500 0.586263192625 -0.502210461174
120660000 0.585511139604 -0.501211371977
120669500 0.583865081011 -0.501149166717
120679000 0.58445550364 -0.502259595495
120688500 0.584710027741 -0.502583961585
120698000 0.585306226722 -0.501522301182
120707500 0.584224843638 -0.500724311922
120717000 0.58315543063 -0.500386437886
120726500 0.583421842103 -0.501968854155
120736000 0.583833700118 -0.501909751812
120745500 0.584267472869 -0.500406259627
120755000 0.582883164413 -0.500232933926
120764500 0.582389015493 -0.500198303345
120774000 0.582387575465 -0.501616963767
120783500 0.583333979126 -0.50091017818
120793000 0.583269790885 -0.499357441654
120802500 0.581675514628 -0.499416877708
120812000 0.581616528308 -0.500006211843
120821500 0.581611293177 -0.500927455331
120831000 0.582769197678 -0.500040216796
120840500 0.582141432447 -0.498880724967
120850000 0.580363695339 -0.498737801271
120859500 0.581728638203 -0.499683561333
120869000 0.581699534137 -0.498601440787
120878500 0.580399262987 -0.498316500178
120888000 0.579942815893 -0.498780048788
120897500 0.580068740343 -0.499844156891
120907000 0.581038928208 -0.498976198733
120916500 0.580221609925 -0.498230146273
120926000 0.579013365382 -0.497646013937
120935500 0.578939924909 -0.498370617378
120945000 0.579548389262 -0.499083749504
120954500 0.580264027973 -0.497991803756
120964000 0.579419766872 -0.497534764416
120973500 0.578230264719 -0.497132698879
120983000 0.577902749836 -0.498014295047
120992500 0.578793595589 -0.498279921698
121002000 0.579137116 -0.49721679218
121011500 0.57763999856 -0.496654388639
121021000 0.577088603761 -0.496617775821
121030500 0.576958778345 -0.497790075354
121040000 0.578005497016 -0.497422668417
121049500 0.57815958697 -0.496277733408
121059000 0.576873313199 -0.495877566858
121068500 0.576260440334 -0.496260101702
121078000 0.57625548498 -0.497424002299
121087500 0.577394044836 -0.496697704981
121097000 0.57669081085 -0.495774672597
121106500 0.5753844125 -0.495106839251
121116000 0.575288242366 -0.495833673525
121125500 0.575661060502 -0.496665368993
121135000 0.57666907043 -0.495708200056
121144500 0.575838668262 -0.495126417854
121154000 0.574639715064 -0.494597712653
121163500 0.574165032412 -0.495508671524
121173000 0.574881866445 -0.495865508022
121182500 0.575510573117 -0.494910180683
121192000 0.574038374582 -0.494234058917
121201500 0.573311465702 -0.494050365143
121211000 0.57305734282 -0.495312079912
121220500 0.574129690544 -0.495113418339
121230000 0.574513456622 -0.493957784379
121239500 0.573288359463 -0.493413965376
121249000 0.57252598543 -0.493660658114
121258500 0.572204006113 -0.494902579523
121268000 0.573544262915 -0.494372082272
121277500 0.573091958235 -0.493326887354
121287000 0.571701173127 -0.492529880991
121296500 0.571337046866 -0.493228060358
121306000 0.571682061003 -0.494212355794
121315500 0.572816132528 -0.493334754643
121325000 0.572078029375 -0.492652451154
121334500 0.570886005359 -0.491951281144
121344000 0.57027343141 -0.492796285307
121353500 0.57086880218 -0.493372427717
121363000 0.57174982873 -0.492496081452
121372500 0.570280610094 -0.491673434452
121382000 0.5695357018 -0.491350112904
121391500 0.569055658799 -0.492621837926
121401000 0.570107895804 -0.492538101424
121410500 0.570790513064 -0.491438899375
121420000 0.569482154279 -0.490772859601
121429500 0.568562197298 -0.490907754589
121439000 0.568057151475 -0.492252925772
121448500 0.569499672727 -0.491848832628
121458000 0.569213894661 -0.490728496258
121467500 0.567909518176 -0.489859857511
121477000 0.567422067324 -0.490526120554
121486500 0.567535454883 -0.491498311743
121496000 0.56891984875 -0.490801323059
121505500 0.568210421808 -0.490039731333
121515000 0.56696704599 -0.489216820476
121524500 0.566157955399 -0.489982590963
121534000 0.566804384423 -0.490694752013
121543500 0.567843989069 -0.489969747275
121553000 0.566512293565 -0.489042695949
121562500 0.565651639583 -0.488650123724
121572000 0.564890937403 -0.489809200374
121581500 0.565970013151 -0.489881354459
121591000 0.566880764163 -0.488786425525
121600500 0.565559108071 -0.488028478095
121610000 0.564616913049 -0.488130066875
121619500 0.5638266786 -0.489401114986
121629000 0.565373841403 -0.489072190867
121638500 0.565342529417 -0.48799186589
121648000 0.564057658764 -0.486886142947
121657500 0.56338784552 -0.487506137339
121667000 0.563280069849 -0.488579930802
121676500 0.564789714203 -0.488038871803
121686000 0.564253388215 -0.487229517853
121695500 0.563031069569 -0.486273156562
121705000 0.561991984075 -0.487068451862
121714500 0.562368023671 -0.487857008512
121724000 0.563863670065 -0.487278239956
121733500 0.562568013965 -0.486124025305
121743000 0.561630931578 -0.48560151255
121752500 0.560682711337 -0.486695851823
121762000 0.561768099725 -0.486921307572
121771500 0.562950968822 -0.486039753056
121781000 0.561655042016 -0.485095615965
121790500 0.560692763968 -0.484956229781
121800000 0.559606712489 -0.486179137549
121809500 0.560885625976 -0.484713489905
121819000 0.55999205204 -0.484394147987
121828500 0.559861068345 -0.484632097096
121838000 0.560524209519 -0.485177092493
121847500 0.56077534363 -0.484462700936
121857000 0.560008295615 -0.483712767646
121866500 0.558850229001 -0.483869902998
121876000 0.558764592208 -0.484164986458
121885500 0.559311838061 -0.484139342602
121895000 0.559413382666 -0.483314355528
121904500 0.558808970274 -0.482636678435
121914000 0.557384024623 -0.482903998414
121923500 0.557784604872 -0.483517867666
121933000 0.55845323237 -0.482916023007
121942500 0.558319410945 -0.482260226955
121952000 0.557606109705 -0.481869418412
121961500 0.556474408751 -0.482057297412
121971000 0.557044631943 -0.48279274169
121980500 0.557631794664 -0.482122933768
121990000 0.556880532399 -0.481305791213
121999500 0.556068244892 -0.480962748786
122009000 0.555778551237 -0.481050128927
122018500 0.556367482966 -0.481653419157
122028000 0.556882325287 -0.481028015946
122037500 0.556014572505 -0.480216360095
122047000 0.554844120385 -0.480179213413
122056500 0.554600588387 -0.480554891005
122066000 0.555175780707 -0.4806025825
122075500 0.555442793208 -0.479775749042
122085000 0.554878226131 -0.47904066225
122094500 0.553380408127 -0.479230805066
122104000 0.553683881896 -0.479804519704
122113500 0.554444164976 -0.47929419699
122123000 0.55443621164 -0.478670702683
122132500 0.553784651072 -0.478131614848
122142000 0.552479867101 -0.47827654078
122151500 0.552996062905 -0.479075788246
122161000 0.553655330648 -0.478426443002
122170500 0.553018797499 -0.477625028553
122180000 0.552304201742 -0.47717293143
122189500 0.551764759419 -0.477234617902
122199000 0.552387340574 -0.477987442438
122208500 0.553015322881 -0.477421055897
122218000 0.552125446534 -0.476554540647
122227500 0.551028379084 -0.476334479172
122237000 0.550682611213 -0.476664503329
122246500 0.551160970085 -0.476860080266
122256000 0.551579167861 -0.476193354973
122265500 0.550984984884 -0.475287874542
122275000 0.549448776736 -0.475283014244
122284500 0.549631535716 -0.475824602698
122294000 0.550425262849 -0.475483384102
122303500 0.550658709589 -0.474932739014
122313000 0.549986279074 -0.474207801506
122322500 0.548661116681 -0.474164823703
122332000 0.549033753371 -0.475059115859
122341500 0.549755946771 -0.474505267633
122351000 0.549390338409 -0.473683522754
122360500 0.548648026079 -0.473092169727
122370000 0.548054195231 -0.4731475128
122379500 0.548556372649 -0.473903903212
122389000 0.549172623665 -0.473411714521
122398500 0.548408209199 -0.472493937637
122408000 0.547297427465 -0.472142682016
122417500 0.546956632488 -0.472461619758
122427000 0.547464285 -0.47277635165
122436500 0.547881784499 -0.472176584111
122446000 0.547403526021 -0.471258327976
122455500 0.545815045484 -0.471052235589
122465000 0.545853346819 -0.471669463226
122474500 0.546664565232 -0.471474470353
122484000 0.547133212886 -0.471013860567
122493500 0.54650636705 -0.470299917441
122503000 0.544989875304 -0.470001004105
122512500 0.545264419418 -0.470973421511
122522000 0.546226928007 -0.4705293338
122531500 0.545923030196 -0.469751837768
122541000 0.545147003973 -0.469055809942
122550500 0.544493609714 -0.469000550344
122560000 0.544944449562 -0.469882426752
122569500 0.54570331978 -0.469449240292
122579000 0.545098431707 -0.468529055032
122588500 0.543917896168 -0.467933914122
122598000 0.543456836821 -0.468166524374
122607500 0.543904144625 -0.468636452113
122617000 0.544570376903 -0.468103490928
122626500 0.543994498435 -0.467136893762
122636000 0.542494288738 -0.466740521099
122645500 0.542417886648 -0.467279119642
122655000 0.543220972655 -0.467240277299
122664500 0.543747950723 -0.466899627179
122674000 0.543168845374 -0.466022219618
122683500 0.541612093119 -0.465499608321
122693000 0.541764554463 -0.46661868002
122702500 0.542815522041 -0.466326917415
122712000 0.542637133741 -0.465611538826
122721500 0.541995956171 -0.464863338184
122731000 0.541146563084 -0.464695541905
122740500 0.54150563803 -0.465650817361
122750000 0.542414550191 -0.465384008471
122759500 0.540690986674 -0.465028394221
122769000 0.541297727062 -0.465263934122
122778500 0.541394990251 -0.464743090518
122788000 0.540884246134 -0.463431613114
122797500 0.5401077816 -0.463386492639
122807000 0.54023379037 -0.464123650539
122816500 0.540863424468 -0.464421029434
122826000 0.540702189764 -0.463498160325
122835500 0.539821343481 -0.462246255347
122845000 0.539614758993 -0.462509567737
122854500 0.539378451577 -0.463243441655
122864000 0.539788502084 -0.46313933841
122873500 0.53978698174 -0.46195988364
122883000 0.538650679867 -0.461056615399
122892500 0.538630094075 -0.461421095215
122902000 0.538685131005 -0.461770153841
122911500 0.539454434677 -0.461840760872
122921000 0.539127196164 -0.46080062565
122930500 0.53751515967 -0.4598426403
122940000 0.537664701746 -0.46054874769
122949500 0.538200605583 -0.460891846493
122959000 0.538445243105 -0.460537850523
122968500 0.537981463292 -0.459206542612
122978000 0.537007676163 -0.458923108476
122987500 0.537154888636 -0.459567772948
122997000 0.537811098556 -0.460058130082
123006500 0.537682544161 -0.459239270982
123016000 0.536932497126 -0.457849291602
123025500 0.536713043371 -0.458025412242
123035000 0.536421132507 -0.458831478606
123044500 0.536704723789 -0.458904791982
123054000 0.536776538241 -0.457704234803
123063500 0.535719563826 -0.456624790911
123073000 0.535749490341 -0.457023937451
123082500 0.535635838722 -0.45743847623
123092000 0.536364056487 -0.457610596912
123101500 0.536254975217 -0.456537643176
123111000 0.534725055515 -0.455392929362
123120500 0.53473201001 -0.456035767555
123130000 0.535235432755 -0.456432115588
123139500 0.535568808015 -0.456249378115
123149000 0.535313032933 -0.454915732133
123158500 0.534282621402 -0.454419322823
123168000 0.534415350178 -0.455131207631
123177500 0.534950587817 -0.455645751267
123187000 0.534857570797 -0.454933396903
123196500 0.534344571048 -0.453439525787
123206000 0.533875559097 -0.453399416057
123215500 0.533736249386 -0.454439645791
123225000 0.533914847876 -0.454663879285
123234500 0.533991772087 -0.453408115491
123244000 0.533301500579 -0.452092769276
123253500 0.533180886714 -0.45236901645
123263000 0.533070527829 -0.452927668002
123272500 0.53356703252 -0.453225650752
123282000 0.533573997774 -0.452173518793
123291500 0.532183236875 -0.450862408276
123301000 0.532147904084 -0.451423177937
123310500 0.532474869111 -0.451942004586
123320000 0.532860242766 -0.451845543928
123329500 0.532828434066 -0.450522129891
123339000 0.531697948295 -0.449797014022
123348500 0.531786609656 -0.450443126261
123358000 0.532201752687 -0.451069954554
123367500 0.532201942087 -0.450460077784
123377000 0.531860458692 -0.448993506353
123386500 0.531366621881 -0.448830399473
123396000 0.531101578633 -0.449807766337
123405500 0.531300212996 -0.450076091893
123415000 0.53141218404 -0.448967606271
123424500 0.530710502783 -0.447648073645
123434000 0.530738407221 -0.447844716734
123443500 0.530478540983 -0.448400495073
123453000 0.530944131172 -0.448808450078
123462500 0.530954944824 -0.447756264639
123472000 0.529738139773 -0.446337566681
123481500 0.529652520284 -0.446877384463
123491000 0.529766401923 -0.447438611251
123500500 0.530176756017 -0.447451626875
123510000 0.530306913247 -0.446167752437
123519500 0.529197558794 -0.445244199432
123529000 0.529183803437 -0.445977631078
123538500 0.529500443955 -0.446623687831
123548000 0.529640908033 -0.446093647513
123557500 0.529434334331 -0.444467391894
123567000 0.528922083927 -0.444312525826
123576500 0.528505396816 -0.44533947864
123586000 0.528710935208 -0.445734211109
123595500 0.528797685731 -0.444633964487
123605000 0.52847774633 -0.443117333774
123614500 0.528492654013 -0.443382542794
123624000 0.528044437794 -0.44397668732
123633500 0.528383596748 -0.444385204205
123643000 0.528424656904 -0.443322211106
123652500 0.527448854337 -0.441833394905
123662000 0.527293041885 -0.442276535415
123671500 0.527331825066 -0.44286646774
123681000 0.527686082657 -0.442967717539
123690500 0.52786353407 -0.441751645847
123700000 0.526766522488 -0.440546651675
123709500 0.526542405724 -0.4435954391
123719000 0.527047052174 -0.442835016028
123728500 0.527201311739 -0.441754609414
123738000 0.525615671335 -0.440274396297
123747500 0.526301832498 -0.44225043136
123757000 0.526593525096 -0.442426884627
123766500 0.526571819513 -0.441392318384
123776000 0.526320942857 -0.440359892956
123785500 0.524922296619 -0.439091911674
123795000 0.525576722097 -0.441221986637
123804500 0.526276810871 -0.441369498035
123814000 0.525786789482 -0.439900168392
123823500 0.525376049887 -0.438877749313
123833000 0.524613310116 -0.438609844527
123842500 0.524693044322 -0.439970663337
123852000 0.525749546144 -0.439737634928
123861500 0.525487671042 -0.43840320069
123871000 0.524584951752 -0.4372629637
123880500 0.524632393627 -0.438203822118
123890000 0.524107605682 -0.438838708982
123899500 0.524723166328 -0.438195775521
123909000 0.524912959772 -0.437077918283
123918500 0.52356370215 -0.435487763992
123928000 0.524035146978 -0.437476347405
123937500 0.524094420461 -0.437797183828
123947000 0.524235559415 -0.436833306121
123956500 0.524160425899 -0.435773180065
123966000 0.522857167401 -0.434247339997
123975500 0.523364913406 -0.436448288436
123985000 0.523927255698 -0.436706977275
123994500 0.523532242347 -0.435296269586
124004000 0.523320698891 -0.434238692144
124013500 0.52246350673 -0.433724091414
124023000 0.522431270485 -0.435299667124
124032500 0.523447571656 -0.435321527712
124042000 0.523256606141 -0.433810022018
124051500 0.522477230186 -0.432725430138
124061000 0.522464055413 -0.433597143832
124070500 0.521812575684 -0.434231976417
124080000 0.52258632105 -0.433695455149
124089500 0.522885395974 -0.43248107391
124099000 0.521673911426 -0.430981067133
124108500 0.521898232135 -0.432852270514
124118000 0.521767574196 -0.433090935643
124127500 0.522081356151 -0.432231523521
124137000 0.522080426244 -0.431163266425
124146500 0.520880341306 -0.429550276811
124156000 0.521208766901 -0.431857127553
124165500 0.521564129931 -0.4322128305
124175000 0.521330992726 -0.43078985768
124184500 0.521324201854 -0.42971698283
124194000 0.520476429093 -0.428936530173
124203500 0.520336393815 -0.430682702507
124213000 0.52113836533 -0.430909195774
124222500 0.521160065495 -0.429315512593
124232000 0.520445111929 -0.42825907103
124241500 0.520290152478 -0.429006174307
124251000 0.519561501657 -0.429672101423
124260500 0.520486145524 -0.429294337479
124270000 0.520789983391 -0.428098956177
124279500 0.519710226332 -0.426579285233
124289000 0.519895486123 -0.428385229447
124298500 0.519580404005 -0.428589573249
124308000 0.520081083876 -0.42788183477
124317500 0.52016110116 -0.42676083996
124327000 0.519080192294 -0.424941633342
124336500 0.519264161085 -0.427248334154
124346000 0.51926448856 -0.427860156374
124355500 0.519237035905 -0.426417307023
124365000 0.519358382661 -0.425256293808
124374500 0.518528173543 -0.424185472551
124384000 0.51835860909 -0.426013196617
124393500 0.519128946805 -0.426397609524
124403000 0.519238429092 -0.424673171937
124412500 0.518856090851 -0.423414250985
124422000 0.518502301051 -0.42414646311
124431500 0.517654551975 -0.424854084537
124441000 0.518620956417 -0.424545420489
124450500 0.519024410564 -0.423252610594
124460000 0.518216294409 -0.421720559021
124469500 0.518131780619 -0.423392610182
124479000 0.517706819904 -0.423461302206
124488500 0.518308953461 -0.422946689553
124498000 0.518476484767 -0.421754134025
124507500 0.517617518374 -0.419873211771
124517000 0.517692116328 -0.422230370392
124526500 0.51766016675 -0.422583769328
124536000 0.517700094738 -0.421247465188
124545500 0.517931220576 -0.420159686021
124555000 0.517130799761 -0.418903952668
124564500 0.516887632641 -0.420871586313
124574000 0.517556690861 -0.421416156871
124583500 0.517767976828 -0.419643574754
124593000 0.517574656234 -0.418406251577
124602500 0.517202215673 -0.418820141667
124612000 0.516378842201 -0.419672726115
124621500 0.517196177384 -0.41957132937
124631000 0.517607690406 -0.418160661105
124640500 0.517002453234 -0.416699030042
124650000 0.51685360735 -0.418191614403
124659500 0.517216296154 -0.418039291977
124669000 0.517030925365 -0.416651910704
124678500 0.516420241011 -0.416705701953
124688000 0.515026373078 -0.417381148857
124697500 0.516130118882 -0.417988054819
124707000 0.517051620204 -0.416515680736
124716500 0.516359988978 -0.414823128996
124726000 0.516238337273 -0.416653105156
124735500 0.515379013076 -0.416765515921
124745000 0.516115513894 -0.416465296455
124754500 0.516806430731 -0.415017854488
124764000 0.516186254868 -0.412765056896
124773500 0.515560897374 -0.414971671429
124783000 0.5153445942 -0.415921057774
124792500 0.515543382162 -0.414817220986
124802000 0.516368458674 -0.413277073229
124811500 0.515537433564 -0.411838275535
124821000 0.515157976736 -0.414003609321
124830500 0.515456434033 -0.414820702065
124840000 0.515974387063 -0.413191621452
124849500 0.51597801819 -0.411839178151
124859000 0.515350942496 -0.411707208125
124868500 0.513909870834 -0.412354050219
124878000 0.514852233441 -0.413166353904
124887500 0.515938574694 -0.411730631221
124897000 0.515547389993 -0.410098558634
124906500 0.515160169848 -0.411825291875
124916000 0.514260647709 -0.411808474011
124925500 0.514984585522 -0.411728522095
124935000 0.515782173076 -0.410307441901
124944500 0.515302075636 -0.408099008313
124954000 0.514628376851 -0.410182884716
124963500 0.514107903079 -0.411000478414
124973000 0.514367680265 -0.410095274039
124982500 0.515213148428 -0.408740908576
124992000 0.514728204701 -0.406921415709
125001500 0.514182200969 -0.409252299079
125011000 0.514258571446 -0.410157780476
125020500 0.514858750669 -0.408623092869
125030000 0.515069777384 -0.407301704498
125039500 0.514466489246 -0.406928893822
125049000 0.513031266427 -0.407653990799
125058500 0.513773187378 -0.408594057171
125068000 0.514921825651 -0.407198817659
125077500 0.51478906494 -0.405612601858
125087000 0.51416752675 -0.407115377396
125096500 0.513216274457 -0.407139089609
125106000 0.513807917618 -0.407161894588
125115500 0.514769462327 -0.405741909516
125125000 0.514417960396 -0.403598823176
125134500 0.513569309815 -0.40584673899
125144000 0.512908857482 -0.406318766748
125153500 0.513172994178 -0.405502733406
125163000 0.514259367839 -0.404260011819
125172500 0.513829112701 -0.402261946785
125182000 0.513292692727 -0.404880197711
125191500 0.513042773547 -0.405704971026
125201000 0.513782277875 -0.404270247538
125210500 0.514164472637 -0.402906714365
125220000 0.513609295018 -0.402281387709
125229500 0.512160635769 -0.403124006689
125239000 0.512654800675 -0.404147795466
125248500 0.513842134007 -0.402770922687
125258000 0.513695964701 -0.401173779771
125267500 0.513119334447 -0.402531202791
125277000 0.51217869419 -0.402582904098
125286500 0.512735005244 -0.402820999287
125296000 0.513802531987 -0.401387562056
125305500 0.513654321458 -0.399287385919
125315000 0.512593829796 -0.401530759134
125324500 0.51176576355 -0.401791688108
125334000 0.512153021366 -0.401067262408
125343500 0.513323654487 -0.399975148965
125353000 0.513010654881 -0.397745015637
125362500 0.512297962375 -0.400468847588
125372000 0.511989490082 -0.401367410815
125381500 0.512696768655 -0.399925229813
125391000 0.513265396326 -0.398562544486
125400500 0.51277877573 -0.397651794031
125410000 0.511309767927 -0.398642619448
125419500 0.511537274169 -0.399765310987
125429000 0.512814497788 -0.398254905739
125438500 0.513032906304 -0.396876450439
125448000 0.512345872946 -0.397863031564
125457500 0.511257832299 -0.398021689842
125467000 0.511720278106 -0.398360792775
125476500 0.512992902493 -0.396968287056
125486000 0.512904490585 -0.395071479992
125495500 0.511549474977 -0.397115209557
125505000 0.510762862282 -0.397182626282
125514500 0.511170788357 -0.396630805942
125524000 0.512407489349 -0.3956612191
125533500 0.512362476514 -0.393350759255
125543000 0.511326461466 -0.396115809061
125552500 0.510836675078 -0.396971497746
125562000 0.511515886578 -0.39557198499
125571500 0.512426197391 -0.394245331909
125581000 0.511961927708 -0.393137224745
125590500 0.510400280032 -0.394312253022
125600000 0.510422719645 -0.395342641316
125609500 0.510858129623 -0.394376138361
125619000 0.510920375552 -0.394131259299
125628500 0.511346776243 -0.393192186553
125638000 0.511542770244 -0.391730103208
125647500 0.511380751797 -0.39279437492
125657000 0.510456137727 -0.392471731065
125666500 0.510399907951 -0.392813479575
125676000 0.511368170113 -0.391576570565
125685500 0.511221399552 -0.390360990242
125695000 0.510796179076 -0.392318436457
125704500 0.510538288638 -0.3910577251
125714000 0.510766379382 -0.391399505095
125723500 0.511515687419 -0.390492929741
125733000 0.511284754072 -0.389609377519
125742500 0.509980902922 -0.390679788386
125752000 0.510324830236 -0.389865788612
125761500 0.510433182597 -0.389475386964
125771000 0.511005652257 -0.38872134822
125780500 0.511140918923 -0.388879071031
125790000 0.509984971385 -0.389703963446
125799500 0.510169850145 -0.389335962474
125809000 0.510621324433 -0.388474780733
125818500 0.51108510055 -0.387130299576
125828000 0.510823293796 -0.388083636582
125837500 0.509787648734 -0.387747628872
125847000 0.509695333527 -0.387983538881
125856500 0.510630736719 -0.386845854269
125866000 0.510741434468 -0.385564939242
125875500 0.51009870073 -0.387460916505
125885000 0.509810880813 -0.386302391603
125894500 0.510063564351 -0.386661990598
125904000 0.510855350072 -0.385841734644
125913500 0.510719764566 -0.384960016169
125923000 0.509303994678 -0.385973535401
125932500 0.50973877125 -0.385107465575
125942000 0.509898676334 -0.384788611965
125951500 0.510496266475 -0.384129155984
125961000 0.510627853606 -0.384210886245
125970500 0.509348425178 -0.385128927686
125980000 0.509557384487 -0.384514824047
125989500 0.510034382162 -0.383779783971
125999000 0.510614386132 -0.382543226447
126008500 0.51032383367 -0.383425962118
126018000 0.509143473582 -0.383082384357
126027500 0.509014690722 -0.383257111816
126037000 0.510071609908 -0.382182338604
126046500 0.51039422103 -0.38086088343
126056000 0.509598467153 -0.382745434852
126065500 0.509256137978 -0.381754300791
126075000 0.509427364848 -0.382140504306
126084500 0.51038354359 -0.381285331554
126094000 0.510127577859 -0.380270270764
126103500 0.508761396929 -0.381407348987
126113000 0.509170140493 -0.380362210126
126122500 0.509301157648 -0.380177402966
126132000 0.51005827645 -0.379614870689
126141500 0.509984387207 -0.379503728079
126151000 0.508735590304 -0.380436845221
126160500 0.508980086025 -0.379790189174
126170000 0.509470641347 -0.37917683815
126179500 0.510176122895 -0.37805898184
126189000 0.509860165327 -0.378790689726
126198500 0.508536104197 -0.378542748532
126208000 0.508405736398 -0.378638144191
126217500 0.509467627715 -0.377616697972
126227000 0.509775398551 -0.376477793678
126236500 0.509043906071 -0.378099364065
126246000 0.508502389403 -0.377106266882
126255500 0.508705193677 -0.377588811146
126265000 0.509795661859 -0.376751175683
126274500 0.509700613556 -0.375654120691
126284000 0.50814203392 -0.376703397792
126293500 0.508593098225 -0.375673970375
126303000 0.508755011628 -0.37562499534
126312500 0.509571590573 -0.37519229375
126322000 0.509509120889 -0.374935160925
126331500 0.508119846219 -0.375872271315
126341000 0.50836804942 -0.375109120355
126350500 0.508885308287 -0.374685112277
126360000 0.509743832735 -0.373706266244
126369500 0.509347611195 -0.374264415276
126379000 0.507908892141 -0.373984731427
126388500 0.507896513058 -0.374080594728
126398000 0.509008611723 -0.373066381126
126407500 0.509492074306 -0.371973605897
126417000 0.508570844554 -0.373645880393
126426500 0.507930601452 -0.372779845019
126436000 0.508089725909 -0.373097527973
126445500 0.509385844092 -0.372401101417
126455000 0.50936583962 -0.37130395105
126464500 0.507600722447 -0.37223119245
126474000 0.508029869819 -0.371101044566
126483500 0.50824222027 -0.371092217816
126493000 0.509203806199 -0.370866550378
126502500 0.509070957549 -0.370480944192
126512000 0.507405702147 -0.37126668977
126521500 0.507939279506 -0.370434825473
126531000 0.508419079317 -0.370190619489
126540500 0.50931602693 -0.36928122578
126550000 0.508932137393 -0.369704479232
126559500 0.510173078205 -0.369715695344
126569000 0.50862813797 -0.369589831123
126578500 0.507710466544 -0.369733222454
126588000 0.508861692168 -0.369168230397
126597500 0.510461258306 -0.368619022259
126607000 0.509662286195 -0.368900219275
126616500 0.508194345024 -0.368128516769
126626000 0.507746678776 -0.368198811877
126635500 0.509077858424 -0.367767970153
126645000 0.51027817 -0.366914636916
126654500 0.5095966 -0.367651648164
126664000 0.508345074381 -0.367157470808
126673500 0.507856920454 -0.367550832964
126683000 0.509397340753 -0.36691661236
126692500 0.510341748179 -0.36616244845
126702000 0.509149966115 -0.366177407854
126711500 0.507895620238 -0.365802705667
126721000 0.508122511259 -0.365545988957
126730500 0.509732069661 -0.365574437577
126740000 0.509934183574 -0.365415110837
126749500 0.508344776137 -0.365241050296
126759000 0.507486365297 -0.365159447103
126768500 0.508625613201 -0.364665522154
126778000 0.510264057539 -0.364522116787
126787500 0.509414819876 -0.364674634265
126797000 0.507927930178 -0.363788550359
126806500 0.507459152035 -0.363637748785
126816000 0.508858268326 -0.36338159273
126825500 0.510089291569 -0.362642386074
126835000 0.509340812096 -0.36325106369
126844500 0.508124166818 -0.362700279886
126854000 0.507595864435 -0.363014629445
126863500 0.509150124199 -0.362551566842
126873000 0.510176672959 -0.361857697064
126882500 0.508914229124 -0.361757018165
126892000 0.507762661712 -0.36126071927
126901500 0.507907501749 -0.361086232128
126911000 0.509560954729 -0.361232563361
126920500 0.509799542244 -0.360997612634
126930000 0.508285479865 -0.360709018984
126939500 0.507358354402 -0.360558497332
126949000 0.508463371907 -0.360217563357
126958500 0.510081854787 -0.360162927688
126968000 0.509294352575 -0.360180850072
126977500 0.507846598654 -0.35914855813
126987000 0.507325965552 -0.359019190099
126996500 0.508719655597 -0.35888484077
127006000 0.510049218125 -0.358505016164
127015500 0.509151139495 -0.358936711172
127025000 0.507836145108 -0.358088494529
127034500 0.507327937668 -0.358466333817
127044000 0.50905007241 -0.358152186128
127053500 0.510109278554 -0.357561031922
127063000 0.508843130597 -0.357277605214
127072500 0.507711825259 -0.356647075758
127082000 0.507828785393 -0.356541407762
127091500 0.509409755375 -0.356890854253
127101000 0.509712960156 -0.356575054883
127110500 0.508156883354 -0.356242014143
127120000 0.507230988894 -0.355917808585
127129500 0.508363787151 -0.355748303472
127139000 0.509918649222 -0.356078357517
127148500 0.50926257483 -0.355918432973
127158000 0.507793786775 -0.354559590438
127167500 0.507266412922 -0.354293807898
127177000 0.508617690031 -0.354362565096
127186500 0.509952915921 -0.354299425029
127196000 0.508963942456 -0.354564613459
127205500 0.507701422316 -0.35349613256
127215000 0.507182775137 -0.353814074318
127224500 0.508835892166 -0.353684456884
127234000 0.510064808673 -0.353197142588
127243500 0.508781862662 -0.352755847644
127253000 0.507747884166 -0.352038386658
127262500 0.507770290616 -0.352036771078
127272000 0.509321085398 -0.352440808404
127281500 0.50975679484 -0.352162925209
127291000 0.508224508049 -0.351663380423
127300500 0.507305900943 -0.35128729955
127310000 0.508300355586 -0.351232191245
127319500 0.509834090368 -0.351687026015
127329000 0.509353950501 -0.351462797129
127338500 0.507839601304 -0.349966852684
127348000 0.507365996001 -0.34958036452
127357500 0.508789343356 -0.349783851578
127367000 0.509969101954 -0.349933257002
127376500 0.508980237927 -0.350199335677
127386000 0.507813369826 -0.348916278726
127395500 0.507215879925 -0.349048380001
127405000 0.50882690481 -0.349222418465
127414500 0.510001620858 -0.348670133095
127424000 0.508861274412 -0.348346096184
127433500 0.507988183334 -0.347405698456
127443000 0.507876625656 -0.347359033267
127452500 0.509224332521 -0.34796885852
127462000 0.50984973236 -0.347527106978
127471500 0.50838469577 -0.346935603455
127481000 0.507597296179 -0.346371787548
127490500 0.508445368145 -0.346524764903
127500000 0.509846304668 -0.347066664083
127509500 0.502949518354 -0.34368650415
127519000 0.50490632379 -0.345138799876
127528500 0.507158644402 -0.344608669712
127538000 0.505371282392 -0.343487229942
127547500 0.502645445785 -0.343396943102
127557000 0.502771174382 -0.343270904177
127566500 0.504905722019 -0.344039688706
127576000 0.506858625425 -0.343275363386
127585500 0.505531625388 -0.341073651616
127595000 0.502386964984 -0.341350585749
127604500 0.503442080388 -0.341946947969
127614000 0.505115353369 -0.342138409071
127623500 0.505904862489 -0.34159328208
127633000 0.504711052366 -0.339322735338
127642500 0.501937430142 -0.340303796563
127652000 0.503967051379 -0.341170873185
127661500 0.505897731337 -0.340810428598
127671000 0.505142506371 -0.339908465975
127680500 0.503758381482 -0.338145122808
127690000 0.502360976815 -0.337706138946
127699500 0.504144225625 -0.339375049255
127709000 0.506400325713 -0.338961326939
127718500 0.504765221468 -0.337722304112
127728000 0.502227970507 -0.337200244748
127737500 0.502090811279 -0.337011317213
127747000 0.504238280728 -0.338133250232
127756500 0.506399266243 -0.337635990127
127766000 0.504912037934 -0.335386539818
127775500 0.501892311042 -0.335214438318
127785000 0.502947877416 -0.335683717338
127794500 0.504496628771 -0.336171726598
127804000 0.505504030666 -0.335645263377
127813500 0.504549816055 -0.333251479664
127823000 0.501675469557 -0.333938062599
127832500 0.503427793048 -0.334967317116
127842000 0.505172885337 -0.334898014623
127851500 0.504667269796 -0.333974471073
127861000 0.503872843884 -0.331767882311
127870500 0.502184029185 -0.33136650418
127880000 0.503665258809 -0.33321965271
127889500 0.506089152496 -0.333022003173
127899000 0.50450164958 -0.331721248007
127908500 0.502281414973 -0.330852899365
127918000 0.501916225463 -0.330485165195
127927500 0.503937334849 -0.331879564397
127937000 0.506210192112 -0.331613247046
127946500 0.504973907871 -0.329118613847
127956000 0.502054414696 -0.328617649246
127965500 0.502895535196 -0.329093534955
127975000 0.504269610751 -0.32985487935
127984500 0.505496827652 -0.329442532892
127994000 0.504881776326 -0.326734345452
128003500 0.501819821686 -0.327361834258
128013000 0.503312664375 -0.328494354749
128022500 0.504958997038 -0.328570942147
128032000 0.504884935239 -0.327632683461
128041500 0.504386579474 -0.325216022925
128051000 0.502595397762 -0.324753317883
128060500 0.503800862998 -0.326732972891
128070000 0.506058687556 -0.326818467175
128079500 0.504782458744 -0.325316252223
128089000 0.502869845354 -0.324168984073
128098500 0.502365316412 -0.323794952463
128108000 0.504126316932 -0.325475675387
128117500 0.506505052805 -0.325438074759
128127000 0.505464333344 -0.322720439813
128136500 0.502659809726 -0.322034397515
128146000 0.50342227113 -0.322407643356
128155500 0.504537076338 -0.323439920552
128165000 0.506034909278 -0.323194949849
128174500 0.505635174222 -0.320357296144
128184000 0.502528736872 -0.320692249023
128193500 0.503856773361 -0.32191229114
128203000 0.505323679666 -0.322162936578
128212500 0.505472675266 -0.32129921112
128222000 0.505384337873 -0.318790119091
128231500 0.503539153462 -0.318144050534
128241000 0.504380876731 -0.320204289765
128250500 0.506480662745 -0.320521882639
128260000 0.50537632895 -0.318878748842
128269500 0.5038729954 -0.317583558171
128279000 0.503302855431 -0.317145347662
128288500 0.504710770538 -0.319084767307
128298000 0.507199180874 -0.319164479205
128307500 0.506304190041 -0.316402845265
128317000 0.503682327814 -0.315474888766
128326500 0.504428618741 -0.315788738309
128336000 0.505291380707 -0.316983939734
128345500 0.507032481186 -0.316999397508
128355000 0.506780985109 -0.314027212266
128364500 0.503682182326 -0.314178999533
128374000 0.504729108524 -0.31537228984
128383500 0.506099861335 -0.315640948064
128393000 0.50654122147 -0.314991532998
128402500 0.50667280894 -0.312486252843
128412000 0.504796188334 -0.311710052886
128421500 0.505229934901 -0.313877288611
128431000 0.507381461222 -0.314187352753
128440500 0.506457823534 -0.312689679724
128450000 0.505292549503 -0.311139176429
128459500 0.513968032516 -0.299944584744
128469000 0.514731634508 -0.300074918812
128478500 0.514727291181 -0.299290688725
128488000 0.512823646561 -0.299879076345
128497500 0.514609231432 -0.29859449666
128507000 0.514885342741 -0.297434109461
128516500 0.513904559929 -0.298283105009
128526000 0.515753271574 -0.298477773033
128535500 0.515834202674 -0.297569189749
128545000 0.515275876133 -0.296202906103
128554500 0.514690854839 -0.295413161879
128564000 0.515300710042 -0.296695236839
128573500 0.517157359547 -0.297145210714
128583000 0.516772419499 -0.295634477668
128592500 0.515600274883 -0.294273454184
128602000 0.515064695864 -0.294595365783
128611500 0.516136081671 -0.29577375572
128621000 0.517623361723 -0.295895936797
128630500 0.517736879399 -0.293607646115
128640000 0.516421372166 -0.292380409634
128649500 0.516773696393 -0.293158300732
128659000 0.517489498207 -0.294245240495
128668500 0.517894276131 -0.294045349434
128678000 0.518115815524 -0.291529356235
128687500 0.516647350331 -0.290830071077
128697000 0.51729488079 -0.292462465086
128706500 0.51876682293 -0.292918140838
128716000 0.519171691575 -0.291745260379
128725500 0.51918765801 -0.289510180355
128735000 0.518417427514 -0.289086465405
128744500 0.518609456371 -0.290628963545
128754000 0.519764073111 -0.291451850555
128763500 0.520612913851 -0.289258598189
128773000 0.519674077149 -0.287751361573
128782500 0.518957016875 -0.288060185736
128792000 0.519845528936 -0.289218294914
128801500 0.521359967303 -0.289460970622
128811000 0.521926127134 -0.287231997782
128820500 0.520681171443 -0.28598544543
128830000 0.52102764339 -0.286594335558
128839500 0.521595748317 -0.287594288132
128849000 0.522337316986 -0.287458687748
128858500 0.522504745922 -0.285204870898
128868000 0.521045527233 -0.284269080303
128877500 0.521599140782 -0.285889699764
128887000 0.52285679017 -0.28658360604
128896500 0.523347620328 -0.285474146555
128906000 0.523695206057 -0.283371308049
128915500 0.52294749604 -0.282830640453
128925000 0.522998010016 -0.284301218993
128934500 0.524699238748 -0.2848629022
128944000 0.524738563185 -0.283361068112
128953500 0.524188879252 -0.281800448907
128963000 0.523428084555 -0.281829162379
128972500 0.523977349677 -0.283104385236
128982000 0.525501588692 -0.283559408208
128991500 0.526076305573 -0.281638158739
129001000 0.525045136385 -0.280194352415
129010500 0.525144478588 -0.280671574795
129020000 0.525375804318 -0.281674782065
129029500 0.526074191468 -0.281787084361
129039000 0.52639203756 -0.27963632877
129048500 0.525021318216 -0.278468498692
129058000 0.525166442431 -0.279982650167
129067500 0.52621960455 -0.280952687233
129077000 0.526632446664 -0.279985767964
129086500 0.527236370345 -0.277955287882
129096000 0.526233771654 -0.277457685105
129105500 0.526112005829 -0.278791486573
129115000 0.527610619588 -0.27942585685
129124500 0.527835223687 -0.278084014187
129134000 0.52736347672 -0.276495873916
129143500 0.526483943138 -0.27629790576
129153000 0.526824423614 -0.277649331428
129162500 0.528299420951 -0.278238827293
129172000 0.529116486481 -0.276440716967
129181500 0.528246271377 -0.274936326484
129191000 0.527970855318 -0.275396629428
129200500 0.528002834429 -0.276361856607
129210000 0.528732757439 -0.276734519167
129219500 0.529149647095 -0.274671620683
129229000 0.527744256047 -0.273330475643
129238500 0.527660881255 -0.274876127328
129248000 0.528827454145 -0.275714492799
129257500 0.528966331245 -0.275014549049
129267000 0.529998025109 -0.273001146552
129276500 0.529304153577 -0.272099241669
129286000 0.528778516377 -0.273541341546
129295500 0.529912507411 -0.274346721088
129305000 0.529971127818 -0.273257981259
129314500 0.530083025869 -0.271512543256
129324000 0.529049415542 -0.271171508531
129333500 0.52923876143 -0.27237623663
129343000 0.530734828456 -0.273247469171
129352500 0.531616913741 -0.271666572375
129362000 0.530751050927 -0.270072975828
129371500 0.530326908974 -0.270416287616
129381000 0.530359256809 -0.271345505762
129390500 0.531170756552 -0.271885196859
129400000 0.531688000789 -0.269892461643
129409500 0.526157952664 -0.27303932438
129419000 0.527158529367 -0.273172635913
129428500 0.526586986539 -0.273330757135
129438000 0.52703432005 -0.275787371173
129447500 0.529814602636 -0.274635751541
129457000 0.527974119388 -0.272907483703
129466500 0.528704670107 -0.27341366637
129476000 0.526327926958 -0.274241851195
129485500 0.528196434212 -0.27395489839
129495000 0.529573798761 -0.272755702322
129504500 0.529013511632 -0.27140858449
129514000 0.529253943961 -0.271938826294
129523500 0.528509261379 -0.273236854952
129533000 0.5301651747 -0.272488151716
129542500 0.52954933978 -0.271083938958
129552000 0.53022584592 -0.27059493846
129561500 0.529479769351 -0.270591018406
129571000 0.529033967808 -0.272348183554
129580500 0.531420537989 -0.271538832772
129590000 0.529476428424 -0.269546355553
129599500 0.530609834182 -0.270009579322
129609000 0.529894328848 -0.269421864121
129618500 0.529824199362 -0.271167173546
129628000 0.532732120089 -0.270319979918
129637500 0.530526332068 -0.268433339841
129647000 0.531034271711 -0.269071033879
129656500 0.529829932187 -0.268826897212
129666000 0.530547248708 -0.269685412202
129675500 0.532075327091 -0.268683957032
129685000 0.531168194596 -0.267248058264
129694500 0.531461117962 -0.267709687014
129704000 0.530531778846 -0.268688879905
129713500 0.531877376262 -0.268218062508
129723000 0.531512196688 -0.266682047468
129732500 0.532140947635 -0.266056856204
129742000 0.531373010996 -0.265880690805
129751500 0.530648819732 -0.267425199858
129761000 0.533157938887 -0.266906793305
129770500 0.531420328088 -0.26476757588
129780000 0.532201109188 -0.265147097501
129789500 0.531794235626 -0.264248203521
129799000 0.531461527915 -0.266016151619
129808500 0.534414658318 -0.265467398607
129818000 0.532446920517 -0.263364704639
129827500 0.532814613102 -0.263935092372
129837000 0.532085252848 -0.263274244656
129846500 0.532460718946 -0.26428484369
129856000 0.534235136026 -0.263624077542
129865500 0.533310323296 -0.261996818052
129875000 0.53363903341 -0.262629335123
129884500 0.532638126793 -0.263199196279
129894000 0.534027819497 -0.262960537763
129903500 0.534046733388 -0.261505457132
129913000 0.534580196404 -0.260882695985
129922500 0.533921160012 -0.260711845426
129932000 0.533025738694 -0.262082050656
129941500 0.535532522624 -0.261824208269
129951000 0.533927575242 -0.259494479229
129960500 0.53474285346 -0.259852905835
129970000 0.534463103412 -0.258938513688
129979500 0.534002156451 -0.260578419475
129989000 0.5368894551 -0.259945357378
129998500 0.535775337667 -0.257250661857
130008000 0.53807693907 -0.259581573743
130017500 0.536107511949 -0.260717399538
130027000 0.539371723416 -0.260379861047
130036500 0.538108019783 -0.25828713537
130046000 0.537943764327 -0.258430551873
130055500 0.536666490267 -0.259518618052
130065000 0.539771136863 -0.259560967556
130074500 0.538377717026 -0.256946427231
130084000 0.538970555126 -0.257782174644
130093500 0.537912724566 -0.258401584972
130103000 0.540273759513 -0.258383698941
130112500 0.539338810193 -0.25573691998
130122000 0.540153346815 -0.25656457904
130131500 0.539140395635 -0.256232722009
130141000 0.540594523773 -0.256987419568
130150500 0.540267024133 -0.254598722098
130160000 0.540962412112 -0.255192849038
130169500 0.540690777082 -0.254571981667
130179000 0.542304674363 -0.256528857224
130188500 0.542091062464 -0.254230370653
130198000 0.542305222709 -0.253590389107
130207500 0.542163090342 -0.252663245086
130217000 0.541856153067 -0.254374467816
130226500 0.543815410713 -0.253729684551
130236000 0.543604637821 -0.252275069515
130245500 0.543444949409 -0.251951405919
130255000 0.542759049053 -0.253079972299
130264500 0.54549367567 -0.253312152252
130274000 0.544765625515 -0.25085769654
130283500 0.545015418199 -0.251007395302
130293000 0.543609922453 -0.251834351647
130302500 0.546460362808 -0.252252903267
130312000 0.545541615946 -0.249606431646
130321500 0.546060379503 -0.250414127862
130331000 0.545022098136 -0.2508347549
130340500 0.547243668146 -0.251078530282
130350000 0.546452718351 -0.248437330416
130359500 0.554262047586 -0.248875674467
130369000 0.553434761168 -0.249058783338
130378500 0.554568784526 -0.250174111306
130388000 0.554882968602 -0.248499391329
130397500 0.555732122225 -0.248750184893
130407000 0.55454292982 -0.247981031355
130416500 0.5556191565 -0.249236485339
130426000 0.556256775027 -0.248336551292
130435500 0.556949256095 -0.247294066992
130445000 0.555982204236 -0.246845882224
130454500 0.556167999226 -0.248016403883
130464000 0.557473411488 -0.247047736724
130473500 0.558072107309 -0.246486796069
130483000 0.557693358909 -0.245537279069
130492500 0.557374833398 -0.246759816208
130502000 0.558994029599 -0.246649646549
130511500 0.559491230692 -0.245192702632
130521000 0.559236082445 -0.244044189291
130530500 0.558364874872 -0.245492622356
130540000 0.560493544718 -0.246032917725
130549500 0.560905831295 -0.244380374692
130559000 0.560671811509 -0.24379014691
130568500 0.560109902868 -0.244325862599
130578000 0.561609308163 -0.245498228033
130587500 0.56222570099 -0.243790977809
130597000 0.562231431839 -0.243266818076
130606500 0.561542836999 -0.243207217156
130616000 0.562597715019 -0.244531242129
130625500 0.563261628581 -0.24294235994
130635000 0.563758295674 -0.2431723219
130644500 0.563008511417 -0.242562457144
130654000 0.563540629727 -0.24364121747
130663500 0.564766160213 -0.242896167859
130673000 0.565195859616 -0.242003589106
130682500 0.564675491897 -0.241365531755
130692000 0.564534545286 -0.242657308069
130701500 0.56588073806 -0.241947441864
130711000 0.566546264005 -0.241240417684
130720500 0.566265177572 -0.240318430255
130730000 0.565670205956 -0.241524383974
130739500 0.567162212406 -0.241588578818
130749000 0.567926838626 -0.240366705546
130758500 0.56793471338 -0.23912815919
130768000 0.566778592406 -0.240285481595
130777500 0.568571945977 -0.240980687166
130787000 0.569292744615 -0.239555042875
130796500 0.569432205637 -0.238789544174
130806000 0.568785253886 -0.239486280423
130815500 0.56983273835 -0.240775221766
130825000 0.570449802667 -0.239174672054
130834500 0.571004629128 -0.238448773004
130844000 0.570468139721 -0.238443890134
130853500 0.571038626605 -0.239873345605
130863000 0.571916694731 -0.238442793243
130872500 0.572503532089 -0.238661511924
130882000 0.571611959759 -0.237947066231
130891500 0.572390789258 -0.239210618577
130901000 0.573194348599 -0.2384710807
130910500 0.574193675217 -0.237723400451
130920000 0.573479512995 -0.236908565538
130929500 0.573209545631 -0.238286995522
130939000 0.574272141554 -0.237768189223
130948500 0.575279909809 -0.23730817358
130958000 0.575150558697 -0.236282016221
130967500 0.574395182625 -0.237387004844
130977000 0.575564414682 -0.238151515344
130986500 0.576980628442 -0.236428272227
130996000 0.576934786122 -0.235319264858
131005500 0.575759230616 -0.23621170884
131015000 0.577382467419 -0.237129430442
131024500 0.578258210953 -0.235858117847
131034000 0.578075978905 -0.235059216259
131043500 0.577521880353 -0.23563467297
131053000 0.578645915166 -0.236881033766
131062500 0.579420395467 -0.235534193827
131072000 0.578946027543 -0.235351692102
131081500 0.578844943709 -0.234891871326
131091000 0.579395479741 -0.236239910693
131100500 0.580302290193 -0.235041233529
131110000 0.580880394515 -0.23519063745
131119500 0.580351770776 -0.234657152976
131129000 0.580600081644 -0.235816297271
131138500 0.581604627129 -0.235166413717
131148000 0.582330650453 -0.234570925334
131157500 0.581680957403 -0.233696354653
131167000 0.581201343512 -0.234729264726
131176500 0.582345592131 -0.234574497512
131186000 0.583318565762 -0.234136123172
131195500 0.58332249669 -0.233365782844
131205000 0.582665177648 -0.234204353258
131214500 0.583976323602 -0.234510002579
131224000 0.584368737329 -0.233451108587
131233500 0.584900937691 -0.232570526305
131243000 0.583708152636 -0.233230377436
131252500 0.585060154657 -0.234164325195
131262000 0.5858099293 -0.233101132903
131271500 0.58594600105 -0.232268018825
131281000 0.585137203772 -0.232761172208
131290500 0.58603398276 -0.234078910371
131300000 0.586427722104 -0.23270721927
131309500 0.582018866394 -0.23196533816
131319000 0.582668305258 -0.233277881325
131328500 0.583475953523 -0.231973670201
131338000 0.583866164113 -0.232278459
131347500 0.583654390526 -0.231237527075
131357000 0.583707655325 -0.232509312028
131366500 0.584529403186 -0.232062504092
131376000 0.585051656818 -0.231445195008
131385500 0.584933244358 -0.231194003075
131395000 0.584654050204 -0.231727343467
131404500 0.586394967091 -0.232000956453
131414000 0.586196611362 -0.231317917403
131423500 0.586915419627 -0.23096355053
131433000 0.58608461313 -0.231230749428
131442500 0.587567177478 -0.232016803988
131452000 0.587922883682 -0.230560872964
131461500 0.588083819351 -0.231170548607
131471000 0.587330606146 -0.231071881196
131480500 0.588708479698 -0.232024888867
131490000 0.588962682586 -0.230474835452
131499500 0.589264916857 -0.230945327307
131509000 0.588782331645 -0.230384092022
131518500 0.589489792859 -0.231898497007
131528000 0.590315523922 -0.230336836037
131537500 0.5907246461 -0.230762647968
131547000 0.590141674006 -0.230203347316
131556500 0.590407609216 -0.231664225402
131566000 0.59165128634 -0.230674367167
131575500 0.591856262208 -0.230786072051
131585000 0.591863882375 -0.22989518316
131594500 0.592033404315 -0.231156594617
131604000 0.592692241672 -0.230786977238
131613500 0.590011877534 -0.229434201154
131623000 0.593421403979 -0.230110181415
131632500 0.593019166967 -0.230308287698
131642000 0.594593724518 -0.23090201512
131651500 0.594681907065 -0.230272717298
131661000 0.594847995413 -0.230131871984
131670500 0.59441318491 -0.230272810396
131680000 0.59558190869 -0.231056215449
131689500 0.596231137002 -0.229813097932
131699000 0.596426926562 -0.23046893919
131708500 0.59557337158 -0.229517853271
131718000 0.596840598916 -0.231027626165
131727500 0.597508478459 -0.229811429486
131737000 0.597653554374 -0.230178495856
131746500 0.597459041098 -0.229870168859
131756000 0.598092598736 -0.231258320983
131765500 0.598872245893 -0.229689249882
131775000 0.599167104295 -0.23026229638
131784500 0.598727448373 -0.22971144318
131794000 0.599294876083 -0.231283755205
131803500 0.599840300582 -0.229976693871
131813000 0.600205056276 -0.23026055855
131822500 0.600288706465 -0.229555063008
131832000 0.600109456377 -0.230672341027
131841500 0.600963460457 -0.230307133714
131851000 0.601700048702 -0.230171570255
131860500 0.601524348944 -0.229712828352
131870000 0.601434027974 -0.230197294233
131879500 0.602480524844 -0.230741439108
131889000 0.602914761759 -0.229673696196
131898500 0.602937400159 -0.229974518591
131908000 0.602469755252 -0.22990813834
131917500 0.603994994781 -0.230995321347
131927000 0.603893917905 -0.229642308455
131936500 0.604332751671 -0.23019016466
131946000 0.603476034651 -0.229930760521
131955500 0.604585426748 -0.23099307319
131965000 0.604898736434 -0.229712442972
131974500 0.605548139217 -0.230219978033
131984000 0.604978670958 -0.229801191994
131993500 0.605368172169 -0.231118897245
132003000 0.606361182472 -0.229797705564
132012500 0.606504244452 -0.230357404036
132022000 0.606287193835 -0.229713662034
132031500 0.605960986528 -0.231313742654
132041000 0.607024847441 -0.230035338284
132050500 0.607434182379 -0.230411200713
132060000 0.607673973647 -0.229664013552
132069500 0.607095248178 -0.230725961238
132079000 0.608136335893 -0.230493434226
132088500 0.608101196456 -0.230458662904
132098000 0.60853394942 -0.229981641855
132107500 0.608322791885 -0.23068724964
132117000 0.608994873469 -0.23117133713
132126500 0.609181089728 -0.230758684517
132136000 0.609818937939 -0.230593217111
132145500 0.60941596167 -0.230987839321
132155000 0.610983333956 -0.232140974177
132164500 0.611041621321 -0.231050768443
132174000 0.611364300508 -0.231863326679
132183500 0.6107253346 -0.231601149543
132193000 0.611771115079 -0.233106210636
132202500 0.612808377382 -0.232044635047
132212000 0.61312976256 -0.232783134256
132221500 0.612805675767 -0.232214626128
132231000 0.613147787251 -0.233547271951
132240500 0.614084060848 -0.232437505024
132250000 0.614176655933 -0.233083500438
132259500 0.584673405527 -0.219902528254
132269000 0.584352336795 -0.221588983877
132278500 0.585840479316 -0.219566813479
132288000 0.586178116749 -0.219191552615
132297500 0.585813082997 -0.218998756878
132307000 0.585251290935 -0.220185508079
132316500 0.586027719866 -0.21892911631
132326000 0.586560474435 -0.21867765855
132335500 0.585820133281 -0.218431911105
132345000 0.585502628926 -0.219347175179
132354500 0.58657504583 -0.218911893745
132364000 0.58729774618 -0.218677840521
132373500 0.586885655273 -0.218300465619
132383000 0.584652171424 -0.219229106674
132392500 0.586888260512 -0.219089631738
132402000 0.587663865295 -0.218542131234
132411500 0.588020206456 -0.219287380631
132421000 0.587234622015 -0.220224739119
132430500 0.588176305273 -0.221105578251
132440000 0.588507542256 -0.219201420929
132449500 0.588477094931 -0.218384659008
132459000 0.586742958985 -0.218238147959
132468500 0.586957464563 -0.219482763743
132478000 0.588230819913 -0.218209626235
132487500 0.588084336347 -0.218074680301
132497000 0.587897612926 -0.218009351327
132506500 0.58713057808 -0.219702438012
132516000 0.58903129268 -0.217760167334
132525500 0.58889679262 -0.217823910009
132535000 0.58852871482 -0.217614913507
132544500 0.58765304766 -0.218936220872
132554000 0.589946813752 -0.217928573254
132563500 0.58942070403 -0.218122239684
132573000 0.589092460744 -0.21790568389
132582500 0.5881350025 -0.218925547365
132592000 0.589131580199 -0.218403020918
132601500 0.589928291022 -0.217755194087
132611000 0.590012999369 -0.217256930789
132620500 0.588692117762 -0.217801725382
132630000 0.589574689128 -0.217977236442
132639500 0.590694443881 -0.217205981044
132649000 0.590194514147 -0.217697845501
132658500 0.588901538302 -0.218038839667
132668000 0.589642632895 -0.218998171075
132677500 0.590352161887 -0.218409370586
132687000 0.590682472009 -0.218626344178
132696500 0.58905579681 -0.219162861843
132706000 0.589540071074 -0.220497184224
132715500 0.590980195783 -0.219359958539
132725000 0.590912013269 -0.219253695532
132734500 0.590349367616 -0.219380181693
132744000 0.589655742518 -0.22122385613
132753500 0.591382666169 -0.21990641898
132763000 0.591673847738 -0.219659631565
132772500 0.591385182578 -0.219584418171
132782000 0.590462971649 -0.220996137723
132791500 0.59200788149 -0.22019991248
132801000 0.591896659959 -0.220005626209
132810500 0.591878284783 -0.219924148809
132820000 0.591088811075 -0.220747950946
132829500 0.592108184051 -0.220385118067
132839000 0.592829408251 -0.219978793681
132848500 0.59263434028 -0.219545401745
132858000 0.590939854379 -0.219696168802
132867500 0.591900387034 -0.220025107441
132877000 0.592686653738 -0.218854233132
132886500 0.592400063516 -0.218960963394
132896000 0.591272346926 -0.218802792671
132905500 0.592091922688 -0.219241280687
132915000 0.593379347389 -0.218104309219
132924500 0.593833738268 -0.21756037678
132934000 0.592536914403 -0.217087153593
132943500 0.592933434476 -0.218075498695
132953000 0.594387143592 -0.21681946152
132962500 0.594739090379 -0.216488587812
132972000 0.59403175452 -0.216118486322
132981500 0.59251560628 -0.217088627442
132991000 0.594896170742 -0.21648703234
133000500 0.595204437968 -0.216461978526
133010000 0.594723852453 -0.216210067141
133019500 0.593539689607 -0.217199919867
133029000 0.59511134147 -0.216510817125
133038500 0.595556037274 -0.216352717627
133048000 0.595087181265 -0.216114287996
133057500 0.594191221717 -0.216536121764
133067000 0.595501442406 -0.216611847451
133076500 0.59635130207 -0.216581048551
133086000 0.596260032915 -0.216140141487
133095500 0.59500699201 -0.216380961703
133105000 0.595921772939 -0.216933838293
133114500 0.597134772545 -0.216398980252
133124000 0.596575257812 -0.216282725425
133133500 0.59588968001 -0.216022336426
133143000 0.596606080956 -0.216902106098
133152500 0.597701236941 -0.216374542062
133162000 0.598398376856 -0.216575210698
133171500 0.596846307077 -0.216428092367
133181000 0.59658682833 -0.217322891167
133190500 0.598118354298 -0.217014498746
133200000 0.598409793849 -0.217035750059
133209500 0.598402072927 -0.22342931353
133219000 0.597897749748 -0.223991283183
133228500 0.599253280539 -0.223682546885
133238000 0.598767081309 -0.223552292599
133247500 0.599473298752 -0.223482263207
133257000 0.599057588486 -0.223712703361
133266500 0.600079344483 -0.223986621036
133276000 0.600912797194 -0.22369869376
133285500 0.600342216218 -0.22378371024
133295000 0.600032771406 -0.223780753885
133304500 0.600762486133 -0.224515250451
133314000 0.60198633322 -0.223486623261
133323500 0.601522778047 -0.223821795715
133333000 0.601183667472 -0.223418466
133342500 0.601638905166 -0.224254504243
133352000 0.603223719259 -0.223355352875
133361500 0.602539626297 -0.223938687131
133371000 0.602186353005 -0.223419513228
133380500 0.602300789631 -0.224253862727
133390000 0.603885133412 -0.223581659446
133399500 0.603650872673 -0.223742460706
133409000 0.603406326072 -0.223561602853
133418500 0.602665132561 -0.224182192703
133428000 0.604747644721 -0.223596740802
133437500 0.604882516155 -0.223726174484
133447000 0.604386962153 -0.223446982289
133456500 0.60358544857 -0.22408869631
133466000 0.605620941017 -0.223831298665
133475500 0.605945794208 -0.223598211448
133485000 0.605884769504 -0.223473132427
133494500 0.604384614492 -0.223813179582
133504000 0.606286234754 -0.223900295813
133513500 0.607222857001 -0.223636987841
133523000 0.606946261983 -0.223763436925
133532500 0.60646667635 -0.223625856167
133542000 0.607310064799 -0.224665363048
133551500 0.608011009216 -0.223789098586
133561000 0.607945467364 -0.223905667818
133570500 0.60767814014 -0.223563549448
133580000 0.608128003442 -0.224298226111
133589500 0.609633425158 -0.223838233795
133599000 0.60895945378 -0.223718106462
133608500 0.608507139864 -0.223541024966
133618000 0.608691344006 -0.224356255155
133627500 0.610316799283 -0.22401019237
133637000 0.609669864766 -0.224085078926
133646500 0.609728923837 -0.223776884543
133656000 0.609392913791 -0.224111088355
133665500 0.611125152407 -0.224215776123
133675000 0.61145313292 -0.224263078371
133684500 0.61089591294 -0.223811678694
133694000 0.61064920188 -0.224272200214
133703500 0.61192643946 -0.224312903578
133713000 0.612111807223 -0.224045944786
133722500 0.612151112008 -0.223968263178
133732000 0.611499082366 -0.224055054753
133741500 0.612692499971 -0.224206523455
133751000 0.612135196478 -0.22342615639
133760500 0.613175776846 -0.224001821127
133770000 0.612789032284 -0.223908681666
133779500 0.613512589085 -0.224552835246
133789000 0.614523525527 -0.224374783517
133798500 0.614075270149 -0.224341135756
133808000 0.613947253417 -0.223955768448
133817500 0.614207121361 -0.224583663691
133827000 0.615545278475 -0.22425378613
133836500 0.614940051624 -0.224344073861
133846000 0.614740012314 -0.224109596647
133855500 0.614840505993 -0.224681744049
133865000 0.616406745553 -0.22448884478
133874500 0.616208053598 -0.22460907999
133884000 0.615947660266 -0.224032472093
133893500 0.61570184508 -0.224420778472
133903000 0.617356801826 -0.224662344951
133912500 0.617314716736 -0.224642744247
133922000 0.616977550283 -0.224307199749
133931500 0.61714962852 -0.224749132414
133941000 0.617916827247 -0.224909080371
133950500 0.618317115259 -0.224870901568
133960000 0.618365469237 -0.22480600215
133969500 0.617678812427 -0.224595782301
133979000 0.618299805149 -0.225043979616
133988500 0.619627702298 -0.225755100535
133998000 0.618945958846 -0.224928975066
134007500 0.618815298413 -0.224906812924
134017000 0.619249297374 -0.225579517125
134026500 0.620333546624 -0.225346948757
134036000 0.619515688374 -0.225222297247
134045500 0.619824536909 -0.224836512768
134055000 0.620029149007 -0.225558756819
134064500 0.621307380987 -0.225548088488
134074000 0.620332753842 -0.225555397374
134083500 0.620567240653 -0.225035976104
134093000 0.620644536129 -0.225652890082
134102500 0.621743859269 -0.225723459655
134112000 0.621549915509 -0.225828913736
134121500 0.621592255969 -0.22540756374
134131000 0.621426167767 -0.225670271199
134140500 0.622522472456 -0.226034333957
134150000 0.622589333854 -0.226200225579
134159500 0.625083312376 -0.22687369147
134169000 0.625405450995 -0.226342118728
134178500 0.624641718431 -0.225907095589
134188000 0.624169756236 -0.226159527463
134197500 0.625520641663 -0.227012748945
134207000 0.626580170847 -0.22682003566
134216500 0.625474892526 -0.226671060361
134226000 0.625354346697 -0.226217004412
134235500 0.626103610001 -0.227067290258
134245000 0.627666946435 -0.227672197815
134254500 0.62625893453 -0.22691165492
134264000 0.625489606611 -0.226684332478
134273500 0.626821398817 -0.227434726799
134283000 0.627944925627 -0.227934352901
134292500 0.627319654717 -0.227113693704
134302000 0.627081406588 -0.226532701695
134311500 0.627683186667 -0.227582919918
134321000 0.62894281606 -0.228746314776
134330500 0.628281149272 -0.227502211781
134340000 0.62774386345 -0.226852827417
134349500 0.628199828313 -0.227880131982
134359000 0.628835570244 -0.228338438844
134368500 0.629767860432 -0.227794319913
134378000 0.628728155282 -0.227280281015
134387500 0.628940176148 -0.227926209326
134397000 0.629821709067 -0.228321965347
134406500 0.630349909943 -0.228237114781
134416000 0.629473411855 -0.227710473586
134425500 0.629093861749 -0.227608096737
134435000 0.630182657473 -0.228757495208
134444500 0.630943721163 -0.228689693221
134454000 0.630436325023 -0.228391633262
134463500 0.630206537689 -0.227876730407
134473000 0.630977590423 -0.228774734581
134482500 0.631877295202 -0.229269180745
134492000 0.631308408581 -0.228678354128
134501500 0.631111627506 -0.228071051947
134511000 0.631645499354 -0.229132018622
134520500 0.632233859823 -0.229680296893
134530000 0.632075341111 -0.228901083633
134539500 0.631899059671 -0.228318500853
134549000 0.632536102253 -0.229305537893
134558500 0.633013456023 -0.229789564869
134568000 0.632877909097 -0.229325516246
134577500 0.632519821728 -0.22858946821
134587000 0.633347277126 -0.229500679688
134596500 0.633502421613 -0.230226183481
134606000 0.633822626176 -0.229771651958
134615500 0.633513039506 -0.229016475948
134625000 0.633760900882 -0.229688766502
134634500 0.634157147028 -0.230316119405
134644000 0.63493441382 -0.230139977867
134653500 0.634152089435 -0.229731190929
134663000 0.634128012445 -0.229499820868
134672500 0.634816806188 -0.230669070827
134682000 0.6355454117 -0.230691492312
134691500 0.634911102599 -0.230235335336
134701000 0.635026804715 -0.22993990723
134710500 0.635626938154 -0.230757256502
134720000 0.63632992075 -0.231181643748
134729500 0.635892831168 -0.230626359335
134739000 0.635802454914 -0.230054704813
134748500 0.636424696041 -0.23114848126
134758000 0.636826141391 -0.231767832234
134767500 0.636864600871 -0.230896287068
134777000 0.636609502164 -0.230217211582
134786500 0.637160215061 -0.231385773061
134796000 0.637395583728 -0.232124932419
134805500 0.637389360589 -0.231436160142
134815000 0.637441151029 -0.230844485654
134824500 0.637790550243 -0.231775831595
134834000 0.637941488919 -0.232320582026
134843500 0.638356502632 -0.231946546028
134853000 0.638118381457 -0.231300999755
134862500 0.637205761108 -0.230841276963
134872000 0.640088203045 -0.231170074701
134881500 0.639082583757 -0.232437879406
134891000 0.63884544197 -0.232081225503
134900500 0.638885443438 -0.232028855241
134910000 0.639173345528 -0.232876834616
134919500 0.639829935768 -0.232805898447
134929000 0.639722400724 -0.232546102816
134938500 0.639594442316 -0.232200858267
134948000 0.63991698796 -0.233059559922
134957500 0.639986666919 -0.233483278086
134967000 0.640332271697 -0.233028923012
134976500 0.640086712702 -0.232340098418
134986000 0.640694208251 -0.233377808258
134995500 0.640906406867 -0.234013061114
135005000 0.640864882618 -0.233291011465
135014500 0.64107922921 -0.232781435076
135024000 0.641632863828 -0.233891800547
135033500 0.641482994384 -0.234463726639
135043000 0.641484866997 -0.233853959906
135052500 0.641700363328 -0.233354671633
135062000 0.641618669924 -0.234221882764
135071500 0.641884200111 -0.234681328853
135081000 0.642330534969 -0.234609189695
135090500 0.642195524728 -0.233747122229
135100000 0.64223742211 -0.234348261781
135109500 0.643041734996 -0.235380740287
135119000 0.643482889238 -0.235502132202
135128500 0.643781015043 -0.234645722684
135138000 0.643765233765 -0.235447884453
135147500 0.644002470804 -0.235952732283
135157000 0.644234455005 -0.235859439376
135166500 0.644305595709 -0.23504368369
135176000 0.644576303553 -0.23609638461
135185500 0.644522620027 -0.236245721721
135195000 0.644722774202 -0.236213758379
135204500 0.644791078446 -0.23545736377
135214000 0.645257914155 -0.236195894055
135223500 0.644998536764 -0.236400057933
135233000 0.645164423377 -0.236640125885
135242500 0.645486987939 -0.236141034678
135252000 0.645807875244 -0.236451571402
135261500 0.645512077743 -0.236832703843
135271000 0.646207875497 -0.237009423073
135280500 0.645307084117 -0.236920281247
135290000 0.646259800015 -0.236592481272
135299500 0.646211073094 -0.237108317729
135309000 0.646728629738 -0.237489523756
135318500 0.646652159913 -0.237367372692
135328000 0.646809687507 -0.23684224095
135337500 0.646891230689 -0.237690386345
135347000 0.647112532379 -0.237879622854
135356500 0.647195733602 -0.23790724712
135366000 0.6475319675 -0.237344010671
135375500 0.64762459388 -0.237982406495
135385000 0.64752853665 -0.238204794804
135394500 0.647692804916 -0.238306259987
135404000 0.647835101739 -0.237978213923
135413500 0.648227754651 -0.238477840483
135423000 0.648094152567 -0.238498182455
135432500 0.648445460836 -0.238623840418
135442000 0.648748543726 -0.238179925357
135451500 0.648869849749 -0.2387189308
135461000 0.648606019194 -0.238705823102
135470500 0.649035372099 -0.239036388714
135480000 0.649078840501 -0.238578690256
135489500 0.649474553295 -0.239149175885
135499000 0.648754091478 -0.238612206893
135508500 0.649770833556 -0.239682481319
135518000 0.649582499008 -0.239369600177
135527500 0.64987778331 -0.239340140861
135537000 0.649902441996 -0.239686212005
135546500 0.650217652931 -0.239913953077
135556000 0.650479525643 -0.239881691215
135565500 0.650240986831 -0.239176698573
135575000 0.650283633193 -0.239963624779
135584500 0.650588662629 -0.240405803935
135594000 0.650056326951 -0.240334305361
135603500 0.651209379872 -0.239979799808
135613000 0.651140446082 -0.240722816284
135622500 0.650206785883 -0.240506319142
135632000 0.651088280943 -0.240926939639
135641500 0.65167049549 -0.240312566954
135651000 0.651652776359 -0.241354806069
135660500 0.651232657223 -0.24130875809
135670000 0.651438774399 -0.241733637493
135679500 0.651852769366 -0.241169408834
135689000 0.654123033206 -0.241635833665
135698500 0.651903333123 -0.241583784513
135708000 0.652002692536 -0.241841074386
135717500 0.652439075557 -0.241301836557
135727000 0.652753193263 -0.241851325454
135736500 0.652318766971 -0.241738483236
135746000 0.652692094115 -0.2421952852
135755500 0.652553757959 -0.24191353696
135765000 0.652736765595 -0.242026791185
135774500 0.653038601747 -0.242313968338
135784000 0.653143475872 -0.242693390479
135793500 0.653358373182 -0.242708148467
135803000 0.653735909565 -0.242381159508
135812500 0.653364885687 -0.242880856206
135822000 0.653539839371 -0.243100406992
135831500 0.653278664712 -0.243091833492
135841000 0.653178613901 -0.242401010723
135850500 0.654067651879 -0.24345771694
135860000 0.653892668878 -0.243457086648
135869500 0.653729898422 -0.243524969061
135879000 0.654196039785 -0.243136028416
135888500 0.654018794817 -0.24395459115
135898000 0.65403854628 -0.243753542936
135907500 0.654460052768 -0.244269604923
135917000 0.654968820006 -0.243629172123
135926500 0.65480000551 -0.244287557731
135936000 0.654331447525 -0.244080448392
135945500 0.654662406282 -0.244422485178
135955000 0.654991598388 -0.244039592405
135964500 0.655287110616 -0.244621410428
135974000 0.655319246733 -0.244416936486
135983500 0.655503959568 -0.245108319187
135993000 0.655634995423 -0.244805137681
136002500 0.656005738147 -0.245001615778
136012000 0.655891793153 -0.24510371197
136021500 0.65613217186 -0.245632236448
136031000 0.656095779787 -0.245558995099
136040500 0.656383871348 -0.245336600233
136050000 0.656359620032 -0.245747982848
136059500 0.657026669214 -0.245565557016
136069000 0.657259185223 -0.246147279696
136078500 0.656506285036 -0.245922532718
136088000 0.657078713717 -0.24657249138
136097500 0.657496598829 -0.245995657221
136107000 0.657748560419 -0.246567653462
136116500 0.657546116528 -0.246498567432
136126000 0.657364524428 -0.246874616666
136135500 0.656931528373 -0.246055951182
136145000 0.657780466596 -0.246788647593
136154500 0.658140252059 -0.247066082639
136164000 0.657719761842 -0.247468501379
136173500 0.657821454163 -0.24700610263
136183000 0.658094500851 -0.247264139966
136192500 0.658868441372 -0.247506412325
136202000 0.658393664382 -0.247870083902
136211500 0.658595445007 -0.24783018549
136221000 0.658992002226 -0.24739581929
136230500 0.659042513861 -0.248064439697
136240000 0.65909505637 -0.24830331204
136249500 0.658891260067 -0.248369708807
136259000 0.659318064567 -0.247886470391
136268500 0.659783319529 -0.248646807342
136278000 0.659340324664 -0.248614623221
136287500 0.659170582072 -0.248904498988
136297000 0.658219448364 -0.247226814837
136306500 0.659688041518 -0.249187497986
136316000 0.659737028439 -0.249137483979
136325500 0.659639598875 -0.249488714213
136335000 0.65992646141 -0.248927365866
136344500 0.659852361466 -0.249528800798
136354000 0.660803515892 -0.249445067879
136363500 0.660169808352 -0.24994566983
136373000 0.659798804404 -0.249180979045
136382500 0.660184992191 -0.249850932932
136392000 0.660459697935 -0.24997968671
136401500 0.660469143851 -0.250537697418
136411000 0.661137934075 -0.25013913673
136420500 0.660792030102 -0.250165134611
136430000 0.660597697589 -0.250202332342
136439500 0.660948770847 -0.250862303445
136449000 0.660860778462 -0.250701923757
136458500 0.661269341419 -0.250532079918
136468000 0.661654050443 -0.251152551502
136477500 0.661641155099 -0.251226379429
136487000 0.655414648884 -0.254164041297
136496500 0.661634293186 -0.251018503863
136506000 0.681857523646 -0.303834805541
136515500 0.661698625732 -0.251442454163
136525000 0.661616601301 -0.251903585974
136534500 0.66164181644 -0.251399372962
136544000 0.661917972718 -0.252216747511
136553500 0.661990195639 -0.252036300378
136563000 0.661906691187 -0.252460670662
136572500 0.66206378207 -0.252001061223
136582000 0.662330914348 -0.252526413093
136591500 0.662199903233 -0.252382854685
136601000 0.662085790432 -0.252757372157
136610500 0.662218118022 -0.252444077881
136620000 0.662282319 -0.252878721071
136629500 0.662362127192 -0.252699582835
136639000 0.662523204482 -0.253357081477
136648500 0.662738678274 -0.252982222597
136658000 0.662886711276 -0.253060488379
136667500 0.662843097195 -0.253330253362
136677000 0.662824537076 -0.253778442243
136686500 0.662744467748 -0.253705584274
136696000 0.663007825039 -0.253426352588
136705500 0.663134252331 -0.253902264742
136715000 0.663089942332 -0.254102167835
136724500 0.663008827629 -0.25416045446
136734000 0.663333976129 -0.253810246144
136743500 0.663379932234 -0.25451126137
136753000 0.663475724995 -0.254459571348
136762500 0.663126673008 -0.254672779633
136772000 0.663610912601 -0.254315001018
136781500 0.663370482073 -0.254901510397
136791000 0.663380934622 -0.254769834173
136800500 0.663535474963 -0.255180355692
136810000 0.663568028382 -0.254599725038
136819500 0.663591457838 -0.255383534892
136829000 0.663834769458 -0.255071466161
136838500 0.663506851238 -0.255603199877
136848000 0.663778106453 -0.255141266132
136857500 0.663826821418 -0.255564630803
136867000 0.664283270212 -0.255473227447
136876500 0.664085492625 -0.256052718911
136886000 0.664489911625 -0.255578395173
136895500 0.664297691482 -0.255874607711
136905000 0.664255692946 -0.255939229361
136914500 0.664151213229 -0.256317446762
136924000 0.664120157907 -0.256162836305
136933500 0.664461202773 -0.256309451845
136943000 0.664473934682 -0.256477001154
136952500 0.665664100534 -0.25591404439
136962000 0.664222010401 -0.256664715736
136971500 0.664372806509 -0.256324809216
136981000 0.66445698702 -0.256988241094
136990500 0.664752225287 -0.257113808044
137000000 0.664803927808 -0.257358990906
