! Calibrated averaged scanner-service zoom
# Hz S RI R 50
88000000 0.884275347848 -0.296487921894
88010000 0.884322646444 -0.296614127686
88020000 0.884318859012 -0.296099913431
88030000 0.884577445849 -0.296414507968
88040000 0.884619343087 -0.296717037086
88050000 0.884756743862 -0.297114587875
88060000 0.884747959341 -0.296702847481
88070000 0.884981521588 -0.296899062837
88080000 0.885061338265 -0.297046580408
88090000 0.885184931289 -0.297311452263
88100000 0.885463228704 -0.297693314495
88110000 0.885339326183 -0.297500739157
88120000 0.885561431379 -0.297506022074
88130000 0.885634904569 -0.297710314664
88140000 0.88580106947 -0.297970047442
88150000 0.885918057663 -0.298299813792
88160000 0.885957468962 -0.297899111555
88170000 0.886128891848 -0.298086298934
88180000 0.886168742926 -0.298277261436
88190000 0.886340105853 -0.298595503398
88200000 0.886311232757 -0.298785405296
88210000 0.886469448476 -0.298310441147
88220000 0.88660354256 -0.298705766382
88230000 0.886654158279 -0.298964057534
88240000 0.886700377717 -0.29931320346
88250000 0.886705299029 -0.298965380792
88260000 0.887070466338 -0.299152461291
88270000 0.88718320738 -0.299315824202
88280000 0.887201359124 -0.299595534682
88290000 0.88726126961 -0.299944578477
88300000 0.887291911011 -0.299632600115
88310000 0.88758047607 -0.299677832149
88320000 0.887665425306 -0.299942255099
88330000 0.887709118268 -0.300222362177
88340000 0.887598796098 -0.300521181432
88350000 0.88781492928 -0.300149818664
88360000 0.888002288984 -0.300387509804
88370000 0.888091942426 -0.300610197851
88380000 0.888138535914 -0.300937023091
88390000 0.887994405392 -0.301120929913
88400000 0.888342361011 -0.300649098396
88410000 0.888464676722 -0.301019653959
88420000 0.888559554501 -0.301252185387
88430000 0.888542783179 -0.301522951205
88440000 0.888489585413 -0.301166405394
88450000 0.888728227628 -0.301462350181
88460000 0.888959636428 -0.301613255676
88470000 0.888933764101 -0.301811750145
88480000 0.888946876645 -0.302144765538
88490000 0.888942701861 -0.301966601998
88500000 0.889151400487 -0.302172045413
88510000 0.889263754409 -0.30232052704
88520000 0.889272216057 -0.302592047806
88530000 0.88915084286 -0.302782575953
88540000 0.889713795137 -0.302538348979
88550000 0.88974892687 -0.302642906114
88560000 0.889845755442 -0.302923946051
88570000 0.889789465607 -0.303198760487
88580000 0.889614130027 -0.303305008017
88590000 0.890107241828 -0.302970892272
88600000 0.890222370301 -0.303376975579
88610000 0.89030635257 -0.303591361104
88620000 0.890131122909 -0.30385990467
88630000 0.890046380379 -0.303589563527
88640000 0.890484230505 -0.303829278141
88650000 0.890677065648 -0.304030158839
88660000 0.890662816856 -0.304237023024
88670000 0.890429886452 -0.304535677518
88680000 0.890549617566 -0.304317629427
88690000 0.890912065469 -0.304429383535
88700000 0.891010307641 -0.304653746795
88710000 0.890981429285 -0.304921805306
88720000 0.890743285473 -0.305126422828
88730000 0.891181865771 -0.304844442406
88740000 0.891342839006 -0.305179098211
88750000 0.891437676318 -0.305346090666
88760000 0.891368601272 -0.3055674067
88770000 0.8910793828 -0.305642471186
88780000 0.891596506571 -0.305458845449
88790000 0.891749592957 -0.30579723099
88800000 0.891814654148 -0.30598700659
88810000 0.891587618514 -0.30618621867
88820000 0.891547782768 -0.305910561783
88830000 0.892031104749 -0.306238044691
88840000 0.892096680834 -0.306454846585
88850000 0.892106918231 -0.306687277599
88860000 0.891786421887 -0.306896211333
88870000 0.891897796853 -0.306732192305
88880000 0.892400719386 -0.306964697336
88890000 0.892451351799 -0.307166176064
88900000 0.892390775376 -0.307423661404
88910000 0.892082066786 -0.307520844553
88920000 0.892507641778 -0.307304981337
88930000 0.892711466632 -0.307678061575
88940000 0.892777183166 -0.307869370858
88950000 0.892678435777 -0.308071655391
88960000 0.892384769847 -0.308078892852
88970000 0.892946240179 -0.307962244344
88980000 0.893058509108 -0.308349264737
88990000 0.893132496075 -0.308560646887
89000000 0.892910991555 -0.308722255979
89010000 0.893135272032 -0.30887821853
89020000 0.893108682048 -0.308880507277
89030000 0.893310676181 -0.308907836185
89040000 0.893261682114 -0.309174447841
89050000 0.89353249104 -0.30931601834
89060000 0.893358936207 -0.3094663137
89070000 0.893515279108 -0.309390631332
89080000 0.893554371084 -0.309673223646
89090000 0.893558637473 -0.309737697342
89100000 0.893774695494 -0.309902217384
89110000 0.893543173496 -0.310038088953
89120000 0.893774000432 -0.310146348293
89130000 0.893933225353 -0.310304678185
89140000 0.893942963798 -0.310466268138
89150000 0.894089890264 -0.310744565718
89160000 0.893943514924 -0.310696748251
89170000 0.894111188139 -0.310808342335
89180000 0.894197907611 -0.310946849108
89190000 0.894432949992 -0.310994003562
89200000 0.894313745067 -0.311342114395
89210000 0.894213898548 -0.311281030079
89220000 0.894406455513 -0.311342041544
89230000 0.894347630462 -0.311619445258
89240000 0.894616713202 -0.311752814774
89250000 0.894416070139 -0.311961933168
89260000 0.8946242838 -0.311918245558
89270000 0.894667718393 -0.31215384084
89280000 0.894691863291 -0.312279695285
89290000 0.89491027872 -0.312511181191
89300000 0.894666258776 -0.312609397245
89310000 0.894785062189 -0.31277741206
89320000 0.894988732331 -0.31292015351
89330000 0.894995542688 -0.313015329629
89340000 0.895115894021 -0.31326093845
89350000 0.894959777407 -0.31323654225
89360000 0.895143526419 -0.313379157259
89370000 0.895223322788 -0.313581943057
89380000 0.895424143723 -0.31361281392
89390000 0.895328088158 -0.313908644154
89400000 0.895249879416 -0.31383454431
89410000 0.895459942812 -0.313939992664
89420000 0.895417582472 -0.314186456736
89430000 0.895610880452 -0.314397576947
89440000 0.895413143916 -0.31455618127
89450000 0.895526143046 -0.31450202782
89460000 0.895585723477 -0.314745612917
89470000 0.895686856619 -0.314884899671
89480000 0.895916157665 -0.315057586936
89490000 0.895758860001 -0.315152971182
89500000 0.895845494821 -0.31531349289
89510000 0.895976853251 -0.315489657108
89520000 0.896010871218 -0.315562258499
89530000 0.896076360188 -0.315848037828
89540000 0.895904417769 -0.31576295557
89550000 0.89605099385 -0.31590795287
89560000 0.89604374515 -0.316118802868
89570000 0.89627656985 -0.316192810858
89580000 0.896174123992 -0.31650912064
89590000 0.896148028897 -0.316456033949
89600000 0.896274012515 -0.316589390114
89610000 0.896257282026 -0.316791075567
89620000 0.896464037876 -0.317014467158
89630000 0.896278397893 -0.31712630078
89640000 0.89641478097 -0.317047971627
89650000 0.896458749531 -0.31733098479
89660000 0.896411710715 -0.317469725963
89670000 0.896650295422 -0.317714135023
89680000 0.896403783694 -0.317699247071
89690000 0.896475112103 -0.31782015818
89700000 0.896611984755 -0.318067884095
89710000 0.896594443581 -0.31816207669
89720000 0.896665546251 -0.318481477132
89730000 0.896556074118 -0.318407760864
89740000 0.896749991191 -0.318586371196
89750000 0.89679947435 -0.318800144707
89760000 0.8969609999 -0.318985191123
89770000 0.89686190982 -0.319235776909
89780000 0.896846587485 -0.319166131157
89790000 0.896881917102 -0.319353790912
89800000 0.896993902401 -0.319436187869
89810000 0.897192222777 -0.319703969528
89820000 0.897006692226 -0.319811516261
89830000 0.897084127528 -0.319757259787
89840000 0.89708172167 -0.319960416562
89850000 0.89708652894 -0.320149907182
89860000 0.897274174013 -0.320439562688
89870000 0.897033543877 -0.320413052243
89880000 0.897160343089 -0.320543981138
89890000 0.897297983718 -0.32079679298
89900000 0.897297431878 -0.320877950362
89910000 0.897301520271 -0.321134846541
89920000 0.897160359556 -0.321052765098
89930000 0.89741512407 -0.321269467163
89940000 0.897344299518 -0.321486576161
89950000 0.897518535946 -0.321617566716
89960000 0.897411299536 -0.321845161484
89970000 0.897341637612 -0.321767133466
89980000 0.897500155363 -0.321952646184
89990000 0.897460493029 -0.322164618473
90000000 0.897585569698 -0.322429437714
90010000 0.897417753691 -0.322595695736
90020000 0.897335323431 -0.322437266993
90030000 0.897446882944 -0.3226325227
90040000 0.89750783347 -0.3228104659
90050000 0.897675506962 -0.323058474988
90060000 0.897519318346 -0.323216122638
90070000 0.897454659728 -0.323110222112
90080000 0.897542860554 -0.323210913036
90090000 0.897595473874 -0.323423080294
90100000 0.897695784918 -0.323829382269
90110000 0.897555973582 -0.323834242665
90120000 0.897605239287 -0.323881893755
90130000 0.897611152522 -0.324029816193
90140000 0.897713679206 -0.324130628013
90150000 0.89778637863 -0.324496545806
90160000 0.897596099761 -0.324413199501
90170000 0.897680176598 -0.324580373784
90180000 0.897732237721 -0.324765714086
90190000 0.897746719158 -0.324921496278
90200000 0.897717080857 -0.325192487234
90210000 0.897599956279 -0.325072154351
90220000 0.897695475775 -0.325264247265
90230000 0.897725839195 -0.325413777568
90240000 0.897912341898 -0.325685227248
90250000 0.897678540816 -0.325862193186
90260000 0.897659600772 -0.325819412525
90270000 0.897785891546 -0.325947786236
90280000 0.897826215945 -0.326086368894
90290000 0.89790539084 -0.32645500002
90300000 0.897783481418 -0.32648619747
90310000 0.89789871691 -0.326505992037
90320000 0.897845335336 -0.326685583374
90330000 0.897932484313 -0.32687772429
90340000 0.897955564374 -0.327186187061
90350000 0.897852105066 -0.327085899312
90360000 0.897954736103 -0.327213574482
90370000 0.897955015125 -0.327409933435
90380000 0.897991893804 -0.327622143464
90390000 0.89787354486 -0.327897135423
90400000 0.897790985679 -0.327766415501
90410000 0.897946596091 -0.327941739238
90420000 0.897935303726 -0.328114532203
90430000 0.898103949585 -0.328385734591
90440000 0.897892309467 -0.328557766179
90450000 0.897910065447 -0.328458729181
90460000 0.897968511173 -0.328587808479
90470000 0.897996417071 -0.328734377146
90480000 0.8980275034 -0.329080074199
90490000 0.89790717733 -0.32910752671
90500000 0.897972032986 -0.329102638242
90510000 0.897915044967 -0.329276457591
90520000 0.898004918942 -0.329482739926
90530000 0.898016774637 -0.329801946757
90540000 0.897901592984 -0.329680147946
90550000 0.8979461942 -0.329825505078
90560000 0.897924904747 -0.330054991656
90570000 0.897949824155 -0.33022568825
90580000 0.897887226185 -0.330475054835
90590000 0.897832605433 -0.330341008786
90600000 0.897969065953 -0.330555997254
90610000 0.897916861557 -0.330703072192
90620000 0.898031792317 -0.33096133401
90630000 0.8978393236 -0.331121192061
90640000 0.897836222848 -0.330995437269
90650000 0.897923550363 -0.331160703505
90660000 0.897898892507 -0.33127974172
90670000 0.897924062499 -0.331703808344
90680000 0.897730001383 -0.331686409275
90690000 0.897858283904 -0.331669221338
90700000 0.897796068749 -0.331851022862
90710000 0.897835320979 -0.332066749426
90720000 0.897794702827 -0.332401960994
90730000 0.897721867787 -0.332283063418
90740000 0.897798695739 -0.332398655321
90750000 0.89778610359 -0.332595298894
90760000 0.897870977604 -0.332809000936
90770000 0.897780318258 -0.333000805772
90780000 0.897726759955 -0.332860330592
90790000 0.897827445766 -0.333088081701
90800000 0.897738667038 -0.333179861643
90810000 0.897829314837 -0.333471793249
90820000 0.897685384782 -0.333703345432
90830000 0.897675387859 -0.333573942345
90840000 0.897744367955 -0.333715855595
90850000 0.897754706713 -0.333854623335
90860000 0.89776105472 -0.334229274734
90870000 0.897645722365 -0.334213080626
90880000 0.897720018264 -0.334140133106
90890000 0.897609233022 -0.334287469432
90900000 0.897610321122 -0.334482011105
90910000 0.897575639065 -0.334867215985
90920000 0.897505194306 -0.334737644809
90930000 0.897491640129 -0.334947461468
90940000 0.89752591387 -0.335090702073
90950000 0.897550569261 -0.335258974936
90960000 0.897483453374 -0.335459460059
90970000 0.897387563872 -0.335393006324
90980000 0.897411773124 -0.335634483559
90990000 0.897445576553 -0.335665537973
91000000 0.897457297739 -0.3359167378
91010000 0.897509201296 -0.335888809722
91020000 0.897391250348 -0.336084897154
91030000 0.897421493407 -0.336232031819
91040000 0.897279644682 -0.336389488058
91050000 0.897279916554 -0.336187782413
91060000 0.897380663664 -0.336432395891
91070000 0.897218222302 -0.336572260998
91080000 0.897299168281 -0.336995020806
91090000 0.897154170303 -0.336976228323
91100000 0.897238026375 -0.336860009422
91110000 0.897167664827 -0.337091184815
91120000 0.897136921311 -0.337220665808
91130000 0.897174671916 -0.337611448197
91140000 0.897074619087 -0.337421172288
91150000 0.897180257914 -0.337488853526
91160000 0.897006230551 -0.33778768294
91170000 0.89698295297 -0.33790298406
91180000 0.896895185247 -0.338181169574
91190000 0.896847342386 -0.33790081125
91200000 0.897003543648 -0.338122647084
91210000 0.896865150754 -0.338312007896
91220000 0.896845413003 -0.338506409396
91230000 0.896738880128 -0.338647048114
91240000 0.896766790289 -0.338438859546
91250000 0.896876565751 -0.338774857167
91260000 0.896670328229 -0.33888155947
91270000 0.896721757435 -0.339193474925
91280000 0.896575039849 -0.339212115796
91290000 0.896761061099 -0.339061373839
91300000 0.896752372153 -0.339302284074
91310000 0.896567462643 -0.339367777656
91320000 0.896535625345 -0.339805608672
91330000 0.896420513621 -0.339638573197
91340000 0.896573822808 -0.339649509841
91350000 0.896447083448 -0.339944540738
91360000 0.896357276115 -0.340038157729
91370000 0.89637219604 -0.340348024641
91380000 0.896372619618 -0.340054363872
91390000 0.896441598659 -0.340256536738
91400000 0.896279771716 -0.340430688934
91410000 0.896300087765 -0.340583407928
91420000 0.896186116524 -0.340762272006
91430000 0.896216087923 -0.340566070499
91440000 0.896264758537 -0.340888218634
91450000 0.896090836967 -0.340938622195
91460000 0.896067213198 -0.341256965992
91470000 0.895924770082 -0.341250296009
91480000 0.896062943502 -0.341084676432
91490000 0.895939317335 -0.341345205289
91500000 0.895904598288 -0.341346032228
91510000 0.895857266388 -0.341739765846
91520000 0.895763473369 -0.341583898293
91530000 0.895840278518 -0.341641991311
91540000 0.895765412194 -0.341847099302
91550000 0.895647761795 -0.341906887444
91560000 0.895656938713 -0.34221946071
91570000 0.895666678252 -0.341947822351
91580000 0.895713282385 -0.342198357141
91590000 0.895539222053 -0.342363433219
91600000 0.895498493753 -0.34254060125
91610000 0.895515642789 -0.342721601347
91620000 0.89556409968 -0.342472911988
91630000 0.895585963307 -0.342769948821
91640000 0.895468905221 -0.342806483098
91650000 0.895368135203 -0.343104311417
91660000 0.895300414172 -0.343091780858
91670000 0.89542981151 -0.34290449347
91680000 0.895417105614 -0.343137711146
91690000 0.895196100031 -0.343169456476
91700000 0.895103407143 -0.343579961961
91710000 0.895201929677 -0.343387476892
91720000 0.895329847506 -0.343407762811
91730000 0.895199007262 -0.343666250576
91740000 0.89507110682 -0.343721466279
91750000 0.895050656787 -0.344077738925
91760000 0.895075228117 -0.343840132376
91770000 0.895118998236 -0.344016302634
91780000 0.894946176717 -0.344180222026
91790000 0.895030425757 -0.344174307951
91800000 0.894986886935 -0.344390610148
91810000 0.895004107509 -0.344179010016
91820000 0.895034764611 -0.344483172574
91830000 0.894854046826 -0.344535467589
91840000 0.894843921549 -0.344712299288
91850000 0.894759590293 -0.344749680321
91860000 0.894936624441 -0.344635201644
91870000 0.894938034865 -0.344883333242
91880000 0.894791372749 -0.344872865115
91890000 0.894704398029 -0.345238440648
91900000 0.894643230366 -0.345089073497
91910000 0.894872848059 -0.345120604744
91920000 0.894716312496 -0.345381614326
91930000 0.894591500009 -0.345361574339
91940000 0.894552992025 -0.345706540699
91950000 0.894670806616 -0.345428606058
91960000 0.894764957342 -0.345587032905
91970000 0.894636341621 -0.345705186731
91980000 0.894609567195 -0.345773233233
91990000 0.894569900788 -0.345985709776
92000000 0.894651128517 -0.345814346143
92010000 0.894757095624 -0.345933843543
92020000 0.894551624366 -0.346242760665
92030000 0.894380708272 -0.346455938778
92040000 0.894386565598 -0.34650538742
92050000 0.894585798953 -0.346331201718
92060000 0.894704778609 -0.346384497145
92070000 0.894502416936 -0.346613719196
92080000 0.894315758467 -0.346816315316
92090000 0.894334583076 -0.346832588149
92100000 0.894583743957 -0.346663571494
92110000 0.894619181877 -0.346879403643
92120000 0.894362596015 -0.347043644232
92130000 0.894218446531 -0.347236861803
92140000 0.89432136015 -0.347211023548
92150000 0.894584635107 -0.347016770835
92160000 0.894460519463 -0.347335819268
92170000 0.8941881786 -0.347542201953
92180000 0.894119342798 -0.347673697806
92190000 0.894308926125 -0.347548678692
92200000 0.894483167786 -0.347525966055
92210000 0.894295951027 -0.347834830688
92220000 0.894120558193 -0.348062885239
92230000 0.894108973903 -0.348111992832
92240000 0.894297470087 -0.347975497118
92250000 0.894411343705 -0.348000728581
92260000 0.894108498011 -0.348295379837
92270000 0.894058674639 -0.348433088781
92280000 0.894132456283 -0.348448599784
92290000 0.894337107982 -0.348275679253
92300000 0.894363745925 -0.348507104756
92310000 0.894109134967 -0.348706071644
92320000 0.893988011597 -0.348917533664
92330000 0.894105027686 -0.348912990605
92340000 0.894323648054 -0.348734003523
92350000 0.894261687962 -0.348998075353
92360000 0.894015760453 -0.349211344184
92370000 0.894020599881 -0.349306488966
92380000 0.894179755902 -0.349202704287
92390000 0.894354588751 -0.349186941216
92400000 0.894132122702 -0.349416329967
92410000 0.893986565747 -0.349606693437
92420000 0.893998244401 -0.349624642893
92430000 0.894163898774 -0.349567939862
92440000 0.89421365535 -0.349613625171
92450000 0.894031352324 -0.349881146543
92460000 0.89388958697 -0.350022425881
92470000 0.89392282033 -0.350083920674
92480000 0.894065816696 -0.349984046732
92490000 0.894079671809 -0.350250411327
92500000 0.893903406329 -0.350407539967
92510000 0.893771345742 -0.350636237569
92520000 0.893852013921 -0.350614081872
92530000 0.894220222162 -0.35044047924
92540000 0.894127535404 -0.35070607934
92550000 0.893899192493 -0.35086449927
92560000 0.893826096838 -0.351025388749
92570000 0.894000735982 -0.350894915102
92580000 0.894168024304 -0.350849564866
92590000 0.893952922326 -0.351118868516
92600000 0.893776504505 -0.351323348122
92610000 0.893749678542 -0.351473184353
92620000 0.893934689246 -0.351360787152
92630000 0.894023965758 -0.351401811394
92640000 0.89389422005 -0.351696053407
92650000 0.893727256531 -0.351824124502
92660000 0.893738336137 -0.351944461568
92670000 0.893931539361 -0.351782959547
92680000 0.893965487732 -0.351926065148
92690000 0.893781937878 -0.352091001576
92700000 0.89369206299 -0.352282725522
92710000 0.893694843726 -0.352292677359
92720000 0.893843865323 -0.352220540951
92730000 0.893877328432 -0.352400632132
92740000 0.893665538656 -0.352656133861
92750000 0.89361090291 -0.352821748148
92760000 0.893769072462 -0.352775184387
92770000 0.893967586691 -0.352731998323
92780000 0.893734446969 -0.353025137541
92790000 0.893588099179 -0.35318309046
92800000 0.893605101827 -0.353347316594
92810000 0.893781600024 -0.353234660082
92820000 0.893932152537 -0.353241209097
92830000 0.893779028599 -0.353497943151
92840000 0.893637145989 -0.35371235681
92850000 0.893611544937 -0.353758848431
92860000 0.893811696054 -0.353656762046
92870000 0.893776381205 -0.353803847881
92880000 0.893579503912 -0.353962121022
92890000 0.893493102258 -0.354150503812
92900000 0.893532641846 -0.354215729994
92910000 0.893739271883 -0.354136808592
92920000 0.893723892283 -0.354294137449
92930000 0.893503134883 -0.354517296856
92940000 0.893410692678 -0.35469894611
92950000 0.893572501528 -0.354604730017
92960000 0.893811047225 -0.354545998782
92970000 0.89354026837 -0.354791566303
92980000 0.89337743096 -0.355003750992
92990000 0.893379326778 -0.355187117564
93000000 0.893556140225 -0.355092502428
93010000 0.893420207988 -0.355412168462
93020000 0.893523866681 -0.355363543383
93030000 0.89386908896 -0.355187958672
93040000 0.893453679497 -0.355599791183
93050000 0.893307478139 -0.35569528628
93060000 0.893318397597 -0.355942847141
93070000 0.893493443849 -0.35576473429
93080000 0.893773023604 -0.355701648589
93090000 0.893375239383 -0.356110560581
93100000 0.893293980057 -0.356145754847
93110000 0.893222258324 -0.356417722152
93120000 0.893589225828 -0.3561311505
93130000 0.893689335485 -0.356281009107
93140000 0.893241063239 -0.356611645098
93150000 0.893173449567 -0.35673575602
93160000 0.893189934621 -0.356913724996
93170000 0.893599352268 -0.356581070821
93180000 0.893427187648 -0.356902298408
93190000 0.893153292503 -0.357115077941
93200000 0.893115524946 -0.357402083474
93210000 0.89322375343 -0.35730786204
93220000 0.893545852423 -0.357143663091
93230000 0.893200840227 -0.357598809322
93240000 0.893065026507 -0.357804439728
93250000 0.892943481585 -0.357782645347
93260000 0.893345963163 -0.357697890381
93270000 0.893329344146 -0.357821489503
93280000 0.893279689521 -0.357989309479
93290000 0.893018110754 -0.357922539674
93300000 0.892494569515 -0.358617814683
93310000 0.893198031138 -0.358194557392
93320000 0.893529666575 -0.358537649541
93330000 0.893014530638 -0.358451553959
93340000 0.892905779562 -0.358666626799
93350000 0.892927864133 -0.358730590204
93360000 0.893427592549 -0.358575066741
93370000 0.893149628676 -0.358876217196
93380000 0.892827686901 -0.359054649941
93390000 0.892773925116 -0.359250330326
93400000 0.892893769776 -0.359286401676
93410000 0.893255967 -0.359129840105
93420000 0.892892086186 -0.359498902015
93430000 0.892735711266 -0.359623028888
93440000 0.892689251943 -0.359820701545
93450000 0.892436016885 -0.360245014363
93460000 0.892745776246 -0.360428090565
93470000 0.892510781268 -0.360127514493
93480000 0.892581050555 -0.360103847554
93490000 0.89252444373 -0.360342665535
93500000 0.892873697886 -0.360120505441
93510000 0.892621668763 -0.360670611183
93520000 0.892607222568 -0.360503471169
93530000 0.892510093382 -0.360586116188
93540000 0.892487437784 -0.360774860769
93550000 0.892929893392 -0.360497288628
93560000 0.892772252564 -0.360800589707
93570000 0.892432276711 -0.361002851132
93580000 0.892340883715 -0.361184253963
93590000 0.892436319103 -0.361221616016
93600000 0.892834495635 -0.36102450884
93610000 0.892492676704 -0.361358182445
93620000 0.892294181932 -0.361515324952
93630000 0.892265603992 -0.361757933872
93640000 0.892432202077 -0.361637985387
93650000 0.89277163086 -0.361601387036
93660000 0.892327125394 -0.361913191209
93670000 0.892197044275 -0.361993700902
93680000 0.892063329487 -0.362279259572
93690000 0.892421503386 -0.362067120901
93700000 0.892574494881 -0.362193978918
93710000 0.892079347398 -0.36243140459
93720000 0.892002207709 -0.362508907173
93730000 0.892019633039 -0.362714242389
93740000 0.892453703998 -0.362454641536
93750000 0.89235383933 -0.36272025121
93760000 0.891953369834 -0.362893816549
93770000 0.891900194841 -0.36306624806
93780000 0.891970407759 -0.363158970469
93790000 0.892420093038 -0.363016819711
93800000 0.892059110899 -0.363304414915
93810000 0.891816189633 -0.363476764363
93820000 0.891775219294 -0.363655056311
93830000 0.891980895217 -0.36356740341
93840000 0.892375059282 -0.36358422555
93850000 0.891889366778 -0.363894610477
93860000 0.89167558359 -0.363946546444
93870000 0.891549542884 -0.364152816861
93880000 0.891991547439 -0.363985120691
93890000 0.89218414873 -0.364112844919
93900000 0.89164700471 -0.364360974789
93910000 0.891515230048 -0.364463027599
93920000 0.891466909118 -0.364640194068
93930000 0.891928593507 -0.364502102231
93940000 0.891870931904 -0.364688915563
93950000 0.891494792991 -0.364876559354
93960000 0.891395700508 -0.365010197344
93970000 0.89146895509 -0.365095516954
93980000 0.891960901211 -0.3649389054
93990000 0.891595398045 -0.36524231444
94000000 0.891337690942 -0.365324214485
94010000 0.891173929469 -0.365464098988
94020000 0.891083934664 -0.365627635857
94030000 0.891360860061 -0.365560808101
94040000 0.891445335331 -0.365669020527
94050000 0.891310279552 -0.365754789786
94060000 0.890972472074 -0.365985516503
94070000 0.891148232899 -0.36617127974
94080000 0.891383549438 -0.366185652433
94090000 0.891291043061 -0.366233600582
94100000 0.89105003711 -0.366299347205
94110000 0.890826385149 -0.366450884149
94120000 0.890835285875 -0.366477082148
94130000 0.891164026976 -0.36656806375
94140000 0.890996075486 -0.366692388407
94150000 0.890689785627 -0.366798606078
94160000 0.890576588373 -0.367030637775
94170000 0.890862700517 -0.367033806608
94180000 0.891110383726 -0.367103104658
94190000 0.890824288841 -0.367237129547
94200000 0.890509685804 -0.367375598985
94210000 0.890490559 -0.367540406657
94220000 0.890832477565 -0.367577684485
94230000 0.890881312099 -0.367648862602
94240000 0.890625658436 -0.367746587099
94250000 0.890369942855 -0.367868654608
94260000 0.890455113192 -0.36797678689
94270000 0.89074780061 -0.368022080328
94280000 0.890717708009 -0.368145920708
94290000 0.890356807818 -0.368270228608
94300000 0.890161136611 -0.368409150225
94310000 0.890282215379 -0.368421909011
94320000 0.890569447303 -0.368474193294
94330000 0.890429146056 -0.368633768563
94340000 0.890093398799 -0.368760366998
94350000 0.889984977321 -0.368903705503
94360000 0.890250210378 -0.368930153019
94370000 0.890496883462 -0.369006662515
94380000 0.890233366348 -0.369122342
94390000 0.889948673752 -0.369215821037
94400000 0.889862860941 -0.369376009763
94410000 0.890151895102 -0.369403459452
94420000 0.890230451343 -0.36948622538
94430000 0.889973492784 -0.369612077863
94440000 0.889706285095 -0.369720880569
94450000 0.889738366697 -0.36986789914
94460000 0.890053434651 -0.369891062217
94470000 0.890016606909 -0.369995743194
94480000 0.889750260868 -0.370074180316
94490000 0.889561007474 -0.370207409189
94500000 0.889669173629 -0.370276585655
94510000 0.889980666053 -0.370359966081
94520000 0.889825810667 -0.370461369568
94530000 0.88953819933 -0.370540804354
94540000 0.888919664974 -0.370678806394
94550000 0.889623964986 -0.370782508729
94560000 0.8898829559 -0.370931032616
94570000 0.889563319409 -0.371043476454
94580000 0.889260685238 -0.37105653759
94590000 0.889170585472 -0.371233770848
94600000 0.889531058914 -0.371297028774
94610000 0.889640502869 -0.371379516727
94620000 0.889357900592 -0.371496572339
94630000 0.889090437018 -0.371606735558
94640000 0.889078901132 -0.371681211449
94650000 0.889377739204 -0.37174112664
94660000 0.889379822592 -0.371831417897
94670000 0.88907434907 -0.371914461204
94680000 0.888856885744 -0.372009847036
94690000 0.888880842967 -0.372157133364
94700000 0.889224900272 -0.372277692314
94710000 0.889045880875 -0.372378725889
94720000 0.888801556044 -0.372414992892
94730000 0.888664923205 -0.372505928802
94740000 0.888869473908 -0.372638084995
94750000 0.889096024711 -0.372785612154
94760000 0.888840315505 -0.372873917248
94770000 0.888573423367 -0.37287886433
94780000 0.88851748277 -0.373038455243
94790000 0.888796199186 -0.373145920105
94800000 0.888854406475 -0.373226035847
94810000 0.888648423345 -0.373275633943
94820000 0.88843 -0.373345248019
94830000 0.888431794653 -0.373519936958
94840000 0.888692315733 -0.373634889188
94850000 0.888691742624 -0.373745438111
94860000 0.888394333048 -0.373785350632
94870000 0.88814255137 -0.373795894935
94880000 0.888232919058 -0.373889950648
94890000 0.888588469615 -0.374100898175
94900000 0.888390644865 -0.374143059411
94910000 0.88798909733 -0.374206909649
94920000 0.887950244515 -0.374296516293
94930000 0.888177340936 -0.374400188817
94940000 0.888419860981 -0.374585694175
94950000 0.88815354921 -0.374606710658
94960000 0.887882367679 -0.374621751619
94970000 0.887738429609 -0.374748743519
94980000 0.887997506727 -0.374878479622
94990000 0.888132845268 -0.375003909921
95000000 0.887832474863 -0.375076376638
95010000 0.888120455632 -0.375282180905
95020000 0.887925944246 -0.37544846063
95030000 0.887432500844 -0.37536936342
95040000 0.887428207849 -0.375440746265
95050000 0.887420865257 -0.375609847223
95060000 0.888004297564 -0.375768662015
95070000 0.887495826445 -0.375809029816
95080000 0.887233496054 -0.375762137971
95090000 0.88715990367 -0.375945464014
95100000 0.887359207393 -0.376081533792
95110000 0.887850401119 -0.376331062376
95120000 0.887206468555 -0.376252316311
95130000 0.887112833775 -0.376249243226
95140000 0.886923534713 -0.376372211583
95150000 0.887345762563 -0.376514897633
95160000 0.887558947963 -0.37669562784
95170000 0.886941225023 -0.376653594947
95180000 0.886975411278 -0.376721446566
95190000 0.886797227109 -0.376888523473
95200000 0.887313936536 -0.3770468624
95210000 0.887190022967 -0.377142448259
95220000 0.886746899661 -0.377032877343
95230000 0.886744849222 -0.377100774291
95240000 0.88669985081 -0.37731937227
95250000 0.887173597213 -0.377503760289
95260000 0.886754860068 -0.377532543567
95270000 0.886522816245 -0.377497239786
95280000 0.886494001848 -0.377649994576
95290000 0.886646272039 -0.377811410601
95300000 0.88701078512 -0.378050058742
95310000 0.88642006352 -0.377957686035
95320000 0.886304518987 -0.377919065913
95330000 0.886150511345 -0.378073842702
95340000 0.886513112419 -0.37822512792
95350000 0.886694716576 -0.378473434632
95360000 0.886181482462 -0.378396814206
95370000 0.886181077903 -0.37845129415
95380000 0.886000981679 -0.378619147199
95390000 0.886501497623 -0.378811198054
95400000 0.886432431186 -0.378941802144
95410000 0.885995743412 -0.378816514407
95420000 0.88595826786 -0.378903843694
95430000 0.88587304196 -0.379107161915
95440000 0.886423743446 -0.379354709368
95450000 0.886065093481 -0.379349200731
95460000 0.885815209038 -0.379274588329
95470000 0.885769271847 -0.379396139055
95480000 0.885856079949 -0.379550085024
95490000 0.886256540296 -0.379823356812
95500000 0.88572532481 -0.379728600489
95510000 0.885533080816 -0.379637042357
95520000 0.885509035522 -0.379845172279
95530000 0.885763103407 -0.379999617861
95540000 0.885933525066 -0.380256687156
95550000 0.885425774472 -0.380110357132
95560000 0.885425461036 -0.380110610068
95570000 0.885258045624 -0.38034450864
95580000 0.885711198526 -0.38059804253
95590000 0.885671610076 -0.380707563341
95600000 0.885242978606 -0.380527066353
95610000 0.88510120141 -0.380614062433
95620000 0.885108828805 -0.380701052498
95630000 0.885557606186 -0.380840805223
95640000 0.885281808632 -0.380941789514
95650000 0.885095839821 -0.380924962008
95660000 0.885073529927 -0.381192873238
95670000 0.884988273378 -0.381406492484
95680000 0.885714434369 -0.381305362291
95690000 0.885255110987 -0.381664557314
95700000 0.88484238209 -0.381485493219
95710000 0.884719287848 -0.381578170265
95720000 0.88491775974 -0.381646574454
95730000 0.885111333437 -0.38182473872
95740000 0.884609602362 -0.381759645177
95750000 0.884507883522 -0.381816822258
95760000 0.884465009901 -0.381978224538
95770000 0.884954836573 -0.38226515635
95780000 0.884814031966 -0.382403361153
95790000 0.884379280791 -0.382178973671
95800000 0.884418484295 -0.382284264924
95810000 0.884274489772 -0.38246985214
95820000 0.884671651179 -0.382788506234
95830000 0.88445471956 -0.382726538411
95840000 0.884104050082 -0.38257132072
95850000 0.884169373256 -0.382696405507
95860000 0.884109094229 -0.382915519692
95870000 0.884549150003 -0.383269617064
95880000 0.884114587132 -0.383065428449
95890000 0.883914804013 -0.383017523012
95900000 0.883841626072 -0.383165967811
95910000 0.884000925628 -0.383385927549
95920000 0.884208277693 -0.38369407264
95930000 0.883766660499 -0.383459047661
95940000 0.883727780926 -0.383485460111
95950000 0.883544732328 -0.383640801649
95960000 0.883911354977 -0.38396214214
95970000 0.883935137179 -0.384090594022
95980000 0.883542403878 -0.383856528985
95990000 0.883572676068 -0.383916806558
96000000 0.883440142037 -0.384092620198
96010000 0.883749371762 -0.384230285727
96020000 0.88377156532 -0.384443200777
96030000 0.883573538567 -0.384347862484
96040000 0.883346157576 -0.384298414603
96050000 0.883230804405 -0.384398011132
96060000 0.883477773735 -0.384684847641
96070000 0.8834869567 -0.384791510996
96080000 0.883312413886 -0.384754567052
96090000 0.883183704246 -0.384767177026
96100000 0.88302469089 -0.38492828221
96110000 0.883332868256 -0.385187681825
96120000 0.883299584229 -0.385201635539
96130000 0.883101260772 -0.385152058047
96140000 0.882876743049 -0.385185411526
96150000 0.882782380499 -0.385375464279
96160000 0.883072992402 -0.38562695941
96170000 0.882927482277 -0.385572893489
96180000 0.882767754564 -0.385550832508
96190000 0.882604093484 -0.385628891874
96200000 0.882671884132 -0.385877778003
96210000 0.882841857397 -0.386042713365
96220000 0.88268911281 -0.385998587102
96230000 0.882577434311 -0.385865476698
96240000 0.882353778572 -0.38600260868
96250000 0.88266280515 -0.386297927213
96260000 0.882657560871 -0.386405865747
96270000 0.882482743843 -0.386288712952
96280000 0.882346635856 -0.386275389744
96290000 0.882209621605 -0.386402650279
96300000 0.882478630232 -0.386751515436
96310000 0.88237205956 -0.386707915309
96320000 0.882207273176 -0.386646968541
96330000 0.882054296674 -0.38663279463
96340000 0.88204499556 -0.386871027053
96350000 0.882223881563 -0.387184290905
96360000 0.882068695185 -0.387118763342
96370000 0.881966337578 -0.387046824663
96380000 0.881855686811 -0.387101226551
96390000 0.881905900066 -0.387380383055
96400000 0.881945584969 -0.387632953874
96410000 0.8817812011 -0.387524107449
96420000 0.881697720157 -0.387399010836
96430000 0.881543514684 -0.387452123733
96440000 0.881734630436 -0.387870995453
96450000 0.8816588915 -0.388019333044
96460000 0.881415961327 -0.387998543058
96470000 0.881529690886 -0.387857730513
96480000 0.881323286947 -0.388020417256
96490000 0.881985923735 -0.388267861551
96500000 0.881601042041 -0.388457248561
96510000 0.881312600088 -0.388248192396
96520000 0.881270232227 -0.388293338909
96530000 0.881214681806 -0.388582167298
96540000 0.881417851106 -0.388902223432
96550000 0.88139472554 -0.388670269258
96560000 0.881143150505 -0.388635741152
96570000 0.880978176162 -0.388645672633
96580000 0.880996988703 -0.388916723008
96590000 0.881074953731 -0.389171362976
96600000 0.880942624859 -0.389146894348
96610000 0.880852277337 -0.389015385176
96620000 0.880744705479 -0.38910209668
96630000 0.880833688572 -0.389455335989
96640000 0.880837597344 -0.389559295314
96650000 0.880761529708 -0.389441779856
96660000 0.880623515276 -0.389399440391
96670000 0.880534836892 -0.389501979846
96680000 0.880629586753 -0.389837216271
96690000 0.880550862276 -0.389872384707
96700000 0.880532760137 -0.389741712965
96710000 0.880440394387 -0.389754424456
96720000 0.880388049358 -0.389914336656
96730000 0.880472793877 -0.390253407172
96740000 0.880403153408 -0.39022234706
96750000 0.880274539421 -0.390142558908
96760000 0.880178462398 -0.390183568716
96770000 0.880174779584 -0.390416535138
96780000 0.880251560826 -0.390714943851
96790000 0.880163250958 -0.390644238767
96800000 0.880057851151 -0.390539719808
96810000 0.879987240659 -0.390628876109
96820000 0.880033757293 -0.390921880901
96830000 0.880021288518 -0.391059412316
96840000 0.879905403099 -0.390988502164
96850000 0.879808784425 -0.390933991185
96860000 0.879704004645 -0.391066551164
96870000 0.879791222737 -0.391393757365
96880000 0.879805496677 -0.391402927434
96890000 0.87968129635 -0.391316258035
96900000 0.879581071451 -0.391317742709
96910000 0.879497893012 -0.391470344078
96920000 0.879568315105 -0.391804861223
96930000 0.879512921619 -0.391718633519
96940000 0.879394733699 -0.391614226029
96950000 0.879289559305 -0.391661705251
96960000 0.879309903773 -0.391911834927
96970000 0.879377747927 -0.392197576091
96980000 0.879286003264 -0.392108518395
96990000 0.879201965116 -0.392044385761
97000000 0.879099797991 -0.392125376214
97010000 0.8792056541 -0.392429324965
97020000 0.879080455704 -0.392375708374
97030000 0.879057531643 -0.392479195809
97040000 0.879025141527 -0.3925123439
97050000 0.878921723613 -0.392625716615
97060000 0.878955254742 -0.392816307997
97070000 0.87884292633 -0.39271648942
97080000 0.878830590443 -0.392895510276
97090000 0.878760781257 -0.392942978013
97100000 0.878706391653 -0.393136563716
97110000 0.878761803953 -0.393310976776
97120000 0.878646253071 -0.393176124901
97130000 0.878637947629 -0.393333531782
97140000 0.878510631863 -0.393309710511
97150000 0.878514478512 -0.393596723712
97160000 0.8785429864 -0.39359572053
97170000 0.878459964197 -0.393582213452
97180000 0.878412160218 -0.393780428575
97190000 0.878325993766 -0.393761972982
97200000 0.878256991622 -0.393919081568
97210000 0.878242070983 -0.39391911459
97220000 0.878304148104 -0.393968260367
97230000 0.878191519314 -0.394228913905
97240000 0.878122851173 -0.394123957773
97250000 0.877880950473 -0.394109649683
97260000 0.877821126298 -0.39456938178
97270000 0.877548328394 -0.3946183421
97280000 0.877968169912 -0.394449812388
97290000 0.877776188762 -0.395004449205
97300000 0.877913270686 -0.395000245079
97310000 0.878052261038 -0.394374257796
97320000 0.877951098271 -0.394839345406
97330000 0.877744214511 -0.394820927438
97340000 0.877779938502 -0.395098140415
97350000 0.87774117817 -0.395112347766
97360000 0.87773298877 -0.39512882452
97370000 0.877675727115 -0.395269731343
97380000 0.877500360308 -0.395279525896
97390000 0.877534068831 -0.395504225226
97400000 0.877498792052 -0.395484895363
97410000 0.877435630243 -0.395585851807
97420000 0.877430020449 -0.395659618983
97430000 0.877359048088 -0.39570069798
97440000 0.877358592826 -0.395841638003
97450000 0.877259971265 -0.395756931153
97460000 0.877220340608 -0.39598476264
97470000 0.877193902249 -0.395924648417
97480000 0.877140285943 -0.396117767987
97490000 0.87718430446 -0.396312093554
97500000 0.877101834779 -0.396197420428
97510000 0.877025021766 -0.396376988833
97520000 0.87692181151 -0.396362674265
97530000 0.876864398024 -0.396604142309
97540000 0.8768342731 -0.396649417476
97550000 0.876814394552 -0.396633500767
97560000 0.876781671065 -0.396798569399
97570000 0.876698085408 -0.396800674346
97580000 0.876730392285 -0.397041007759
97590000 0.876724453153 -0.397019626952
97600000 0.876657346771 -0.397096298706
97610000 0.876583856342 -0.397236384661
97620000 0.87655202264 -0.397260488044
97630000 0.876528601074 -0.397416398694
97640000 0.876483095407 -0.397374472608
97650000 0.876411069362 -0.397498523402
97660000 0.876384992567 -0.397525808481
97670000 0.876300216429 -0.397686900124
97680000 0.876351572339 -0.397847994178
97690000 0.876294183033 -0.397763143405
97700000 0.87624306076 -0.397950710057
97710000 0.876203759329 -0.397963882718
97720000 0.87614631555 -0.398158217939
97730000 0.876145914201 -0.398219810411
97740000 0.876094236328 -0.398191723039
97750000 0.876076348775 -0.398369601578
97760000 0.875905777195 -0.398368021271
97770000 0.875926322382 -0.398571257931
97780000 0.875935289183 -0.398619771081
97790000 0.875826706333 -0.398619438842
97800000 0.875816908752 -0.398789860746
97810000 0.875717874878 -0.398847827097
97820000 0.875747187592 -0.399031208287
97830000 0.875719541522 -0.398995685941
97840000 0.875666661992 -0.399092815372
97850000 0.875624073708 -0.39914165463
97860000 0.875515889 -0.399266986778
97870000 0.87553650223 -0.399434275914
97880000 0.875490896916 -0.399333091185
97890000 0.875383941988 -0.399477623818
97900000 0.875349866438 -0.399508463342
97910000 0.875342383808 -0.399792198667
97920000 0.875275656254 -0.399822822823
97930000 0.87519477678 -0.399738471632
97940000 0.875219634432 -0.399967837599
97950000 0.875072255722 -0.399920832411
97960000 0.875041514226 -0.400122614958
97970000 0.875094987001 -0.400228348802
97980000 0.875021333455 -0.400177418696
97990000 0.875029596934 -0.400376068611
98000000 0.874916589452 -0.40038217252
98010000 0.874900727568 -0.400390817438
98020000 0.874792945475 -0.400530291688
98030000 0.87467228634 -0.400830300211
98040000 0.874768161676 -0.400799974323
98050000 0.874712058592 -0.400665972735
98060000 0.874641368965 -0.400752948086
98070000 0.874628344239 -0.400932395471
98080000 0.874463116078 -0.40133414324
98090000 0.874552768213 -0.40114239524
98100000 0.874669285699 -0.401071313037
98110000 0.874401324208 -0.401384516949
98120000 0.874033520476 -0.40166497312
98130000 0.874306734576 -0.401729355982
98140000 0.874318697989 -0.401492887042
98150000 0.874283214643 -0.401529449213
98160000 0.874159913559 -0.401744157586
98170000 0.874040967464 -0.401855731564
98180000 0.874186343103 -0.402113229377
98190000 0.874105538104 -0.401858322757
98200000 0.874081998956 -0.401978457798
98210000 0.873926023418 -0.402109040761
98220000 0.873791466262 -0.402361520225
98230000 0.873960326331 -0.402446351324
98240000 0.873855039444 -0.402300377805
98250000 0.873802425889 -0.402438890609
98260000 0.873712687817 -0.402549695567
98270000 0.873633795567 -0.402877049896
98280000 0.873800343221 -0.40276178219
98290000 0.87370565108 -0.402703920372
98300000 0.873566494431 -0.402870576291
98310000 0.873428986209 -0.402964794354
98320000 0.873407149534 -0.403276105742
98330000 0.873532558738 -0.403084610129
98340000 0.873433479562 -0.403162608249
98350000 0.873305052999 -0.403372774423
98360000 0.873190624691 -0.403442229414
98370000 0.873233343594 -0.403750152985
98380000 0.873289026356 -0.403509586775
98390000 0.87320543956 -0.403616356126
98400000 0.873057581945 -0.403786173915
98410000 0.872931222836 -0.403929092068
98420000 0.873038587522 -0.404024473631
98430000 0.87303974259 -0.403912054091
98440000 0.872942078377 -0.404028672816
98450000 0.87282167165 -0.404158842083
98460000 0.872744543134 -0.404399752681
98470000 0.872878449181 -0.404388013497
98480000 0.872859725015 -0.404347517704
98490000 0.872721792793 -0.40447680997
98500000 0.872582339876 -0.404525927563
98510000 0.872545013316 -0.404838808586
98520000 0.872617585643 -0.404703811321
98530000 0.872583045212 -0.404711246866
98540000 0.872434711583 -0.404901555021
98550000 0.872345429205 -0.40495416752
98560000 0.872339942927 -0.405291285069
98570000 0.872378932487 -0.405121309737
98580000 0.872312432896 -0.405184229538
98590000 0.872190800279 -0.405393960029
98600000 0.872039512894 -0.405442550982
98610000 0.872184505234 -0.405632209704
98620000 0.872191253278 -0.405498569276
98630000 0.872089768712 -0.405598921973
98640000 0.871942926254 -0.405759785516
98650000 0.871849767382 -0.40595479199
98660000 0.871978063541 -0.406024252338
98670000 0.871986180065 -0.405959406626
98680000 0.871855627915 -0.406108572373
98690000 0.871757253428 -0.406155680695
98700000 0.871689373498 -0.40639603979
98710000 0.871777315326 -0.406371935114
98720000 0.871732387132 -0.406355509708
98730000 0.871556239891 -0.406469207406
98740000 0.871508017882 -0.406502360731
98750000 0.871456487725 -0.406825427674
98760000 0.871524630308 -0.406719727776
98770000 0.87143384439 -0.406774189272
98780000 0.871327077366 -0.406982205554
98790000 0.871189211734 -0.406969248863
98800000 0.871293361304 -0.4072394738
98810000 0.871278198665 -0.407093423235
98820000 0.871196074165 -0.40722742591
98830000 0.871028353367 -0.407388126006
98840000 0.870995827344 -0.407670070591
98850000 0.871111473045 -0.407659181387
98860000 0.871131281666 -0.407564015396
98870000 0.871019541302 -0.40762378436
98880000 0.870874901597 -0.407814577807
98890000 0.870814086109 -0.408137755399
98900000 0.870909156437 -0.407547691862
98910000 0.870555322534 -0.407722218087
98920000 0.870501065882 -0.408223807759
98930000 0.870562097482 -0.408328145024
98940000 0.87046885181 -0.408469563298
98950000 0.870558279081 -0.408310743785
98960000 0.870551423535 -0.408402795593
98970000 0.87039580942 -0.408615717859
98980000 0.870312056494 -0.408553845979
98990000 0.870322185585 -0.40882517551
99000000 0.870338823215 -0.408694512228
99010000 0.87025073107 -0.408826155735
99020000 0.870252652942 -0.408934857146
99030000 0.870288720568 -0.408927997989
99040000 0.870153414591 -0.409155663576
99050000 0.870167112886 -0.409137494255
99060000 0.870099955666 -0.409356274029
99070000 0.870141434716 -0.409344285848
99080000 0.8700434687 -0.409324473205
99090000 0.869888299141 -0.409557928232
99100000 0.869810310321 -0.409607848827
99110000 0.869809464427 -0.409794020742
99120000 0.869830332512 -0.409767927344
99130000 0.869722835303 -0.409850141957
99140000 0.869624070711 -0.409909455797
99150000 0.869571954152 -0.410004477319
99160000 0.869569372984 -0.410146408881
99170000 0.869561211929 -0.410139982668
99180000 0.869447046227 -0.410259637887
99190000 0.869376623529 -0.410309636595
99200000 0.86929246397 -0.41045433763
99210000 0.869244550294 -0.410555978873
99220000 0.869221549138 -0.410564836371
99230000 0.869120261625 -0.410765827465
99240000 0.869116974511 -0.410733399165
99250000 0.869109532915 -0.410970040905
99260000 0.869107974363 -0.410947047608
99270000 0.869048241963 -0.410971927584
99280000 0.868920012252 -0.411143578013
99290000 0.868851359399 -0.411170318081
99300000 0.868820972772 -0.411329289819
99310000 0.868815728103 -0.411332381889
99320000 0.868739304979 -0.411471029102
99330000 0.868618119867 -0.411622504154
99340000 0.86863427481 -0.411628794572
99350000 0.868567170173 -0.411760398179
99360000 0.868579308372 -0.411731060369
99370000 0.868506184019 -0.411853772701
99380000 0.868487399114 -0.411909073937
99390000 0.868402238877 -0.412035623426
99400000 0.868333442508 -0.412112403106
99410000 0.868322607804 -0.412152586338
99420000 0.868154283999 -0.412328761293
99430000 0.868184227572 -0.41228826161
99440000 0.868145443314 -0.412450225586
99450000 0.868097723153 -0.412465796663
99460000 0.86805762937 -0.412518257125
99470000 0.867870195309 -0.412731553031
99480000 0.867901345335 -0.412745601799
99490000 0.867851658028 -0.412934108658
99500000 0.867851757262 -0.412945238271
99510000 0.867775462522 -0.412992335608
99520000 0.867663346023 -0.413143090376
99530000 0.867677199799 -0.413204986898
99540000 0.867611114091 -0.413352934896
99550000 0.86762900599 -0.413383308444
99560000 0.86753305356 -0.413465282444
99570000 0.867473160049 -0.41356427259
99580000 0.867461142332 -0.413647710898
99590000 0.867366881112 -0.413729759787
99600000 0.86735958293 -0.413760930762
99610000 0.867135945653 -0.413928505363
99620000 0.867281701027 -0.413892490627
99630000 0.867224316385 -0.414048569607
99640000 0.867150401818 -0.41413562206
99650000 0.867046496994 -0.41416746003
99660000 0.866844741803 -0.414360275366
99670000 0.866856903328 -0.414366014341
99680000 0.866794991569 -0.414526034272
99690000 0.866833712135 -0.414545920473
99700000 0.866848584459 -0.414584570011
99710000 0.866701788595 -0.414781737007
99720000 0.866699022571 -0.414824245918
99730000 0.866649973471 -0.414983714075
99740000 0.866636750317 -0.414931477993
99750000 0.866565646589 -0.415054973661
99760000 0.8664987806 -0.415149622404
99770000 0.866440358256 -0.415233810051
99780000 0.866350683867 -0.41529938542
99790000 0.866386762482 -0.415375388969
99800000 0.866137902304 -0.415562966485
99810000 0.866262138731 -0.415535255728
99820000 0.866191862184 -0.415661553139
99830000 0.866045723177 -0.415793429932
99840000 0.865969431877 -0.415729598669
99850000 0.865974128803 -0.41593544987
99860000 0.865827041868 -0.415885619168
99870000 0.865960202675 -0.416184555012
99880000 0.865784163468 -0.416273474648
99890000 0.865720295273 -0.416270027319
99900000 0.865554144418 -0.416359612639
99910000 0.865733439973 -0.416380640199
99920000 0.865570767406 -0.416511710729
99930000 0.865537524049 -0.416506453559
99940000 0.865553135348 -0.416602434629
99950000 0.865425703636 -0.416759387131
99960000 0.865499277119 -0.416845890848
99970000 0.865420134241 -0.416913047636
99980000 0.865334498402 -0.416968984207
99990000 0.865174166065 -0.417047493202
100000000 0.865305012901 -0.417083861586
100010000 0.865147460673 -0.417183678158
100020000 0.864911493157 -0.417439497114
100030000 0.865058143882 -0.417417808728
100040000 0.864900415606 -0.417515320158
100050000 0.864911732983 -0.417575072522
100060000 0.864781799826 -0.417672714965
100070000 0.864784552658 -0.417705262011
100080000 0.864770892473 -0.417803024126
100090000 0.864607413022 -0.417841868308
100100000 0.864705304594 -0.417913740339
100110000 0.864484017881 -0.418117443318
100120000 0.864639196831 -0.418116449058
100130000 0.86446475294 -0.418281949508
100140000 0.86435216951 -0.418338466905
100150000 0.864443425453 -0.418391690744
100160000 0.864193041574 -0.418594895799
100170000 0.864416278542 -0.418538076555
100180000 0.864218779546 -0.418709448343
100190000 0.864099416791 -0.418740187993
100200000 0.864105988867 -0.418845848947
100210000 0.863907300039 -0.418962330578
100220000 0.864116728821 -0.418987557088
100230000 0.863871463382 -0.419161204968
100240000 0.863898306164 -0.419119565366
100250000 0.863788142732 -0.419286946224
100260000 0.863738527888 -0.419322355527
100270000 0.863752635204 -0.419458170637
100280000 0.863553466039 -0.419544173654
100290000 0.863646697255 -0.419578594589
100300000 0.863434401087 -0.419701696783
100310000 0.863625505574 -0.419707966159
100320000 0.863515427719 -0.419860610005
100330000 0.863323413653 -0.419847462287
100340000 0.863398638306 -0.419920295723
100350000 0.863088938691 -0.420077679084
100360000 0.863325004612 -0.420100040819
100370000 0.863170283487 -0.42020741071
100380000 0.862991079317 -0.420336284211
100390000 0.863061536665 -0.420385868251
100400000 0.862797578668 -0.420601023301
100410000 0.863027605786 -0.420636424907
100420000 0.862860412092 -0.420699414602
100430000 0.86279509958 -0.420784535948
100440000 0.862758635549 -0.420879907882
100450000 0.862718793436 -0.420969037111
100460000 0.862722375702 -0.421041061581
100470000 0.862531950435 -0.421074385276
100480000 0.862581036503 -0.421175982689
100490000 0.862422550666 -0.421327151432
100500000 0.862540466778 -0.421404325093
100510000 0.862374784053 -0.421500790219
100520000 0.862265132066 -0.421512336697
100530000 0.862381212736 -0.421584835803
100540000 0.862115774276 -0.421740684125
100550000 0.8623636419 -0.421777443957
100560000 0.862130800967 -0.421856568822
100570000 0.861969753002 -0.421886880789
100580000 0.862040082656 -0.421965317483
100590000 0.861774081593 -0.422139644701
100600000 0.862036395756 -0.42220230405
100610000 0.86184324987 -0.422299110209
100620000 0.861759108553 -0.42234253077
100630000 0.86167840164 -0.422513163629
100640000 0.861654894534 -0.422566996328
100650000 0.861720439683 -0.422810261304
100660000 0.861564806423 -0.422773864469
100670000 0.86162580036 -0.422930870309
100680000 0.861340050995 -0.422858816016
100690000 0.861475896549 -0.423028564141
100700000 0.86146818049 -0.423222493004
100710000 0.86124098494 -0.423127596693
100720000 0.861253723796 -0.423223390059
100730000 0.860900961434 -0.423473501697
100740000 0.861308120197 -0.423437367158
100750000 0.861078411853 -0.423588803382
100760000 0.860871514392 -0.423645976118
100770000 0.86097994711 -0.423732578281
100780000 0.860676576685 -0.423927333114
100790000 0.860963051925 -0.423951754238
100800000 0.860766147655 -0.423986231269
100810000 0.860680753585 -0.424070777879
100820000 0.860654639141 -0.424165114681
100830000 0.860445572189 -0.424240982497
100840000 0.860570519786 -0.424381298044
100850000 0.860437002864 -0.424414177745
100860000 0.860457635879 -0.424538318577
100870000 0.860270433618 -0.4246466226
100880000 0.860337669559 -0.424755808758
100890000 0.86027865114 -0.424870137364
100900000 0.860116384185 -0.424855171154
100910000 0.860175387062 -0.424965924036
100920000 0.859881404255 -0.425082324489
100930000 0.860128693301 -0.425196935354
100940000 0.860014932724 -0.425268699411
100950000 0.859850112546 -0.42528715643
100960000 0.859909453285 -0.425408250569
100970000 0.859591216899 -0.425583996072
100980000 0.859811115635 -0.425670797489
100990000 0.859668941492 -0.425669193166
101000000 0.859508642311 -0.425717034619
101010000 0.859715902075 -0.425699747939
101020000 0.859577101004 -0.425841261755
101030000 0.859496836048 -0.426025475304
101040000 0.859636536272 -0.426168611642
101050000 0.859513711555 -0.426170793379
101060000 0.859421642334 -0.426169490209
101070000 0.85932270952 -0.426296115114
101080000 0.859270138276 -0.426511652674
101090000 0.859380124346 -0.426531608375
101100000 0.859264691421 -0.426528785258
101110000 0.859077844622 -0.426624784531
101120000 0.859026669871 -0.426819288256
101130000 0.859047362074 -0.426935784539
101140000 0.859063322706 -0.427056925044
101150000 0.858920230252 -0.427012947366
101160000 0.858779667689 -0.427073548343
101170000 0.858693129811 -0.427265345689
101180000 0.858814063372 -0.427372891182
101190000 0.858754899234 -0.427377617397
101200000 0.858609387813 -0.427386395434
101210000 0.858478187465 -0.427530973334
101220000 0.858348770512 -0.427682967007
101230000 0.858534325472 -0.427861325267
101240000 0.858437319336 -0.427883524729
101250000 0.858198952084 -0.427934783867
101260000 0.858154120989 -0.428016532086
101270000 0.858028099746 -0.42819004352
101280000 0.858207055737 -0.428223684607
101290000 0.858048376154 -0.428252743649
101300000 0.857866742681 -0.42834125911
101310000 0.857872339287 -0.428474529498
101320000 0.857859458217 -0.42865737006
101330000 0.857897673971 -0.428800109818
101340000 0.857709284892 -0.428796951747
101350000 0.857509815598 -0.428863056744
101360000 0.857455049609 -0.429023375326
101370000 0.85761299111 -0.42912948999
101380000 0.85756815289 -0.429150615548
101390000 0.857404672749 -0.429197201667
101400000 0.857179817372 -0.429288102706
101410000 0.857026129769 -0.429441890126
101420000 0.85725489698 -0.42959750087
101430000 0.857094366479 -0.429619106898
101440000 0.856974709687 -0.429609046965
101450000 0.856869651816 -0.429724670756
101460000 0.856752724777 -0.429937279629
101470000 0.856937127054 -0.429992571968
101480000 0.856797763507 -0.42999883485
101490000 0.856636296142 -0.430083365183
101500000 0.856548498737 -0.430250480552
101510000 0.85648260394 -0.430469971115
101520000 0.856514320636 -0.430583879408
101530000 0.856428707289 -0.430462592299
101540000 0.856167466703 -0.430559821054
101550000 0.856153619957 -0.430741536265
101560000 0.85624742058 -0.430854560348
101570000 0.856177029987 -0.430925381448
101580000 0.856059031691 -0.430892688133
101590000 0.855877347301 -0.431000061119
101600000 0.8557798023 -0.431164322235
101610000 0.855971242894 -0.43134034425
101620000 0.855844813587 -0.431388403277
101630000 0.855752704833 -0.43139191655
101640000 0.855591959545 -0.431476846067
101650000 0.855398068013 -0.431644122208
101660000 0.855633048649 -0.431760659015
101670000 0.855534095901 -0.431737057785
101680000 0.855295083562 -0.431851208018
101690000 0.855232516569 -0.431991483524
101700000 0.855258487039 -0.432163621605
101710000 0.85530861006 -0.432274036275
101720000 0.855219323238 -0.432231652273
101730000 0.854971295956 -0.432293911652
101740000 0.854903966384 -0.432447853135
101750000 0.855002408188 -0.432605509131
101760000 0.854991198511 -0.432639089231
101770000 0.854820068337 -0.432639470484
101780000 0.854557334309 -0.432686220371
101790000 0.854436596706 -0.432845124442
101800000 0.854645266939 -0.433086225168
101810000 0.854549078465 -0.433091687111
101820000 0.854419153572 -0.433089997435
101830000 0.854233793534 -0.433145961795
101840000 0.854063267224 -0.433357325036
101850000 0.854295085684 -0.433455920116
101860000 0.85423198498 -0.433447635304
101870000 0.854001206411 -0.4334873559
101880000 0.853911797155 -0.433670139637
101890000 0.85382171874 -0.433854448953
101900000 0.853878500322 -0.4339986355
101910000 0.853802448689 -0.433943975549
101920000 0.853582687349 -0.434000355876
101930000 0.853505264483 -0.434152955465
101940000 0.853568419018 -0.434356609221
101950000 0.853629576508 -0.434356614505
101960000 0.853419213588 -0.434326779814
101970000 0.853170181014 -0.434359501645
101980000 0.853021292725 -0.434549902372
101990000 0.853225635151 -0.434807228767
102000000 0.853136433783 -0.434893195498
102010000 0.852630382831 -0.434820434574
102020000 0.853008860621 -0.435108925503
102030000 0.852834968079 -0.435110899494
102040000 0.852808595716 -0.43519606833
102050000 0.852607335028 -0.435283464541
102060000 0.852367837557 -0.435316415136
102070000 0.852576368358 -0.43554152952
102080000 0.85227803775 -0.435481257027
102090000 0.852413413099 -0.435666385274
102100000 0.852090920858 -0.435717063781
102110000 0.852226070129 -0.435869453764
102120000 0.852224908623 -0.436034050372
102130000 0.851882072187 -0.435895814674
102140000 0.85207607002 -0.43611094143
102150000 0.851623051248 -0.436088971286
102160000 0.851910709381 -0.43644757168
102170000 0.851845562727 -0.436445721552
102180000 0.85163321958 -0.436395716241
102190000 0.851641000195 -0.43653598972
102200000 0.851217478853 -0.436423016287
102210000 0.851587887909 -0.436801176614
102220000 0.851392508163 -0.436760569352
102230000 0.851271888879 -0.436825514476
102240000 0.851220217944 -0.436914307143
102250000 0.850880475044 -0.436945864348
102260000 0.85118463193 -0.437305291015
102270000 0.850888886657 -0.43719342186
102280000 0.850955327473 -0.437395163819
102290000 0.850698658554 -0.437398056198
102300000 0.85071613704 -0.437548973875
102310000 0.850761078566 -0.437758797019
102320000 0.850421851468 -0.437562896529
102330000 0.850621462603 -0.437806490973
102340000 0.850185928462 -0.437700772035
102350000 0.850379725867 -0.438074170257
102360000 0.850335768972 -0.43810392675
102370000 0.850091739308 -0.438029902638
102380000 0.850140855088 -0.438234804488
102390000 0.849714237308 -0.438097931236
102400000 0.850322786751 -0.438754749425
102410000 0.849914579922 -0.438537170448
102420000 0.84986526131 -0.438464614858
102430000 0.849771348564 -0.438608842281
102440000 0.84938874375 -0.438578644343
102450000 0.849627500013 -0.43892091455
102460000 0.849384149066 -0.438739543804
102470000 0.84945370542 -0.438910144859
102480000 0.849263579204 -0.438956880166
102490000 0.849139456899 -0.43917076625
102500000 0.849195610577 -0.439367261088
102510000 0.848846074502 -0.439142397413
102520000 0.849029596285 -0.439380608132
102530000 0.848633234657 -0.439274699805
102540000 0.848809223923 -0.439698151671
102550000 0.848741698069 -0.439763586854
102560000 0.848466439893 -0.439620002296
102570000 0.848544328532 -0.439848278055
102580000 0.848124214879 -0.439679484227
102590000 0.848457829349 -0.440177063698
102600000 0.848259474603 -0.440145766696
102610000 0.848258679631 -0.440139192074
102620000 0.848153106087 -0.440262532382
102630000 0.84781658365 -0.4401450309
102640000 0.848108250665 -0.440635587958
102650000 0.847806987832 -0.440485489166
102660000 0.847882928139 -0.44062288386
102670000 0.84774036371 -0.44061828668
102680000 0.847625088379 -0.44068725465
102690000 0.847684565642 -0.441032736757
102700000 0.847366192457 -0.440721721762
102710000 0.847488559813 -0.441069401207
102720000 0.847103324745 -0.440981019615
102730000 0.847193978425 -0.441339412287
102740000 0.847222321353 -0.44143765086
102750000 0.846969686523 -0.441188876965
102760000 0.847043486727 -0.441473833687
102770000 0.846606828821 -0.441216962864
102780000 0.846912081011 -0.44173563156
102790000 0.846815225982 -0.441733335831
102800000 0.846630239621 -0.441666866859
102810000 0.846629241197 -0.441854415397
102820000 0.846159049783 -0.44162240432
102830000 0.846428012615 -0.442187153848
102840000 0.846255804029 -0.442029055106
102850000 0.846232724677 -0.442206685236
102860000 0.846139814302 -0.442243182856
102870000 0.845892293495 -0.442256025708
102880000 0.846046097182 -0.442621750922
102890000 0.845719595734 -0.442278663683
102900000 0.845838317068 -0.442614926076
102910000 0.845506473251 -0.44249790868
102920000 0.845592295409 -0.442890899538
102930000 0.845573720541 -0.443046810951
102940000 0.845354346942 -0.44274343364
102950000 0.845431713861 -0.443061362122
102960000 0.845045841626 -0.44279159019
102970000 0.845266058227 -0.443363789005
102980000 0.845220395836 -0.44335724906
102990000 0.844970934925 -0.443200237126
103000000 0.844972441996 -0.443369575222
103010000 0.844703026085 -0.443210989353
103020000 0.844588143472 -0.443352201122
103030000 0.844536227447 -0.443707393923
103040000 0.844644189553 -0.443923919114
103050000 0.844617930469 -0.443892909015
103060000 0.844367469373 -0.443693024073
103070000 0.84424025002 -0.443890402425
103080000 0.844170135255 -0.444126178037
103090000 0.844226392753 -0.444337197404
103100000 0.844168370649 -0.444211050953
103110000 0.843958879749 -0.443960994951
103120000 0.843834245617 -0.444278653856
103130000 0.843819900508 -0.444439114421
103140000 0.843858278394 -0.444655900266
103150000 0.843781429129 -0.444562593867
103160000 0.843495524419 -0.444388825887
103170000 0.843432750341 -0.444767619795
103180000 0.843300726105 -0.44496489458
103190000 0.843305304677 -0.445024668374
103200000 0.843240207797 -0.444836027249
103210000 0.843078599012 -0.44488202505
103220000 0.842999063632 -0.445228373144
103230000 0.843014098908 -0.445408110897
103240000 0.842978004517 -0.445405522405
103250000 0.84277138165 -0.445154997785
103260000 0.8425892396 -0.445296282569
103270000 0.842568285569 -0.445541241063
103280000 0.842588856388 -0.445780989873
103290000 0.84254677033 -0.445736632875
103300000 0.842303396393 -0.445475730501
103310000 0.842177361233 -0.445767170413
103320000 0.842146849034 -0.445994237956
103330000 0.842263814327 -0.446252250424
103340000 0.842159454514 -0.446163674577
103350000 0.841889213678 -0.445960012411
103360000 0.841823080692 -0.446332354578
103370000 0.841701635029 -0.446455514789
103380000 0.841729011762 -0.446475524999
103390000 0.841721370736 -0.446313460877
103400000 0.841506604873 -0.446337732326
103410000 0.841390362325 -0.446728567451
103420000 0.84138553686 -0.446924927113
103430000 0.841402721733 -0.446921891214
103440000 0.84122922969 -0.446666926916
103450000 0.84102254406 -0.446805058565
103460000 0.840899219513 -0.447148420002
103470000 0.840877168167 -0.447357400042
103480000 0.840904813611 -0.447292313712
103490000 0.840764145364 -0.446926231444
103500000 0.840595211468 -0.447208319284
103510000 0.840531202683 -0.447394025616
103520000 0.840628520248 -0.447643781659
103530000 0.840497696553 -0.447523337454
103540000 0.840312275905 -0.447249720664
103550000 0.840200874489 -0.447707484312
103560000 0.84012080416 -0.447907848181
103570000 0.840076221799 -0.447978166124
103580000 0.840111575619 -0.44780543498
103590000 0.839910117581 -0.447830049281
103600000 0.839673927758 -0.448193487549
103610000 0.839730963275 -0.44834725758
103620000 0.839757467357 -0.448338876437
103630000 0.839666600721 -0.448028712582
103640000 0.839421254661 -0.448225293779
103650000 0.839238148276 -0.44863791913
103660000 0.839137212465 -0.448773051921
103670000 0.839411127797 -0.448753327749
103680000 0.83901778519 -0.448318804603
103690000 0.838833084174 -0.448668586699
103700000 0.83864711203 -0.448816675466
103710000 0.838969467887 -0.449286014701
103720000 0.838758035915 -0.449078012223
103730000 0.838687809913 -0.448739433567
103740000 0.838598022815 -0.449076145534
103750000 0.838389276836 -0.44932092567
103760000 0.838375543568 -0.449435271825
103770000 0.838425595803 -0.449262851077
103780000 0.838299922009 -0.44918244488
103790000 0.838062784221 -0.449635710508
103800000 0.838085454433 -0.449802881556
103810000 0.83814844527 -0.449874270473
103820000 0.838076745796 -0.449558580659
103830000 0.83786733184 -0.449609644108
103840000 0.83764031674 -0.449985143868
103850000 0.837601930069 -0.450202230592
103860000 0.837599765991 -0.450204385625
103870000 0.837584238614 -0.449792070158
103880000 0.837353757564 -0.450016088802
103890000 0.837203201501 -0.450307508989
103900000 0.837311189533 -0.450629949747
103910000 0.837287839268 -0.450522782805
103920000 0.837218824595 -0.450171191235
103930000 0.836944315462 -0.450540566717
103940000 0.836859086853 -0.450695438157
103950000 0.836779868762 -0.450866851199
103960000 0.836851554724 -0.450784598403
103970000 0.836739876386 -0.450685875963
103980000 0.836428319295 -0.451006496157
103990000 0.836382336157 -0.451263175222
104000000 0.836745709925 -0.451516091139
104010000 0.836221359745 -0.451333482961
104020000 0.836137979387 -0.450813945293
104030000 0.835826282973 -0.451549756184
104040000 0.835757099606 -0.451599879549
104050000 0.835824848774 -0.451739532538
104060000 0.835878295031 -0.451691148305
104070000 0.835803679289 -0.451329367722
104080000 0.835460741643 -0.452072524725
104090000 0.835423796902 -0.452038525733
104100000 0.835408143684 -0.452075939476
104110000 0.835489166639 -0.451846389646
104120000 0.835300092416 -0.451779043133
104130000 0.8349990565 -0.452312538676
104140000 0.835070118402 -0.452441998532
104150000 0.835050630217 -0.452560208117
104160000 0.835094882664 -0.45215479416
104170000 0.834796835777 -0.45245477876
104180000 0.834557110195 -0.452632862048
104190000 0.834616049783 -0.452790340578
104200000 0.834594502635 -0.452818133586
104210000 0.834649782557 -0.452367284035
104220000 0.834227876021 -0.45300851968
104230000 0.834152819937 -0.45305296989
104240000 0.834251928012 -0.453190420242
104250000 0.834283361977 -0.45316389965
104260000 0.83426757418 -0.452755760315
104270000 0.833815395591 -0.453483977062
104280000 0.833749639144 -0.453438150852
104290000 0.833745097134 -0.453525159658
104300000 0.833835028599 -0.453342246337
104310000 0.833700897642 -0.453221494017
104320000 0.833282698909 -0.453825220275
104330000 0.833312567035 -0.453956989458
104340000 0.833333289409 -0.45400576447
104350000 0.83347320107 -0.453679052718
104360000 0.833169200447 -0.453910191446
104370000 0.832895522724 -0.454108358708
104380000 0.832938219594 -0.454219432198
104390000 0.832930033943 -0.454258347456
104400000 0.833034859574 -0.453852080174
104410000 0.832565322943 -0.454382409101
104420000 0.832496177702 -0.454462603929
104430000 0.832568565151 -0.454653165805
104440000 0.83261339847 -0.454622700058
104450000 0.83267535441 -0.454268630213
104460000 0.832172009579 -0.454840235683
104470000 0.832054170236 -0.454919104109
104480000 0.83207930188 -0.455004450269
104490000 0.832226375274 -0.454832361525
104500000 0.832136564562 -0.454682361951
104510000 0.831671313357 -0.455230560946
104520000 0.831674248461 -0.455352584799
104530000 0.831676622553 -0.455445288752
104540000 0.83186530187 -0.455131248222
104550000 0.831568857 -0.455291571752
104560000 0.831192436688 -0.455549741307
104570000 0.831216211875 -0.455663776951
104580000 0.831200650203 -0.45571258437
104590000 0.831464776457 -0.455354343181
104600000 0.83098934576 -0.455801424408
104610000 0.830784812428 -0.455904258587
104620000 0.830829669914 -0.456143232501
104630000 0.830870044116 -0.456192194262
104640000 0.831018208296 -0.455790515121
104650000 0.830389699987 -0.456362765381
104660000 0.830331469184 -0.456353108457
104670000 0.83035610683 -0.456471820103
104680000 0.830541682341 -0.456365782515
104690000 0.830523832815 -0.456168016373
104700000 0.829858659862 -0.456585985804
104710000 0.829941747088 -0.456756935632
104720000 0.829885508605 -0.456840176952
104730000 0.830183636997 -0.456638046072
104740000 0.829831914281 -0.456721434805
104750000 0.829448182155 -0.4569503424
104760000 0.829471067571 -0.457144880935
104770000 0.829526570912 -0.457186767721
104780000 0.829794507923 -0.456833956273
104790000 0.8292849123 -0.457146357095
104800000 0.829021178464 -0.457247530674
104810000 0.829106433433 -0.457472022094
104820000 0.829159001433 -0.457530057515
104830000 0.829425122266 -0.457171188469
104840000 0.828709820373 -0.4577280335
104850000 0.828647634691 -0.457714137696
104860000 0.82864501087 -0.457823405668
104870000 0.828801687384 -0.457762578585
104880000 0.828911964571 -0.457512408043
104890000 0.828221517138 -0.4579126733
104900000 0.828273337043 -0.458143231684
104910000 0.828247004248 -0.458267316448
104920000 0.828515502805 -0.458011479463
104930000 0.828266562206 -0.458106250715
104940000 0.82775857002 -0.458234772392
104950000 0.827840806328 -0.458437589401
104960000 0.827863895387 -0.458492650736
104970000 0.828218188205 -0.458269246739
104980000 0.827717824904 -0.458545358787
104990000 0.827425339602 -0.458594160695
105000000 0.827517802746 -0.458891571458
105010000 0.828006554486 -0.458668958957
105020000 0.827632848914 -0.458882191847
105030000 0.82807147218 -0.458753806219
105040000 0.827687563388 -0.458932448688
105050000 0.827909848285 -0.458801197096
105060000 0.827384385103 -0.459091129422
105070000 0.827306424237 -0.459132001801
105080000 0.827545225838 -0.459219677823
105090000 0.827202434183 -0.459203829836
105100000 0.827377668779 -0.459125948014
105110000 0.826742484251 -0.459463335989
105120000 0.827010965459 -0.459405189277
105130000 0.82692474282 -0.459586771639
105140000 0.826860040583 -0.459522512467
105150000 0.826856039915 -0.459546824894
105160000 0.826220652436 -0.459836417309
105170000 0.826653397492 -0.459855848358
105180000 0.826366861484 -0.46004347024
105190000 0.826421843588 -0.459918797066
105200000 0.826228597414 -0.460122272066
105210000 0.825775177319 -0.460276737693
105220000 0.826260473907 -0.460232310968
105230000 0.825867274085 -0.460352434043
105240000 0.825976968213 -0.460291935471
105250000 0.825626910852 -0.46041313465
105260000 0.825397526082 -0.46081717872
105270000 0.825429665249 -0.460815029992
105280000 0.825265393248 -0.460804037226
105290000 0.825502759831 -0.460778484615
105300000 0.824663419755 -0.460945958779
105310000 0.824894159389 -0.460927186217
105320000 0.824783203394 -0.460960702676
105330000 0.824881595925 -0.461045888963
105340000 0.824907595568 -0.461076877949
105350000 0.824365617004 -0.461248366762
105360000 0.824757216207 -0.461330246966
105370000 0.824457865843 -0.46150829701
105380000 0.824542654307 -0.461306638844
105390000 0.824277685016 -0.461504140933
105400000 0.823845720815 -0.461607188835
105410000 0.824298193009 -0.461640877899
105420000 0.823939351303 -0.46177731901
105430000 0.82417416614 -0.461792850454
105440000 0.823694337699 -0.461921931972
105450000 0.82352262787 -0.46195992631
105460000 0.823776755279 -0.46215475378
105470000 0.823446400387 -0.462050176411
105480000 0.823597504329 -0.462124370754
105490000 0.822971478449 -0.462209256968
105500000 0.823159145183 -0.462279450495
105510000 0.823107907075 -0.462477611205
105520000 0.823047214818 -0.462439042802
105530000 0.823113484561 -0.462610911185
105540000 0.822478855828 -0.462628911566
105550000 0.822819858626 -0.46276481293
105560000 0.822583891687 -0.462930582078
105570000 0.822605243745 -0.46276585561
105580000 0.822424787478 -0.462936952228
105590000 0.821975944216 -0.462941388694
105600000 0.822366216984 -0.463057894933
105610000 0.821992531718 -0.463105501016
105620000 0.822223024179 -0.463193045661
105630000 0.821759337462 -0.463335522597
105640000 0.821556371423 -0.463351233012
105650000 0.821793928539 -0.463582021663
105660000 0.821466782707 -0.463440535801
105670000 0.821629706703 -0.463549251576
105680000 0.821084247523 -0.463577026596
105690000 0.82115703265 -0.463696149227
105700000 0.821160781707 -0.463919806566
105710000 0.820952617375 -0.463793320039
105720000 0.821066562901 -0.463986795723
105730000 0.820518448327 -0.463920115069
105740000 0.820829957388 -0.464141617644
105750000 0.820565069855 -0.464315849581
105760000 0.820610039889 -0.464176586883
105770000 0.8204567474 -0.46434385248
105780000 0.82003993405 -0.464223478555
105790000 0.820389128011 -0.464465770534
105800000 0.820069842838 -0.464524456345
105810000 0.820169133238 -0.464562376367
105820000 0.819770448529 -0.464584686166
105830000 0.819568977489 -0.464536117177
105840000 0.8197843263 -0.464898248198
105850000 0.819575726224 -0.464820057961
105860000 0.819616155814 -0.464947928126
105870000 0.819127115693 -0.464945716554
105880000 0.81916543172 -0.46505785411
105890000 0.819107814984 -0.465245049254
105900000 0.819011124141 -0.465123426531
105910000 0.819013401802 -0.465337047566
105920000 0.818513257234 -0.465235401249
105930000 0.818676169481 -0.46547009405
105940000 0.818426086693 -0.46564057801
105950000 0.818498392433 -0.465440663325
105960000 0.818362555804 -0.465625478249
105970000 0.817956350169 -0.465483563847
105980000 0.818261937308 -0.465780711716
105990000 0.817937422592 -0.465856382084
106000000 0.818115251364 -0.465922558343
106010000 0.817038245652 -0.466184508179
106020000 0.817146152945 -0.466299007237
106030000 0.817196012498 -0.466208694562
106040000 0.816768807606 -0.466093165269
106050000 0.816449532378 -0.466339199258
106060000 0.816542812836 -0.466557266711
106070000 0.816719556296 -0.466670184833
106080000 0.816369457283 -0.466517701408
106090000 0.815976724162 -0.466304505122
106100000 0.815958058915 -0.466762135076
106110000 0.816025969462 -0.466919406301
106120000 0.816297168627 -0.466901133213
106130000 0.815682204388 -0.466942956407
106140000 0.815389828937 -0.466674029396
106150000 0.815293854709 -0.466970967899
106160000 0.815403234676 -0.467254729197
106170000 0.815575904847 -0.467279955513
106180000 0.81501944254 -0.467156722346
106190000 0.814729846286 -0.467180320774
106200000 0.814787003142 -0.467380222715
106210000 0.814857314283 -0.467549102563
106220000 0.814920197078 -0.467519039802
106230000 0.81445113677 -0.467307810194
106240000 0.814193555638 -0.467419244836
106250000 0.814287955947 -0.4676687404
106260000 0.814329138 -0.467893130824
106270000 0.814147341569 -0.467864714929
106280000 0.813829033135 -0.467542181679
106290000 0.813639181118 -0.467935505654
106300000 0.813703196442 -0.468048790434
106310000 0.813910342884 -0.468166870991
106320000 0.813331063757 -0.468110594392
106330000 0.813166002442 -0.46787041376
106340000 0.813036238948 -0.468119423401
106350000 0.813138760807 -0.46835838059
106360000 0.813327438688 -0.46844350492
106370000 0.812856680737 -0.468313799883
106380000 0.81258786382 -0.468327981581
106390000 0.812486508458 -0.468536013318
106400000 0.812582323784 -0.468626990956
106410000 0.812718238762 -0.468637392972
106420000 0.812296745108 -0.468470575264
106430000 0.811984995645 -0.46851922739
106440000 0.811992066771 -0.468784962084
106450000 0.81201195812 -0.46899874133
106460000 0.811816710307 -0.468940452896
106470000 0.811645531436 -0.468645619668
106480000 0.811449687674 -0.469005961783
106490000 0.811454605309 -0.469114441243
106500000 0.811541525281 -0.469232327537
106510000 0.811086691242 -0.469151264829
106520000 0.810927115662 -0.468891979128
106530000 0.81080458741 -0.469162112312
106540000 0.810908069961 -0.469430663278
106550000 0.811017734788 -0.469569057073
106560000 0.810460523855 -0.469410693918
106570000 0.810246425175 -0.469329867619
106580000 0.810231662125 -0.469503749081
106590000 0.810308290022 -0.46965196896
106600000 0.810423421566 -0.469670960808
106610000 0.809964058583 -0.469577567553
106620000 0.809722893898 -0.469544271174
106630000 0.809765084523 -0.469705955717
106640000 0.809737012 -0.469907031712
106650000 0.809575791224 -0.469861810456
106660000 0.809374062476 -0.469636750642
106670000 0.809109642927 -0.469943226259
106680000 0.809096293637 -0.470053143465
106690000 0.809098085796 -0.470181840961
106700000 0.808739334915 -0.470099162937
106710000 0.808711760158 -0.469953830218
106720000 0.808471295883 -0.470164611678
106730000 0.808579182517 -0.470411592224
106740000 0.808612125619 -0.470483659289
106750000 0.808203214726 -0.470342405007
106760000 0.808046124103 -0.470290140562
106770000 0.807944656684 -0.470445904031
106780000 0.807973040732 -0.470581749348
106790000 0.80804842057 -0.470565005273
106800000 0.80766762433 -0.470495563285
106810000 0.807402212594 -0.470431282396
106820000 0.807404743191 -0.470651533572
106830000 0.807387840685 -0.470915682192
106840000 0.807188054677 -0.470784986908
106850000 0.807080204781 -0.470588842627
106860000 0.806756689308 -0.470806635238
106870000 0.806884293693 -0.470934941498
106880000 0.80683694385 -0.471092172671
106890000 0.806496913531 -0.470989706044
106900000 0.806376916454 -0.470778002801
106910000 0.806180830614 -0.470942380661
106920000 0.80627935499 -0.471183434921
106930000 0.806342975518 -0.471270070053
106940000 0.805840017399 -0.471137195043
106950000 0.80570714877 -0.471100437682
106960000 0.805563045555 -0.471214390239
106970000 0.805617838363 -0.471331715771
106980000 0.805747667698 -0.471342223589
106990000 0.805311376478 -0.471275293301
107000000 0.805138523861 -0.471223010775
107010000 0.805122787424 -0.471478919611
107020000 0.804884874818 -0.471494110555
107030000 0.804943860901 -0.471522448912
107040000 0.804683726025 -0.471525032494
107050000 0.804643016605 -0.471404550678
107060000 0.804566735557 -0.471626912166
107070000 0.804322472723 -0.471728092658
107080000 0.804378996482 -0.471731729418
107090000 0.803959007131 -0.471650549091
107100000 0.804037146206 -0.471670338738
107110000 0.803943467708 -0.471871287641
107120000 0.803872459684 -0.471885698744
107130000 0.803877272386 -0.471952686068
107140000 0.803366230706 -0.471859240275
107150000 0.803463511503 -0.471867900398
107160000 0.803305796354 -0.471980996161
107170000 0.803306829375 -0.472034289838
107180000 0.803267261069 -0.47198183064
107190000 0.802843674238 -0.471983456591
107200000 0.802967523225 -0.472058875161
107210000 0.802769892782 -0.47209955756
107220000 0.802742345905 -0.472162201963
107230000 0.802496661605 -0.472131681502
107240000 0.802376654828 -0.472042552917
107250000 0.802313290581 -0.472202229183
107260000 0.80208845714 -0.472297398277
107270000 0.802209444098 -0.472305056226
107280000 0.801808481547 -0.472216039797
107290000 0.801853679476 -0.472253393225
107300000 0.801749811917 -0.472365511183
107310000 0.801634553379 -0.47240850919
107320000 0.801708735973 -0.472425608775
107330000 0.80121281045 -0.472370678526
107340000 0.801310480736 -0.472422193574
107350000 0.801127622235 -0.472524253213
107360000 0.801086690641 -0.472636447454
107370000 0.801142479464 -0.472503227417
107380000 0.800714809816 -0.472540382424
107390000 0.800736601807 -0.47266636189
107400000 0.80056265853 -0.472685456634
107410000 0.800546404957 -0.47279696489
107420000 0.800400169119 -0.472735364107
107430000 0.800146274591 -0.47269191469
107440000 0.800283476117 -0.472827650219
107450000 0.800013260732 -0.472924733164
107460000 0.800043793309 -0.47292302174
107470000 0.799677652823 -0.472774693193
107480000 0.799699632124 -0.472846220595
107490000 0.799682335175 -0.472872936692
107500000 0.799579499654 -0.473027059148
107510000 0.799641429838 -0.473068228811
107520000 0.799021197549 -0.472920548927
107530000 0.799119949351 -0.472919909328
107540000 0.798982081639 -0.473021114118
107550000 0.798942309128 -0.473168210182
107560000 0.798996301393 -0.473087156925
107570000 0.798414201727 -0.473105704115
107580000 0.798600221488 -0.473177656499
107590000 0.798423143608 -0.473204806687
107600000 0.798396531498 -0.473296478995
107610000 0.798270939726 -0.473213943042
107620000 0.798057012341 -0.473254251173
107630000 0.797997041663 -0.473496477409
107640000 0.797674562859 -0.473303962194
107650000 0.797863059407 -0.473424646013
107660000 0.797692677517 -0.473282906573
107670000 0.797503886363 -0.473425335499
107680000 0.797312447068 -0.473383971068
107690000 0.797592923199 -0.473245372859
107700000 0.797451004543 -0.473385631176
107710000 0.796980431172 -0.473493313762
107720000 0.796905544514 -0.473551099847
107730000 0.796863527738 -0.473505720382
107740000 0.796765608124 -0.47367713891
107750000 0.797015100227 -0.473594943349
107760000 0.796490870427 -0.473555787749
107770000 0.796538546858 -0.473686475535
107780000 0.796463406621 -0.473697173044
107790000 0.796377831268 -0.473749632856
107800000 0.796279191841 -0.473626113812
107810000 0.795971478898 -0.473592517318
107820000 0.796061142368 -0.473739263639
107830000 0.795784912641 -0.473850970306
107840000 0.795820501055 -0.473876633251
107850000 0.79560585235 -0.473687657364
107860000 0.795505768207 -0.473815982627
107870000 0.795572446105 -0.473828869704
107880000 0.795384930919 -0.473936288883
107890000 0.795415328613 -0.473963892044
107900000 0.794908619245 -0.473767257952
107910000 0.794966486678 -0.473879504998
107920000 0.794974232681 -0.473938017729
107930000 0.794812459558 -0.474079813402
107940000 0.795079032207 -0.473998105152
107950000 0.794409065156 -0.473950887451
107960000 0.794491954285 -0.474082916576
107970000 0.79442477057 -0.474082953397
107980000 0.794367933708 -0.474143433851
107990000 0.79439334333 -0.474109803146
108000000 0.79400600843 -0.474097961661
