! Calibrated averaged scanner-service zoom
# Hz S RI R 50
159810000 0.909357399771 -0.140174641751
159811755 0.909463871043 -0.140206426834
159813510 0.909360531054 -0.140310025782
159815265 0.90953571483 -0.140333961874
159817020 0.909122134625 -0.140469313
159818775 0.909447431315 -0.14061898962
159820530 0.909647443922 -0.140567633252
159822285 0.909501383813 -0.140562435288
159824040 0.909330450711 -0.140720699314
159825795 0.909495908455 -0.140637200029
159827550 0.909645961511 -0.140801276086
159829305 0.909669158686 -0.140893328989
159831060 0.909699295902 -0.140943227736
159832815 0.909653091531 -0.140963766405
159834570 0.909649928651 -0.140986637878
159836325 0.909638878884 -0.141205923756
159838080 0.909931890482 -0.141091327853
159839835 0.909772193154 -0.141129100782
159841590 0.909877489445 -0.141178963433
159843345 0.909873903432 -0.141352688747
159845100 0.909831530001 -0.141320119368
159846855 0.909924895739 -0.141557431912
159848610 0.910171624832 -0.141353467367
159850365 0.909946702755 -0.141597144792
159852120 0.910139039823 -0.141590468735
159853875 0.91015084982 -0.141729938588
159855630 0.910128962464 -0.14165872074
159857385 0.910204150279 -0.14174681386
159859140 0.910152599824 -0.141799361899
159860895 0.910248949683 -0.141840983958
159862650 0.910134266969 -0.141936872158
159864405 0.910322531453 -0.142009812239
159866160 0.910318356143 -0.142088739248
159867915 0.910282490217 -0.142115648081
159869670 0.91026571245 -0.142198202211
159871425 0.910460628356 -0.142276881481
159873180 0.910445451833 -0.142295173662
159874935 0.910581943371 -0.142279142415
159876690 0.910355285766 -0.142505642745
159878445 0.910510233125 -0.142484097873
159880200 0.910504705885 -0.142541993289
159881955 0.910661259557 -0.142559462362
159883710 0.910444558159 -0.142571235468
159885465 0.910590841165 -0.142674287004
159887220 0.910487720802 -0.142948006058
159888975 0.910487222755 -0.142507665822
159890730 0.910786523591 -0.142856207374
159892485 0.910598380886 -0.142863311365
159894240 0.910709822452 -0.142996174102
159895995 0.910861748967 -0.142997499618
159897750 0.910804215006 -0.143074109335
159899505 0.910913265028 -0.143253340337
159901260 0.911281407473 -0.143914078048
159903015 0.910799263943 -0.143322166634
159904770 0.910966082567 -0.143311673807
159906525 0.910732315701 -0.143331869307
159908280 0.910966643207 -0.143407651869
159910035 0.910800648512 -0.1434074592
159911790 0.910784782545 -0.143602416296
159913545 0.910994845167 -0.143464801558
159915300 0.910937357827 -0.14359607498
159917055 0.910691788481 -0.143712689431
159918810 0.91107177356 -0.143778619675
159920565 0.911013598073 -0.143763655808
159922320 0.911177204308 -0.143889114615
159924075 0.911093530922 -0.144035931854
159925830 0.911246579109 -0.143952275494
159927585 0.911235864357 -0.144152448196
159929340 0.911124126318 -0.144039064759
159931095 0.911200487785 -0.144253119302
159932850 0.91114304453 -0.144105908505
159934605 0.911267644692 -0.144282018318
159936360 0.911200124919 -0.144254973475
159938115 0.910996297776 -0.144415400254
159939870 0.910346025942 -0.144661082609
159941625 0.91119494418 -0.144485848773
159943380 0.911382201352 -0.144500734589
159945135 0.911274105128 -0.1447216204
159946890 0.911337970143 -0.144638073852
159948645 0.91144056891 -0.144721949068
159950400 0.911310837261 -0.144767929759
159952155 0.911558730489 -0.144871606069
159953910 0.911547689676 -0.144985327359
159955665 0.911436416805 -0.145029367352
159957420 0.91143154148 -0.145036712193
159959175 0.911609704659 -0.145068460632
159960930 0.910066434845 -0.145516174724
159962685 0.910817628623 -0.145374561246
159964440 0.911620826065 -0.145320129951
159966195 0.911829457061 -0.145356875212
159967950 0.911665348979 -0.145512495235
159969705 0.911798681342 -0.145522429613
159971460 0.91171294405 -0.145627818665
159973215 0.911882532628 -0.145621535187
159974970 0.911749133509 -0.14573539515
159976725 0.911789029596 -0.145725183735
159978480 0.911941694712 -0.145787042176
159980235 0.911945945926 -0.145803404826
159981990 0.911847310062 -0.145925172174
159983745 0.911936147545 -0.146028567482
159985500 0.911879543704 -0.146079399824
159987255 0.911784508031 -0.145984686411
159989010 0.911882943532 -0.146117113682
159990765 0.912045960973 -0.146160105129
159992520 0.911988054024 -0.146289384821
159994275 0.911986394252 -0.146215149254
159996030 0.911992776886 -0.146360732675
159997785 0.911964448602 -0.146357139583
159999540 0.912270628111 -0.146135750856
160001295 0.91198786452 -0.146472655584
160003050 0.912064219547 -0.146526107847
160004805 0.912191765913 -0.146632646105
160006560 0.912223161657 -0.146749953554
160008315 0.912168518676 -0.146607330525
160010070 0.91223319295 -0.146765057391
160011825 0.912148163412 -0.14684776037
160013580 0.912213018928 -0.146868230422
160015335 0.91231070123 -0.146925594827
160017090 0.912259539095 -0.146891289915
160018845 0.912388972481 -0.147012368941
160020600 0.912327054818 -0.147037872149
160022355 0.91246304283 -0.147172017941
160024110 0.912571690675 -0.14733439486
160025865 0.912413339406 -0.147281844025
160027620 0.912586000741 -0.147266617503
160029375 0.912390428519 -0.147283322234
160031130 0.912348653852 -0.147316704675
160032885 0.912388245362 -0.147384173876
160034640 0.912572199056 -0.14748553032
160036395 0.912475707905 -0.147486191064
160038150 0.91245300923 -0.147544221494
160039905 0.912543842635 -0.147699423438
160041660 0.912602289099 -0.147698022611
160043415 0.912541139165 -0.147753241898
160045170 0.912483696476 -0.147697594654
160046925 0.912707420192 -0.147879913226
160048680 0.912683707145 -0.147925427873
160050435 0.912780495829 -0.148045455786
160052190 0.912664305907 -0.147962448618
160053945 0.912615464615 -0.148094417495
160055700 0.912657812864 -0.148221776136
160057455 0.912743704601 -0.148204672917
160059210 0.912641279635 -0.148142139879
160060965 0.912708250717 -0.148365888088
160062720 0.912740804749 -0.14833533062
160064475 0.912959133505 -0.148520641273
160066230 0.912743194334 -0.148350512458
160067985 0.912914234285 -0.148447130203
160069740 0.912705381048 -0.148514194279
160071495 0.912769985086 -0.148634156129
160073250 0.912824442084 -0.148623566238
160075005 0.912946317927 -0.148579961192
160076760 0.912963237994 -0.148799266205
160078515 0.913151910201 -0.148862665134
160080270 0.913049344208 -0.148818670078
160082025 0.913160018084 -0.14889948516
160083780 0.913133185878 -0.149068043356
160085535 0.913447648337 -0.149104357091
160087290 0.913337208795 -0.149089367009
160089045 0.91330750845 -0.149144079597
160090800 0.913323010083 -0.149199897841
160092555 0.913473149679 -0.14939257386
160094310 0.913402175847 -0.149326013101
160096065 0.913428302348 -0.149315697648
160097820 0.913340504194 -0.149403644298
160099575 0.913567723201 -0.149585464471
160101330 0.913567116948 -0.149734252207
160103085 0.913772949575 -0.149764516199
160104840 0.913561246278 -0.149828590215
160106595 0.913423378105 -0.149837251243
160108350 0.913630975392 -0.149812759698
160110105 0.913733799128 -0.149803150336
160111860 0.913839755441 -0.149956559109
160113615 0.913594829838 -0.150121326744
160115370 0.913871039555 -0.150096724877
160117125 0.913835088984 -0.150165512252
160118880 0.913860921495 -0.150210978391
160120635 0.913906368665 -0.15038406931
160122390 0.913979190286 -0.150469600413
160124145 0.913576271946 -0.150377085208
160125900 0.913811568825 -0.150379381627
160127655 0.9138758383 -0.150541772081
160129410 0.914025078507 -0.150562178299
160131165 0.913887532071 -0.150596411664
160132920 0.913933706473 -0.15061630187
160134675 0.913952699194 -0.15067882808
160136430 0.913940461742 -0.150724784447
160138185 0.914020175157 -0.150878105889
160139940 0.913956805865 -0.150819484042
160141695 0.914077436316 -0.150934440746
160143450 0.913968843564 -0.151117383524
160145205 0.914093213655 -0.151129286232
160146960 0.914020552162 -0.151064772997
160148715 0.914153177183 -0.151163780293
160150470 0.913975175081 -0.151222809338
160152225 0.914219708517 -0.151167153468
160153980 0.914276183415 -0.151388663687
160155735 0.914352542768 -0.151340790179
160157490 0.91430720266 -0.151513807512
160159245 0.914436090383 -0.151658934948
160161000 0.91432515716 -0.151660761492
160162755 0.914427595029 -0.151766491823
160164510 0.914427653905 -0.151769108929
160166265 0.914516488871 -0.151797976726
160168020 0.914504931506 -0.151874248318
160169775 0.914537986791 -0.151897857495
160171530 0.914629105474 -0.151924807654
160173285 0.91446258088 -0.151926124669
160175040 0.914608302573 -0.152037465656
160176795 0.914615000935 -0.152082852027
160178550 0.914667265962 -0.152044190185
160180305 0.914678391094 -0.152188470979
160182060 0.914815318986 -0.152276301087
160183815 0.914768152764 -0.152334187834
160185570 0.914689138544 -0.152299235923
160187325 0.914738383475 -0.152309149846
160189080 0.914806854485 -0.152428816687
160190835 0.914816682173 -0.152567326265
160192590 0.914863784604 -0.152557828593
160194345 0.914791317066 -0.152487242215
160196100 0.914681429225 -0.152637853918
160197855 0.914465487929 -0.152739876451
160199610 0.91476082868 -0.152694864509
160201365 0.914882816921 -0.152632547068
160203120 0.914747055334 -0.152775961414
160204875 0.914876733529 -0.15284052039
160206630 0.914926147793 -0.15298179925
160208385 0.914876205032 -0.152919176431
160210140 0.914910822018 -0.152880478044
160211895 0.915016033746 -0.15307704555
160213650 0.914994050333 -0.153163734981
160215405 0.915040436298 -0.153073649458
160217160 0.914929191664 -0.153090045587
160218915 0.91495130609 -0.153297959585
160220670 0.915115179604 -0.15338097933
160222425 0.915119197732 -0.153476867037
160224180 0.915029220123 -0.153383963811
160225935 0.914990018198 -0.153428084885
160227690 0.915392760843 -0.153537426199
160229445 0.915147601121 -0.153601629738
160231200 0.915082785388 -0.153581457327
160232955 0.915172367752 -0.153645244262
160234710 0.915248872316 -0.153755845262
160236465 0.915200417083 -0.153825799362
160238220 0.915104245061 -0.153888489911
160239975 0.915331120777 -0.153984639166
160241730 0.915301170699 -0.154012445716
160243485 0.915359977332 -0.154025903846
160245240 0.915329709604 -0.154002589457
160246995 0.915223973064 -0.154140839902
160248750 0.915439099353 -0.154221571858
160250505 0.915252905845 -0.154246803023
160252260 0.915323445701 -0.154192505744
160254015 0.915319740223 -0.154261776672
160255770 0.915364135884 -0.154281184912
160257525 0.915448097235 -0.154489542178
160259280 0.915462052723 -0.154534161908
160261035 0.915561508932 -0.154584814268
160262790 0.915528191846 -0.15467487639
160264545 0.915418128206 -0.15472253255
160266300 0.915602335508 -0.154746911367
160268055 0.915664604947 -0.15481763199
160269810 0.915584978833 -0.154853451517
160271565 0.91575051796 -0.154894596212
160273320 0.915803488153 -0.154940083363
160275075 0.915723868509 -0.155029555938
160276830 0.915696809121 -0.15512004502
160278585 0.915691995967 -0.155141029268
160280340 0.91619463285 -0.155540251034
160282095 0.91579697144 -0.155253796162
160283850 0.91584097982 -0.155372475943
160285605 0.915992424563 -0.155420360549
160287360 0.915769121757 -0.154956833277
160289115 0.915878323162 -0.155417073777
160290870 0.915905889597 -0.155573453623
160292625 0.91595125345 -0.155544132822
160294380 0.915774429701 -0.155662269604
160296135 0.916014874212 -0.155687006463
160297890 0.91591394639 -0.155737510695
160299645 0.916125182414 -0.155880899516
160301400 0.916144259806 -0.155910976879
160303155 0.916082916459 -0.155885350993
160304910 0.916041987347 -0.155971837615
160306665 0.916165627981 -0.156055322235
160308420 0.916169983358 -0.156200748857
160310175 0.916201276011 -0.156223022128
160311930 0.916220039837 -0.156119658042
160313685 0.91616706612 -0.156247415703
160315440 0.91609147867 -0.156519473459
160317195 0.916653773434 -0.156606019825
160318950 0.916567675036 -0.156003537487
160320705 0.917231927078 -0.15639519451
160322460 0.916370884099 -0.156323084915
160324215 0.916373969813 -0.156583631486
160325970 0.916272852124 -0.156531977578
160327725 0.91627587722 -0.156636391913
160329480 0.916489582966 -0.156942029889
160331235 0.917296080656 -0.1571437974
160332990 0.916069058181 -0.156355300067
160334745 0.916363646309 -0.156894228884
160336500 0.916570098797 -0.156831791643
160338255 0.916256600851 -0.156920693219
160340010 0.916140977155 -0.157051696477
160341765 0.916270829976 -0.157056875738
160343520 0.916133117352 -0.157133226878
160345275 0.916392346534 -0.157153535297
160347030 0.91623296377 -0.157174209544
160348785 0.916388273572 -0.157297999713
160350540 0.916466286917 -0.157327219003
160352295 0.916445335049 -0.157294646
160354050 0.916333965129 -0.157417011647
160355805 0.916570696104 -0.157505691082
160357560 0.916483583566 -0.157587283151
160359315 0.916638938181 -0.157625863849
160361070 0.916510004231 -0.157750088194
160362825 0.916381881507 -0.157788353085
160364580 0.916744734467 -0.157744019889
160366335 0.916838174192 -0.157865558934
160368090 0.91664683351 -0.15785326448
160369845 0.91675803821 -0.158070713836
160371600 0.916689060345 -0.158044529401
160373355 0.916995605402 -0.158089493548
160375110 0.916890653957 -0.158093170031
160376865 0.916849120685 -0.158238103565
160378620 0.916855524911 -0.158221840772
160380375 0.916841785716 -0.158269878914
160382130 0.916871333649 -0.158265493793
160383885 0.916919849112 -0.158475385593
160385640 0.91693020552 -0.158394774262
160387395 0.916976596572 -0.158552806506
160389150 0.916918510609 -0.158594198274
160390905 0.916883878224 -0.158674024853
160392660 0.917028284941 -0.158748522298
160394415 0.916928882857 -0.158733787472
160396170 0.917015137168 -0.158770806032
160397925 0.916782325987 -0.158892819853
160399680 0.917154140334 -0.158886483574
160401435 0.916971347323 -0.158992380211
160403190 0.917123722978 -0.159031373969
160404945 0.916925775159 -0.15905422784
160406700 0.917080051134 -0.159090990477
160408455 0.917270672683 -0.15931048135
160410210 0.917156694748 -0.159226330111
160411965 0.917170381313 -0.159257762746
160413720 0.91719359594 -0.159328075908
160415475 0.917193139478 -0.159409885073
160417230 0.91719635373 -0.159546053527
160418985 0.9171886559 -0.159545796974
160420740 0.917191063542 -0.159640877252
160422495 0.917178197833 -0.159614456153
160424250 0.917166859746 -0.159654420949
160426005 0.917210307263 -0.159739294912
160427760 0.917125133284 -0.159747183119
160429515 0.917317483728 -0.159823776048
160431270 0.917478143065 -0.159741285577
160433025 0.917461394135 -0.160003027903
160434780 0.917646935908 -0.160149277106
160436535 0.917702491116 -0.160265572534
160438290 0.917752483862 -0.160277209136
160440045 0.917842916696 -0.160304776216
160441800 0.917720935097 -0.160396107223
160443555 0.917975562459 -0.160633492484
160445310 0.918206028833 -0.160542184478
160447065 0.918242672495 -0.16083431604
160448820 0.918140008813 -0.160833830809
160450575 0.918286024948 -0.160901961932
160452330 0.918311561129 -0.161035131528
160454085 0.918360781543 -0.161095766908
160455840 0.918390561965 -0.161140998032
160457595 0.918338950039 -0.161312198336
160459350 0.918510650866 -0.161338713201
160461105 0.918468154104 -0.161308838596
160462860 0.918305310246 -0.161348565337
160464615 0.918318771086 -0.161306281985
160466370 0.918475348247 -0.16141970617
160468125 0.918292494988 -0.161357893452
160469880 0.918236330081 -0.161450278781
160471635 0.918121528487 -0.161381330195
160473390 0.918322035601 -0.161519040561
160475145 0.918266040984 -0.161520447931
160476900 0.918273499314 -0.161445581107
160478655 0.918191302064 -0.161492345539
160480410 0.918274820015 -0.161593559252
160482165 0.918139708729 -0.161557537608
160483920 0.918208090411 -0.16151594173
160485675 0.918049395697 -0.161646690749
160487430 0.918115220704 -0.161607596363
160489185 0.918114710972 -0.16179782823
160490940 0.918172597479 -0.161793263821
160492695 0.918313900771 -0.161879101488
160494450 0.91829446452 -0.161962937279
160496205 0.918193873939 -0.162030861318
160497960 0.918188941868 -0.161971587571
160499715 0.918336157849 -0.162154955047
160501470 0.918267322527 -0.162242938042
160503225 0.918421122183 -0.162335908261
160504980 0.91853670508 -0.162374302572
160506735 0.91845910878 -0.162340024232
160508490 0.918593706056 -0.162598808277
160510245 0.918444811511 -0.162453290997
160512000 0.918489784451 -0.16253989118
160513755 0.918688963729 -0.162772860757
160515510 0.918714352831 -0.162783285709
160517265 0.918644663605 -0.162792522581
160519020 0.91887324031 -0.162838632881
160520775 0.918902795906 -0.163004073407
160522530 0.918846657562 -0.162943169558
160524285 0.918733749865 -0.16292518146
160526040 0.918606432362 -0.162865158325
160527795 0.918755888301 -0.162987674651
160529550 0.918847306191 -0.163020298423
160531305 0.918801067398 -0.163131949017
160533060 0.918940950803 -0.163078476943
160534815 0.918798340676 -0.163285824786
160536570 0.918981401764 -0.163242024886
160538325 0.918950054123 -0.163224162242
160540080 0.918930905513 -0.163165355827
160541835 0.918969923754 -0.163279521497
160543590 0.91905784593 -0.16330798123
160545345 0.918927040153 -0.163443293796
160547100 0.918968292793 -0.163414428657
160548855 0.919142005061 -0.163360526188
160550610 0.919884014359 -0.164065741891
160552365 0.919034054187 -0.163672284365
160554120 0.919102064726 -0.163700816034
160555875 0.919168728975 -0.163726680802
160557630 0.919154828256 -0.163820858459
160559385 0.919207571452 -0.163933823287
160561140 0.919370011087 -0.163946729308
160562895 0.919334826482 -0.164034512639
160564650 0.91929914866 -0.164150527302
160566405 0.91937576387 -0.164156150829
160568160 0.919385664024 -0.164266141205
160569915 0.919329885382 -0.164239966818
160571670 0.919399178358 -0.164408991061
160573425 0.919432867291 -0.16435791609
160575180 0.91918550741 -0.164368257575
160576935 0.918988689894 -0.164537716651
160578690 0.919337968153 -0.164533951117
160580445 0.919261827352 -0.164573038723
160582200 0.919382329941 -0.16467815001
160583955 0.919398751324 -0.16469247645
160585710 0.919989393657 -0.165074490774
160587465 0.919462600798 -0.16485347514
160589220 0.919557130865 -0.164919701668
160590975 0.919386831705 -0.16487191098
160592730 0.919446491307 -0.165065047675
160594485 0.91952140808 -0.165016434292
160596240 0.919512084752 -0.165127449409
160597995 0.919380800689 -0.165059726371
160599750 0.919430346796 -0.16519887591
160601505 0.91953648679 -0.16514055922
160603260 0.919741014546 -0.165222330427
160605015 0.919814584482 -0.165022725143
160606770 0.91985790293 -0.164965354756
160608525 0.919995491219 -0.164929657176
160610280 0.920042799322 -0.164783536742
160612035 0.920158789085 -0.164751644296
160613790 0.920324895684 -0.164591966858
160615545 0.920327304555 -0.164483958069
160617300 0.920444241048 -0.16441827606
160619055 0.920679193159 -0.164359632811
160620810 0.920690804973 -0.164187141783
160622565 0.920750614238 -0.1641509313
160624320 0.920997655561 -0.164015515358
160626075 0.921021950068 -0.163957462705
160627830 0.921166195209 -0.163840002209
160629585 0.921277582533 -0.163914455785
160631340 0.921247258892 -0.16394758374
160633095 0.921145017799 -0.164097022768
160634850 0.921007220955 -0.164210419339
160636605 0.920947493644 -0.164528367331
160638360 0.920826877211 -0.164590859398
160640115 0.920845032827 -0.164932809769
160641870 0.92112597735 -0.165116805372
160643625 0.921268313448 -0.165439533734
160645380 0.920857423457 -0.165512047823
160647135 0.920320991732 -0.165454016959
160648890 0.920480479535 -0.165731945575
160650645 0.920420657663 -0.165950048817
160652400 0.920221157951 -0.166181281456
160654155 0.920147914297 -0.166292898791
160655910 0.920184175053 -0.166487973321
160657665 0.920050242133 -0.16663929224
160659420 0.919956472781 -0.166870048504
160661175 0.920040465096 -0.166897677428
160662930 0.920035262072 -0.166893082277
160664685 0.920179813004 -0.166915072617
160666440 0.92002745767 -0.16706417098
160668195 0.920320877985 -0.167191828291
160669950 0.920213719546 -0.167209784749
160671705 0.92040983516 -0.167349499544
160673460 0.920299857379 -0.167353157976
160675215 0.920270273912 -0.167408378509
160676970 0.920314604794 -0.167463153778
160678725 0.920328586335 -0.167513948378
160680480 0.920829924147 -0.16736157665
160682235 0.920408152276 -0.167607092969
160683990 0.920356810914 -0.167684080649
160685745 0.920398478185 -0.167655037213
160687500 0.920473404367 -0.167899911895
160689255 0.920405499917 -0.167843913639
160691010 0.920458488283 -0.167854824542
160692765 0.920591961079 -0.167907596445
160694520 0.92047811169 -0.1680627145
160696275 0.920589387186 -0.168022603933
160698030 0.920552756468 -0.16801730142
160699785 0.920550039228 -0.168145352181
160701540 0.92065100463 -0.16823813136
160703295 0.92063997084 -0.168256977759
160705050 0.920639523455 -0.168259762999
160706805 0.920631083758 -0.168368506707
160708560 0.920684351912 -0.168449843694
160710315 0.920765737583 -0.168480861993
160712070 0.920598991416 -0.168464418662
160713825 0.920683718435 -0.168614428403
160715580 0.920684846461 -0.168513494461
160717335 0.920751394411 -0.168622492282
160719090 0.920762079641 -0.168670717697
160720845 0.92069676391 -0.168780042189
160722600 0.920821219553 -0.168882062795
160724355 0.920870052211 -0.168897438548
160726110 0.920916132469 -0.168897888267
160727865 0.920789012046 -0.168961115781
160729620 0.920974266049 -0.169089065787
160731375 0.921060208006 -0.169196604935
160733130 0.921092479272 -0.169294794774
160734885 0.920946348361 -0.169276404208
160736640 0.920839984481 -0.169282250558
160738395 0.921096573627 -0.169474808615
160740150 0.920956214148 -0.169403608447
160741905 0.92099518255 -0.169527428212
160743660 0.92114388022 -0.169595906443
160745415 0.921079266955 -0.169616533619
160747170 0.921106912864 -0.169727072802
160748925 0.921029808673 -0.169675024372
160750680 0.921155937641 -0.169847165638
160752435 0.921178701018 -0.169799191759
160754190 0.921080537431 -0.169903203153
160755945 0.92096047882 -0.169829134429
160757700 0.920947621565 -0.169872847364
160759455 0.92106128667 -0.169963608698
160761210 0.921112166673 -0.170010392684
160762965 0.921020206919 -0.170065574712
160764720 0.920969746916 -0.170123996766
160766475 0.921061055423 -0.170204369062
160768230 0.921032290436 -0.170188277276
160769985 0.920932814251 -0.170272318948
160771740 0.920953539408 -0.17022851706
160773495 0.920922961575 -0.170294569141
160775250 0.920855423597 -0.170400323324
160777005 0.921048150795 -0.170478840681
160778760 0.921058512048 -0.170468666158
160780515 0.920961864516 -0.170564133933
160782270 0.921134840876 -0.170617400441
160784025 0.921076395258 -0.170604843973
160785780 0.920912666 -0.170990491109
160787535 0.921197577554 -0.170794030739
160789290 0.92121472952 -0.170852818835
160791045 0.921186202752 -0.170931043475
160792800 0.921096689784 -0.170959475736
160794555 0.921172854018 -0.170954663501
160796310 0.921204062048 -0.171092526926
160798065 0.921261869215 -0.171082783507
160799820 0.921313971494 -0.171191391844
160801575 0.92121441915 -0.171286311392
160803330 0.921415961362 -0.171259836844
160805085 0.921425989428 -0.171412214639
160806840 0.921402623819 -0.171434640653
160808595 0.92133966731 -0.171430425128
160810350 0.921501498064 -0.171564725666
160812105 0.921493543039 -0.171603530396
160813860 0.921566196146 -0.171695527107
160815615 0.921567955896 -0.171716443301
160817370 0.921644261725 -0.171704575893
160819125 0.921377222128 -0.171833607719
160820880 0.921503850639 -0.171778412568
160822635 0.921646415199 -0.171999600214
160824390 0.921701147776 -0.171968937328
160826145 0.921748416598 -0.172103499517
160827900 0.921721003731 -0.172018500684
160829655 0.921778522746 -0.172066024348
160831410 0.921877110004 -0.17220741187
160833165 0.921892503678 -0.17217659921
160834920 0.922003423929 -0.172105825417
160836675 0.922175847239 -0.172067385143
160838430 0.92237048303 -0.172169070921
160840185 0.922367422765 -0.172073868181
160841940 0.92261219246 -0.172083253483
160843695 0.922656037272 -0.172042181273
160845450 0.9228456814 -0.172057414287
160847205 0.922861119998 -0.171965963061
160848960 0.923150021103 -0.172055085185
160850715 0.923238361357 -0.171970100307
160852470 0.92338623463 -0.172025086276
160854225 0.923484808989 -0.171917885791
160855980 0.923520674887 -0.171927676698
160857735 0.923785863124 -0.171830783264
160859490 0.924016383517 -0.171954109551
160861245 0.923676846287 -0.172020296796
160863000 0.923772739153 -0.172065748008
160864755 0.923582187896 -0.17197851654
160866510 0.923518637742 -0.172257839872
160868265 0.923487959624 -0.172191682109
160870020 0.923304628059 -0.172509560421
160871775 0.923158375325 -0.172606531777
160873530 0.928929281727 -0.172861667612
160875285 0.922879119284 -0.172934364861
160877040 0.922938725656 -0.173259828536
160878795 0.922756427004 -0.1731092415
160880550 0.922287509113 -0.173206011568
160882305 0.922458670025 -0.173263036096
160884060 0.922436515033 -0.173372488831
160885815 0.922260777973 -0.17357989503
160887570 0.922227177231 -0.173707282754
160889325 0.922035333592 -0.173822412518
160891080 0.922168263444 -0.17380110686
160892835 0.922187697069 -0.173792823245
160894590 0.922169115969 -0.173865127484
160896345 0.922210431185 -0.173943423388
160898100 0.922205070796 -0.174055337424
160899855 0.92225386812 -0.17407436477
160901610 0.922192744495 -0.174143203912
160903365 0.922117342301 -0.174062699978
160905120 0.922261702491 -0.174138673037
160906875 0.922350748445 -0.174141132466
160908630 0.92224136514 -0.174286822627
160910385 0.922086830365 -0.174259822226
160912140 0.922383121942 -0.174417454153
160913895 0.922460088561 -0.174475234493
160915650 0.922405474528 -0.174504774841
160917405 0.922470149205 -0.174516955098
160919160 0.922557082143 -0.174602126323
160920915 0.922341370522 -0.174627146493
160922670 0.922640423382 -0.174689024446
160924425 0.921811772644 -0.175265778719
160926180 0.922423406462 -0.174735980686
160927935 0.922500532772 -0.17504999266
160929690 0.922548299127 -0.174842483137
160931445 0.922552253937 -0.174989628189
160933200 0.922461940425 -0.174977761318
160934955 0.922595522083 -0.175166780855
160936710 0.922546291854 -0.175116597834
160938465 0.922599773242 -0.175515168156
160940220 0.922380330228 -0.17524804076
160941975 0.922596287662 -0.175264978652
160943730 0.922615186575 -0.175337160946
160945485 0.922755242897 -0.175414853213
160947240 0.922639270939 -0.175463968633
160948995 0.922682410701 -0.175535200903
160950750 0.922630324531 -0.175568866139
160952505 0.922782429951 -0.175635676725
160954260 0.922733331584 -0.175752800203
160956015 0.922702417709 -0.175780843589
160957770 0.922753214897 -0.17582438044
160959525 0.922722225472 -0.175827328365
160961280 0.922836969729 -0.175768738682
160963035 0.922853836963 -0.175908824079
160964790 0.922843714161 -0.175969256796
160966545 0.922771985489 -0.176003950469
160968300 0.92287257217 -0.176066914556
160970055 0.922920831544 -0.176251545949
160971810 0.922971804629 -0.176184907684
160973565 0.922950759027 -0.176307839639
160975320 0.922952371989 -0.176248226577
160977075 0.923002804136 -0.1764245548
160978830 0.922901065568 -0.176347954136
160980585 0.923065540671 -0.176535963914
160982340 0.92307591713 -0.176496353855
160984095 0.923119652861 -0.176648986107
160985850 0.923139992965 -0.176757566486
160987605 0.923030710676 -0.176697899025
160989360 0.923218261304 -0.176765135617
160991115 0.923068080781 -0.17676280528
160992870 0.923258058744 -0.177015897811
160994625 0.923207385534 -0.176933324708
160996380 0.923297795832 -0.176917027696
160998135 0.923330173572 -0.177000899702
160999890 0.923365748419 -0.177184047
161001645 0.923302604419 -0.177084022708
161003400 0.92336601804 -0.177146510272
161005155 0.923253266578 -0.177214884005
161006910 0.923458385414 -0.177350194622
161008665 0.92346382037 -0.177255899327
161010420 0.923409739148 -0.17733138498
161012175 0.923301574068 -0.177351160924
161013930 0.923329226677 -0.177406060975
161015685 0.923373447266 -0.177433049856
161017440 0.923008002958 -0.177167022307
161019195 0.923456011895 -0.177611511286
161020950 0.923439911267 -0.177557914991
161022705 0.92354244565 -0.177716382333
161024460 0.923509836835 -0.177786415673
161026215 0.923585418894 -0.17773995799
161027970 0.923399765894 -0.177802409241
161029725 0.923506471186 -0.177881103028
161031480 0.923552727089 -0.17800570975
161033235 0.923503405768 -0.177920039764
161034990 0.923306368252 -0.177896246232
161036745 0.923553527078 -0.178009721919
161038500 0.923585598873 -0.178067327925
161040255 0.923666676513 -0.178123353226
161042010 0.923601221869 -0.17815879736
161043765 0.92346370631 -0.178396412899
161045520 0.923677495615 -0.178211681126
161047275 0.923658878511 -0.178352215581
161049030 0.923645431745 -0.178417626823
161050785 0.923572664114 -0.178293865466
161052540 0.923635012399 -0.178410606101
161054295 0.923808238274 -0.178641729533
161056050 0.923772547118 -0.178460707099
161057805 0.923809392627 -0.178694803242
161059560 0.923603139759 -0.178661761614
161061315 0.923647004578 -0.179319248331
161063070 0.923859584103 -0.178783607938
161064825 0.923775504084 -0.178823061322
161066580 0.923908035706 -0.178868600552
161068335 0.923853106529 -0.178913024279
161070090 0.923731727755 -0.178940141911
161071845 0.923801404492 -0.17897388994
161073600 0.923819790138 -0.178990413102
161075355 0.923877132606 -0.179077615819
161077110 0.923766621322 -0.179168809236
161078865 0.92382131667 -0.179146090438
161080620 0.923815187114 -0.179311660432
161082375 0.923936841461 -0.179260631718
161084130 0.923844097045 -0.17928388938
161085885 0.923837000656 -0.179296805652
161087640 0.923862208657 -0.179325607541
161089395 0.923756735418 -0.179500011086
161091150 0.923798953884 -0.179453843235
161092905 0.923850212489 -0.179523506648
161094660 0.924050565248 -0.179585210353
161096415 0.923928206585 -0.179718727935
161098170 0.923867333283 -0.179661709329
161099925 0.924201909356 -0.17985983677
161101680 0.924002104846 -0.179867858983
161103435 0.924033485066 -0.179865858736
161105190 0.923937189313 -0.17986188938
161106945 0.924176445745 -0.180084488258
161108700 0.924100965291 -0.180076805214
161110455 0.924037382777 -0.180094615166
161112210 0.924085733751 -0.180159435157
161113965 0.924139360022 -0.180248322396
161115720 0.924169267586 -0.180356577375
161117475 0.924284797554 -0.180414016553
161119230 0.924149829376 -0.180371533644
161120985 0.924213238206 -0.180456676252
161122740 0.924133004238 -0.180570316597
161124495 0.924129263371 -0.180581912968
161126250 0.92430480043 -0.180699649928
161128005 0.924188195659 -0.180647259792
161129760 0.924290990801 -0.180822480459
161131515 0.924562708318 -0.180938849246
161133270 0.924340286946 -0.180918414279
161135025 0.924172709211 -0.18091480666
161136780 0.924375691419 -0.181084748676
161138535 0.924238802543 -0.181051111591
161140290 0.924257722915 -0.181206972461
161142045 0.924315505213 -0.181164704188
161143800 0.924337987224 -0.181211272494
161145555 0.924280542563 -0.181217407439
161147310 0.924414825357 -0.181393335158
161149065 0.924474388104 -0.181390428237
161150820 0.924544933048 -0.181490130671
161152575 0.924397388587 -0.181508162284
161154330 0.924442500809 -0.18154706411
161156085 0.924518202885 -0.181542595969
161157840 0.924461036594 -0.181589134204
161159595 0.924516624883 -0.181572517477
161161350 0.924578065262 -0.181640870783
161163105 0.924412173472 -0.181684226726
161164860 0.924491545389 -0.181701309032
161166615 0.924735076742 -0.182096517551
161168370 0.924392848149 -0.181739657961
161170125 0.924527512172 -0.181867809993
161171880 0.92460428535 -0.181869098775
161173635 0.924643314913 -0.181904689494
161175390 0.924668078207 -0.181861510569
161177145 0.924431587534 -0.181932017827
161178900 0.924518854061 -0.182023528348
161180655 0.924583737 -0.182085093025
161182410 0.924624065859 -0.18214153153
161184165 0.924658782141 -0.182307458278
161185920 0.924484211802 -0.182161582158
161187675 0.924778368254 -0.182226534722
161189430 0.924641293047 -0.182385678029
161191185 0.924631546679 -0.182482561198
161192940 0.924677036059 -0.182394303707
161194695 0.924667395885 -0.182509757373
161196450 0.924733511576 -0.182555581047
161198205 0.924429795745 -0.18257235524
161199960 0.925040807933 -0.182749897051
161201715 0.924622384491 -0.182544533619
161203470 0.924864415699 -0.182939042013
161205225 0.924720688105 -0.182806234723
161206980 0.924986191932 -0.18285481759
161208735 0.924740134122 -0.182927908065
161210490 0.924887148069 -0.182979665727
161212245 0.924935085959 -0.183011005084
161214000 0.924871116893 -0.183181973995
161215755 0.924884854811 -0.183064773974
161217510 0.924731593696 -0.183061629096
161219265 0.92509584656 -0.183194491268
161221020 0.924815666017 -0.183223573656
161222775 0.925019806926 -0.183226523544
161224530 0.92500752779 -0.183304477574
161226285 0.924975953103 -0.183383723934
161228040 0.925001517306 -0.183411356432
161229795 0.924942214347 -0.183422018185
161231550 0.924954984476 -0.183634934092
161233305 0.925021072746 -0.18363835402
161235060 0.925096117324 -0.183807002606
161236815 0.925039559778 -0.183625555765
161238570 0.924997940919 -0.183726811021
161240325 0.925114567036 -0.183820648175
161242080 0.924985326315 -0.183761499275
161243835 0.925159163283 -0.183839379531
161245590 0.925118434504 -0.184019168485
161247345 0.925190571839 -0.184092033669
161249100 0.925272906835 -0.184180966547
161250855 0.925302345158 -0.184197235365
161252610 0.925171947913 -0.184257438692
161254365 0.925143819372 -0.18431689109
161256120 0.925179664847 -0.184307995416
161257875 0.925351529268 -0.184458434995
161259630 0.925253628248 -0.184518562895
161261385 0.925344176584 -0.184546123464
161263140 0.925406518372 -0.184544762573
161264895 0.925382630766 -0.184562523961
161266650 0.925478393335 -0.184652754087
161268405 0.925193292959 -0.184661827247
161270160 0.9254404671 -0.184631028807
161271915 0.925389172314 -0.184811072524
161273670 0.925508352749 -0.184850939612
161275425 0.925546315245 -0.184993265475
161277180 0.925544563856 -0.185011450459
161278935 0.925604933268 -0.184977917828
161280690 0.925647126798 -0.184928216284
161282445 0.925706969111 -0.185059533542
161284200 0.925573873096 -0.185090523903
161285955 0.925709531265 -0.185179877796
161287710 0.925789588043 -0.185166481553
161289465 0.925626229282 -0.185274281478
161291220 0.925749428776 -0.185307120958
161292975 0.925805776508 -0.185261159355
161294730 0.925830776295 -0.18534017545
161296485 0.92578934706 -0.18548500024
161298240 0.925755000206 -0.18549562676
161299995 0.925707574997 -0.185523479639
161301750 0.925847968448 -0.185538516893
161303505 0.925800268325 -0.185739047503
161305260 0.925712132211 -0.185598750093
161307015 0.925895068135 -0.185902963414
161308770 0.92593160771 -0.185937076189
161310525 0.925874851303 -0.185907817685
161312280 0.925916777161 -0.185998469133
161314035 0.925856624635 -0.186019272732
161315790 0.925881123188 -0.186068814695
161317545 0.925812326695 -0.18620072975
161319300 0.925835887298 -0.186093254063
161321055 0.925885022127 -0.186298021775
161322810 0.92592561292 -0.186287989569
161324565 0.925927295433 -0.186352374133
161326320 0.925930809462 -0.186370925454
161328075 0.925959209008 -0.18646683681
161329830 0.926125535298 -0.186456486581
161331585 0.926013226111 -0.186567610028
161333340 0.926072349334 -0.186548044627
161335095 0.926008037061 -0.186572525379
161336850 0.926215573074 -0.186694114122
161338605 0.926230706309 -0.186650958033
161340360 0.926150842651 -0.186803959118
161342115 0.926147998357 -0.186835344612
161343870 0.926195126309 -0.18684267529
161345625 0.926150458921 -0.186873376542
161347380 0.926328467942 -0.186936595601
161349135 0.926264398932 -0.186990737636
161350890 0.926204995229 -0.186950613815
161352645 0.926167717402 -0.187177060408
161354400 0.926223246393 -0.187128864425
161356155 0.926131993817 -0.187105544642
161357910 0.926290733235 -0.187258434187
161359665 0.926152788213 -0.187298736332
161361420 0.926187277613 -0.187330196214
161363175 0.926231312853 -0.187418385405
161364930 0.926339985843 -0.1875817587
161366685 0.926294270485 -0.187490471596
161368440 0.926246964724 -0.187548730317
161370195 0.926085743339 -0.187613852735
161371950 0.926420731102 -0.187861005883
161373705 0.926143652885 -0.187708876086
161375460 0.926112192672 -0.187772989112
161377215 0.926141851764 -0.187765358453
161378970 0.926214589633 -0.18790401303
161380725 0.926187614193 -0.187933810356
161382480 0.92623301577 -0.187928614209
161384235 0.92625321301 -0.187989609776
161385990 0.926167676147 -0.187991035041
161387745 0.926185265529 -0.188142617603
161389500 0.9262285228 -0.188155810355
161391255 0.926490930297 -0.188266477561
161393010 0.926447625483 -0.188254454708
161394765 0.926541286698 -0.188333044154
161396520 0.926739813315 -0.18842307168
161398275 0.926535684207 -0.188453119893
161400030 0.92672128574 -0.188420033413
161401785 0.92662445442 -0.188517711774
161403540 0.926394589155 -0.188505465046
161405295 0.926295617304 -0.18868977944
161407050 0.926607227823 -0.188717155157
161408805 0.926504922102 -0.188665712198
161410560 0.926553988027 -0.18875462207
161412315 0.926506937762 -0.188797077273
161414070 0.926618038992 -0.188900482358
161415825 0.926689688871 -0.188813405382
161417580 0.926912333301 -0.189023285494
161419335 0.926839193521 -0.189068094952
161421090 0.926625455139 -0.189102314196
161422845 0.926703205316 -0.189175612217
161424600 0.926696225698 -0.189286777784
161426355 0.92669561458 -0.189304614896
161428110 0.926821189961 -0.189367762953
161429865 0.926900235021 -0.189391000677
161431620 0.926819148511 -0.18953852379
161433375 0.926771627708 -0.189483850694
161435130 0.926821545212 -0.189626692404
161436885 0.92695779263 -0.189685325222
161438640 0.926995160361 -0.189788492201
161440395 0.926858174263 -0.189651424243
161442150 0.926916536672 -0.189747670615
161443905 0.926998638237 -0.189821659836
161445660 0.926971951416 -0.189768387082
161447415 0.926959937563 -0.189794810522
161449170 0.926966194994 -0.189898392856
161450925 0.926981002017 -0.189967889589
161452680 0.926940240415 -0.189918124622
161454435 0.927001334831 -0.190010025849
161456190 0.927061100513 -0.19005727936
161457945 0.927057458783 -0.19015405221
161459700 0.927032337123 -0.190254376421
161461455 0.927120660839 -0.190191709387
161463210 0.927209774891 -0.190249844133
161464965 0.927199749862 -0.190265273743
161466720 0.927102662658 -0.190395179241
161468475 0.927243822372 -0.190410595758
161470230 0.927222720113 -0.190499369588
161471985 0.927195313831 -0.190551692577
161473740 0.927013747991 -0.190519552313
161475495 0.927063902052 -0.190712413574
161477250 0.927180617599 -0.190721261583
161479005 0.927173649495 -0.190808632854
161480760 0.927309364014 -0.190842896289
161482515 0.927291712803 -0.190942434784
161484270 0.927249752437 -0.19100520746
161486025 0.9272490618 -0.190962422377
161487780 0.92728949621 -0.191071591997
161489535 0.927340328468 -0.191102512987
161491290 0.927323496694 -0.191177729654
161493045 0.927439887645 -0.191418924598
161494800 0.927197931204 -0.191202058348
161496555 0.927274682059 -0.191322365494
161498310 0.927370100098 -0.19141460424
161500065 0.927405179338 -0.191561182452
161501820 0.927271695349 -0.191521305724
161503575 0.92740620375 -0.191553129668
161505330 0.927544123015 -0.191628318516
161507085 0.927227528976 -0.19166433332
161508840 0.927564069886 -0.191689476437
161510595 0.927466884314 -0.191719466037
161512350 0.927308378716 -0.191730483182
161514105 0.927439126481 -0.191837291014
161515860 0.927213604889 -0.191853185051
161517615 0.927440876791 -0.191848684756
161519370 0.927570039484 -0.191962532325
161521125 0.927485074788 -0.192018181694
161522880 0.927447915289 -0.191987299698
161524635 0.927640547446 -0.192061612207
161526390 0.927472910529 -0.192134979953
161528145 0.927521905115 -0.192256890718
161529900 0.927526817572 -0.192253076162
161531655 0.927383608104 -0.192243547332
161533410 0.927441910834 -0.192336712107
161535165 0.927463402054 -0.192438947045
161536920 0.927452840039 -0.192366746222
161538675 0.927422414749 -0.192572698144
161540430 0.927406537761 -0.192550527195
161542185 0.927511262394 -0.19264106862
161543940 0.926886092468 -0.192371156514
161545695 0.927359609364 -0.192714033333
161547450 0.92739064346 -0.192752154298
161549205 0.927395996983 -0.192859250143
161550960 0.927321379935 -0.192911122012
161552715 0.927408853114 -0.192941167935
161554470 0.92738381474 -0.19303393478
161556225 0.9274809212 -0.193017751906
161557980 0.927489791521 -0.193064647148
161559735 0.927689720584 -0.19307467249
161561490 0.927361261151 -0.193156200563
161563245 0.927605906497 -0.193329698459
161565000 0.927615557541 -0.193349760458
