! Calibrated averaged scanner-service zoom
# Hz S RI R 50
144000000 0.334490015587 -0.229949377602
144004000 0.334207371278 -0.229471717387
144008000 0.334292660493 -0.2300996453
144012000 0.334332092387 -0.229705718659
144016000 0.334247125775 -0.2302549163
144020000 0.334070930178 -0.229807209017
144024000 0.333954624888 -0.230476733333
144028000 0.333756335618 -0.229916352936
144032000 0.333615864052 -0.230229255492
144036000 0.334109488838 -0.23027809562
144040000 0.333339786296 -0.230319717385
144044000 0.333284767076 -0.23011388148
144048000 0.332891294183 -0.230781870843
144052000 0.333526069977 -0.230566325776
144056000 0.333036760043 -0.230479793818
144060000 0.332880341497 -0.230354566995
144064000 0.332425199995 -0.230411831394
144068000 0.332947305477 -0.230821418786
144072000 0.332018714271 -0.230312431586
144076000 0.332555816731 -0.230642773153
144080000 0.332025982708 -0.230651950296
144084000 0.332415257703 -0.230969742219
144088000 0.332123497884 -0.230516347896
144092000 0.332265735049 -0.231155320282
144096000 0.331993523876 -0.230584828218
144100000 0.332223554761 -0.231162646894
144104000 0.331617368527 -0.230765130564
144108000 0.331878999336 -0.231347136999
144112000 0.331149868708 -0.230611456469
144116000 0.331357413786 -0.231435654013
144120000 0.331473832496 -0.231052422783
144124000 0.331497714976 -0.231696884165
144128000 0.33131143642 -0.231204315592
144132000 0.331086277749 -0.231527147893
144136000 0.3313295405 -0.231566786014
144140000 0.330974056999 -0.231517818556
144144000 0.330722758974 -0.231265543498
144148000 0.330499035466 -0.23154347545
144152000 0.331052416957 -0.231657434956
144156000 0.330714774953 -0.231591307809
144160000 0.330267198293 -0.231461797259
144164000 0.32962816643 -0.231416193842
144168000 0.330508115971 -0.231940701481
144172000 0.330096771527 -0.231527832971
144176000 0.330055003379 -0.231667472853
144180000 0.329400401704 -0.231821950048
144184000 0.329833076901 -0.231984778446
144188000 0.32969361235 -0.231793632008
144192000 0.329763630548 -0.232193995658
144196000 0.32934770916 -0.231976836325
144200000 0.329470398877 -0.232383558384
144204000 0.329335671932 -0.232025382309
144208000 0.329306931119 -0.232430543631
144212000 0.329253695828 -0.232191348815
144216000 0.329077399501 -0.232472300749
144220000 0.328937944432 -0.232163260099
144224000 0.328944543281 -0.23263835736
144228000 0.328756307906 -0.232190814008
144232000 0.328737075798 -0.232450387333
144236000 0.32882794253 -0.232563894486
144240000 0.328470572295 -0.232430792752
144244000 0.328363760313 -0.23220548581
144248000 0.328065419048 -0.232358210668
144252000 0.328487100811 -0.232336497791
144256000 0.328462144102 -0.232346082016
144260000 0.327715440797 -0.232090235915
144264000 0.327434826885 -0.232102495661
144268000 0.327697442401 -0.232313474554
144272000 0.328016072568 -0.232135876422
144276000 0.327844438054 -0.232168361086
144280000 0.327187074437 -0.232250953654
144284000 0.327584396777 -0.232542675059
144288000 0.327332662185 -0.232156429922
144292000 0.327568289742 -0.232473348625
144296000 0.326627855944 -0.232178561528
144300000 0.327039020564 -0.23281213452
144304000 0.327004607955 -0.232364244451
144308000 0.326938513496 -0.232841050669
144312000 0.326622876677 -0.23250854717
144316000 0.32644158511 -0.232870894573
144320000 0.326700247487 -0.232633480382
144324000 0.326407059524 -0.232935896106
144328000 0.326367380679 -0.23266402782
144332000 0.326103212177 -0.232854707622
144336000 0.326357575703 -0.233094976641
144340000 0.325861770818 -0.232933914948
144344000 0.325787803308 -0.232861118921
144348000 0.325557541387 -0.232989127478
144352000 0.325925139782 -0.233173980069
144356000 0.325673290468 -0.232912420606
144360000 0.325282539424 -0.232985980425
144364000 0.325025256144 -0.232735792509
144368000 0.325415535937 -0.233260526127
144372000 0.325011063518 -0.232662237396
144376000 0.324947831359 -0.232992916283
144380000 0.324588832592 -0.232717418542
144384000 0.324818825224 -0.233379046506
144388000 0.324717412465 -0.232810202033
144392000 0.323511226224 -0.233056158694
144396000 0.324227760204 -0.232805202039
144400000 0.324197333954 -0.233398359331
144404000 0.323913466372 -0.231678992915
144408000 0.323696199794 -0.232251278161
144412000 0.323810824407 -0.231872640924
144416000 0.323669145813 -0.232232510718
144420000 0.323314073502 -0.231770928847
144424000 0.323014622544 -0.23245480356
144428000 0.323245988736 -0.231937303856
144432000 0.323051442858 -0.232032921524
144436000 0.322686301058 -0.231600035069
144440000 0.322327256399 -0.232411377724
144444000 0.322885807073 -0.231772059971
144448000 0.322599054713 -0.232575307404
144452000 0.322180710898 -0.232180264777
144456000 0.321589760992 -0.23262315848
144460000 0.322079572949 -0.232201635169
144464000 0.322151383795 -0.232723204204
144468000 0.32198264652 -0.232245401131
144472000 0.321142875472 -0.232665172133
144476000 0.321502325583 -0.232445256306
144480000 0.321520838139 -0.233030845498
144484000 0.32165010154 -0.232682690523
144488000 0.320992399489 -0.233033523011
144492000 0.32094943444 -0.233044941114
144496000 0.321077655369 -0.233362293649
144500000 0.321076359575 -0.232914810019
144504000 0.320678326923 -0.233100576668
144508000 0.320475394324 -0.233094700748
144512000 0.320459430445 -0.233182022701
144516000 0.320366401925 -0.233199995113
144520000 0.320077629683 -0.233303753484
144524000 0.319888219651 -0.233167279934
144528000 0.319955302902 -0.233341195975
144532000 0.319871001239 -0.233071890328
144536000 0.319563643081 -0.233081782926
144540000 0.319203031903 -0.233303778952
144544000 0.319518411482 -0.233148683838
144548000 0.31963930572 -0.233517520836
144552000 0.319334716452 -0.233444253167
144556000 0.318558376439 -0.233426183721
144560000 0.318896781248 -0.233337503766
144564000 0.318729290251 -0.233583499309
144568000 0.319024947646 -0.23337285952
144572000 0.318217734385 -0.233420038234
144576000 0.318444891537 -0.233342735358
144580000 0.318478213098 -0.233642715854
144584000 0.318484361285 -0.233297699184
144588000 0.31777847135 -0.233536646523
144592000 0.317936666232 -0.233791134993
144596000 0.317810154696 -0.233936954981
144600000 0.318034134211 -0.233920535522
144604000 0.317491310382 -0.233874664853
144608000 0.317369366285 -0.234050597494
144612000 0.317462993741 -0.235020427881
144616000 0.316115875332 -0.234504352522
144620000 0.316697707164 -0.233833018164
144624000 0.317441877785 -0.234917262387
144628000 0.319121971365 -0.235049751349
144632000 0.316732170386 -0.233958222998
144636000 0.316313186268 -0.234028261014
144640000 0.316019648415 -0.233971271824
144644000 0.316307968417 -0.234058132826
144648000 0.316251134584 -0.23415296904
144652000 0.315835139531 -0.234243046204
144656000 0.315251948578 -0.234022815748
144660000 0.315457310323 -0.234387032172
144664000 0.315636767568 -0.234159988691
144668000 0.315486280463 -0.234537570395
144672000 0.314816371429 -0.234142203136
144676000 0.31508602339 -0.234664608444
144680000 0.315183423729 -0.23440395879
144684000 0.315266707333 -0.234837999693
144688000 0.314551183291 -0.234327615694
144692000 0.314395290948 -0.234888371205
144696000 0.314623828832 -0.234647968204
144700000 0.314655526612 -0.234936525014
144704000 0.314105957315 -0.234454233825
144708000 0.31416335056 -0.235018108834
144712000 0.314235770637 -0.234605768597
144716000 0.31434663743 -0.23496690229
144720000 0.31374390155 -0.234633756133
144724000 0.313653386879 -0.23493530561
144728000 0.313793512712 -0.234708385071
144732000 0.313733731796 -0.234557111067
144736000 0.313265906269 -0.23447185016
144740000 0.313103086602 -0.234621644692
144744000 0.313042670335 -0.234410705043
144748000 0.313211522598 -0.23489505327
144752000 0.312707544067 -0.234619950473
144756000 0.312367710959 -0.234678630612
144760000 0.312431570865 -0.234744287516
144764000 0.312671703585 -0.234797189583
144768000 0.312316587845 -0.234798262481
144772000 0.311739372913 -0.234817705515
144776000 0.311703115529 -0.235210025639
144780000 0.311867652118 -0.235303033722
144784000 0.311917270804 -0.235893613258
144788000 0.311268383667 -0.235484750966
144792000 0.311312787396 -0.236015546937
144796000 0.311379467421 -0.235820855404
144800000 0.31133954809 -0.23622836987
144804000 0.316090486318 -0.226703445437
144808000 0.315614309632 -0.227312178017
144812000 0.315011777496 -0.22642580263
144816000 0.315197991039 -0.227195052196
144820000 0.315217220085 -0.227030791366
144824000 0.314916378 -0.227445962723
144828000 0.314550059094 -0.226664634556
144832000 0.314709729799 -0.227380291252
144836000 0.314582893177 -0.226699766508
144840000 0.314747174327 -0.227354042373
144844000 0.313945007953 -0.226713076475
144848000 0.314192357208 -0.227542841416
144852000 0.314061775661 -0.226845579034
144856000 0.314098760725 -0.227569214528
144860000 0.313605287065 -0.226904664223
144864000 0.313793601153 -0.227603637751
144868000 0.313649898197 -0.22669709536
144872000 0.313907098063 -0.227557950432
144876000 0.313542256222 -0.227140264392
144880000 0.313043971511 -0.22755087041
144884000 0.313204682572 -0.226891649218
144888000 0.31322009571 -0.227838165619
144892000 0.313001256437 -0.227356505679
144896000 0.312303553441 -0.227361784891
144900000 0.312268118754 -0.227162213408
144904000 0.31278218073 -0.22754126265
144908000 0.312635767034 -0.227704894012
144912000 0.312059871314 -0.227247203311
144916000 0.312006294734 -0.22754501225
144920000 0.312088555801 -0.227728702592
144924000 0.311917222969 -0.228047902507
144928000 0.311454993613 -0.227331912253
144932000 0.311583183215 -0.228171465562
144936000 0.311783479368 -0.227611470759
144940000 0.311653172514 -0.228100241282
144944000 0.311039268151 -0.227694354778
144948000 0.311081511984 -0.228348924555
144952000 0.311274919788 -0.227751254865
144956000 0.311072433639 -0.228458717081
144960000 0.310596658341 -0.227849565716
144964000 0.310447032999 -0.228563384149
144968000 0.310973765691 -0.227766822632
144972000 0.310576506513 -0.228553398603
144976000 0.310550034798 -0.228208636403
144980000 0.310066214486 -0.228461359234
144984000 0.310185501002 -0.227817268611
144988000 0.310129553262 -0.228737903262
144992000 0.310393632985 -0.228306251076
144996000 0.309661118213 -0.2283031316
145000000 0.309906229817 -0.228194972085
145004000 0.310099017059 -0.228333307477
145008000 0.310013651269 -0.228411136082
145012000 0.309375091538 -0.228132345895
145016000 0.309691728732 -0.228214228029
145020000 0.309712317621 -0.228884149242
145024000 0.309686263461 -0.228381612093
145028000 0.308964600504 -0.228105683483
145032000 0.309556829167 -0.228976586556
145036000 0.309404680102 -0.228378630535
145040000 0.309009802113 -0.228146104705
145044000 0.308375205794 -0.228288569705
145048000 0.309051414603 -0.22853292824
145052000 0.308273826747 -0.228399393407
145056000 0.308679279624 -0.228328757789
145060000 0.308439732131 -0.22818670465
145064000 0.308478237994 -0.228395359563
145068000 0.308524404362 -0.227920205275
145072000 0.308515964021 -0.228344144876
145076000 0.308279883979 -0.22828559442
145080000 0.307740839005 -0.228274216995
145084000 0.307954849565 -0.227898991409
145088000 0.307972540252 -0.228502603012
145092000 0.308024831995 -0.228074935595
145096000 0.307550860064 -0.227952396445
145100000 0.307789044251 -0.227818914698
145104000 0.307553497379 -0.228206719588
145108000 0.307923589526 -0.228212193129
145112000 0.307059050805 -0.227715137273
145116000 0.307296622621 -0.227861204811
145120000 0.307303668992 -0.228271876821
145124000 0.307474276432 -0.228110949264
145128000 0.306657111955 -0.227639104244
145132000 0.307238109343 -0.227988485717
145136000 0.306979029895 -0.227776995575
145140000 0.307148038569 -0.22789211126
145144000 0.30634764905 -0.227716049323
145148000 0.306795876064 -0.228051618149
145152000 0.306701775351 -0.227901209999
145156000 0.306954406217 -0.229299430811
145160000 0.305939072421 -0.227787077714
145164000 0.306301711648 -0.227949446057
145168000 0.304690229214 -0.228228569281
145172000 0.306392497537 -0.227750842279
145176000 0.306084591191 -0.22797694393
145180000 0.305680053882 -0.227630130339
145184000 0.305885856021 -0.22763753952
145188000 0.305744810011 -0.227954269281
145192000 0.305740000246 -0.228108996947
145196000 0.305568943771 -0.227463569041
145200000 0.305501788409 -0.2278195651
145204000 0.304900806262 -0.229568059823
145208000 0.305058748009 -0.22931436337
145212000 0.305051616028 -0.229816749659
145216000 0.304266304364 -0.229226441856
145220000 0.304342703882 -0.230239421061
145224000 0.30453398015 -0.229772491572
145228000 0.304244430929 -0.230212703649
145232000 0.303792556393 -0.229793433388
145236000 0.303576691604 -0.230099190909
145240000 0.303673577944 -0.22973864332
145244000 0.303698469089 -0.229996586511
145248000 0.303463922446 -0.230199908065
145252000 0.302957650738 -0.230105880411
145256000 0.303089112899 -0.230012148551
145260000 0.303084759991 -0.230484020811
145264000 0.302658091491 -0.230686888718
145268000 0.302272451589 -0.230188330742
145272000 0.302390502077 -0.230392860225
145276000 0.302820873442 -0.230332658809
145280000 0.302394301285 -0.230885847665
145284000 0.301820076223 -0.229911413622
145288000 0.301769457495 -0.230775289396
145292000 0.302071337919 -0.230612501175
145296000 0.301728753435 -0.231060258917
145300000 0.301103008287 -0.229998837678
145304000 0.301385399498 -0.231109481715
145308000 0.301841058552 -0.230401544287
145312000 0.301572668012 -0.23092382741
145316000 0.301178362736 -0.229906453944
145320000 0.300870089491 -0.23101759009
145324000 0.301148411161 -0.23038913972
145328000 0.30080423332 -0.230953692276
145332000 0.300521052078 -0.230259053665
145336000 0.300413267073 -0.230929708317
145340000 0.300672479121 -0.230066203396
145344000 0.300778306685 -0.230654855985
145348000 0.300652338314 -0.230190041063
145352000 0.299711554655 -0.230497584443
145356000 0.300207627588 -0.229917594017
145360000 0.300294643225 -0.230641437884
145364000 0.300228944636 -0.230422314783
145368000 0.299618493905 -0.230187263586
145372000 0.299800839047 -0.229893244817
145376000 0.300210258943 -0.230109786172
145380000 0.300087321524 -0.230188478146
145384000 0.299021102306 -0.229573099326
145388000 0.299322867095 -0.229977178289
145392000 0.299597345326 -0.230108414681
145396000 0.299423534462 -0.23017258833
145400000 0.298807631421 -0.229484330715
145404000 0.298963917655 -0.230179786129
145408000 0.299371704573 -0.229839161224
145412000 0.299084665822 -0.230112373371
145416000 0.298751927851 -0.229315259765
145420000 0.298681860828 -0.230295210961
145424000 0.298742893775 -0.230034812692
145428000 0.298545266779 -0.230282258706
145432000 0.298090083437 -0.229608927181
145436000 0.297086779241 -0.229744196556
145440000 0.298244092828 -0.229582111147
145444000 0.298088665901 -0.230140592494
145448000 0.298071287084 -0.229744269213
145452000 0.297377805182 -0.230115453178
145456000 0.297704397123 -0.229531504571
145460000 0.297418810291 -0.230346108603
145464000 0.297454468648 -0.230111549889
145468000 0.296479262626 -0.229911827352
145472000 0.297057629006 -0.229816642914
145476000 0.297422440279 -0.230344500302
145480000 0.297098863746 -0.230314964494
145484000 0.296110379169 -0.229755526076
145488000 0.296596457531 -0.230250249228
145492000 0.296368399654 -0.230531687607
145496000 0.296257762455 -0.230422133486
145500000 0.295526140297 -0.229942883669
145504000 0.295737601366 -0.230553764273
145508000 0.296242632919 -0.230409384891
145512000 0.295981603635 -0.230440601834
145516000 0.295140388118 -0.229884904417
145520000 0.295369143601 -0.230577782303
145524000 0.295653478755 -0.230297638869
145528000 0.295409238807 -0.230676017478
145532000 0.295586012915 -0.230411264591
145536000 0.294955209098 -0.23030026296
145540000 0.295263056126 -0.229894574413
145544000 0.295000902547 -0.229944871642
145548000 0.294927171682 -0.230063091745
145552000 0.294376853614 -0.230100482752
145556000 0.294740828707 -0.22978449671
145560000 0.294583810911 -0.230183624164
145564000 0.294652353708 -0.229854254902
145568000 0.293727613961 -0.229651120969
145572000 0.294329261824 -0.229552106112
145576000 0.294370324005 -0.229650965443
145580000 0.294391521436 -0.229898146564
145584000 0.293290330315 -0.229174813455
145588000 0.294052888887 -0.229686189348
145592000 0.293935984349 -0.22979372624
145596000 0.293742719055 -0.229638873778
145600000 0.293001894896 -0.22901939465
145604000 0.289981657925 -0.233789711267
145608000 0.289969953034 -0.23501389493
145612000 0.290594845672 -0.234259467995
145616000 0.289775384844 -0.234812280285
145620000 0.289795768559 -0.233830883899
145624000 0.289440706687 -0.23499210495
145628000 0.290191530473 -0.234446679171
145632000 0.289424157179 -0.234922548509
145636000 0.289175544724 -0.233646928512
145640000 0.288995505223 -0.234842978726
145644000 0.289418579727 -0.234634541978
145648000 0.289052932148 -0.234437450369
145652000 0.288978521252 -0.234541359674
145656000 0.288408648791 -0.234529137167
145660000 0.288999181502 -0.234771493181
145664000 0.288599332224 -0.234373929005
145668000 0.288591102871 -0.234724249857
145672000 0.287777401883 -0.234119106
145676000 0.288374278873 -0.234537950468
145680000 0.28819749577 -0.233973603589
145684000 0.288004535891 -0.234639253009
145688000 0.287479031113 -0.233740291074
145692000 0.287884659459 -0.234739018359
145696000 0.287797604583 -0.234100950517
145700000 0.287575924851 -0.234812928805
145704000 0.287110691756 -0.233934797804
145708000 0.287684876547 -0.23508641649
145712000 0.287706946782 -0.234265347677
145716000 0.287034044165 -0.234798632342
145720000 0.286706294882 -0.234154399304
145724000 0.286805045457 -0.235122867776
145728000 0.28710219299 -0.234767258698
145732000 0.286531202243 -0.235131872302
145736000 0.286229254077 -0.234794175177
145740000 0.286039148882 -0.23518695595
145744000 0.28637183632 -0.2352068783
145748000 0.28590810578 -0.23484986076
145752000 0.285757378979 -0.235070809811
145756000 0.28532425483 -0.234906930706
145760000 0.285691328391 -0.235363126784
145764000 0.285216468754 -0.234892011804
145768000 0.285267686341 -0.235537570247
145772000 0.283837532766 -0.234664973472
145776000 0.285200183689 -0.23538030482
145780000 0.28485122046 -0.234677197234
145784000 0.28525629368 -0.235101163618
145788000 0.284078344663 -0.234284028336
145792000 0.284763924191 -0.235386236239
145796000 0.284680910217 -0.234528568787
145800000 0.284349580108 -0.235371436475
145804000 0.283840265369 -0.234251990587
145808000 0.284083067374 -0.235501268037
145812000 0.284337475907 -0.234862282813
145816000 0.283934198522 -0.235308471339
145820000 0.283339649765 -0.23403079406
145824000 0.283494449069 -0.23542101938
145828000 0.283732384644 -0.235222729629
145832000 0.283552785961 -0.235436723417
145836000 0.28293136606 -0.234883635173
145840000 0.28285031883 -0.235400801585
145844000 0.283110189048 -0.235797831091
145848000 0.283029011306 -0.235052141155
145852000 0.282563357053 -0.235294798953
145856000 0.282041982971 -0.235024432869
145860000 0.282749877849 -0.235650511682
145864000 0.282563741527 -0.234922417542
145868000 0.282315845816 -0.235160376077
145872000 0.281637470707 -0.23472966316
145876000 0.282053228987 -0.235702113548
145880000 0.282001920821 -0.234660487924
145884000 0.281501819784 -0.235676632132
145888000 0.281378252522 -0.234400618719
145892000 0.281253867431 -0.235601685219
145896000 0.281788153216 -0.234759516348
145900000 0.281046926586 -0.235533111245
145904000 0.281082798178 -0.234401217638
145908000 0.280790222654 -0.235695748069
145912000 0.281338639587 -0.234904592195
145916000 0.28081008752 -0.23541204079
145920000 0.280502260646 -0.234355678259
145924000 0.280681878193 -0.235405262787
145928000 0.281014406621 -0.235019960736
145932000 0.280749818973 -0.235141164171
145936000 0.280116097401 -0.234637962978
145940000 0.280281938077 -0.23513447396
145944000 0.280295403295 -0.235120967567
145948000 0.280368179287 -0.234685882554
145952000 0.279837851303 -0.234756264521
145956000 0.279925470074 -0.234418839278
145960000 0.28007298943 -0.234976124943
145964000 0.280195107728 -0.234216687747
145968000 0.279766007933 -0.234711591937
145972000 0.279417745871 -0.233675999704
145976000 0.279746705294 -0.23445861931
145980000 0.280013848337 -0.233211359348
145984000 0.279562213734 -0.234095024554
145988000 0.279515910245 -0.232527359736
145992000 0.279753553757 -0.233864702353
145996000 0.280146800374 -0.232537673875
146000000 0.279573856853 -0.233472383364
146004000 0.283524791681 -0.227782721075
146008000 0.282708000085 -0.22793338044
146012000 0.282529468071 -0.226500382306
146016000 0.282279879313 -0.227790674663
146020000 0.283118100092 -0.227517870125
146024000 0.282737361712 -0.227429392554
146028000 0.282482097054 -0.22640672128
146032000 0.282078241227 -0.227120231504
146036000 0.283145119335 -0.227000536088
146040000 0.282664133904 -0.226913391459
146044000 0.282428716637 -0.226365486624
146048000 0.281788926622 -0.226142730909
146052000 0.282773815532 -0.22665374293
146056000 0.28237673268 -0.226436071179
146060000 0.282409106972 -0.226259751686
146064000 0.28173621994 -0.225353311759
146068000 0.282594149635 -0.226452248518
146072000 0.282751212482 -0.226148054699
146076000 0.282213509584 -0.225910972981
146080000 0.281384955838 -0.224401033974
146084000 0.282345135732 -0.226078628335
146088000 0.282339235889 -0.225754555237
146092000 0.282174728055 -0.225796507094
146096000 0.281314529621 -0.224129196296
146100000 0.282042841863 -0.225738473475
146104000 0.282527409814 -0.225435657952
146108000 0.282193495085 -0.225328638025
146112000 0.281468947062 -0.22400917877
146116000 0.281554007881 -0.225285336424
146120000 0.282229238865 -0.22516241847
146124000 0.281956381754 -0.224858407601
146128000 0.281416133609 -0.223524777565
146132000 0.281463017958 -0.22469975862
146136000 0.282122856661 -0.224790496931
146140000 0.28197774732 -0.22441229554
146144000 0.281633283941 -0.224121787124
146148000 0.281272008566 -0.223857156206
146152000 0.281899677349 -0.224605755069
146156000 0.281696966891 -0.224208262508
146160000 0.281437023225 -0.224167791393
146164000 0.280785293854 -0.223389943909
146168000 0.281644320136 -0.224650915342
146172000 0.281728407887 -0.224254570251
146176000 0.281307881875 -0.224002704247
146180000 0.280432805699 -0.222803866535
146184000 0.281114131589 -0.224798986984
146188000 0.281069036361 -0.224408945586
146192000 0.280764596629 -0.224547279427
146196000 0.279941467655 -0.222827267213
146200000 0.280312257284 -0.224995507954
146204000 0.280661007188 -0.224867842217
146208000 0.280104419937 -0.224971468681
146212000 0.279150194363 -0.223587047622
146216000 0.279465066418 -0.225314809444
146220000 0.279906304982 -0.225269118519
146224000 0.279458154445 -0.225066572176
146228000 0.278819076608 -0.224296940236
146232000 0.286902201204 -0.226958936743
146236000 0.279907207708 -0.226412031671
146240000 0.280785407814 -0.226268241004
146244000 0.274486012998 -0.232607427346
146248000 0.276775787963 -0.225491987151
146252000 0.278583355953 -0.225895413103
146256000 0.278941052864 -0.229752140273
146260000 0.277602806011 -0.225310328642
146264000 0.277433031424 -0.224342526422
146268000 0.277784918934 -0.226092508954
146272000 0.278244904108 -0.225434248341
146276000 0.277382563332 -0.22564426343
146280000 0.27690753533 -0.22379278265
146284000 0.277311696938 -0.22599625096
146288000 0.277822477518 -0.225436195755
146292000 0.277058980284 -0.225555425713
146296000 0.27659990823 -0.223500281214
146300000 0.276731409157 -0.22580458017
146304000 0.277515452769 -0.22519097983
146308000 0.276765667943 -0.225399144253
146312000 0.276374630452 -0.223892914008
146316000 0.276181342289 -0.22555031431
146320000 0.276910026961 -0.225329668393
146324000 0.276552186833 -0.225349902068
146328000 0.276117270784 -0.224031582367
146332000 0.276100668706 -0.225249982194
146336000 0.276692018336 -0.225333905216
146340000 0.276482944065 -0.225225870638
146344000 0.275728148358 -0.224732411331
146348000 0.27556151932 -0.224820667269
146352000 0.275903072196 -0.225609735909
146356000 0.27599166122 -0.225259995466
146360000 0.275297063214 -0.224701816434
146364000 0.275003418689 -0.224262925852
146368000 0.27508087129 -0.226007152964
146372000 0.27550019537 -0.225489031283
146376000 0.274399103162 -0.225608506685
146380000 0.274247575234 -0.224016269154
146384000 0.27409235306 -0.22616828228
146388000 0.274807706726 -0.225695231012
146392000 0.273887717156 -0.225854688953
146396000 0.273753276443 -0.224054291069
146400000 0.27337654591 -0.226306102981
146404000 0.279183170767 -0.217353414503
146408000 0.278945073478 -0.21768460263
146412000 0.27893474775 -0.217460608572
146416000 0.277935046869 -0.216154963034
146420000 0.278622870323 -0.217013729426
146424000 0.2787439979 -0.217616773326
146428000 0.278736284347 -0.217413510195
146432000 0.2779155148 -0.216201054114
146436000 0.278244386425 -0.216726145156
146440000 0.278440445619 -0.217554154667
146444000 0.278496226677 -0.21728711832
146448000 0.277825881881 -0.216702232801
146452000 0.277733020958 -0.216856675578
146456000 0.277982854858 -0.21764648915
146460000 0.278102077247 -0.21729356533
146464000 0.277550426657 -0.216998993359
146468000 0.277340714277 -0.216730263876
146472000 0.277712365894 -0.217635895828
146476000 0.277655193027 -0.217334458751
146480000 0.277297547176 -0.217227937465
146484000 0.276791488939 -0.216517875513
146488000 0.277307146833 -0.217413297488
146492000 0.277285773058 -0.21714627938
146496000 0.277134992284 -0.217223623283
146500000 0.276262199111 -0.215921098959
146504000 0.276968748902 -0.217254926856
146508000 0.277260364867 -0.217276284938
146512000 0.277025099949 -0.217311802978
146516000 0.276229262922 -0.215791613189
146520000 0.276661872786 -0.216784793774
146524000 0.27673589646 -0.217211962652
146528000 0.276619018856 -0.217042028714
146532000 0.275748797073 -0.215743375272
146536000 0.276071576116 -0.216287681761
146540000 0.276112326834 -0.217210617464
146544000 0.276382971078 -0.216936781127
146548000 0.275637228715 -0.216294109605
146552000 0.275782259253 -0.216449850145
146556000 0.275663226252 -0.217248494486
146560000 0.276021464271 -0.216902210752
146564000 0.275120085438 -0.21680798351
146568000 0.275330160231 -0.216492898923
146572000 0.275216857587 -0.217526338974
146576000 0.275700811801 -0.217136735711
146580000 0.27493648882 -0.217107392934
146584000 0.275155181423 -0.216214639868
146588000 0.27509278643 -0.217340672273
146592000 0.275633181152 -0.217002970106
146596000 0.274804334637 -0.216949815091
146600000 0.274795219055 -0.215515977011
146604000 0.274985342767 -0.216888699092
146608000 0.275633073407 -0.21686971786
146612000 0.274769850619 -0.216882286493
146616000 0.27479537882 -0.215202962842
146620000 0.274851469928 -0.216677798518
146624000 0.275415610843 -0.216881064925
146628000 0.274876655763 -0.216795256304
146632000 0.27472129917 -0.214677164659
146636000 0.274448639404 -0.21611354303
146640000 0.275067551634 -0.216975237305
146644000 0.274809917545 -0.216768094691
146648000 0.274370130123 -0.215904993856
146652000 0.274250284089 -0.216390225655
146656000 0.274395162132 -0.217106076445
146660000 0.274355973196 -0.216712873026
146664000 0.273961713208 -0.216296098815
146668000 0.273791674799 -0.216078828804
146672000 0.273830993983 -0.21709893652
146676000 0.27402470079 -0.216816147245
146680000 0.273347086008 -0.216608425582
146684000 0.273071778461 -0.216124317196
146688000 0.273302608319 -0.216957823976
146692000 0.273668846636 -0.216807576341
146696000 0.273099182197 -0.21650226591
146700000 0.273042199641 -0.21546572372
146704000 0.272136124539 -0.21569887047
146708000 0.273498923711 -0.216908566879
146712000 0.272714478771 -0.216980196408
146716000 0.270702032427 -0.215088815158
146720000 0.27226563994 -0.216764063109
146724000 0.273075037909 -0.217316053869
146728000 0.272213605275 -0.217224082957
146732000 0.272405306449 -0.215941973777
146736000 0.271765696499 -0.216761767616
146740000 0.272469085216 -0.217713033589
146744000 0.271703058439 -0.217628779471
146748000 0.271815133185 -0.216728559867
146752000 0.270922928386 -0.217413275011
146756000 0.271569211747 -0.218357314801
146760000 0.271000540851 -0.218285116422
146764000 0.270740607553 -0.217986601339
146768000 0.269946330411 -0.217951351171
146772000 0.270244343319 -0.219213232217
146776000 0.269553816703 -0.219156236966
146780000 0.269524587078 -0.219059452363
146784000 0.268571120815 -0.218712878156
146788000 0.268752947578 -0.219960293324
146792000 0.268842669341 -0.220045396231
146796000 0.268188833407 -0.22007934829
146800000 0.267747915146 -0.219086434521
146804000 0.2745256633 -0.211040060731
146808000 0.274011256875 -0.212087302492
146812000 0.275134934503 -0.212177252756
146816000 0.274279139932 -0.211667536344
146820000 0.274299266316 -0.210049698646
146824000 0.273541484845 -0.211397372981
146828000 0.274890795727 -0.211760358904
146832000 0.274206807566 -0.211190405854
146836000 0.274491179492 -0.209836627815
146840000 0.273194195417 -0.21055833174
146844000 0.27461570722 -0.211436462567
146848000 0.273977193489 -0.211075241225
146852000 0.274609144065 -0.209377281829
146856000 0.27268273314 -0.209995543746
146860000 0.27378789104 -0.211169235804
146864000 0.273744899039 -0.210922567623
146868000 0.273737643274 -0.210279558538
146872000 0.272686104459 -0.209997450992
146876000 0.27327303248 -0.211076308034
146880000 0.273668791064 -0.210965317556
146884000 0.273171229974 -0.21030407118
146888000 0.272666336751 -0.209556282714
146892000 0.272715520268 -0.210811539907
146896000 0.273405402223 -0.210765994747
146900000 0.273060795704 -0.210191974043
146904000 0.273033734471 -0.209207537245
146908000 0.272732732319 -0.210377916153
146912000 0.273680711772 -0.210539927206
146916000 0.273157039344 -0.209805523572
146920000 0.273247088049 -0.208297690521
146924000 0.272355874802 -0.209401430071
146928000 0.273552623272 -0.210100206779
146932000 0.27317647651 -0.209406176191
146936000 0.273286928525 -0.208156583311
146940000 0.272108849298 -0.208723963399
146944000 0.273582830609 -0.209946462666
146948000 0.272997906108 -0.209313248977
146952000 0.273116127625 -0.208152483782
146956000 0.272351049308 -0.207973965101
146960000 0.272824943946 -0.209562154713
146964000 0.272913688102 -0.209014219087
146968000 0.272853666261 -0.208461391134
146972000 0.271768404247 -0.207788969545
146976000 0.272361614728 -0.209166546841
146980000 0.272849308266 -0.208923938168
146984000 0.272512481506 -0.208374723343
146988000 0.272067181545 -0.20758073799
146992000 0.272188106725 -0.208718222092
146996000 0.272820389149 -0.208751318192
147000000 0.272758065006 -0.208123906752
147004000 0.272434265396 -0.207137764325
147008000 0.272294468867 -0.208338931851
147012000 0.272967673109 -0.208549041467
147016000 0.272802647937 -0.207866451274
147020000 0.272552931958 -0.206455019979
147024000 0.272044078933 -0.207658817385
147028000 0.272830884788 -0.208455930364
147032000 0.27299468911 -0.207576397025
147036000 0.272826007998 -0.206181222209
147040000 0.271846039016 -0.206865863844
147044000 0.272835115962 -0.208186414806
147048000 0.272830327065 -0.207608299224
147052000 0.271091314079 -0.207465387245
147056000 0.271886225311 -0.206481642525
147060000 0.272584983043 -0.20785526221
147064000 0.271355415499 -0.207832070637
147068000 0.272798791878 -0.206854800362
147072000 0.27200833375 -0.206366402934
147076000 0.272319006834 -0.207662609445
147080000 0.272978950725 -0.207399255171
147084000 0.272479591941 -0.206880200322
147088000 0.272212456895 -0.206018652603
147092000 0.272226036521 -0.207442186887
147096000 0.273104570892 -0.207217460919
147100000 0.272714541545 -0.206543734832
147104000 0.272284615435 -0.205597028844
147108000 0.272063704071 -0.206918011115
147112000 0.272865355407 -0.206955560246
147116000 0.272487465063 -0.206398455282
147120000 0.272319135701 -0.204840230641
147124000 0.272121229924 -0.206284627521
147128000 0.27276717608 -0.206877655757
147132000 0.272728431576 -0.206181222308
147136000 0.272686806608 -0.20462481609
147140000 0.27167877175 -0.205426640381
147144000 0.272519839649 -0.20662870038
147148000 0.272442411545 -0.205931025996
147152000 0.2723389298 -0.204921215233
147156000 0.271343663479 -0.204859482801
147160000 0.271883814936 -0.20639807275
147164000 0.272517499957 -0.205813208524
147168000 0.272001511722 -0.205212876559
147172000 0.271483948473 -0.204649691425
147176000 0.271439884294 -0.205923746311
147180000 0.272339513276 -0.205677289991
147184000 0.271354486591 -0.205137597405
147188000 0.27148855451 -0.2042069897
147192000 0.271080999043 -0.205634128504
147196000 0.272204180862 -0.20541317884
147200000 0.271632903417 -0.204829070322
147204000 0.275917674968 -0.20860507024
147208000 0.275326625744 -0.208485891538
147212000 0.275445806363 -0.208001190009
147216000 0.275258425521 -0.20844259438
147220000 0.27560448285 -0.208862396305
147224000 0.275353206411 -0.208248341064
147228000 0.275538578723 -0.207804760376
147232000 0.275027154643 -0.207867344051
147236000 0.276029719665 -0.20873535083
147240000 0.275680872865 -0.207837632383
147244000 0.275512712166 -0.208004693394
147248000 0.275354166662 -0.207559356226
147252000 0.275388061048 -0.208812113398
147256000 0.275872977847 -0.207881351692
147260000 0.275426324278 -0.208114732661
147264000 0.275383104283 -0.207674647834
147268000 0.275404552814 -0.208616843827
147272000 0.27615701127 -0.207735096214
147276000 0.275104218569 -0.208212145687
147280000 0.275371917061 -0.207250042561
147284000 0.275087861746 -0.208576307652
147288000 0.275622284054 -0.208044872929
147292000 0.275068256728 -0.208031552407
147296000 0.274916492958 -0.207453578333
147300000 0.275165931116 -0.208287738739
147304000 0.275593181341 -0.208059986921
147308000 0.275128563392 -0.207895264922
147312000 0.275070626856 -0.20742214989
147316000 0.27498602049 -0.207838883533
147320000 0.274197427754 -0.208440354246
147324000 0.275175942209 -0.207364602628
147328000 0.2752837503 -0.207069266951
147332000 0.276260799987 -0.208047570945
147336000 0.275237207368 -0.208011535933
147340000 0.275660384523 -0.207345255343
147344000 0.27518861442 -0.207278323845
147348000 0.275338613753 -0.206906282396
147352000 0.27511940104 -0.208120554376
147356000 0.275738621518 -0.207060549029
147360000 0.275118078992 -0.207256370652
147364000 0.274974160458 -0.206712191146
147368000 0.275054967814 -0.20778008568
147372000 0.27569351065 -0.206902249447
147376000 0.275489635635 -0.207066529903
147380000 0.27533094826 -0.206868192084
147384000 0.274808231838 -0.20772562674
147388000 0.275628217865 -0.207202588395
147392000 0.274594489091 -0.207142013405
147396000 0.275059130225 -0.206697545266
147400000 0.2746498039 -0.207436848338
147404000 0.275449523947 -0.20737720964
147408000 0.274974209087 -0.207112300417
147412000 0.27497009993 -0.206739867403
147416000 0.274894689314 -0.207127003169
147420000 0.275319173411 -0.207794784434
147424000 0.275100770773 -0.206888285327
147428000 0.275077658795 -0.206471732225
147432000 0.274970637316 -0.206579439609
147436000 0.275518600064 -0.207590257938
147440000 0.27579188731 -0.206729561244
147444000 0.275196903437 -0.206820277891
147448000 0.275438997248 -0.20686163476
147452000 0.275225479941 -0.207699163312
147456000 0.275781152144 -0.206322905144
147460000 0.275307897892 -0.206823186731
147464000 0.27549561291 -0.206300194473
147468000 0.275721398561 -0.207631926138
147472000 0.276475043781 -0.206751256008
147476000 0.275422034407 -0.207280480217
147480000 0.275635368039 -0.206741408993
147484000 0.27505166456 -0.207510332799
147488000 0.276270863181 -0.207285686743
147492000 0.275218345949 -0.207133779531
147496000 0.275897623088 -0.206886288213
147500000 0.275284975786 -0.207628638957
147504000 0.276404601497 -0.20764550442
147508000 0.275581894047 -0.207335568413
147512000 0.275934270768 -0.207235197998
147516000 0.275612874172 -0.207600167619
147520000 0.276316587529 -0.208119708788
147524000 0.276030911136 -0.207380044642
147528000 0.276229815716 -0.207093050863
147532000 0.275706255656 -0.207147177501
147536000 0.276539786634 -0.208234871179
147540000 0.276699899651 -0.207386713363
147544000 0.276369166906 -0.207620009298
147548000 0.276369684473 -0.206941404771
147552000 0.276392231175 -0.208284517935
147556000 0.276883030838 -0.207348242827
147560000 0.276586718444 -0.207379849264
147564000 0.276488945102 -0.207021635689
147568000 0.276234970759 -0.2082572235
147572000 0.277398664526 -0.207552534902
147576000 0.276454786896 -0.20804245363
147580000 0.276584088468 -0.207372163582
147584000 0.276187329361 -0.208374863966
147588000 0.276825169975 -0.208075470194
147592000 0.275987355246 -0.208045149352
147596000 0.276587096454 -0.20762102605
147600000 0.2761460049 -0.208391242315
147604000 0.289064822219 -0.241366639462
147608000 0.289074870951 -0.241315370401
147612000 0.288747178036 -0.242406380657
147616000 0.2894621791 -0.241723151038
147620000 0.28885975603 -0.241809937232
147624000 0.288987498232 -0.241620336858
147628000 0.288598522792 -0.242675493078
147632000 0.289061663886 -0.242275820094
147636000 0.288652485841 -0.242134585534
147640000 0.288790926871 -0.241937834636
147644000 0.288529963437 -0.242799418702
147648000 0.288858966094 -0.242844879625
147652000 0.288745169248 -0.242603973688
147656000 0.288797466099 -0.242391321419
147660000 0.288689881283 -0.24319658368
147664000 0.288523457354 -0.24311360561
147668000 0.28900550353 -0.242649327915
147672000 0.288927659702 -0.242633077136
147676000 0.288671432765 -0.243299715099
147680000 0.289021676833 -0.243578262218
147684000 0.289275557596 -0.242872260603
147688000 0.288926368538 -0.242924668201
147692000 0.288882992687 -0.243433948831
147696000 0.288510669406 -0.244118262185
147700000 0.289281473692 -0.243191533801
147704000 0.288747874047 -0.24333383981
147708000 0.288889286315 -0.243378486812
147712000 0.28842545827 -0.244325721465
147716000 0.289228053065 -0.243802293471
147720000 0.288859382443 -0.243628850769
147724000 0.288825985911 -0.243718144306
147728000 0.288225484343 -0.244582871275
147732000 0.289068273863 -0.244223053799
147736000 0.288370234035 -0.243982973344
147740000 0.28860332655 -0.243932845592
147744000 0.288131350337 -0.244763879312
147748000 0.288642042687 -0.244657351282
147752000 0.288335226953 -0.244370616886
147756000 0.288468708987 -0.244257800287
147760000 0.287960763086 -0.245026132433
147764000 0.28812936651 -0.244756149924
147768000 0.288342766208 -0.244296139542
147772000 0.28872625551 -0.244014838812
147776000 0.28791643237 -0.244893608398
147780000 0.288171511858 -0.245015706765
147784000 0.288678925255 -0.244379256894
147788000 0.288072472661 -0.244267148653
147792000 0.28829645684 -0.244964676562
147796000 0.287870865232 -0.245279392232
147800000 0.288724049275 -0.244496285087
147804000 0.288008166442 -0.244398961127
147808000 0.288188801111 -0.244772873921
147812000 0.287756730112 -0.245491417857
147816000 0.28873298011 -0.24502907854
147820000 0.287945596447 -0.244859974218
147824000 0.288261958253 -0.244822056802
147828000 0.287457044237 -0.245567133547
147832000 0.288286844151 -0.24530925842
147836000 0.287764184855 -0.244985573809
147840000 0.288077665915 -0.244926613269
147844000 0.287209688466 -0.245551232776
147848000 0.287982517302 -0.245772569046
147852000 0.28758231437 -0.245306730865
147856000 0.287873204016 -0.245285165154
147860000 0.288497049942 -0.246624074087
147864000 0.287383338648 -0.245871559633
147868000 0.287805221742 -0.245166778744
147872000 0.289103804741 -0.247269659017
147876000 0.286044686482 -0.245419353161
147880000 0.287657388826 -0.246152277119
147884000 0.288123466624 -0.245469980921
147888000 0.287705705405 -0.245440286104
147892000 0.287674485147 -0.245909683129
147896000 0.287332322463 -0.246411149306
147900000 0.287994402679 -0.245329657611
147904000 0.287610301264 -0.245254719283
147908000 0.287592596169 -0.2455701261
147912000 0.287170474168 -0.246341679863
147916000 0.288000497372 -0.245917660224
147920000 0.287393982312 -0.24567811432
147924000 0.28759009173 -0.245575416665
147928000 0.286890814883 -0.24636105263
147932000 0.287663108017 -0.246079494304
147936000 0.287150525886 -0.245721164896
147940000 0.287266847791 -0.245787368849
147944000 0.286564879023 -0.246310811489
147948000 0.287454457835 -0.246693344564
147952000 0.286885776986 -0.245955559145
147956000 0.287646328765 -0.245853710805
147960000 0.286703578262 -0.246442607169
147964000 0.286780712276 -0.246536654407
147968000 0.287096222149 -0.245808721855
147972000 0.287007980313 -0.246004384547
147976000 0.286632636654 -0.246426046554
147980000 0.286820314936 -0.246821515885
147984000 0.287244371128 -0.245927672157
147988000 0.28699533027 -0.246015629227
147992000 0.286689716939 -0.246350892243
147996000 0.286438105031 -0.247043001318
148000000 0.287179092244 -0.245846146892
