! Calibrated averaged scanner-service zoom
# Hz S RI R 50
420000000 0.719621560003 -0.277224031054
420010000 0.719101464164 -0.276686460446
420020000 0.718385644372 -0.276101981275
420030000 0.71883462066 -0.275554712254
420040000 0.718561913514 -0.275226575814
420050000 0.719294498392 -0.275795585635
420060000 0.718912080153 -0.27582686337
420070000 0.718866376325 -0.276294321548
420080000 0.719686643333 -0.276013181859
420090000 0.71821802468 -0.276586861098
420100000 0.718066388446 -0.276739242103
420110000 0.719244139887 -0.277374470576
420120000 0.719402161254 -0.277192914132
420130000 0.719336947256 -0.276715878488
420140000 0.718505975515 -0.277202905852
420150000 0.718622693565 -0.277812270737
420160000 0.718804121062 -0.277187263574
420170000 0.718846178744 -0.277125877261
420180000 0.718798632299 -0.276637024756
420190000 0.718386273448 -0.276808772881
420200000 0.718834806153 -0.277351176799
420210000 0.718808626292 -0.276749288501
420220000 0.71806578446 -0.277105843453
420230000 0.718543069888 -0.277239956975
420240000 0.719152390471 -0.277455711283
420250000 0.719421342261 -0.277359984936
420260000 0.718692232565 -0.277681017545
420270000 0.718974732334 -0.277457793209
420280000 0.719075938184 -0.277384332412
420290000 0.719690494461 -0.277272993695
420300000 0.719959498225 -0.277570419646
420310000 0.718619057433 -0.277410486981
420320000 0.711095048579 -0.285393135913
420330000 0.719900406355 -0.277749275164
420340000 0.719232621489 -0.278582667941
420350000 0.719036002117 -0.278269657193
420360000 0.718912141584 -0.278468394231
420370000 0.719310898302 -0.277678891165
420380000 0.718984336579 -0.277947005209
420390000 0.718512252931 -0.277238632322
420400000 0.719407633652 -0.278133591184
420410000 0.719556892187 -0.277425607205
420420000 0.719466701621 -0.277129578538
420430000 0.720763886606 -0.278052841518
420440000 0.719071326864 -0.27751903454
420450000 0.718725075236 -0.277657224939
420460000 0.719098552956 -0.278362399854
420470000 0.719897022951 -0.277910873786
420480000 0.719078873772 -0.277952878985
420490000 0.718894567951 -0.278075168216
420500000 0.719861414589 -0.27887463981
420510000 0.719614450193 -0.278184755374
420520000 0.720310167968 -0.278390958267
420530000 0.719193146306 -0.279253216047
420540000 0.719965326532 -0.278935976238
420550000 0.719381694778 -0.278275809997
420560000 0.719603424558 -0.278471911641
420570000 0.718961638266 -0.279107957669
420580000 0.718398172738 -0.278593358269
420590000 0.718863172958 -0.278754179518
420600000 0.71889503107 -0.279996581034
420610000 0.718854340014 -0.279119733569
420620000 0.718943553234 -0.279394956572
420630000 0.719656030161 -0.279890226482
420640000 0.719086182626 -0.279593009972
420650000 0.719000187178 -0.279863691565
420660000 0.719614293225 -0.279634906533
420670000 0.7194899601 -0.279641722443
420680000 0.719084807027 -0.279505369625
420690000 0.719341186635 -0.2793041957
420700000 0.720359002329 -0.279763284024
420710000 0.720188214362 -0.279208478031
420720000 0.720003296049 -0.279112361772
420730000 0.720094549412 -0.279085409369
420740000 0.719056866719 -0.27930657631
420750000 0.718995474297 -0.279689085914
420760000 0.718838389423 -0.279742151276
420770000 0.71920539551 -0.280413211389
420780000 0.719361757454 -0.280573790299
420790000 0.719143018169 -0.280412453253
420800000 0.718813621021 -0.280830092987
420810000 0.719451167642 -0.280798214637
420820000 0.719794810213 -0.280114478104
420830000 0.719228740879 -0.280342352915
420840000 0.718430641656 -0.279870557391
420850000 0.718156447716 -0.280250215072
420860000 0.718578460155 -0.280555657525
420870000 0.718405859441 -0.280465562143
420880000 0.718976624315 -0.279822811409
420890000 0.719246433975 -0.27927295924
420900000 0.718377278511 -0.279766270846
420910000 0.719123204144 -0.279429774004
420920000 0.717698271437 -0.27980919155
420930000 0.718511543706 -0.280056216516
420940000 0.717705074302 -0.279543730411
420950000 0.718867908711 -0.279810660629
420960000 0.718427750535 -0.279693803991
420970000 0.718788378984 -0.281032044972
420980000 0.71856905469 -0.281264503173
420990000 0.718273587176 -0.280954503299
421000000 0.717991526424 -0.281510549639
421010000 0.717028859779 -0.280998878119
421020000 0.717046118307 -0.281155285648
421030000 0.717802793599 -0.281394935967
421040000 0.717121976824 -0.281466346694
421050000 0.717217715633 -0.28092240498
421060000 0.716050410719 -0.280505649923
421070000 0.71757238599 -0.282049900662
421080000 0.717643644246 -0.281208735214
421090000 0.717402553367 -0.28060568609
421100000 0.717315106583 -0.281452599004
421110000 0.71755069514 -0.281741722372
421120000 0.718003229652 -0.28204008661
421130000 0.717998946673 -0.283419054742
421140000 0.717591713915 -0.2836327055
421150000 0.716663793745 -0.282870562014
421160000 0.716441558047 -0.282561928468
421170000 0.716679206654 -0.282695665872
421180000 0.718230919988 -0.280747937609
421190000 0.717145069375 -0.281651504243
421200000 0.716896672979 -0.281564583547
421210000 0.717984948159 -0.281322911379
421220000 0.71733101738 -0.281155534188
421230000 0.71732414888 -0.282431153717
421240000 0.717707619275 -0.281552274257
421250000 0.718380014675 -0.28104448848
421260000 0.718306060466 -0.281801326829
421270000 0.717929058243 -0.281910918937
421280000 0.718084911541 -0.282267032988
421290000 0.717928674138 -0.282097257173
421300000 0.71724223108 -0.282214076502
421310000 0.717236508688 -0.282102050372
421320000 0.717522941547 -0.282878715626
421330000 0.717202030427 -0.282886296599
421340000 0.717670445597 -0.283168917589
421350000 0.716994559478 -0.282844596975
421360000 0.717328929372 -0.282522273518
421370000 0.717479472646 -0.282879403825
421380000 0.717091091032 -0.282575874029
421390000 0.716750821335 -0.282225659427
421400000 0.717067746043 -0.282511086388
421410000 0.717031335396 -0.282637038858
421420000 0.717230239929 -0.282312760164
421430000 0.71688996364 -0.282942499124
421440000 0.717120282679 -0.283251892725
421450000 0.717457920166 -0.283969322869
421460000 0.717924456126 -0.283376473134
421470000 0.716983913538 -0.283387519302
421480000 0.717310175614 -0.282675775323
421490000 0.716346403163 -0.282535180366
421500000 0.717189196658 -0.282802591858
421510000 0.717338311574 -0.283420990648
421520000 0.718327636817 -0.283500690175
421530000 0.718244829267 -0.284134089403
421540000 0.718699984953 -0.28378655735
421550000 0.717603696852 -0.28394251511
421560000 0.717950805809 -0.289175396548
421570000 0.718332169062 -0.283791089458
421580000 0.718207784688 -0.283373104398
421590000 0.717976792655 -0.283527510766
421600000 0.717365617636 -0.285042194067
421610000 0.716896237485 -0.28500401416
421620000 0.716246622299 -0.285362692488
421630000 0.716598988612 -0.285491525344
421640000 0.71772581238 -0.283513088356
421650000 0.716879943655 -0.284253072642
421660000 0.717340396601 -0.283936731042
421670000 0.717783822731 -0.284862838303
421680000 0.717750171785 -0.285960370929
421690000 0.717411670289 -0.285160947743
421700000 0.717222845912 -0.284299261721
421710000 0.717355142951 -0.285292570673
421720000 0.717199388581 -0.284617896218
421730000 0.717792450553 -0.284130532587
421740000 0.717549268873 -0.284890923117
421750000 0.718409652626 -0.284630904918
421760000 0.718333884623 -0.284868881908
421770000 0.71857969249 -0.284311463351
421780000 0.717826971593 -0.284751330761
421790000 0.717648113196 -0.285248892543
421800000 0.717110358376 -0.285028799323
421810000 0.717174967899 -0.285124011706
421820000 0.716966775591 -0.285231461097
421830000 0.717363885158 -0.285381085151
421840000 0.717410190778 -0.285105645166
421850000 0.71701787403 -0.285380289161
421860000 0.717569282507 -0.285455270056
421870000 0.718092355646 -0.285259617076
421880000 0.717984733901 -0.286103907868
421890000 0.718245691079 -0.285593821323
421900000 0.718566906486 -0.285758206672
421910000 0.717532346827 -0.285676613604
421920000 0.71889737601 -0.285528802171
421930000 0.718558606763 -0.285657978131
421940000 0.718417653959 -0.285741903197
421950000 0.71835659278 -0.285866987887
421960000 0.718668517677 -0.286161321559
421970000 0.717882594777 -0.286536883848
421980000 0.718175696392 -0.285699240002
421990000 0.717449729067 -0.286271918728
422000000 0.717696552653 -0.286005925307
422010000 0.71717692227 -0.286002503079
422020000 0.717919076539 -0.285980292087
422030000 0.717528726971 -0.285964340681
422040000 0.718293555742 -0.28615323557
422050000 0.71786088386 -0.285992827631
422060000 0.718448228859 -0.285544420698
422070000 0.716881342171 -0.286722692807
422080000 0.717665564059 -0.287166633353
422090000 0.71695380721 -0.287541441509
422100000 0.717962670768 -0.286962388649
422110000 0.71657526207 -0.287368008857
422120000 0.71783437464 -0.287393743748
422130000 0.717818545468 -0.286929853812
422140000 0.717822688942 -0.28695733806
422150000 0.717154461895 -0.287619271894
422160000 0.716931315246 -0.286160738165
422170000 0.717355437606 -0.28712688271
422180000 0.717911666629 -0.286626531931
422190000 0.717480850793 -0.287408981604
422200000 0.717097241835 -0.287164606161
422210000 0.71720235678 -0.287532041622
422220000 0.717435283153 -0.287873672881
422230000 0.716791015192 -0.287712477613
422240000 0.717502063178 -0.286817697123
422250000 0.717416082926 -0.288035132705
422260000 0.716738871935 -0.287705060933
422270000 0.716327444246 -0.288297322411
422280000 0.716697320421 -0.287556066818
422290000 0.717008150352 -0.287473677801
422300000 0.717210743645 -0.288183332825
422310000 0.717289714146 -0.287132325723
422320000 0.717214152598 -0.287850916432
422330000 0.716656289824 -0.288121899239
422340000 0.716712657785 -0.289012579296
422350000 0.717381545538 -0.288481228049
422360000 0.717043420707 -0.288690593296
422370000 0.717427751116 -0.288169683297
422380000 0.717230840655 -0.288328222564
422390000 0.716759876735 -0.288322053238
422400000 0.716244211847 -0.288462810622
422410000 0.716229848635 -0.288164901737
422420000 0.71693465047 -0.288847413396
422430000 0.716706174267 -0.287983113694
422440000 0.717070141976 -0.288487756129
422450000 0.716083187078 -0.288340866461
422460000 0.71772379349 -0.288147174026
422470000 0.718280757799 -0.285696067292
422480000 0.717724579425 -0.27866960874
422490000 0.708064307757 -0.286307781561
422500000 0.721185856991 -0.284892780063
422510000 0.717037391414 -0.288021947523
422520000 0.716802267393 -0.288526197758
422530000 0.715759552962 -0.289105692943
422540000 0.716246910478 -0.289988552146
422550000 0.716968735305 -0.290196471198
422560000 0.716933802938 -0.289608527211
422570000 0.717388021096 -0.289834447301
422580000 0.717334514641 -0.289838487117
422590000 0.717317518972 -0.290457497934
422600000 0.717045689394 -0.289867642498
422610000 0.717588020662 -0.289587065966
422620000 0.716587103188 -0.29052891526
422630000 0.716890418622 -0.290501392324
422640000 0.716760965994 -0.289685572298
422650000 0.716428653688 -0.290521145412
422660000 0.716562867101 -0.290025993661
422670000 0.716524464993 -0.289936981525
422680000 0.716609237737 -0.290285532168
422690000 0.716691066772 -0.289753936162
422700000 0.716345616157 -0.290590001804
422710000 0.716764140903 -0.290831875152
422720000 0.71624779268 -0.290991435284
422730000 0.715740498675 -0.290442321853
422740000 0.714851074329 -0.290292948705
422750000 0.714486646659 -0.290170128325
422760000 0.715724344088 -0.290404248722
422770000 0.717084221261 -0.290679664094
422780000 0.717390453967 -0.290442020843
422790000 0.716605929914 -0.290200373647
422800000 0.715973657573 -0.291038370307
422810000 0.715832452268 -0.290996990757
422820000 0.715313154416 -0.290804297737
422830000 0.714308624773 -0.289951459874
422840000 0.715466290507 -0.291362208931
422850000 0.716480598459 -0.29134923304
422860000 0.716347481764 -0.291289588195
422870000 0.715900038954 -0.291256512014
422880000 0.715848451001 -0.291504060748
422890000 0.715891851295 -0.29153753772
422900000 0.716173464216 -0.291361972418
422910000 0.716768245558 -0.291584268814
422920000 0.716657090347 -0.291390355303
422930000 0.717340750885 -0.291985869473
422940000 0.71660162416 -0.292125356741
422950000 0.716439887782 -0.291940115258
422960000 0.716445835568 -0.292602997121
422970000 0.716601066696 -0.292964159771
422980000 0.71598486212 -0.292637787343
422990000 0.716658566109 -0.292987850104
423000000 0.716571867605 -0.292623655868
423010000 0.71594730774 -0.293042931868
423020000 0.715605318381 -0.293005309795
423030000 0.71614415685 -0.293142061335
423040000 0.716061729573 -0.293245199369
423050000 0.715734678526 -0.292872774623
423060000 0.716173519158 -0.293224849335
423070000 0.716417721474 -0.292684172335
423080000 0.716366059734 -0.292613610851
423090000 0.716520375723 -0.292716116349
423100000 0.715916342755 -0.292419836746
423110000 0.716107313522 -0.292073863954
423120000 0.71570635725 -0.293210830349
423130000 0.715793981787 -0.293204937511
423140000 0.715328363198 -0.293611142905
423150000 0.715801072969 -0.293653348287
423160000 0.716308578714 -0.293473908205
423170000 0.716905242191 -0.292645865529
423180000 0.716440486797 -0.292940958211
423190000 0.716628054683 -0.293188953517
423200000 0.716750284966 -0.29343559643
423210000 0.717409521095 -0.294473760504
423220000 0.716594196509 -0.293251144205
423230000 0.715524708814 -0.293171566186
423240000 0.716201410604 -0.293293701248
423250000 0.716149088765 -0.293468711643
423260000 0.716126714946 -0.293666591919
423270000 0.716185066623 -0.294472642208
423280000 0.716909078417 -0.294130883454
423290000 0.717334053011 -0.294370563541
423300000 0.716197779599 -0.293861973717
423310000 0.715434099743 -0.293845869704
423320000 0.716206202434 -0.294691673628
423330000 0.715378732384 -0.293871500188
423340000 0.716420643024 -0.293695073223
423350000 0.715569405181 -0.293023097162
423360000 0.716381980374 -0.29455464143
423370000 0.716510840852 -0.294808205468
423380000 0.716539610377 -0.294797451972
423390000 0.716324896661 -0.294876161218
423400000 0.716488026045 -0.294548153828
423410000 0.715729616549 -0.29438070186
423420000 0.716316088222 -0.294227049473
423430000 0.716130007791 -0.29416219768
423440000 0.716199867573 -0.294750209085
423450000 0.71591203812 -0.295229923048
423460000 0.715598126756 -0.294858763502
423470000 0.715760348805 -0.295949663782
423480000 0.715943610134 -0.295413914326
423490000 0.715861421054 -0.295659626951
423500000 0.716142155022 -0.296171463933
423510000 0.716292353461 -0.296153186995
423520000 0.71550538509 -0.295984640608
423530000 0.715963244647 -0.295697206381
423540000 0.716150858714 -0.295724646859
423550000 0.716400753667 -0.295442686099
423560000 0.716441007931 -0.296066142073
423570000 0.716527206482 -0.296381979038
423580000 0.716503178117 -0.296652116589
423590000 0.716091780924 -0.296593309472
423600000 0.716280326858 -0.2960589159
423610000 0.715949170356 -0.296523266858
423620000 0.715739292079 -0.29618613304
423630000 0.71551679927 -0.296455483952
423640000 0.715793659014 -0.29689052873
423650000 0.716302442681 -0.297127323334
423660000 0.716228091941 -0.296221767226
423670000 0.716389767504 -0.295054636116
423680000 0.716497228731 -0.296728656245
423690000 0.71756945517 -0.296874845095
423700000 0.716982359429 -0.297061387308
423710000 0.715809821104 -0.296724448788
423720000 0.715964391295 -0.296051571912
423730000 0.715287742017 -0.29651356196
423740000 0.71535469792 -0.297429071091
423750000 0.715835687522 -0.296747745681
423760000 0.71515135117 -0.297186536893
423770000 0.715275522619 -0.297305243655
423780000 0.715581062474 -0.297410439893
423790000 0.715753163201 -0.296941943444
423800000 0.715997474172 -0.296613087756
423810000 0.716059574296 -0.296933968857
423820000 0.716327492524 -0.297405192292
423830000 0.715765039244 -0.297190408748
423840000 0.715184213631 -0.297258535737
423850000 0.715256295761 -0.297707343385
423860000 0.715647122418 -0.298073213004
423870000 0.715068229389 -0.297335583422
423880000 0.715365940155 -0.297455219335
423890000 0.716002775559 -0.298276017242
423900000 0.71524205422 -0.29889205868
423910000 0.715383018593 -0.298644784594
423920000 0.716519932945 -0.298228927593
423930000 0.716075684199 -0.297871146179
423940000 0.715785874427 -0.298156996165
423950000 0.715588545851 -0.29815621962
423960000 0.715307619637 -0.297864814455
423970000 0.715331644327 -0.298566446495
423980000 0.715057503263 -0.29870087618
423990000 0.715268452799 -0.298722901679
424000000 0.714778044709 -0.29840358142
424010000 0.714410734219 -0.298560507019
424020000 0.714758019608 -0.298695014958
424030000 0.714224716971 -0.298822523461
424040000 0.714655713865 -0.298890563748
424050000 0.7147915187 -0.298305741154
424060000 0.715348751275 -0.299172033689
424070000 0.71554587689 -0.298501205965
424080000 0.715168318488 -0.299028815455
424090000 0.715461224705 -0.299757701374
424100000 0.715486938515 -0.299890387282
424110000 0.715446973279 -0.299240294175
424120000 0.715175166476 -0.299483366105
424130000 0.714473075777 -0.298057121975
424140000 0.714803015294 -0.299202473695
424150000 0.714832768234 -0.299070272224
424160000 0.714802665673 -0.29888025361
424170000 0.714955746624 -0.299419947455
424180000 0.71511340604 -0.299676851714
424190000 0.714800935175 -0.299748313514
424200000 0.714950704484 -0.300202266904
424210000 0.714954270007 -0.299728836663
424220000 0.715488600604 -0.299936927929
424230000 0.715201888889 -0.29895231182
424240000 0.715926976084 -0.299407956787
424250000 0.715114902173 -0.299612442929
424260000 0.715117930606 -0.299599779302
424270000 0.714846644081 -0.299978260081
424280000 0.714953352186 -0.300041719578
424290000 0.715180897664 -0.299975873066
424300000 0.714757664206 -0.299693687102
424310000 0.71491583251 -0.300490793049
424320000 0.715548218036 -0.299843878726
424330000 0.715540086474 -0.300453508999
424340000 0.715248193966 -0.300609357519
424350000 0.714777270272 -0.300966972739
424360000 0.715074558931 -0.300945852297
424370000 0.715314029413 -0.301041115769
424380000 0.715113597043 -0.301160319564
424390000 0.714945838124 -0.301784540416
424400000 0.715879062215 -0.301800800127
424410000 0.714205643647 -0.301320598345
424420000 0.714369022102 -0.301299895875
424430000 0.714841527141 -0.300636350815
424440000 0.715486524275 -0.300194348875
424450000 0.715134997537 -0.300768363197
424460000 0.715271648718 -0.301104858175
424470000 0.714779484394 -0.301983154213
424480000 0.714928466556 -0.301955719006
424490000 0.714856847991 -0.302012967181
424500000 0.714087556304 -0.301740642735
424510000 0.714438503406 -0.301754729969
424520000 0.71405484467 -0.30149733888
424530000 0.714189168944 -0.301684301068
424540000 0.714559965026 -0.30234068772
424550000 0.714578740913 -0.302339386935
424560000 0.714290147012 -0.302645385489
424570000 0.713992327727 -0.30233647388
424580000 0.7142933111 -0.302932880905
424590000 0.71498398731 -0.302349067965
424600000 0.714863107285 -0.302945203856
424610000 0.714379573757 -0.302948507254
424620000 0.714562211611 -0.303790374472
424630000 0.71479440421 -0.303985162871
424640000 0.715280048665 -0.303799426116
424650000 0.71509594988 -0.303767247828
424660000 0.715295609415 -0.303345438695
424670000 0.71542856072 -0.303129076372
424680000 0.715188286369 -0.302373632877
424690000 0.714408241927 -0.303344258575
424700000 0.714322933891 -0.302998807537
424710000 0.714385086287 -0.303478315213
424720000 0.714599521403 -0.303211184588
424730000 0.714137212686 -0.302936014644
424740000 0.713115462806 -0.303531359537
424750000 0.713364727045 -0.303548940803
424760000 0.713355152304 -0.30294492375
424770000 0.713356211744 -0.303509336506
424780000 0.713535654833 -0.303340511604
424790000 0.713380325805 -0.30457820821
424800000 0.714023933535 -0.307160150911
424810000 0.714410548305 -0.309460371471
424820000 0.714564018662 -0.30873470887
424830000 0.714438016558 -0.30692405139
424840000 0.714143177403 -0.305050190702
424850000 0.714762971273 -0.304571943009
424860000 0.713515847198 -0.303698664078
424870000 0.713761160782 -0.304158587489
424880000 0.713341780637 -0.303789945274
424890000 0.713502648474 -0.30353215896
424900000 0.714337121609 -0.303673280368
424910000 0.713265906719 -0.303881209131
424920000 0.714295514231 -0.304268846962
424930000 0.714610759292 -0.30424191786
424940000 0.714110961068 -0.304312647602
424950000 0.714289978171 -0.304805670049
424960000 0.714225200505 -0.30492212511
424970000 0.714005445151 -0.304609365025
424980000 0.714122200121 -0.304631161504
424990000 0.713840908151 -0.304100121378
425000000 0.713505524302 -0.304843690709
425010000 0.713234489105 -0.304669905869
425020000 0.71378295729 -0.305290523733
425030000 0.713703707535 -0.305091377336
425040000 0.713783034858 -0.30525397464
425050000 0.713944586626 -0.304695474763
425060000 0.713698323506 -0.304562536934
425070000 0.713264807996 -0.303596140238
425080000 0.713293226452 -0.304211581869
425090000 0.71370631846 -0.305185464073
425100000 0.713877168849 -0.305771691088
425110000 0.7140484959 -0.305665272142
425120000 0.71318391143 -0.305931530632
425130000 0.713058127797 -0.30609541739
425140000 0.713291203757 -0.305813215857
425150000 0.713077660173 -0.306045701282
425160000 0.712828095795 -0.306058019649
425170000 0.712923224986 -0.306547623756
425180000 0.713519251486 -0.306302581094
425190000 0.713410145261 -0.306419188971
425200000 0.713555694525 -0.306479226474
425210000 0.713434199305 -0.30710602576
425220000 0.713206360066 -0.306641224566
425230000 0.713380190545 -0.306330735668
425240000 0.713008914839 -0.30655128106
425250000 0.712806895856 -0.306148966303
425260000 0.713292624379 -0.306637317948
425270000 0.713731924239 -0.30706215315
425280000 0.713894739042 -0.306607016776
425290000 0.714179590751 -0.307122770655
425300000 0.713781829687 -0.307102713814
425310000 0.71392300168 -0.306902794465
425320000 0.713727154237 -0.307096448567
425330000 0.712629921844 -0.307096803076
425340000 0.714672225132 -0.308312365789
425350000 0.712577887771 -0.306759333126
425360000 0.712362758657 -0.306931625181
425370000 0.712592615624 -0.306608997209
425380000 0.712552607014 -0.307065374294
425390000 0.712599931298 -0.306957693643
425400000 0.7134517379 -0.307326996093
425410000 0.712848295643 -0.307796315675
425420000 0.713635558563 -0.307674389698
425430000 0.713010864231 -0.307975893244
425440000 0.712779771897 -0.307929459539
425450000 0.712794055299 -0.307932942572
425460000 0.712703508258 -0.308703426914
425470000 0.712524101403 -0.308233877617
425480000 0.71198754279 -0.309447251839
425490000 0.712523640016 -0.308611752824
425500000 0.712774467776 -0.308521354228
425510000 0.712503477931 -0.308435197014
425520000 0.712525873337 -0.307675257581
425530000 0.712933706154 -0.30802400511
425540000 0.712320450023 -0.308159663344
425550000 0.712128054186 -0.307750375632
425560000 0.712216286755 -0.308415792255
425570000 0.711643098198 -0.308615122768
425580000 0.711592726398 -0.308027396171
425590000 0.7117894293 -0.308590060479
425600000 0.711851633857 -0.309006983992
425610000 0.712190160934 -0.308937300656
425620000 0.712351904948 -0.308879588176
425630000 0.712763399608 -0.309665171372
425640000 0.711893127355 -0.309458472732
425650000 0.711452471783 -0.309782687095
425660000 0.711809415811 -0.309465339686
425670000 0.711847283635 -0.309560056468
425680000 0.712584801309 -0.309795694341
425690000 0.712313169477 -0.310293986468
425700000 0.712357576031 -0.310471674506
425710000 0.712321908039 -0.310091600025
425720000 0.711883573016 -0.310116397089
425730000 0.712108364153 -0.309659748138
425740000 0.712073433226 -0.30974902649
425750000 0.712262786126 -0.30994553307
425760000 0.712394474755 -0.309868773376
425770000 0.71240486767 -0.310033586961
425780000 0.712644645011 -0.310100175852
425790000 0.712222552407 -0.309955708765
425800000 0.712090024418 -0.310706725451
425810000 0.711423313021 -0.310652240094
425820000 0.711389992969 -0.311489664306
425830000 0.71168411912 -0.310996931641
425840000 0.712331834972 -0.310804510207
425850000 0.712459466851 -0.310916491694
425860000 0.711817770199 -0.311101384967
425870000 0.711479718711 -0.311515425485
425880000 0.7116104848 -0.312063174882
425890000 0.711344505854 -0.311464744689
425900000 0.711530074901 -0.311433321742
425910000 0.711425339367 -0.311464370877
425920000 0.711835372388 -0.310908970016
425930000 0.711422514839 -0.310781854855
425940000 0.711563765001 -0.31082070017
425950000 0.71135864725 -0.310597523831
425960000 0.711989094239 -0.311134637421
425970000 0.711937117101 -0.31139982814
425980000 0.710777003452 -0.3120749452
425990000 0.710553613912 -0.312046652887
426000000 0.710835252156 -0.312484498206
426010000 0.711630032957 -0.312104281959
426020000 0.711558908346 -0.311800622596
426030000 0.711449413202 -0.312112351827
426040000 0.711615298554 -0.311956804755
426050000 0.711065327396 -0.311183559717
426060000 0.710805141348 -0.312419352153
426070000 0.711046489624 -0.311991888053
426080000 0.711207038163 -0.312392287473
426090000 0.711706906158 -0.310730906987
426100000 0.714044495471 -0.312420382208
426110000 0.711661837873 -0.311074886793
426120000 0.712078205659 -0.31148421968
426130000 0.711097462371 -0.311627437895
426140000 0.710521109605 -0.312658575628
426150000 0.710628736123 -0.313164107522
426160000 0.710651283132 -0.313060276787
426170000 0.710569953816 -0.312944446646
426180000 0.710865223477 -0.312717115733
426190000 0.710841904939 -0.31266388396
426200000 0.710925867584 -0.313392576553
426210000 0.710997529616 -0.313293567044
426220000 0.710216618047 -0.313765104584
426230000 0.710572019093 -0.313458929634
426240000 0.710568505246 -0.313383358293
426250000 0.710998728355 -0.313010814523
426260000 0.710767018802 -0.312742241317
426270000 0.710078418302 -0.313885338219
426280000 0.710477414917 -0.314256208098
426290000 0.710365642159 -0.313976352657
426300000 0.710065161616 -0.313832842931
426310000 0.710203720914 -0.31371536927
426320000 0.710006241315 -0.313498704113
426330000 0.710170452185 -0.313514079176
426340000 0.709951481472 -0.313328942034
426350000 0.710393892395 -0.314194382984
426360000 0.71038802872 -0.314469070877
426370000 0.710825117979 -0.314260318967
426380000 0.710560325847 -0.31428817133
426390000 0.71028271079 -0.314025198415
426400000 0.710464144114 -0.313769063079
426410000 0.710335144036 -0.314006108135
426420000 0.710176149144 -0.31443000475
426430000 0.709529158927 -0.313933779427
426440000 0.709571079174 -0.314755504589
426450000 0.710397864589 -0.314529945453
426460000 0.70957445113 -0.314108889464
426470000 0.710405945693 -0.314603768973
426480000 0.710532810704 -0.315038676361
426490000 0.70959805479 -0.314977412752
426500000 0.709257228718 -0.315067615078
426510000 0.710415954977 -0.315088940565
426520000 0.709594579966 -0.315500616698
426530000 0.709430703875 -0.315552411367
426540000 0.710389340341 -0.315192768105
426550000 0.710242629691 -0.314698094749
426560000 0.709523732965 -0.316224044323
426570000 0.709840972621 -0.316418066613
426580000 0.709715164675 -0.315869020893
426590000 0.710146905168 -0.315018488077
426600000 0.709519064236 -0.31519278157
426610000 0.708405175112 -0.31614239967
426620000 0.708952121039 -0.316154257326
426630000 0.709459755874 -0.31632609965
426640000 0.709648525231 -0.316443510008
426650000 0.710259837935 -0.31708170976
426660000 0.710319569225 -0.317285353466
426670000 0.7098131685 -0.316480599486
426680000 0.709758682503 -0.315325010401
426690000 0.709551489473 -0.316397246113
426700000 0.709597392525 -0.316301988239
426710000 0.709924037327 -0.316674340118
426720000 0.709946978315 -0.316941382474
426730000 0.709656793334 -0.31658537974
426740000 0.708725076818 -0.316840405152
426750000 0.708749453595 -0.316934230935
426760000 0.708624554751 -0.31762196256
426770000 0.708643807255 -0.31759766033
426780000 0.708302220659 -0.317575941851
426790000 0.708457672767 -0.317999444584
426800000 0.708414811974 -0.317875160888
426810000 0.708184164709 -0.318016092324
426820000 0.708220173062 -0.318131623796
426830000 0.708541565939 -0.318171870883
426840000 0.709223662178 -0.317423055105
426850000 0.709122080667 -0.318195263759
426860000 0.709684848277 -0.317664682706
426870000 0.708667814362 -0.317951669763
426880000 0.709124716205 -0.317788864124
426890000 0.708598584815 -0.317273845933
426900000 0.708286183975 -0.317610380983
426910000 0.708006573902 -0.317049737254
426920000 0.708360519401 -0.317102968714
426930000 0.707984679259 -0.31687374951
426940000 0.708478756805 -0.317411487387
426950000 0.707666489004 -0.320786402627
426960000 0.707809572459 -0.317859877907
426970000 0.708648498257 -0.318109610817
426980000 0.708241739672 -0.318739244161
426990000 0.707737999063 -0.317502436853
427000000 0.70830338331 -0.317456114801
427010000 0.707856113126 -0.317628801744
427020000 0.708508796701 -0.317730235903
427030000 0.707943504913 -0.317574061653
427040000 0.708238211814 -0.318090891803
427050000 0.707934396154 -0.318695443285
427060000 0.707680910141 -0.318413063313
427070000 0.707688093925 -0.319122038043
427080000 0.708498273121 -0.31913273129
427090000 0.707985695838 -0.318799577796
427100000 0.707115130644 -0.318685260503
427110000 0.707278069088 -0.3181351125
427120000 0.707088276715 -0.318105680407
427130000 0.708274715413 -0.320305814444
427140000 0.708184505126 -0.319124601358
427150000 0.707585859856 -0.319321014019
427160000 0.707602490401 -0.318882963832
427170000 0.707232563473 -0.319309702963
427180000 0.707289163713 -0.319277163453
427190000 0.707036987689 -0.31912572586
427200000 0.707849644919 -0.318734811612
427210000 0.707564830195 -0.319085457822
427220000 0.70766317107 -0.319492437111
427230000 0.708165425006 -0.319350744758
427240000 0.70807180826 -0.31993465242
427250000 0.707959049819 -0.320383300269
427260000 0.707904438222 -0.321023919328
427270000 0.707807280779 -0.320996210157
427280000 0.707478020828 -0.320302097123
427290000 0.707431318254 -0.320470208155
427300000 0.707292399039 -0.321151137006
427310000 0.707452579895 -0.321494932856
427320000 0.707538009468 -0.321362492314
427330000 0.707227184567 -0.321534803622
427340000 0.706760491807 -0.321807024458
427350000 0.706239327729 -0.321919846626
427360000 0.706801851063 -0.321861987241
427370000 0.706499875476 -0.321364393167
427380000 0.706659816493 -0.32199843169
427390000 0.706705442016 -0.321856729407
427400000 0.706895122321 -0.322165402338
427410000 0.705605680864 -0.322463392076
427420000 0.706235483711 -0.320833224533
427430000 0.705654742874 -0.320944120026
427440000 0.706334204084 -0.320676860082
427450000 0.706894695963 -0.321654186479
427460000 0.707089102015 -0.321946022891
427470000 0.706817600712 -0.321835521989
427480000 0.706854910705 -0.321789635433
427490000 0.707380762646 -0.321597126714
427500000 0.706969605131 -0.321925723619
427510000 0.706801118341 -0.321928353562
427520000 0.706876452392 -0.3220810885
427530000 0.70630609647 -0.32275247725
427540000 0.706527751924 -0.322278470123
427550000 0.706203838034 -0.322570040613
427560000 0.706451146471 -0.322250065534
427570000 0.706660423373 -0.322491959822
427580000 0.706692029631 -0.322140863488
427590000 0.706416828737 -0.322614634011
427600000 0.706352761621 -0.323537014176
427610000 0.706262162496 -0.322647517636
427620000 0.706336761996 -0.322319664341
427630000 0.70644079738 -0.322849863437
427640000 0.706401951857 -0.322868248821
427650000 0.706806699552 -0.322297049874
427660000 0.706207118483 -0.322702165297
427670000 0.704284068378 -0.321456289232
427680000 0.706279174744 -0.322287063521
427690000 0.706346748385 -0.323221893968
427700000 0.706518142774 -0.322950722795
427710000 0.706411481821 -0.323574052345
427720000 0.706540587875 -0.323377113913
427730000 0.705640055094 -0.323513355114
427740000 0.70623077722 -0.323122303033
427750000 0.706006184407 -0.323237147262
427760000 0.70564139641 -0.323582835173
427770000 0.705355273357 -0.323436531154
427780000 0.705643238975 -0.323924911976
427790000 0.705325583093 -0.323391667433
427800000 0.704977603889 -0.323804456476
427810000 0.705389896864 -0.324033882036
427820000 0.704946530588 -0.324052202416
427830000 0.704901712494 -0.324229466223
427840000 0.705275055448 -0.324367006526
427850000 0.705566367155 -0.324910503612
427860000 0.705739248384 -0.324852352319
427870000 0.705794344584 -0.324462204322
427880000 0.705726306713 -0.324244322721
427890000 0.70525446592 -0.324503427742
427900000 0.702879872668 -0.321837680807
427910000 0.705682241369 -0.326225025994
427920000 0.706743856921 -0.324584075455
427930000 0.705853441879 -0.325386417135
427940000 0.705203999955 -0.325133141729
427950000 0.705291928658 -0.325305504329
427960000 0.705543188223 -0.325072368354
427970000 0.704720591763 -0.32511316532
427980000 0.704754844421 -0.324813073571
427990000 0.705196930256 -0.324717630796
428000000 0.705250050619 -0.324979807675
428010000 0.705719954592 -0.325070502659
428020000 0.705157105469 -0.324823242387
428030000 0.70447197802 -0.324926387528
428040000 0.704538276175 -0.325292863502
428050000 0.7047011336 -0.325175564814
428060000 0.704972497426 -0.324658699988
428070000 0.705224718208 -0.325007696747
428080000 0.705397101933 -0.325615440799
428090000 0.70557877681 -0.32542053464
428100000 0.705297576361 -0.32539960034
428110000 0.704966043002 -0.325449780896
428120000 0.704516409968 -0.325368284282
428130000 0.704663064856 -0.325751131087
428140000 0.704457266623 -0.325648964761
428150000 0.704439807547 -0.324910422496
428160000 0.704283469607 -0.325458333496
428170000 0.705258532942 -0.325508751755
428180000 0.705008881545 -0.325077391854
428190000 0.705072643907 -0.324930838801
428200000 0.704083586538 -0.326177315597
428210000 0.704381497202 -0.326041565861
428220000 0.704014169495 -0.326443479407
428230000 0.704457561391 -0.326392367383
428240000 0.704614254063 -0.326671520039
428250000 0.70448206649 -0.325677469398
428260000 0.704957383959 -0.326968930296
428270000 0.704953945361 -0.326907457122
428280000 0.704489651804 -0.32694100927
428290000 0.705255082526 -0.327099717356
428300000 0.704768804659 -0.326396029901
428310000 0.704116655369 -0.326425642131
428320000 0.703485657197 -0.325602912696
428330000 0.703900024188 -0.326276624862
428340000 0.704377818564 -0.326908464406
428350000 0.704191346316 -0.327133318168
428360000 0.704741741151 -0.326954284369
428370000 0.704027294862 -0.327013855341
428380000 0.704121535758 -0.32772098515
428390000 0.703788297049 -0.327183843849
428400000 0.704196879879 -0.327283574296
428410000 0.704714042808 -0.328108319087
428420000 0.704551992834 -0.327537401796
428430000 0.704323492449 -0.32729926717
428440000 0.704284235468 -0.32744613525
428450000 0.703592908632 -0.32776727053
428460000 0.704242885792 -0.327879318789
428470000 0.703830043203 -0.328085494755
428480000 0.704253207815 -0.327988411497
428490000 0.704127720286 -0.328259705713
428500000 0.70445578504 -0.328110912519
428510000 0.703900788215 -0.328556874309
428520000 0.703241052036 -0.327956420844
428530000 0.703431585249 -0.327956868526
428540000 0.703392559056 -0.328041940257
428550000 0.703157548474 -0.328427742628
428560000 0.702986479139 -0.328501274566
428570000 0.702625967417 -0.32841530938
428580000 0.702960310882 -0.328556880895
428590000 0.702716279603 -0.328576957435
428600000 0.703240485111 -0.329162196236
428610000 0.70246511501 -0.329097544607
428620000 0.703029769519 -0.328730912949
428630000 0.702947366245 -0.32928935262
428640000 0.703419327092 -0.328629555886
428650000 0.703491893968 -0.328987312138
428660000 0.702966654957 -0.328809151308
428670000 0.703104620836 -0.328756764977
428680000 0.703961163232 -0.327453873719
428690000 0.703227127475 -0.328761251902
428700000 0.702448151334 -0.32895663516
428710000 0.702594631419 -0.32908717808
428720000 0.702631938019 -0.328889137833
428730000 0.702779113737 -0.329616809511
428740000 0.702654632184 -0.329391578901
428750000 0.702541249059 -0.329241231127
428760000 0.702595789666 -0.330076816297
428770000 0.702093016266 -0.329474877687
428780000 0.702610656053 -0.330116751788
428790000 0.702158579186 -0.330177175361
428800000 0.702270715399 -0.330115909313
428810000 0.701986303587 -0.329694771671
428820000 0.701318443162 -0.330371559223
428830000 0.701965818558 -0.330670059922
428840000 0.701594719875 -0.332060102902
428850000 0.702034162423 -0.330430605081
428860000 0.703014422899 -0.330788429094
428870000 0.702503382184 -0.330851962588
428880000 0.702343493696 -0.330494701026
428890000 0.701575022458 -0.330853067336
428900000 0.701471083087 -0.330921484745
428910000 0.701261323049 -0.331192653874
428920000 0.702207508193 -0.331103296846
428930000 0.701550523261 -0.331072816255
428940000 0.702071051569 -0.330897203668
428950000 0.702184339334 -0.331489843695
428960000 0.701437170431 -0.330880618247
428970000 0.699937055107 -0.329344688232
428980000 0.698326427746 -0.327841329659
428990000 0.692237255995 -0.323410380852
429000000 0.707129588563 -0.337071815523
429010000 0.699790453478 -0.328513962043
429020000 0.700108396578 -0.329459273836
429030000 0.700241305986 -0.331007381119
429040000 0.700413432146 -0.331652373063
429050000 0.700791316867 -0.332602988023
429060000 0.700521527287 -0.33262764808
429070000 0.700902067318 -0.332871016438
429080000 0.700718176583 -0.332449850792
429090000 0.700535808527 -0.332288870793
429100000 0.70012594134 -0.332413022019
429110000 0.700074746713 -0.332927100087
429120000 0.700612194376 -0.332750287862
429130000 0.699775764026 -0.332922353072
429140000 0.700040328486 -0.332703987142
429150000 0.700938873015 -0.332806481556
429160000 0.700533539502 -0.332706937276
429170000 0.69989675639 -0.333676334845
429180000 0.699426243692 -0.333467862609
429190000 0.699413434659 -0.33350023284
429200000 0.699103031208 -0.333523105065
429210000 0.698520361904 -0.333308962759
429220000 0.699171269063 -0.333080336156
429230000 0.699811634355 -0.332930343594
429240000 0.699438699643 -0.333441282541
429250000 0.700117535205 -0.333495798321
429260000 0.700997691983 -0.334109032863
429270000 0.699903050367 -0.334014014434
429280000 0.700398743031 -0.333790314483
429290000 0.699869595683 -0.332964896069
429300000 0.699992204493 -0.333935426096
429310000 0.699771228442 -0.333787475524
429320000 0.699886631728 -0.333724472937
429330000 0.699641788333 -0.334136857865
429340000 0.699312158947 -0.333771118268
429350000 0.699141322874 -0.333589575291
429360000 0.699075080357 -0.333853903885
429370000 0.698704466729 -0.33378617055
429380000 0.696540843283 -0.33323935186
429390000 0.698612919458 -0.333653069618
429400000 0.698919818 -0.334231509885
429410000 0.698887927848 -0.33482803123
429420000 0.699239255589 -0.334948094242
429430000 0.699371896009 -0.335174421466
429440000 0.698995594343 -0.335142846434
429450000 0.698735398421 -0.33490351073
429460000 0.698716163873 -0.335214438026
429470000 0.699001017324 -0.33484829655
429480000 0.699005830572 -0.335137280841
429490000 0.698762521486 -0.335517111658
429500000 0.699055285368 -0.335112392289
429510000 0.698606364634 -0.335475590123
429520000 0.697954390995 -0.335529777929
429530000 0.697684584043 -0.335146357144
429540000 0.698222775238 -0.335118760533
429550000 0.698324159498 -0.335415116555
429560000 0.697993886046 -0.335627638745
429570000 0.698599855074 -0.33543208113
429580000 0.698524824524 -0.335774817806
429590000 0.698642015419 -0.335210486915
429600000 0.698417582031 -0.335644859914
429610000 0.697970753888 -0.335587730781
429620000 0.698181880429 -0.336097615939
429630000 0.697597864776 -0.336029896676
429640000 0.69762757602 -0.336410126386
429650000 0.697422887462 -0.336279584059
429660000 0.697820147672 -0.336997863636
429670000 0.697255519261 -0.336329773121
429680000 0.697648988761 -0.33593819738
429690000 0.697974671782 -0.336541853124
429700000 0.698304108741 -0.335727351745
429710000 0.698051094552 -0.33729075486
429720000 0.697628491362 -0.336956381983
429730000 0.697512362025 -0.337518892902
429740000 0.697554893376 -0.336825142272
429750000 0.697342884056 -0.337248207686
429760000 0.697491664692 -0.337315552609
429770000 0.697181679198 -0.337335563558
429780000 0.697723170406 -0.337289160085
429790000 0.697175778264 -0.337189736692
429800000 0.697256792219 -0.33708568967
429810000 0.697512812202 -0.337485548432
429820000 0.697587113938 -0.337270502607
429830000 0.696998896516 -0.337382433379
429840000 0.697195668583 -0.337216729249
429850000 0.696720551235 -0.337474490792
429860000 0.69719422729 -0.338196148184
429870000 0.697224728129 -0.338211207922
429880000 0.697376746531 -0.338467866576
429890000 0.697130377765 -0.338524673328
429900000 0.696699872435 -0.337662368793
429910000 0.696787026286 -0.337952186669
429920000 0.696526805186 -0.338072753387
429930000 0.696782021751 -0.338218211418
429940000 0.696838619157 -0.3381525723
429950000 0.696919705557 -0.338134736184
429960000 0.696598176066 -0.33817214371
429970000 0.696936184788 -0.339622374102
429980000 0.696941990352 -0.340335399412
429990000 0.696791425409 -0.341752300828
430000000 0.696875190715 -0.340813383237
430010000 0.697673405607 -0.339691372259
430020000 0.69777370107 -0.33862427143
430030000 0.697561209604 -0.338195169169
430040000 0.696683362745 -0.339156550925
430050000 0.696792081845 -0.338788589314
430060000 0.696202443406 -0.338399702383
430070000 0.696373141041 -0.3382771255
430080000 0.696405636495 -0.338068816886
430090000 0.696661273263 -0.338394154022
430100000 0.696381117316 -0.338641454422
430110000 0.6968060038 -0.339248948899
430120000 0.696722565693 -0.339434857075
430130000 0.696815559636 -0.340309063866
430140000 0.696636861638 -0.339188009077
430150000 0.696365197698 -0.340054074342
430160000 0.697016625191 -0.339701287531
430170000 0.696910947715 -0.338956887963
430180000 0.696465238589 -0.34022902552
430190000 0.696510231981 -0.339687331729
430200000 0.696379469301 -0.33948327351
430210000 0.696439371437 -0.339853824479
430220000 0.696000540696 -0.339848234345
430230000 0.695997808654 -0.339610132256
430240000 0.69591396235 -0.339944772518
430250000 0.696217092369 -0.34015406302
430260000 0.695859326936 -0.340221508409
430270000 0.696258938134 -0.340166829461
430280000 0.695781919229 -0.340588951217
430290000 0.695850815969 -0.340836050029
430300000 0.696637292581 -0.34123072767
430310000 0.696291471348 -0.341581733332
430320000 0.695998350651 -0.341186340668
430330000 0.695213698086 -0.3416794492
430340000 0.695716481646 -0.341223879229
430350000 0.695519519852 -0.340632706713
430360000 0.6963534473 -0.341197149477
430370000 0.696368301297 -0.341120693171
430380000 0.696532200499 -0.34150683765
430390000 0.695635699155 -0.341560834404
430400000 0.695915264841 -0.341436110625
430410000 0.695425175498 -0.341895947635
430420000 0.695274702052 -0.341377580075
430430000 0.695308441393 -0.341728357611
430440000 0.694737158691 -0.341787562621
430450000 0.695107372649 -0.341851010114
430460000 0.69512046396 -0.342200844661
430470000 0.694569959571 -0.342439173127
430480000 0.694913706949 -0.342498625179
430490000 0.694962844956 -0.342869685815
430500000 0.695110767966 -0.342625740718
430510000 0.69493917345 -0.342695962455
430520000 0.695214951983 -0.342311600855
430530000 0.694816562991 -0.342541973356
430540000 0.694469354707 -0.342700026577
430550000 0.694332988921 -0.342865771572
430560000 0.69442174823 -0.342317962073
430570000 0.694637351511 -0.342723830228
430580000 0.694388149449 -0.342198011679
430590000 0.694498747815 -0.342980143692
430600000 0.694436024099 -0.343055461374
430610000 0.694132035535 -0.342070698173
430620000 0.694137398897 -0.342961543921
430630000 0.694451625173 -0.343102297769
430640000 0.694481084645 -0.343426361716
430650000 0.694307106091 -0.34376788688
430660000 0.694509218511 -0.343003136157
430670000 0.693822346378 -0.343342868397
430680000 0.694151706178 -0.343288953976
430690000 0.693534779479 -0.343168008458
430700000 0.693319486892 -0.343219281152
430710000 0.693085511697 -0.344132047159
430720000 0.693445028429 -0.342973316056
430730000 0.693674571909 -0.343263927837
430740000 0.694218888614 -0.343479603231
430750000 0.69365749632 -0.343115826136
430760000 0.693841543676 -0.343754751099
430770000 0.692953584218 -0.34377106811
430780000 0.69376271709 -0.343540363063
430790000 0.693132222894 -0.343810275045
430800000 0.692876832716 -0.343784899736
430810000 0.692825330695 -0.344618942016
430820000 0.692866419243 -0.344850339248
430830000 0.692777864591 -0.344625925061
430840000 0.693547769396 -0.344204532289
430850000 0.693384666826 -0.344755096526
430860000 0.693501516666 -0.344403918898
430870000 0.693177940363 -0.343584010618
430880000 0.693138207406 -0.344285461059
430890000 0.692939649963 -0.344468224936
430900000 0.693254290028 -0.344583572365
430910000 0.6932939075 -0.34533280057
430920000 0.693217418012 -0.345463036965
430930000 0.693140664325 -0.345711718865
430940000 0.692857475067 -0.34511307442
430950000 0.692388416419 -0.345057349086
430960000 0.692205244949 -0.344357661515
430970000 0.692267967892 -0.344746901735
430980000 0.692287422288 -0.344822343989
430990000 0.692096065331 -0.344248368536
431000000 0.69228170891 -0.344797713996
431010000 0.691609106056 -0.344961010132
431020000 0.691483177604 -0.345964342693
431030000 0.692041824284 -0.346141657787
431040000 0.691311249531 -0.346251531515
431050000 0.691445465675 -0.345840719206
431060000 0.691273147674 -0.345533603589
431070000 0.692019121859 -0.345304373964
431080000 0.691499951556 -0.344738121864
431090000 0.691255540668 -0.344806921306
431100000 0.691127141625 -0.345204457667
431110000 0.690820085984 -0.346078680836
431120000 0.69086778153 -0.345825463114
431130000 0.691487167288 -0.346295968101
431140000 0.691180033354 -0.346451454685
431150000 0.691358830866 -0.346470098671
431160000 0.690504630706 -0.346092004444
431170000 0.690775718456 -0.346013989207
431180000 0.690511422679 -0.346210251085
431190000 0.690942051996 -0.346549863459
431200000 0.69067766131 -0.346699668092
431210000 0.690315485246 -0.346722923694
431220000 0.689815497135 -0.346319582978
431230000 0.69009088528 -0.346607332553
431240000 0.690122954953 -0.346613296178
431250000 0.6898846318 -0.346288539858
431260000 0.689788127346 -0.347130771627
431270000 0.689223090948 -0.347813790835
431280000 0.689033439914 -0.348380865615
431290000 0.68795978079 -0.348410531133
431300000 0.688783206163 -0.348315841549
431310000 0.688248336023 -0.347432055495
431320000 0.688901788438 -0.347801203073
431330000 0.688761900241 -0.347515082124
431340000 0.68916696173 -0.347592489466
431350000 0.691314507514 -0.348922128673
431360000 0.689870003435 -0.347655847424
431370000 0.689786170639 -0.347566140763
431380000 0.689655839249 -0.347456241321
431390000 0.689037602389 -0.346724551853
431400000 0.688731404865 -0.346384627375
431410000 0.688080989362 -0.34724865949
431420000 0.689099950136 -0.349071315282
431430000 0.688615276521 -0.348878635622
431440000 0.688217967444 -0.348738637528
431450000 0.688280667894 -0.348332556149
431460000 0.687986638891 -0.347811644895
431470000 0.688236757831 -0.348267802466
431480000 0.688538352296 -0.348906675717
431490000 0.68810689817 -0.348007156738
431500000 0.688153997154 -0.348438537858
431510000 0.688193247022 -0.348324936321
431520000 0.687792653401 -0.348184413587
431530000 0.687999123612 -0.348548038021
431540000 0.687580594386 -0.349085153323
431550000 0.688063722898 -0.348940903706
431560000 0.689126271952 -0.349172647585
431570000 0.689355215174 -0.348944454453
431580000 0.688776817045 -0.348981122527
431590000 0.688369092079 -0.348828497105
431600000 0.688042508575 -0.348826376751
431610000 0.687666662971 -0.348537980234
431620000 0.688110850919 -0.348228858414
431630000 0.687066905591 -0.347070229699
431640000 0.685718964855 -0.344923060962
431650000 0.684538548563 -0.342892169399
431660000 0.683432494746 -0.341939078552
431670000 0.685398480916 -0.344756170431
431680000 0.687487367992 -0.348292454254
431690000 0.687861303009 -0.349393178119
431700000 0.687202102293 -0.34951250034
431710000 0.686844143996 -0.349724803348
431720000 0.687053234491 -0.34895677056
431730000 0.687470789053 -0.349699450806
431740000 0.6876052706 -0.349465067141
431750000 0.687978417171 -0.349403531434
431760000 0.687884685763 -0.348993769747
431770000 0.687010134441 -0.348936662008
431780000 0.687509559714 -0.348835011567
431790000 0.687257682607 -0.350190902788
431800000 0.686653879311 -0.350942933585
431810000 0.686787946938 -0.35086400378
431820000 0.686844784575 -0.350479340078
431830000 0.686418947267 -0.350051459201
431840000 0.686229095673 -0.350320738339
431850000 0.685884647139 -0.350012094399
431860000 0.685827184343 -0.350473313596
431870000 0.685730587327 -0.350520253365
431880000 0.6857143597 -0.350480951648
431890000 0.685532909501 -0.350463141609
431900000 0.685933020489 -0.351083534998
431910000 0.685689214272 -0.350445397837
431920000 0.685640634901 -0.350608314198
431930000 0.685490511459 -0.350394572182
431940000 0.684935282665 -0.350489869382
431950000 0.684710194812 -0.350488948339
431960000 0.68483912332 -0.350634881359
431970000 0.684758089329 -0.35133003342
431980000 0.684641709989 -0.351168778876
431990000 0.684683517809 -0.350991526796
432000000 0.684746509371 -0.35185491838
432010000 0.685396759738 -0.352336919947
432020000 0.685067498875 -0.352479215949
432030000 0.684966462769 -0.35211229474
432040000 0.685285291495 -0.351955779082
432050000 0.685044668283 -0.35213952086
432060000 0.684994251973 -0.352962415722
432070000 0.685426757523 -0.35260662422
432080000 0.684589703458 -0.352855080587
432090000 0.685435884497 -0.352622546477
432100000 0.685347976297 -0.352840848682
432110000 0.68472108887 -0.35247839727
432120000 0.6850820759 -0.353088178821
432130000 0.685596473243 -0.352260410474
432140000 0.686003902991 -0.3523686802
432150000 0.686167012539 -0.352663703197
432160000 0.686279994751 -0.352789212764
432170000 0.686516597495 -0.353469448388
432180000 0.686123765265 -0.355183269799
432190000 0.685821663593 -0.353393025015
432200000 0.685509830242 -0.353398548543
432210000 0.685015465605 -0.353742394718
432220000 0.685097474338 -0.352947834413
432230000 0.685242764592 -0.353169255927
432240000 0.685644008017 -0.353092636486
432250000 0.685656192729 -0.353559210275
432260000 0.686226785176 -0.353047679826
432270000 0.686027544297 -0.353438842364
432280000 0.685211445663 -0.353875440652
432290000 0.685619716019 -0.354262565032
432300000 0.685384265414 -0.353392123683
432310000 0.684525173499 -0.353561340319
432320000 0.685569165982 -0.353602122611
432330000 0.685759387054 -0.353224165662
432340000 0.685256264883 -0.353249828514
432350000 0.685709417987 -0.353115914457
432360000 0.685829566145 -0.353540256748
432370000 0.685968773105 -0.353970175072
432380000 0.685903561128 -0.354257074258
432390000 0.684774057713 -0.354059183809
432400000 0.684735669598 -0.354020006365
432410000 0.684446874212 -0.355028787199
432420000 0.684871390961 -0.354249455173
432430000 0.685242733042 -0.354565330453
432440000 0.685169779666 -0.355072372684
432450000 0.684539920299 -0.354575724312
432460000 0.685179110869 -0.35524892576
432470000 0.684552411895 -0.354855941749
432480000 0.684775826337 -0.355432015715
432490000 0.683852878255 -0.354991810021
432500000 0.684148759867 -0.355043842217
432510000 0.683443524514 -0.355518457172
432520000 0.684016662726 -0.356087562885
432530000 0.68330650547 -0.355509200121
432540000 0.683278377457 -0.355775900914
432550000 0.682972816019 -0.355845230337
432560000 0.683050887237 -0.35556987711
432570000 0.683033981966 -0.355581015959
432580000 0.683247129283 -0.3557129264
432590000 0.683256534115 -0.355536085618
432600000 0.683062874948 -0.355970759778
432610000 0.682507109681 -0.356360296162
432620000 0.682212084753 -0.35614240682
432630000 0.681906075575 -0.356081050305
432640000 0.681525981052 -0.355952321465
432650000 0.681372646601 -0.356360611729
432660000 0.681060352115 -0.356195255094
432670000 0.680666781095 -0.356567436205
432680000 0.680014289876 -0.356088292415
432690000 0.680270840609 -0.356166503856
432700000 0.680676738999 -0.356010577422
432710000 0.681336582982 -0.357248123861
432720000 0.682705693066 -0.357327846277
432730000 0.681493163738 -0.357182007971
432740000 0.680969482658 -0.356966449896
432750000 0.680628197271 -0.356744239266
432760000 0.680268109923 -0.356959901051
432770000 0.679258581685 -0.356593742379
432780000 0.679241216948 -0.356789256024
432790000 0.679539073461 -0.356626792298
432800000 0.678867257375 -0.356536162847
432810000 0.67881992586 -0.358083589056
432820000 0.678458752101 -0.357166918938
432830000 0.678298541029 -0.35745465675
432840000 0.678223427127 -0.35862815821
432850000 0.678197787535 -0.357867142664
432860000 0.678199825757 -0.35761665138
432870000 0.678341494144 -0.356737316037
432880000 0.679026392501 -0.356122964952
432890000 0.678234161165 -0.356856417556
432900000 0.67848565401 -0.35682766265
432910000 0.678938751767 -0.35688745234
432920000 0.678687492077 -0.357793252888
432930000 0.678653437713 -0.357535742136
432940000 0.677920614022 -0.357593278792
432950000 0.678578918134 -0.357734472815
432960000 0.678144533825 -0.35774695158
432970000 0.678403501682 -0.35708894893
432980000 0.677761301282 -0.357276560743
432990000 0.677911231477 -0.356756318194
433000000 0.677850311363 -0.35762430086
433010000 0.681390987689 -0.358105135262
433020000 0.681660099059 -0.358023638049
433030000 0.681643730528 -0.357782759941
433040000 0.681904676197 -0.35759553753
433050000 0.681056006759 -0.358552726074
433060000 0.681717220555 -0.35836073966
433070000 0.681246399848 -0.358353050612
433080000 0.680924697962 -0.358471064793
433090000 0.680929183086 -0.358351105587
433100000 0.680325687433 -0.358967781627
433110000 0.68056366641 -0.358456429401
433120000 0.680512743362 -0.35825683751
433130000 0.680297908041 -0.358959507406
433140000 0.680155684118 -0.359190566233
433150000 0.680366457412 -0.359358553517
433160000 0.680097722714 -0.358887733433
433170000 0.680175068816 -0.359502482558
433180000 0.680496181612 -0.359575317337
433190000 0.680990624709 -0.359802002684
433200000 0.680663754681 -0.359665479307
433210000 0.681120956372 -0.359272912102
433220000 0.681039491515 -0.359763947492
433230000 0.681305894494 -0.360168511512
433240000 0.681018890763 -0.359652198554
433250000 0.6804773417 -0.35990958176
433260000 0.680158473248 -0.360197089271
433270000 0.678972113627 -0.361447129767
433280000 0.678001779017 -0.364078191068
433290000 0.674076293013 -0.364170667243
433300000 0.675477447254 -0.354994955691
433310000 0.67209769834 -0.371304347183
433320000 0.674543460964 -0.366008935789
433330000 0.683823053302 -0.379902638749
433340000 0.666143527264 -0.328912196091
433350000 0.681039097833 -0.356120882655
433360000 0.678937159302 -0.358225991747
433370000 0.680343878823 -0.358503543152
433380000 0.67848883052 -0.358304090523
433390000 0.678361577595 -0.359853484446
433400000 0.67891144416 -0.360583864753
433410000 0.678528098323 -0.360896427673
433420000 0.679050721929 -0.361102725651
433430000 0.678912328495 -0.360951215561
433440000 0.680345788988 -0.361900738597
433450000 0.678890776159 -0.361834440256
433460000 0.679489423403 -0.36242343152
433470000 0.679026466498 -0.361711515021
433480000 0.678928963479 -0.361392041782
433490000 0.678355717828 -0.362292896576
433500000 0.678686496337 -0.361596659426
433510000 0.679876816954 -0.36119569384
433520000 0.679131572388 -0.360990698468
433530000 0.678373025398 -0.360522153185
433540000 0.677757399513 -0.360434005228
433550000 0.677999350299 -0.362284272808
433560000 0.678982110117 -0.36126211807
433570000 0.678768833296 -0.361868754428
433580000 0.679117046363 -0.361432639085
433590000 0.678718871219 -0.36242635099
433600000 0.679069933187 -0.36150910473
433610000 0.678785703676 -0.361173467715
433620000 0.678094076839 -0.361463317052
433630000 0.677644909461 -0.36195439216
433640000 0.677019665209 -0.362109666275
433650000 0.677762399419 -0.361872634785
433660000 0.677456012773 -0.361572252679
433670000 0.677549312754 -0.36200383924
433680000 0.677770717636 -0.36166132092
433690000 0.676896328644 -0.361909184067
433700000 0.677220450284 -0.362201000957
433710000 0.677200314605 -0.361910481803
433720000 0.676941834528 -0.362008714272
433730000 0.677239307237 -0.362034147212
433740000 0.677281807018 -0.362490293845
433750000 0.676858168191 -0.362758546619
433760000 0.676769965714 -0.363257340543
433770000 0.676744032093 -0.36295419074
433780000 0.676738413849 -0.362579413971
433790000 0.676411810244 -0.362604105025
433800000 0.676324411662 -0.362816782473
433810000 0.676418982592 -0.363789372767
433820000 0.676920609081 -0.363058398404
433830000 0.676073573049 -0.363636215435
433840000 0.676028783296 -0.363163449804
433850000 0.676258725294 -0.363223048481
433860000 0.67654431965 -0.363194294989
433870000 0.675741435767 -0.363385326067
433880000 0.676094371037 -0.363337306786
433890000 0.675953382082 -0.363758372923
433900000 0.675882867864 -0.363698922719
433910000 0.676021116665 -0.363374313714
433920000 0.676231687211 -0.364047915233
433930000 0.674309026946 -0.36426516754
433940000 0.675915476648 -0.364555076511
433950000 0.674550100915 -0.363871201642
433960000 0.675567932093 -0.363756538605
433970000 0.676045501625 -0.364729302472
433980000 0.676261236515 -0.365308699731
433990000 0.676095905264 -0.36477112646
434000000 0.676030294253 -0.364475464859
434010000 0.674753259161 -0.366041782393
434020000 0.674486010613 -0.366451460598
434030000 0.674459233217 -0.365799135746
434040000 0.67473338639 -0.366921482881
434050000 0.673832115235 -0.366411859936
434060000 0.674023759756 -0.367157895569
434070000 0.674270201434 -0.368220172608
434080000 0.673734229613 -0.367719609382
434090000 0.673173413693 -0.367999029018
434100000 0.673580161776 -0.367259937653
434110000 0.67358481473 -0.367311742803
434120000 0.673617447163 -0.3676668518
434130000 0.67328429131 -0.368267664959
434140000 0.673339662639 -0.367103591159
434150000 0.672550822271 -0.367500400524
434160000 0.6723987692 -0.367619915218
434170000 0.673050190598 -0.367113444782
434180000 0.673033546334 -0.367097609134
434190000 0.672053594317 -0.367143868545
434200000 0.672570864439 -0.367568682843
434210000 0.671537379637 -0.367036759505
434220000 0.672306602564 -0.367371620037
434230000 0.671986657154 -0.368012530847
434240000 0.673551605027 -0.367683635065
434250000 0.673919206803 -0.367186952468
434260000 0.671707733745 -0.368636558937
434270000 0.670721793874 -0.367912834661
434280000 0.669821416057 -0.368346340014
434290000 0.67048730457 -0.368501778172
434300000 0.669715153914 -0.368580291616
434310000 0.670029633612 -0.368310633873
434320000 0.669820270551 -0.368486799616
434330000 0.66948470609 -0.368881694654
434340000 0.668899817432 -0.368623736004
434350000 0.66875506354 -0.368130155942
434360000 0.668756359954 -0.368352256243
434370000 0.667876760509 -0.368553057197
434380000 0.668632791141 -0.368233063144
434390000 0.668060169445 -0.368109698025
434400000 0.66819860352 -0.368682859157
434410000 0.668266991343 -0.368595704855
434420000 0.667593108158 -0.368681715137
434430000 0.667922937882 -0.368815562852
434440000 0.667615701407 -0.368713804134
434450000 0.667514472427 -0.368292841861
434460000 0.667768265305 -0.369168568861
434470000 0.668015320871 -0.369751336444
434480000 0.66786608322 -0.369100282521
434490000 0.667419369361 -0.368967235243
434500000 0.666633701788 -0.368676400927
434510000 0.667379503226 -0.369064576193
434520000 0.667081204081 -0.369071600498
434530000 0.667781848796 -0.368126691501
434540000 0.667887885759 -0.370632177471
434550000 0.668418757456 -0.37334742795
434560000 0.66921303778 -0.380928708208
434570000 0.667385999565 -0.373571812116
434580000 0.665046310456 -0.37080016152
434590000 0.663565226118 -0.36849725988
434600000 0.664118927139 -0.368130394769
434610000 0.664470030879 -0.368132027867
434620000 0.664610825065 -0.368504198484
434630000 0.664777958368 -0.368277759923
434640000 0.664355605429 -0.368128723231
434650000 0.664076955499 -0.369082924584
434660000 0.664456166121 -0.369046414886
434670000 0.664659207415 -0.368730624572
434680000 0.664672482415 -0.368891986153
434690000 0.664680646851 -0.369379135131
434700000 0.665270676882 -0.369278339125
434710000 0.663573696037 -0.368093955359
434720000 0.663612999461 -0.369052634409
434730000 0.662989955731 -0.368728003241
434740000 0.662459706853 -0.368411486664
434750000 0.663059862999 -0.368312283952
434760000 0.663516644254 -0.367935126063
434770000 0.66279270074 -0.368021819398
434780000 0.662652962815 -0.368718063245
434790000 0.663449099035 -0.369228889924
434800000 0.662282571072 -0.36995737082
434810000 0.662580795552 -0.370043294527
434820000 0.661804606288 -0.369721180748
434830000 0.661634899627 -0.369646072564
434840000 0.661216890405 -0.369752991109
434850000 0.662269833425 -0.370151823448
434860000 0.662247078921 -0.370929564672
434870000 0.662056920054 -0.371810943921
434880000 0.661890852115 -0.370770448965
434890000 0.662287595011 -0.370765463892
434900000 0.661932407797 -0.371564850756
434910000 0.66212399534 -0.371598455099
434920000 0.661529530182 -0.371567179195
434930000 0.661226193144 -0.371720185495
434940000 0.661816252896 -0.370929305319
434950000 0.661316292378 -0.371565626904
434960000 0.660789386336 -0.371501889943
434970000 0.660097215516 -0.37123317622
434980000 0.660184677297 -0.3710610889
434990000 0.659772369615 -0.37043200639
435000000 0.660105401882 -0.370966894735
435010000 0.661145197232 -0.368774386834
435020000 0.660597920395 -0.370094160149
435030000 0.660799911049 -0.369678706525
435040000 0.66073008201 -0.369414154694
435050000 0.660456500663 -0.37022720996
435060000 0.661090826525 -0.369982516652
435070000 0.661184591787 -0.369915120535
435080000 0.661374581223 -0.369727516583
435090000 0.661463838602 -0.369203254848
435100000 0.661909342397 -0.368285973108
435110000 0.661125274485 -0.368271825311
435120000 0.661388777114 -0.369161829689
435130000 0.660728651935 -0.367852577965
435140000 0.660512484033 -0.368163217582
435150000 0.66036163224 -0.367178029878
435160000 0.661013100004 -0.367821129896
435170000 0.66009605583 -0.367305608191
435180000 0.660315907634 -0.367026335366
435190000 0.660627542486 -0.366880031964
435200000 0.660700517144 -0.367545826803
435210000 0.660449597143 -0.367236451971
435220000 0.661196247467 -0.367648564162
435230000 0.661345702236 -0.367248625602
435240000 0.661198294325 -0.367417568311
435250000 0.661045804692 -0.367222208578
435260000 0.661716046992 -0.366785581553
435270000 0.661453302704 -0.366246584607
435280000 0.661399600118 -0.365732899894
435290000 0.66102384718 -0.36586937368
435300000 0.661102557546 -0.366077323285
435310000 0.660933098089 -0.365803613586
435320000 0.66115275479 -0.365521396213
435330000 0.661380801632 -0.365096368609
435340000 0.661532653481 -0.365550842346
435350000 0.661940027233 -0.36496994917
435360000 0.66140363991 -0.365324473778
435370000 0.661998966124 -0.364482648378
435380000 0.661773117509 -0.365843553589
435390000 0.661658114048 -0.366017056315
435400000 0.662023013568 -0.365998332581
435410000 0.661762534665 -0.365794003879
435420000 0.661537710338 -0.365669364779
435430000 0.661387862511 -0.365194631053
435440000 0.660808579723 -0.365699526008
435450000 0.661638152509 -0.364795000661
435460000 0.660992378003 -0.365043156695
435470000 0.660737503691 -0.365178635681
435480000 0.661112775644 -0.364526360232
435490000 0.645411935655 -0.363463937257
435500000 0.66096595494 -0.364382675009
435510000 0.661098422158 -0.365209556206
435520000 0.66135988283 -0.3650162106
435530000 0.660709632969 -0.365033671068
435540000 0.661084793321 -0.364582973229
435550000 0.660708805572 -0.364118465117
435560000 0.660862670557 -0.364651450785
435570000 0.661215624095 -0.364468836704
435580000 0.660951959427 -0.363824328336
435590000 0.660668938226 -0.364389814336
435600000 0.660167416122 -0.364178401827
435610000 0.66012723053 -0.364284456933
435620000 0.660460284334 -0.364052965498
435630000 0.659445136735 -0.363850918678
435640000 0.65967430308 -0.363280285233
435650000 0.659972943597 -0.363358813439
435660000 0.660571212365 -0.363245410638
435670000 0.660976145003 -0.363458177065
435680000 0.661176224702 -0.363452315093
435690000 0.660922836769 -0.363753550629
435700000 0.660939070062 -0.36346902147
435710000 0.661001833879 -0.364409969699
435720000 0.660224673759 -0.36402053466
435730000 0.661870445605 -0.363310729584
435740000 0.660365146233 -0.36378825496
435750000 0.661385959843 -0.364226099526
435760000 0.660325045522 -0.364602895205
435770000 0.660281383946 -0.364357807191
435780000 0.660355064376 -0.363666713495
435790000 0.660873297137 -0.363499365961
435800000 0.66118548769 -0.363807905804
435810000 0.660541882256 -0.36418149674
435820000 0.660274162216 -0.363947812639
435830000 0.660596929714 -0.363620036384
435840000 0.661460823471 -0.364051498226
435850000 0.662162306157 -0.364533049368
435860000 0.662079654946 -0.36430203574
435870000 0.660499865363 -0.363112173744
435880000 0.660716240262 -0.363921727434
435890000 0.660759893727 -0.363848370573
435900000 0.660430058355 -0.363674482476
435910000 0.660070443977 -0.364213371579
435920000 0.660612368123 -0.364705683436
435930000 0.659862455369 -0.364223246514
435940000 0.660886465011 -0.364418307069
435950000 0.660534302607 -0.364693171443
435960000 0.660312850185 -0.363832074105
435970000 0.660087610285 -0.363936070111
435980000 0.65919114089 -0.363547219933
435990000 0.659808108491 -0.364306511447
436000000 0.66019745036 -0.364789468616
436010000 0.662696537383 -0.360979449216
436020000 0.662380657232 -0.360825115597
436030000 0.660735025805 -0.361052775764
436040000 0.662473371703 -0.361357582362
436050000 0.662170800837 -0.362612093415
436060000 0.661415920453 -0.362696023312
436070000 0.661881130737 -0.36302350097
436080000 0.662080638905 -0.362904834626
436090000 0.66129680952 -0.36353039844
436100000 0.661232374525 -0.363330439737
436110000 0.66090968655 -0.364565283037
436120000 0.6614134378 -0.364060344235
436130000 0.661328734556 -0.364838776306
436140000 0.66111051133 -0.365082329856
436150000 0.660531602764 -0.36517219445
436160000 0.660582190355 -0.365398417575
436170000 0.661616396307 -0.365545866642
436180000 0.659693437217 -0.366750111574
436190000 0.660250353817 -0.366460957384
436200000 0.657429045506 -0.366647021527
436210000 0.659095198939 -0.366453380659
436220000 0.658192331096 -0.366818673496
436230000 0.660367553226 -0.367304694025
436240000 0.658834684786 -0.367574108529
436250000 0.660543383164 -0.368650320646
436260000 0.660792660632 -0.369449253788
436270000 0.660307369136 -0.369135108936
436280000 0.659607271214 -0.369725147036
436290000 0.660032439207 -0.370176696404
436300000 0.65788080634 -0.369373649888
436310000 0.657449793406 -0.36956025293
436320000 0.657562028723 -0.369919298677
436330000 0.65693711656 -0.369455520989
436340000 0.657156661224 -0.371042528923
436350000 0.657019747202 -0.371090370705
436360000 0.657783170363 -0.371709052349
436370000 0.658406229287 -0.371890777943
436380000 0.6580257655 -0.371679557117
436390000 0.658313429385 -0.372366770681
436400000 0.657402733907 -0.372212953109
436410000 0.657590216618 -0.372711004853
436420000 0.656024744934 -0.372520291585
436430000 0.65604958112 -0.372529572412
436440000 0.655599176346 -0.372620567332
436450000 0.655878482102 -0.37311369433
436460000 0.656068478408 -0.373512976663
436470000 0.656303369049 -0.374118424871
436480000 0.656417962562 -0.374627907237
436490000 0.656967735065 -0.375013806052
436500000 0.655292566537 -0.373876237506
436510000 0.655472153347 -0.373190192437
436520000 0.654969499611 -0.373312254752
436530000 0.655529525099 -0.373170219182
436540000 0.655399618325 -0.373704910899
436550000 0.654966243108 -0.37357840733
436560000 0.65497981416 -0.374388182931
436570000 0.655127595248 -0.373730114062
436580000 0.655050835106 -0.37378717435
436590000 0.655728781697 -0.374679087528
436600000 0.654814441393 -0.374974988043
436610000 0.654976352129 -0.374540710907
436620000 0.654850948344 -0.374469723941
436630000 0.654127446686 -0.374299477862
436640000 0.654259392658 -0.374124526767
436650000 0.654169159796 -0.374840710316
436660000 0.654633162058 -0.37418750435
436670000 0.653895895513 -0.37549082952
436680000 0.654663454333 -0.374284835604
436690000 0.654916100219 -0.374851913591
436700000 0.654568047243 -0.375212610112
436710000 0.655024824727 -0.375557136883
436720000 0.654456531638 -0.375770506182
436730000 0.654638359441 -0.375688036037
436740000 0.655419174716 -0.37564588763
436750000 0.65457220156 -0.37576063082
436760000 0.654385874373 -0.374703995366
436770000 0.654210326799 -0.375043231454
436780000 0.654106155239 -0.375080498839
436790000 0.654502649297 -0.37540333809
436800000 0.654380147562 -0.376315189395
436810000 0.654561801005 -0.375939971823
436820000 0.654716790054 -0.374975726818
436830000 0.65437317543 -0.374486013406
436840000 0.654394017949 -0.374928186296
436850000 0.653691607161 -0.37449295484
436860000 0.653902955908 -0.374566673939
436870000 0.654291807249 -0.375294789348
436880000 0.654473717745 -0.374902163211
436890000 0.65449715574 -0.374936396057
436900000 0.654126786417 -0.374635054384
436910000 0.654088975139 -0.374007569692
436920000 0.654564044969 -0.373933357476
436930000 0.654880256681 -0.375023136385
436940000 0.654380483645 -0.374007603702
436950000 0.654876997572 -0.373986180013
436960000 0.654574519381 -0.374398186545
436970000 0.653396650724 -0.374330827238
436980000 0.65320954989 -0.374707987313
436990000 0.653377567269 -0.374948564894
437000000 0.65403156004 -0.374988606827
437010000 0.651909894735 -0.373170464469
437020000 0.650031196433 -0.372116304608
437030000 0.650115085932 -0.372015097907
437040000 0.65133730648 -0.372368386198
437050000 0.650952052404 -0.372522272509
437060000 0.652529650811 -0.373433656043
437070000 0.652747030807 -0.373112415768
437080000 0.652702145194 -0.373061638149
437090000 0.652489242956 -0.372753898026
437100000 0.652233392343 -0.373217894494
437110000 0.651268633733 -0.373614892746
437120000 0.651459255367 -0.373652993046
437130000 0.651903516003 -0.374036971807
437140000 0.651418394364 -0.374630151058
437150000 0.651301849651 -0.374428933698
437160000 0.650441198814 -0.3743694559
437170000 0.650164729755 -0.374037077481
437180000 0.649912205143 -0.374059617618
437190000 0.650056152019 -0.373832830735
437200000 0.650740972878 -0.373362543666
437210000 0.650357381967 -0.372861741816
437220000 0.650752806066 -0.372805252436
437230000 0.65059052865 -0.373138928118
437240000 0.651972565666 -0.372540426268
437250000 0.654135029919 -0.371915674221
437260000 0.656550085985 -0.370948619858
437270000 0.655739088045 -0.370864852657
437280000 0.652390380681 -0.371816639101
437290000 0.649325295385 -0.372689325125
437300000 0.648861006217 -0.373402397697
437310000 0.648030043616 -0.37391914928
437320000 0.648270727822 -0.374705935407
437330000 0.648229533788 -0.374659715676
437340000 0.648981262057 -0.374342768461
437350000 0.648847865672 -0.374425832264
437360000 0.648745271468 -0.37402483098
437370000 0.649182553459 -0.374542561862
437380000 0.648736329619 -0.37469210846
437390000 0.647879510022 -0.374492171925
437400000 0.646645853039 -0.373747722025
437410000 0.647248170171 -0.374169564796
437420000 0.646620223731 -0.373813600407
437430000 0.645629853942 -0.373153656975
437440000 0.645719868023 -0.373212028798
437450000 0.64660970714 -0.373685168868
437460000 0.647192366128 -0.374162327736
437470000 0.647034599109 -0.374337260462
437480000 0.646806641301 -0.374028460493
437490000 0.646381501667 -0.373868535486
437500000 0.646346305197 -0.374003250388
437510000 0.64570259438 -0.374171745928
437520000 0.645244273992 -0.37408156263
437530000 0.645793609022 -0.374572210903
437540000 0.645811882652 -0.374535557148
437550000 0.646286081334 -0.374138367778
437560000 0.645160136051 -0.374262437768
437570000 0.645543455959 -0.374034374365
437580000 0.645188287721 -0.37395524581
437590000 0.645288748569 -0.374333236384
437600000 0.645188702473 -0.374647304047
437610000 0.645117492801 -0.374932590001
437620000 0.645523892337 -0.374594137514
437630000 0.645008042766 -0.374138551309
437640000 0.644678917431 -0.373778506018
437650000 0.645289392384 -0.373864256966
437660000 0.645087785884 -0.373942779085
437670000 0.645171748996 -0.373945274804
437680000 0.644539910609 -0.374218581002
437690000 0.644438000744 -0.374503900177
437700000 0.643929232188 -0.374598099982
437710000 0.644090186667 -0.373980782906
437720000 0.644053021857 -0.374266734484
437730000 0.644223677387 -0.374094136045
437740000 0.644025555387 -0.374259378009
437750000 0.644572434717 -0.374580197535
437760000 0.644186599591 -0.374607301117
437770000 0.643653697156 -0.374364913282
437780000 0.64367364186 -0.374423083561
437790000 0.643099651032 -0.374308488145
437800000 0.642902625808 -0.374596326786
437810000 0.642664801459 -0.37493299827
437820000 0.642420210818 -0.375452452181
437830000 0.642469797059 -0.374784335577
437840000 0.642165245938 -0.375064179773
437850000 0.641972364074 -0.374621217395
437860000 0.641667821486 -0.374222762575
437870000 0.641572049647 -0.37443073094
437880000 0.6420186882 -0.374113738123
437890000 0.641509306059 -0.373949342056
437900000 0.641597681183 -0.374353454799
437910000 0.641353312902 -0.374434604933
437920000 0.641322467383 -0.375153555273
437930000 0.641396487208 -0.375123508826
437940000 0.640757688384 -0.375270241905
437950000 0.641490289367 -0.374843630762
437960000 0.641907988794 -0.374328044578
437970000 0.641570865089 -0.374711211176
437980000 0.641590977834 -0.374552554461
437990000 0.641567510058 -0.374885781361
438000000 0.641218724754 -0.374518861345
438010000 0.644243429053 -0.373316821485
438020000 0.644440512212 -0.373969596342
438030000 0.643962075888 -0.373478576887
438040000 0.644604610281 -0.373189062424
438050000 0.644321479851 -0.373288235026
438060000 0.643673300289 -0.374192652423
438070000 0.644226661205 -0.374188207278
438080000 0.643889007904 -0.374193703511
438090000 0.643848078982 -0.373816131636
438100000 0.643868003906 -0.374021682654
438110000 0.644028098581 -0.374200843181
438120000 0.643752713904 -0.373950037559
438130000 0.643753963982 -0.374517111308
438140000 0.6436188492 -0.374212512255
438150000 0.643820364056 -0.374698623765
438160000 0.643636454748 -0.374464344685
438170000 0.643808273412 -0.374345317756
438180000 0.643882093831 -0.374172364554
438190000 0.643983278662 -0.37436072666
438200000 0.643657259762 -0.374408912436
438210000 0.642877557697 -0.374716631405
438220000 0.643216144202 -0.374632016546
438230000 0.643460458152 -0.374625813304
438240000 0.643514749134 -0.373775997859
438250000 0.643846401471 -0.373998825445
438260000 0.643857703854 -0.374411782794
438270000 0.6437636511 -0.374407870147
438280000 0.643827418354 -0.374189600377
438290000 0.644324427941 -0.373663482607
438300000 0.643848472614 -0.373990648562
438310000 0.643348118863 -0.373472694437
438320000 0.642731018954 -0.374184811403
438330000 0.642987006848 -0.373789154802
438340000 0.642704089415 -0.373568105308
438350000 0.642960806064 -0.373900316307
438360000 0.641641190832 -0.374350130519
438370000 0.642399138966 -0.374555036819
438380000 0.642741135165 -0.374229916744
438390000 0.642452259589 -0.374502133639
438400000 0.642492299431 -0.374124086829
438410000 0.642386176 -0.374245335104
438420000 0.643394265824 -0.373717821949
438430000 0.642265967331 -0.373606523077
438440000 0.641664011702 -0.373678645329
438450000 0.641162521156 -0.373525807291
438460000 0.641497351058 -0.372992653242
438470000 0.641388095415 -0.372949802419
438480000 0.641596345747 -0.373407733396
438490000 0.641932837734 -0.374646872834
438500000 0.641513204634 -0.374733763001
438510000 0.641042725351 -0.37475267929
438520000 0.640571431986 -0.374276247861
438530000 0.640312834374 -0.374512321672
438540000 0.640297995252 -0.374627826856
438550000 0.640132012885 -0.374783270648
438560000 0.639706403973 -0.375397488699
438570000 0.63929929358 -0.375089871636
438580000 0.639784932963 -0.375394238852
438590000 0.639614787781 -0.375651274789
438600000 0.639616495149 -0.37506100637
438610000 0.639608265086 -0.375594825418
438620000 0.639441359159 -0.376132932903
438630000 0.640119709533 -0.37592283664
438640000 0.639828072189 -0.376187017723
438650000 0.639558560695 -0.376132529092
438660000 0.638926779606 -0.375511259486
438670000 0.639216515719 -0.375478207594
438680000 0.639345902434 -0.375690765946
438690000 0.63935946099 -0.376455559061
438700000 0.638157696355 -0.377036510102
438710000 0.638783792973 -0.37766468237
438720000 0.63853982764 -0.377805126152
438730000 0.640207968711 -0.378258198113
438740000 0.638861847133 -0.378426617259
438750000 0.639093792263 -0.378875076958
438760000 0.638375010384 -0.378383586862
438770000 0.638408474695 -0.378073987161
438780000 0.638390132428 -0.377801626122
438790000 0.638790094705 -0.378295648517
438800000 0.638340781566 -0.378297619387
438810000 0.638011409747 -0.378544028449
438820000 0.637250685921 -0.377940272887
438830000 0.637333474831 -0.378595930272
438840000 0.637055131464 -0.378383109599
438850000 0.63726370262 -0.378324141822
438860000 0.638374202141 -0.379074605291
438870000 0.638960259504 -0.379023846382
438880000 0.638233701883 -0.378227658907
438890000 0.6381054988 -0.378041666291
438900000 0.637721065968 -0.377992717446
438910000 0.637796074868 -0.378115262419
438920000 0.638303826247 -0.377798168819
438930000 0.637973592024 -0.378474099781
438940000 0.638200351125 -0.37838952159
438950000 0.637867891002 -0.37810262335
438960000 0.638186778666 -0.377851163243
438970000 0.637528580073 -0.378087990104
438980000 0.636927625181 -0.37866246181
438990000 0.636928371309 -0.378875671387
439000000 0.637368145163 -0.378379820981
439010000 0.636047263988 -0.377393362806
439020000 0.636157154164 -0.377435254154
439030000 0.636201583808 -0.377348792305
439040000 0.636134450598 -0.377905368356
439050000 0.636056759791 -0.3771492003
439060000 0.635200176684 -0.377458910278
439070000 0.635604442601 -0.378212030012
439080000 0.635947572533 -0.377599967756
439090000 0.635843634239 -0.378068379551
439100000 0.635380892906 -0.378388210646
439110000 0.635619701417 -0.378243645996
439120000 0.636162973338 -0.378325262067
439130000 0.636107204499 -0.377839069279
439140000 0.635444903185 -0.377770039429
439150000 0.635642189233 -0.3776076982
439160000 0.635407375356 -0.378256881095
439170000 0.635520355016 -0.378241383039
439180000 0.635335238666 -0.377551397301
439190000 0.635418575476 -0.377507257572
439200000 0.635291550695 -0.378246422686
439210000 0.63536112604 -0.37850083695
439220000 0.635215203801 -0.37914956857
439230000 0.634665887275 -0.379672109492
439240000 0.635033850689 -0.37862420841
439250000 0.635793101855 -0.378919656085
439260000 0.634856369962 -0.379160395851
439270000 0.6352270652 -0.37959177119
439280000 0.635243812542 -0.378796753926
439290000 0.635003409885 -0.3789371407
439300000 0.634590295953 -0.379750917012
439310000 0.634216418099 -0.379433370568
439320000 0.634183888584 -0.379332229686
439330000 0.634561186436 -0.379847423648
439340000 0.634455387645 -0.379866748117
439350000 0.634366071642 -0.379951144975
439360000 0.634278300612 -0.379828601491
439370000 0.634609193933 -0.379435007455
439380000 0.634115723803 -0.379593515418
439390000 0.634505235452 -0.379811283522
439400000 0.6342701099 -0.380435974901
439410000 0.634176975096 -0.380063629215
439420000 0.633488816417 -0.380176383587
439430000 0.634174452098 -0.379896225363
439440000 0.634394692278 -0.379634654435
439450000 0.634510801498 -0.3801583426
439460000 0.635018127568 -0.3801751089
439470000 0.633999508682 -0.380573708145
439480000 0.63312375639 -0.38087815474
439490000 0.633456891974 -0.38072710893
439500000 0.633351418251 -0.380140031345
439510000 0.632824816078 -0.380711489175
439520000 0.633026926942 -0.380770118199
439530000 0.633255728911 -0.379504755112
439540000 0.633322827697 -0.380217456759
439550000 0.632673762019 -0.380445004424
439560000 0.633087463261 -0.380210887721
439570000 0.633116051404 -0.379564306744
439580000 0.632913344695 -0.380520626128
439590000 0.633639892352 -0.381723443292
439600000 0.632830696469 -0.381318131811
439610000 0.631675501192 -0.380899588463
439620000 0.629574301246 -0.381246309473
439630000 0.631073818723 -0.379822449165
439640000 0.632703578323 -0.380148765506
439650000 0.631910773459 -0.381196696527
439660000 0.632369170631 -0.380619412643
439670000 0.631591279875 -0.381035185369
439680000 0.632064288284 -0.381079272028
439690000 0.632050677768 -0.381336478578
439700000 0.63169389617 -0.380960912613
439710000 0.632208829049 -0.38044913368
439720000 0.63210488035 -0.381144508289
439730000 0.632620440506 -0.381624203575
439740000 0.632504598935 -0.382307468118
439750000 0.633019391743 -0.382275834144
439760000 0.631627580304 -0.38229539993
439770000 0.632183872139 -0.38230573543
439780000 0.632699883714 -0.382288896947
439790000 0.63273737734 -0.382385830588
439800000 0.63238061585 -0.382866947537
439810000 0.632248544039 -0.382927503556
439820000 0.631271291836 -0.38205022281
439830000 0.631851983204 -0.382685567884
439840000 0.631768473826 -0.382048864858
439850000 0.63269599943 -0.382521530976
439860000 0.632427878174 -0.382653040627
439870000 0.632905701604 -0.38260498569
439880000 0.632962199776 -0.382008902611
439890000 0.631953374155 -0.382097603703
439900000 0.632683944144 -0.381471798068
439910000 0.632630617448 -0.381477183336
439920000 0.631969981734 -0.381825903455
439930000 0.632111363501 -0.381622523803
439940000 0.63176106882 -0.382658172516
439950000 0.631741241038 -0.382007840073
439960000 0.631278895336 -0.382703079031
439970000 0.631029626672 -0.382869436246
439980000 0.631417398715 -0.382367761324
439990000 0.63161825285 -0.381671483812
440000000 0.631713816476 -0.382590549261
440010000 0.632402543497 -0.384970134417
440020000 0.632614995514 -0.385901023076
440030000 0.632644375457 -0.385437489405
440040000 0.63250923837 -0.385437225142
440050000 0.632467348475 -0.385890858214
440060000 0.632557518293 -0.385851546572
440070000 0.631779076891 -0.386075478109
440080000 0.631607538709 -0.386085563768
440090000 0.630900419562 -0.385872792379
440100000 0.630629288233 -0.385314821314
440110000 0.630583492684 -0.38527595292
440120000 0.630623121298 -0.385642613357
440130000 0.631064839292 -0.385823257839
440140000 0.63102606514 -0.386291133926
440150000 0.630592921 -0.386460464222
440160000 0.630614818003 -0.386480067224
440170000 0.630049336291 -0.386178720862
440180000 0.630275287028 -0.386568432054
440190000 0.630096554288 -0.387046485549
440200000 0.629770575777 -0.386543645918
440210000 0.63015243253 -0.386931450445
440220000 0.630008546559 -0.38675422389
440230000 0.6294217592 -0.38726728497
440240000 0.629268594113 -0.386994003823
440250000 0.628831538373 -0.387233008899
440260000 0.629626054503 -0.386170246836
440270000 0.628991453318 -0.387235711624
440280000 0.629694543821 -0.386761118777
440290000 0.628738779657 -0.387462848609
440300000 0.628815493556 -0.386843367234
440310000 0.62814786179 -0.387887130503
440320000 0.628459468591 -0.387965716389
440330000 0.62801465312 -0.387469587569
440340000 0.627934115925 -0.386705425125
440350000 0.627670598724 -0.386976277458
440360000 0.627119520113 -0.386691336725
440370000 0.626589022752 -0.387050611744
440380000 0.62702224668 -0.386854004018
440390000 0.626590042264 -0.386543718384
440400000 0.626732984346 -0.38660125386
440410000 0.626883003834 -0.387689153774
440420000 0.626481322447 -0.387633209567
440430000 0.62688549639 -0.387743674126
440440000 0.626296757779 -0.387532282052
440450000 0.625618953754 -0.386945012821
440460000 0.625596662045 -0.387436123469
440470000 0.625939289321 -0.387751768621
440480000 0.626012786632 -0.387512020318
440490000 0.626729269615 -0.387251411264
440500000 0.626266915332 -0.386839580928
440510000 0.625537526102 -0.386792987181
440520000 0.621317107698 -0.385209775812
440530000 0.616933217676 -0.383128669901
440540000 0.611176074479 -0.376466721834
440550000 0.624772737364 -0.393353310737
440560000 0.62097908662 -0.385864771179
440570000 0.624136639113 -0.388151693228
440580000 0.624175858979 -0.387691876156
440590000 0.62428340403 -0.387704158648
440600000 0.623688694292 -0.387185245827
440610000 0.62365214054 -0.388275680061
440620000 0.624132899419 -0.387701539916
440630000 0.623626583743 -0.387385610519
440640000 0.623621582305 -0.38771491161
440650000 0.622749609044 -0.387076864129
440660000 0.62263995093 -0.387604847505
440670000 0.622572194468 -0.387588107599
440680000 0.623443016742 -0.387643690989
440690000 0.623151699411 -0.387890918098
440700000 0.622877997726 -0.387484239677
440710000 0.623108488505 -0.387728532432
440720000 0.622972282579 -0.387935534429
440730000 0.623300536742 -0.388219445493
440740000 0.622959123 -0.387753477746
440750000 0.622938077857 -0.389317803261
440760000 0.622447496498 -0.388323484954
440770000 0.621647852387 -0.388590155821
440780000 0.621694944942 -0.388348762872
440790000 0.621633005201 -0.388363312813
440800000 0.622075231852 -0.388062657182
440810000 0.622172205822 -0.387926878225
440820000 0.621438818696 -0.388097875778
440830000 0.620833660161 -0.388153900122
440840000 0.620535602214 -0.387992981638
440850000 0.61923989483 -0.387958642778
440860000 0.61793715155 -0.387946385381
440870000 0.620015382322 -0.388385724995
440880000 0.620593366817 -0.3881539739
440890000 0.621146173668 -0.388456782065
440900000 0.619781244851 -0.388957299347
440910000 0.619946828645 -0.388944783121
440920000 0.619795689711 -0.387821977424
440930000 0.61986137246 -0.388277836886
440940000 0.619771760483 -0.388231695474
440950000 0.618921712216 -0.388250706313
440960000 0.618599480937 -0.388041891122
440970000 0.619059963947 -0.387069982347
440980000 0.618974051349 -0.388204317185
440990000 0.619039283804 -0.388073839561
441000000 0.619188696228 -0.389088908185
441010000 0.61450848932 -0.391593322807
441020000 0.613923119781 -0.391533324145
441030000 0.613947172972 -0.391535753704
441040000 0.613432119926 -0.392244074162
441050000 0.613781838246 -0.391152601898
441060000 0.614154075755 -0.391594237358
441070000 0.613597140607 -0.391995393397
441080000 0.613873385396 -0.39203815559
441090000 0.613619285424 -0.392088670961
441100000 0.613556377263 -0.392494743398
441110000 0.613620287513 -0.392310903633
441120000 0.613734814682 -0.39205027745
441130000 0.613372300772 -0.392066694022
441140000 0.613436639172 -0.393016189116
441150000 0.613055978671 -0.392386439395
441160000 0.613228587162 -0.392715363826
441170000 0.612780696841 -0.392504923419
441180000 0.613290962847 -0.392262254503
441190000 0.613383643397 -0.392343820907
441200000 0.614604332945 -0.391472268159
441210000 0.613777024515 -0.392413185814
441220000 0.612761539686 -0.391984083095
441230000 0.612895633371 -0.391982696162
441240000 0.612968777522 -0.392612474392
441250000 0.612844186985 -0.392996135801
441260000 0.612540548619 -0.392711513622
441270000 0.612419270375 -0.392824105543
441280000 0.612524623511 -0.393317747284
441290000 0.613054125332 -0.393595807449
441300000 0.612944630998 -0.393955050736
441310000 0.615906903168 -0.394461884738
441320000 0.611894855431 -0.392736373897
441330000 0.611888700745 -0.392607571103
441340000 0.612548604655 -0.393231744153
441350000 0.612437931335 -0.393330224717
441360000 0.612774213006 -0.393015181418
441370000 0.612819370043 -0.393060453061
441380000 0.612137375596 -0.392916394501
441390000 0.612406891988 -0.393818126165
441400000 0.612602874066 -0.393328488715
441410000 0.612797392776 -0.393805826557
441420000 0.61314882065 -0.393779076053
441430000 0.612862905766 -0.394128107385
441440000 0.612678672985 -0.394240857919
441450000 0.612382381273 -0.394017538072
441460000 0.61260739832 -0.394509726276
441470000 0.611862791822 -0.393692192942
441480000 0.612292751421 -0.394172940711
441490000 0.613163031011 -0.393695327615
441500000 0.612379966327 -0.393965149577
441510000 0.612191446382 -0.394377268115
441520000 0.611702574778 -0.394103385921
441530000 0.612067823781 -0.394346839118
441540000 0.611705870842 -0.394766152352
441550000 0.611316643752 -0.394096595253
441560000 0.610899771588 -0.394356618153
441570000 0.611070188967 -0.394365952457
441580000 0.611378792516 -0.394882673986
441590000 0.611454039189 -0.394233908964
441600000 0.611105651124 -0.39451192341
441610000 0.611805452774 -0.394370670565
441620000 0.611583788996 -0.394394261168
441630000 0.612238360267 -0.394859041473
441640000 0.611818839273 -0.39537193377
441650000 0.612032869151 -0.395222886909
441660000 0.611995230478 -0.395182071601
441670000 0.612125271731 -0.395262913091
441680000 0.612455620919 -0.395017101626
441690000 0.612127487233 -0.39522761323
441700000 0.612338839099 -0.395294810459
441710000 0.611811579321 -0.395893471098
441720000 0.612039188307 -0.39612005525
441730000 0.612248259059 -0.396030887934
441740000 0.612153553703 -0.395627456767
441750000 0.611874214149 -0.395028401596
441760000 0.612007471947 -0.39469896582
441770000 0.611527738458 -0.395882277126
441780000 0.610653706819 -0.395515529583
441790000 0.610199381473 -0.39582898786
441800000 0.610557017751 -0.395808927019
441810000 0.610205042427 -0.395052184333
441820000 0.610948946201 -0.396388101128
441830000 0.6110368419 -0.396962581513
441840000 0.610293262754 -0.397325555837
441850000 0.609761230582 -0.396611462189
441860000 0.609346426869 -0.396657373471
441870000 0.609703321174 -0.39611800089
441880000 0.610423046639 -0.395905362639
441890000 0.610875256307 -0.396482274433
441900000 0.610764115839 -0.395221816528
441910000 0.61044217372 -0.395788247486
441920000 0.610007723605 -0.395738180969
441930000 0.610360385297 -0.396044484733
441940000 0.609950786657 -0.395964738761
441950000 0.610570550374 -0.396422845989
441960000 0.609807729304 -0.396045548131
441970000 0.610066120043 -0.396386610504
441980000 0.609113860959 -0.39656448147
441990000 0.615027376778 -0.396630790909
442000000 0.608106388979 -0.397412389763
442010000 0.608544298118 -0.397682535565
442020000 0.608291142209 -0.397622658749
442030000 0.608194941427 -0.398137038658
442040000 0.608774798017 -0.398233677589
442050000 0.608486322209 -0.397875070775
442060000 0.608703961756 -0.398225863225
442070000 0.609029983417 -0.397904323323
442080000 0.609233416877 -0.399058685045
442090000 0.60934668258 -0.397711903738
442100000 0.609062693876 -0.39793076592
442110000 0.608100242012 -0.398624236167
442120000 0.60880972577 -0.397298737268
442130000 0.609093736628 -0.398483154193
442140000 0.608054967171 -0.399884974927
442150000 0.607388102678 -0.39898407498
442160000 0.607273891719 -0.398780809335
442170000 0.606557016515 -0.400051349417
442180000 0.605913619436 -0.397535727762
442190000 0.607754030206 -0.399216970411
442200000 0.609543716752 -0.399054747447
442210000 0.606170892823 -0.398952914027
442220000 0.604709820047 -0.399490500863
442230000 0.60967880478 -0.397094774526
442240000 0.60712915342 -0.398359782917
442250000 0.606453983876 -0.399819300835
442260000 0.60709132774 -0.39828503278
442270000 0.608581993592 -0.395748438083
442280000 0.606679874602 -0.399419031287
442290000 0.606988129462 -0.396726271381
442300000 0.604881652907 -0.402541474688
442310000 0.608235816693 -0.396573464746
442320000 0.60842936998 -0.40099803182
442330000 0.605193142909 -0.396968134196
442340000 0.604776779494 -0.393761397826
442350000 0.606090798125 -0.403955496729
442360000 0.605705624409 -0.399739628809
442370000 0.605629209888 -0.400501389226
442380000 0.604436432091 -0.401762830086
442390000 0.603739398994 -0.399306978765
442400000 0.602499606839 -0.40191521426
442410000 0.60136312941 -0.399531182767
442420000 0.60274143224 -0.396465613779
442430000 0.607092234399 -0.399362676161
442440000 0.606206826274 -0.397042127982
442450000 0.608515263147 -0.39957322188
442460000 0.605513761367 -0.399176534364
442470000 0.605260991151 -0.397306025606
442480000 0.606365717929 -0.401737644063
442490000 0.605423620102 -0.398276608869
442500000 0.602679047396 -0.397421668103
442510000 0.601753037453 -0.399600689904
442520000 0.6025971031 -0.400446896246
442530000 0.603796648785 -0.398650726086
442540000 0.60504862156 -0.399953998863
442550000 0.605434816567 -0.402708465614
442560000 0.603961417774 -0.402434787567
442570000 0.603230451364 -0.39811258764
442580000 0.601205807651 -0.399212250079
442590000 0.599670589312 -0.402293934696
442600000 0.599744998812 -0.404440391103
442610000 0.59439544151 -0.405539080203
442620000 0.599388698999 -0.405039763111
442630000 0.597401654186 -0.402551653796
442640000 0.601424828344 -0.401024285818
442650000 0.600835715323 -0.396817991642
442660000 0.601002016255 -0.399232294353
442670000 0.602686411226 -0.400488879107
442680000 0.601369038145 -0.397437574798
442690000 0.598542014901 -0.400436945685
442700000 0.600661321224 -0.400253729933
442710000 0.602677759685 -0.398042110361
442720000 0.602442904755 -0.399191437263
442730000 0.601180990116 -0.398758152196
442740000 0.60138673691 -0.3997935429
442750000 0.602607787539 -0.399819282289
442760000 0.601934837758 -0.400051206678
442770000 0.60078215838 -0.399780142507
442780000 0.601931598365 -0.401106977259
442790000 0.601192903346 -0.399440641284
442800000 0.599852098919 -0.39957049865
442810000 0.600715320499 -0.399961040519
442820000 0.600222519372 -0.40021921575
442830000 0.601008918191 -0.399968693478
442840000 0.601170745534 -0.40045080934
442850000 0.600240488651 -0.400650484506
442860000 0.599713558848 -0.401127510458
442870000 0.599577819714 -0.400698083933
442880000 0.599790466126 -0.400867573197
442890000 0.599807414895 -0.400221478699
442900000 0.59978178707 -0.40098849825
442910000 0.599785899082 -0.400901744558
442920000 0.599448788382 -0.400282506303
442930000 0.599534920637 -0.401120225576
442940000 0.599553195661 -0.400394357403
442950000 0.599785363099 -0.40016165197
442960000 0.600409038022 -0.40085101347
442970000 0.600151675366 -0.4011373115
442980000 0.600683034769 -0.401512463153
442990000 0.599620120789 -0.401095724999
443000000 0.598488225828 -0.400826566157
443010000 0.599261115185 -0.40036361477
443020000 0.599692502028 -0.399971733866
443030000 0.599739046229 -0.399715523762
443040000 0.599840844832 -0.399546291529
443050000 0.599236684457 -0.399490122095
443060000 0.59948587553 -0.399132590784
443070000 0.599470039821 -0.399595789644
443080000 0.599833702751 -0.40002041347
443090000 0.5994400156 -0.399731334576
443100000 0.600503729399 -0.40027053605
443110000 0.600751070172 -0.400140004934
443120000 0.600401444014 -0.399978555047
443130000 0.600358628266 -0.39981444719
443140000 0.600459018404 -0.399882881489
443150000 0.600393086432 -0.399830449405
443160000 0.600367323351 -0.400014276163
443170000 0.601849692848 -0.401288217391
443180000 0.600038920559 -0.400068995736
443190000 0.600349553874 -0.400107491944
443200000 0.599202627241 -0.39926443285
443210000 0.599642339452 -0.398638938029
443220000 0.59992565442 -0.398298293824
443230000 0.599408564758 -0.398759677047
443240000 0.599628257678 -0.399113710126
443250000 0.599428181287 -0.399136772351
443260000 0.59894949655 -0.398964218207
443270000 0.598820678209 -0.399191454207
443280000 0.59877932409 -0.398962951698
443290000 0.598556657464 -0.3990062319
443300000 0.598817684101 -0.399205896404
443310000 0.598419078098 -0.399189319888
443320000 0.599320640341 -0.399697203779
443330000 0.599513025977 -0.398665858149
443340000 0.599357841246 -0.399097554318
443350000 0.599689493138 -0.399116278453
443360000 0.599441564338 -0.399014701415
443370000 0.599300235819 -0.398630371264
443380000 0.598648920246 -0.399043119558
443390000 0.599720626129 -0.399523626056
443400000 0.59944652851 -0.399701806228
443410000 0.598872361887 -0.399750296237
443420000 0.599136682444 -0.400359836993
443430000 0.598803001553 -0.399441763626
443440000 0.599169875404 -0.3992948031
443450000 0.599213974961 -0.39870081089
443460000 0.598960175565 -0.398944397599
443470000 0.598860789059 -0.398822843989
443480000 0.598456253072 -0.39959962578
443490000 0.598697104354 -0.399008287691
443500000 0.597913044127 -0.39967064663
443510000 0.597844722052 -0.399432977556
443520000 0.598072424648 -0.399831846303
443530000 0.597316684603 -0.399849816642
443540000 0.598057994969 -0.399411482739
443550000 0.598411497643 -0.398646064561
443560000 0.598618535414 -0.398723614747
443570000 0.598454750778 -0.399005027397
443580000 0.597749561022 -0.399551075952
443590000 0.597654567821 -0.400722240234
443600000 0.597386886769 -0.400669462812
443610000 0.597748066052 -0.400150697424
443620000 0.597187089131 -0.400338616839
443630000 0.597341054223 -0.400014110597
443640000 0.597681350089 -0.400137198124
443650000 0.597777642298 -0.400154788665
443660000 0.597376952939 -0.399951008517
443670000 0.597664692393 -0.399780822959
443680000 0.597252035521 -0.400135059604
443690000 0.596758649455 -0.400634831053
443700000 0.596939669433 -0.400717761876
443710000 0.596100142911 -0.40066724014
443720000 0.596271006599 -0.400545079205
443730000 0.59596459798 -0.40035157924
443740000 0.596287576208 -0.400975091399
443750000 0.596294471359 -0.401420474576
443760000 0.59678575527 -0.401191552475
443770000 0.596462770442 -0.401744672733
443780000 0.596904349874 -0.401249284168
443790000 0.596589264073 -0.401758250312
443800000 0.596436689951 -0.401387510807
443810000 0.596480834689 -0.401443988939
443820000 0.596598691043 -0.40220454385
443830000 0.596099796947 -0.401854177314
443840000 0.595736930295 -0.402125501124
443850000 0.595649368021 -0.402234598014
443860000 0.595968630443 -0.401586478212
443870000 0.595433198106 -0.401669290614
443880000 0.595244192486 -0.401360382029
443890000 0.595091418417 -0.401968518355
443900000 0.595091626696 -0.401284376374
443910000 0.595027570447 -0.401714738983
443920000 0.595222861586 -0.401745231003
443930000 0.594929963713 -0.401797064623
443940000 0.594816174135 -0.401881100182
443950000 0.594380599279 -0.401760334532
443960000 0.594840332525 -0.402423663442
443970000 0.594250703302 -0.402520530869
443980000 0.594253884632 -0.402016933893
443990000 0.594330538626 -0.402323361957
444000000 0.594287950443 -0.402114119426
444010000 0.593124393514 -0.396474731239
444020000 0.592810306128 -0.396166278396
444030000 0.592631227549 -0.396313063531
444040000 0.591936570655 -0.396761165308
444050000 0.591538753528 -0.396401292785
444060000 0.592151040169 -0.396125424863
444070000 0.591829046713 -0.396234338792
444080000 0.591631954701 -0.396050956487
444090000 0.591651564487 -0.396201885478
444100000 0.591878530438 -0.396397165968
444110000 0.591426059244 -0.396574212869
444120000 0.591913437136 -0.396414572866
444130000 0.591973261479 -0.395344633026
444140000 0.593262107157 -0.396004707326
444150000 0.593320276342 -0.402378098347
444160000 0.597147495991 -0.401926345522
444170000 0.59341439168 -0.392159702967
444180000 0.591574028843 -0.394499408471
444190000 0.590753579805 -0.395678348279
444200000 0.590155770824 -0.395948687612
444210000 0.590326331436 -0.39693732489
444220000 0.589699837699 -0.397002527739
444230000 0.589747864546 -0.396841433902
444240000 0.589516521293 -0.397383922826
444250000 0.589167158344 -0.397246580838
444260000 0.589494183076 -0.396875710078
444270000 0.589348828446 -0.396740594405
444280000 0.589820843513 -0.396568212807
444290000 0.588253343178 -0.39655943653
444300000 0.588333866765 -0.396670531196
444310000 0.588572184884 -0.396636988064
444320000 0.588393515414 -0.396586201127
444330000 0.588986308115 -0.396588781547
444340000 0.588910849814 -0.397376776585
444350000 0.588768079409 -0.396973489108
444360000 0.588704131389 -0.396692769214
444370000 0.588595517388 -0.396494580147
444380000 0.588083612042 -0.396883692276
444390000 0.587241297137 -0.396422652984
444400000 0.587203231872 -0.396346599686
444410000 0.587262268091 -0.396932499524
444420000 0.587130950679 -0.397002423599
444430000 0.587524929478 -0.397031525369
444440000 0.586754237967 -0.3969430894
444450000 0.587313427763 -0.396988574971
444460000 0.586930778562 -0.397274605342
444470000 0.587421288613 -0.397379589485
444480000 0.587211144386 -0.396673538548
444490000 0.586550132791 -0.397416574578
444500000 0.586454707654 -0.397335471471
444510000 0.586612880651 -0.397432375096
444520000 0.586773844857 -0.39702600496
444530000 0.586847618417 -0.396938311007
444540000 0.586767107274 -0.397444778858
444550000 0.586147003616 -0.39717798768
444560000 0.585706699946 -0.397071174562
444570000 0.58588900089 -0.397277834462
444580000 0.58578346068 -0.396978242072
444590000 0.585459690595 -0.397045996667
444600000 0.585419584573 -0.397357729121
444610000 0.585650152538 -0.397112868747
444620000 0.586051558498 -0.397287444991
444630000 0.585716367643 -0.397201829782
444640000 0.585390859963 -0.397454297017
444650000 0.585575506599 -0.397559982348
444660000 0.585241514394 -0.397375384429
444670000 0.585187775939 -0.39739730457
444680000 0.584756582029 -0.397419994222
444690000 0.584866803867 -0.397665183149
444700000 0.585047771167 -0.397895231267
444710000 0.585003176007 -0.398811711868
444720000 0.584818837215 -0.398542756375
444730000 0.585058979865 -0.398163704629
444740000 0.584902868058 -0.397724673111
444750000 0.584242523091 -0.397770383953
444760000 0.584344927044 -0.398055125922
444770000 0.584077782584 -0.397987903896
444780000 0.583814748126 -0.398395149822
444790000 0.583972612621 -0.397718434629
444800000 0.583849246253 -0.397645931853
444810000 0.583646911697 -0.397826200933
444820000 0.583748984831 -0.39819194725
444830000 0.582825003328 -0.398719672725
444840000 0.582814025522 -0.398512204269
444850000 0.582754104247 -0.398836224909
444860000 0.582917901938 -0.398746125497
444870000 0.581999920599 -0.398855554731
444880000 0.582439865875 -0.399167881657
444890000 0.582625602581 -0.399106255824
444900000 0.583776550553 -0.399313054618
444910000 0.585353339037 -0.399796784165
444920000 0.583796612932 -0.399149749613
444930000 0.583017912067 -0.398586255561
444940000 0.582545233871 -0.398060799743
444950000 0.58209296492 -0.398547749598
444960000 0.580934460778 -0.39852068356
444970000 0.581396025226 -0.398955467529
444980000 0.581682146804 -0.398550126652
444990000 0.581779365621 -0.398480759884
445000000 0.581665472973 -0.398160067897
445010000 0.58035595725 -0.396607834239
445020000 0.579601835585 -0.396826292496
445030000 0.579946348679 -0.396867966232
445040000 0.579636839053 -0.396853619052
445050000 0.579637852329 -0.396330869009
445060000 0.580408627908 -0.396526796081
445070000 0.580273577807 -0.396516094571
445080000 0.579863407304 -0.396847364951
445090000 0.579686018309 -0.396748431734
445100000 0.579974705151 -0.39651342637
445110000 0.579390945065 -0.396892685198
445120000 0.579338891633 -0.397566454167
445130000 0.579150293201 -0.397415598264
445140000 0.579173376218 -0.397782563968
445150000 0.579163160852 -0.39758104921
445160000 0.579334204749 -0.397397691906
445170000 0.578450613623 -0.398065553882
445180000 0.578750328621 -0.397247782485
445190000 0.578378837562 -0.397932404997
445200000 0.578091840791 -0.398328456624
445210000 0.578747165986 -0.397912031424
445220000 0.579086885172 -0.397932830892
445230000 0.579202144521 -0.39761186377
445240000 0.578618079147 -0.397460212371
445250000 0.577914467805 -0.397163456777
445260000 0.57812074203 -0.39687734818
445270000 0.577590347114 -0.397244079677
445280000 0.577575343416 -0.397636521705
445290000 0.577586133872 -0.397222783763
445300000 0.578003597529 -0.397126562721
445310000 0.578170263606 -0.397268379848
445320000 0.578048092004 -0.397238016644
445330000 0.57747148853 -0.397766417597
445340000 0.578156117805 -0.397378506299
445350000 0.578034314883 -0.398424838403
445360000 0.577395742361 -0.3980852933
445370000 0.577575554809 -0.398414606084
445380000 0.577022035615 -0.39770435292
445390000 0.577364365863 -0.398133114899
445400000 0.577033784644 -0.398060891376
445410000 0.576964210463 -0.397634751026
445420000 0.57673867679 -0.397869405476
445430000 0.577227330548 -0.397759177566
445440000 0.576708480549 -0.398481966239
445450000 0.576487175611 -0.398815765636
445460000 0.576031137273 -0.399413154763
445470000 0.577014746722 -0.39955622918
445480000 0.576876482372 -0.399091564031
445490000 0.577820586063 -0.398482283912
445500000 0.577289028382 -0.398220870493
445510000 0.575548852509 -0.400710962146
445520000 0.576405646206 -0.3986665825
445530000 0.576312870948 -0.398981634808
445540000 0.576102056882 -0.399351641204
445550000 0.575805342847 -0.399417256229
445560000 0.575363850736 -0.399238145687
445570000 0.575634719909 -0.398569915375
445580000 0.575442795942 -0.398702684691
445590000 0.575615330918 -0.398731280228
445600000 0.575662867147 -0.399016904536
445610000 0.575710095275 -0.399100234793
445620000 0.575215480768 -0.399261330489
445630000 0.574600105267 -0.399233995331
445640000 0.574609403318 -0.399105530041
445650000 0.574479283239 -0.399134502902
445660000 0.574474067131 -0.399515768807
445670000 0.574561060108 -0.399276329835
445680000 0.573895815222 -0.399041331596
445690000 0.57350590404 -0.399134557298
445700000 0.575895321366 -0.399290200692
445710000 0.573780965502 -0.400014458271
445720000 0.573635594075 -0.400132208066
445730000 0.573620089542 -0.400287258724
445740000 0.573088667152 -0.400559790615
445750000 0.573299815043 -0.400368502985
445760000 0.572491424 -0.399833020663
445770000 0.57353759809 -0.4001759249
445780000 0.572755162613 -0.399989384668
445790000 0.572685015617 -0.400046566148
445800000 0.572747737564 -0.40077831543
445810000 0.572491369602 -0.400465248868
445820000 0.572648001416 -0.400399478846
445830000 0.572956030803 -0.40026933634
445840000 0.572715042595 -0.400380708003
445850000 0.572719341835 -0.399896686676
445860000 0.572602864882 -0.399900073979
445870000 0.571964437453 -0.400839182644
445880000 0.571196459413 -0.401118891314
445890000 0.571107734358 -0.400709932595
445900000 0.571320899838 -0.400422733615
445910000 0.571902099969 -0.4001614997
445920000 0.571599098875 -0.400289566054
445930000 0.571532815043 -0.400414868487
445940000 0.570921176082 -0.400662888296
445950000 0.570899535164 -0.40115566651
445960000 0.571111488261 -0.400697176748
445970000 0.570705549688 -0.400862527985
445980000 0.570457707 -0.400756638414
445990000 0.57046993888 -0.400840171118
446000000 0.570950073955 -0.401098642609
446010000 0.572477300703 -0.401502437038
446020000 0.572255930145 -0.401193965837
446030000 0.572428358594 -0.400863500068
446040000 0.571876753385 -0.400763455145
446050000 0.57223339068 -0.401266954419
446060000 0.57145202218 -0.401247314776
446070000 0.571546075423 -0.40094977091
446080000 0.572129343273 -0.400970818088
446090000 0.572547708954 -0.400918445706
446100000 0.571884802604 -0.401060028497
446110000 0.570839732928 -0.400852485663
446120000 0.570477984952 -0.400746487056
446130000 0.570831374598 -0.400704422315
446140000 0.570850292402 -0.400938734359
446150000 0.570840603955 -0.400972556906
446160000 0.5712210719 -0.400681569775
446170000 0.570825260805 -0.400877637082
446180000 0.570457036208 -0.400876324806
446190000 0.570734513554 -0.400296219756
446200000 0.569607521523 -0.400129753863
446210000 0.569316059016 -0.400595062158
446220000 0.569207589642 -0.400542489831
446230000 0.568978749347 -0.401309847605
446240000 0.569561091869 -0.401308366175
446250000 0.569821837901 -0.400717912255
446260000 0.570112998104 -0.400693412077
446270000 0.570141830129 -0.400520141873
446280000 0.570030292926 -0.40053895888
446290000 0.569512967171 -0.401062533322
446300000 0.568770854042 -0.401684800118
446310000 0.569007281414 -0.402248810325
446320000 0.569083851369 -0.411103649556
446330000 0.56822155278 -0.402122674164
446340000 0.56836379224 -0.401328488513
446350000 0.568074760379 -0.401224602803
446360000 0.568420029395 -0.400904211638
446370000 0.567675620535 -0.400897820138
446380000 0.567444941092 -0.400868737563
446390000 0.567719434532 -0.400999731642
446400000 0.567586900437 -0.400689187635
446410000 0.567200454945 -0.400440846407
446420000 0.567454255551 -0.400502128749
446430000 0.567014920125 -0.400626301485
446440000 0.567091136332 -0.400109064342
446450000 0.567159279412 -0.400443026748
446460000 0.567160843208 -0.400272049347
446470000 0.567286940333 -0.400250033302
446480000 0.566579583976 -0.400703226054
446490000 0.56662018741 -0.401450141442
446500000 0.565961246487 -0.401278001621
446510000 0.566312142173 -0.400722391863
446520000 0.565942691166 -0.400281569565
446530000 0.565864739003 -0.400426260177
446540000 0.566117358763 -0.400531158609
446550000 0.566145909036 -0.400319717277
446560000 0.564888338234 -0.400861898234
446570000 0.564907980374 -0.400601979257
446580000 0.56460629143 -0.400799200312
446590000 0.565485752082 -0.400383873373
446600000 0.564650217489 -0.400354785168
446610000 0.564372010266 -0.400154033946
446620000 0.564633618557 -0.400266818962
446630000 0.565774526509 -0.400475347916
446640000 0.56502861286 -0.400729822265
446650000 0.564536075314 -0.40041313984
446660000 0.564291728957 -0.400742573145
446670000 0.564009646493 -0.400534421242
446680000 0.563477410489 -0.400368316902
446690000 0.563449030337 -0.399687580955
446700000 0.56321272622 -0.399977563697
446710000 0.563235060743 -0.400037526236
446720000 0.563193150147 -0.400786516963
446730000 0.563123758922 -0.400484411837
446740000 0.562475674663 -0.400349229373
446750000 0.562198890216 -0.400348840988
446760000 0.562844780833 -0.40017633905
446770000 0.56230653264 -0.400001975945
446780000 0.562036922653 -0.399655554617
446790000 0.562214328564 -0.400251008182
446800000 0.562638792599 -0.400476719697
446810000 0.562382175111 -0.400919531723
446820000 0.561938232527 -0.400506530045
446830000 0.5624129741 -0.399372764931
446840000 0.562662997839 -0.398910945262
446850000 0.562970986367 -0.398689213652
446860000 0.562577453978 -0.398010947012
446870000 0.561925755498 -0.399005956747
446880000 0.561745489061 -0.399877295228
446890000 0.56089896372 -0.400504438725
446900000 0.56070787414 -0.400769751386
446910000 0.561239200214 -0.40033264596
446920000 0.561383446053 -0.400733372058
446930000 0.561123865385 -0.399943526267
446940000 0.561150404926 -0.400605911731
446950000 0.560555354697 -0.400279470312
446960000 0.560509797564 -0.399775307085
446970000 0.560664906393 -0.399782140243
446980000 0.560594078393 -0.39954736925
446990000 0.560211648808 -0.399774095723
447000000 0.559989289623 -0.400573556094
447010000 0.560367718248 -0.402309927958
447020000 0.560291475577 -0.402093576787
447030000 0.560165491881 -0.402196932575
447040000 0.560062842164 -0.402370686552
447050000 0.560152287576 -0.40181635372
447060000 0.559551070148 -0.40206718549
447070000 0.558992672182 -0.402398611497
447080000 0.558597728463 -0.403102181747
447090000 0.558133785108 -0.403929180585
447100000 0.558217207356 -0.403834974118
447110000 0.558380936727 -0.403050914227
447120000 0.558524063001 -0.402375599515
447130000 0.558560877717 -0.401738655194
447140000 0.558230790494 -0.401706052291
447150000 0.558322310858 -0.401298235141
447160000 0.557387519826 -0.40125575575
447170000 0.557677473268 -0.401767387468
447180000 0.557850501273 -0.402025341233
447190000 0.557956705559 -0.40262700169
447200000 0.558588784743 -0.40265605628
447210000 0.558001279684 -0.402592151055
447220000 0.557839342275 -0.402812287468
447230000 0.557559682826 -0.402433865245
447240000 0.557287217451 -0.402201421316
447250000 0.558032226263 -0.402189743597
447260000 0.558018837018 -0.402750709922
447270000 0.557963773001 -0.402184768251
447280000 0.557276358046 -0.402616018142
447290000 0.557167319979 -0.40203953753
447300000 0.556426603099 -0.403060250136
447310000 0.556986378025 -0.402306417534
447320000 0.556532669316 -0.402636729574
447330000 0.556090742265 -0.401998454507
447340000 0.555164977741 -0.402421391876
447350000 0.556305761458 -0.402298812937
447360000 0.556251451789 -0.403115684369
447370000 0.556256973014 -0.402370122853
447380000 0.556418564897 -0.402330193846
447390000 0.555822765455 -0.401413587472
447400000 0.556739461773 -0.400306556391
447410000 0.556796015047 -0.401827277848
447420000 0.557356500313 -0.401369598614
447430000 0.55568253149 -0.402755792858
447440000 0.555070125994 -0.399973936461
447450000 0.555300767391 -0.401751091228
447460000 0.555868929417 -0.402069812843
447470000 0.554724995056 -0.401777528766
447480000 0.555950471055 -0.403521222673
447490000 0.555091517677 -0.402195368788
447500000 0.554338142384 -0.401570367627
447510000 0.554596926866 -0.402521767821
447520000 0.553241367666 -0.401429651785
447530000 0.556040037178 -0.400960952232
447540000 0.555506130217 -0.402390589353
447550000 0.554771143716 -0.403182830398
447560000 0.557258580326 -0.401922585623
447570000 0.554530691427 -0.40264885978
447580000 0.553718662074 -0.401531546462
447590000 0.553835037497 -0.402708078986
447600000 0.554852711401 -0.402136293136
447610000 0.55446341238 -0.403155130177
447620000 0.553643990866 -0.401545739148
447630000 0.553568494982 -0.401479883011
447640000 0.553686493779 -0.401988764495
447650000 0.55273608983 -0.402531152395
447660000 0.553329503679 -0.402440033086
447670000 0.553960320686 -0.401919028033
447680000 0.552959389345 -0.402315268898
447690000 0.553137401779 -0.403121874616
447700000 0.552790674207 -0.402991421503
447710000 0.553444547432 -0.402144973342
447720000 0.551402235137 -0.402319257123
447730000 0.551849395785 -0.402128672098
447740000 0.55199252987 -0.403427667069
447750000 0.552017223991 -0.403987308594
447760000 0.551491666017 -0.402989008351
447770000 0.551885141104 -0.401282519659
447780000 0.551736966013 -0.403401466425
447790000 0.551473491709 -0.402621777906
447800000 0.551990284764 -0.402671307699
447810000 0.551435666472 -0.402592443496
447820000 0.551146863349 -0.402919405494
447830000 0.551043223199 -0.402272550938
447840000 0.55115139833 -0.402650775826
447850000 0.551047875982 -0.402630692571
447860000 0.55103112773 -0.402417018705
447870000 0.550816965286 -0.402137909763
447880000 0.550223137585 -0.402720369774
447890000 0.549906525093 -0.403029197716
447900000 0.549588890322 -0.402983042557
447910000 0.549482480049 -0.402619204863
447920000 0.549342437118 -0.402697457363
447930000 0.549580739202 -0.402284631153
447940000 0.549773196255 -0.402480094524
447950000 0.549125875915 -0.402790917024
447960000 0.549212276847 -0.403166624987
447970000 0.549671608997 -0.402875285237
447980000 0.548814654977 -0.402992732405
447990000 0.548340575912 -0.403141756723
448000000 0.548698417476 -0.403134016807
448010000 0.547909257007 -0.403827225806
448020000 0.547696689828 -0.403867556502
448030000 0.548458421728 -0.403531774948
448040000 0.54770068109 -0.402793744609
448050000 0.547416349411 -0.403333465397
448060000 0.547618079803 -0.403362095812
448070000 0.547495868804 -0.40296334268
448080000 0.547751874808 -0.403015036761
448090000 0.547647738836 -0.403330231355
448100000 0.548130931621 -0.402986260284
448110000 0.547821605901 -0.40304202143
448120000 0.546935760106 -0.403466289754
448130000 0.547458441232 -0.402905139598
448140000 0.546819762062 -0.402814520187
448150000 0.54652580179 -0.402834407184
448160000 0.546923414803 -0.403440754509
448170000 0.546451656904 -0.403452391576
448180000 0.546777907416 -0.403695349866
448190000 0.546935934658 -0.402815605106
448200000 0.546158024543 -0.402795392163
448210000 0.545788504932 -0.402348923383
448220000 0.545851655856 -0.402276053769
448230000 0.545372926787 -0.402716977524
448240000 0.545498010327 -0.402952519331
448250000 0.545882960417 -0.403115358166
448260000 0.54555491895 -0.401908175712
448270000 0.545155993591 -0.402388901772
448280000 0.545392412966 -0.40249114562
448290000 0.545349070771 -0.402644162648
448300000 0.54543552461 -0.402701244878
448310000 0.545008584722 -0.403200421965
448320000 0.544789740285 -0.403400132493
448330000 0.544694169589 -0.404433081351
448340000 0.544868656429 -0.403955598854
448350000 0.544693773951 -0.403069726568
448360000 0.545036547511 -0.403043729096
448370000 0.545075948803 -0.403063510381
448380000 0.544543330101 -0.403063390636
448390000 0.544814953987 -0.403358273172
448400000 0.544031863282 -0.402790291696
448410000 0.544219902688 -0.402912425289
448420000 0.544009507082 -0.402420616324
448430000 0.543242945682 -0.402975186276
448440000 0.543562521997 -0.403171457992
448450000 0.54367585125 -0.403176394806
448460000 0.543473593414 -0.403497025473
448470000 0.543759691778 -0.402981682006
448480000 0.54356294491 -0.403679984719
448490000 0.534879002086 -0.400109168906
448500000 0.546508648868 -0.412519079859
448510000 0.542864395508 -0.402778816914
448520000 0.543293141998 -0.403320679193
448530000 0.543330140206 -0.403264892928
448540000 0.543055009433 -0.402810934239
448550000 0.541891519187 -0.402697829641
448560000 0.541622710418 -0.402413866679
448570000 0.541925722174 -0.403151820616
448580000 0.542587070573 -0.403432785517
448590000 0.542820085933 -0.403865754987
448600000 0.54199291097 -0.403494557525
448610000 0.541889889213 -0.402569948389
448620000 0.541793954533 -0.402252890186
448630000 0.540742560473 -0.40325732071
448640000 0.541183546989 -0.403481428893
448650000 0.541195053316 -0.403287874452
448660000 0.540934110521 -0.402521497943
448670000 0.540079028445 -0.402715533273
448680000 0.540728004753 -0.402445730894
448690000 0.540785893207 -0.401978449012
448700000 0.540437724927 -0.402333246487
448710000 0.540158086326 -0.402260290521
448720000 0.540378254089 -0.402581907534
448730000 0.539880627563 -0.401371430119
448740000 0.539604558949 -0.402437182931
448750000 0.53978622635 -0.402257563044
448760000 0.539688421852 -0.402807288215
448770000 0.539702621735 -0.402227111798
448780000 0.539714977691 -0.402526157836
448790000 0.539012205821 -0.402374069646
448800000 0.538268880105 -0.402494791598
448810000 0.539353991096 -0.4025407751
448820000 0.538426840001 -0.402570055957
448830000 0.538687990951 -0.40269117172
448840000 0.538647110584 -0.402403992812
448850000 0.538555035824 -0.403094946403
448860000 0.538040393272 -0.402416747325
448870000 0.538258151966 -0.403932520504
448880000 0.53828150459 -0.40307723717
448890000 0.538399862002 -0.401910368264
448900000 0.53859612079 -0.401165902976
448910000 0.53862729777 -0.401257532267
448920000 0.53822303459 -0.401824909371
448930000 0.537732782334 -0.402552062216
448940000 0.538431996677 -0.403267979651
448950000 0.537955015048 -0.402981185763
448960000 0.537662872836 -0.402665759818
448970000 0.537691287336 -0.402758062723
448980000 0.537922583484 -0.401903028107
448990000 0.537000726731 -0.402287362579
449000000 0.537020067707 -0.402623631551
449010000 0.537401705648 -0.400950663822
449020000 0.537327220566 -0.401124331824
449030000 0.536770014393 -0.401810827468
449040000 0.535810640258 -0.401657342633
449050000 0.536804492178 -0.401178766028
449060000 0.536660824974 -0.400987460532
449070000 0.53694469028 -0.401234627905
449080000 0.537296771816 -0.401956447237
449090000 0.536206201247 -0.401611055941
449100000 0.536315879945 -0.401534463419
449110000 0.536707710455 -0.401368363579
449120000 0.536569547282 -0.401490064829
449130000 0.536307635418 -0.401145187764
449140000 0.536180977101 -0.401667259239
449150000 0.536834006493 -0.40189589985
449160000 0.53627557406 -0.401013618471
449170000 0.536133950553 -0.401170017594
449180000 0.535308914926 -0.400837596424
449190000 0.535401271318 -0.400747088301
449200000 0.535624726268 -0.400708224636
449210000 0.533871821107 -0.40110384027
449220000 0.53472128242 -0.400427380782
449230000 0.534942871505 -0.40142565061
449240000 0.534478124411 -0.401082821989
449250000 0.534428826236 -0.401569275335
449260000 0.53488044486 -0.401346550356
449270000 0.534807098124 -0.40134383371
449280000 0.534378255882 -0.400991799867
449290000 0.533987447737 -0.401737577707
449300000 0.534339199656 -0.400973449673
449310000 0.534067412642 -0.399875444099
449320000 0.533740968563 -0.400477231406
449330000 0.53363146947 -0.401520065428
449340000 0.533719940555 -0.40164689152
449350000 0.533153425992 -0.400714170823
449360000 0.532938643618 -0.400448173112
449370000 0.533114457958 -0.400578242963
449380000 0.533157162422 -0.401069761765
449390000 0.533175239198 -0.400984249927
449400000 0.533201429247 -0.400574705533
449410000 0.532221302146 -0.400766637235
449420000 0.531793637716 -0.400981444814
449430000 0.531716225153 -0.401119745068
449440000 0.531914701713 -0.401060843854
449450000 0.531861918528 -0.400863676591
449460000 0.532166311976 -0.401495296662
449470000 0.532310421457 -0.401205466791
449480000 0.531681086322 -0.401527831978
449490000 0.531510329235 -0.40037509595
449500000 0.531430650203 -0.400519652529
449510000 0.531320853851 -0.400427458119
449520000 0.530898423295 -0.400353954646
449530000 0.5311298671 -0.400300320469
449540000 0.530877230168 -0.40032465258
449550000 0.531803110288 -0.402007957205
449560000 0.532477075606 -0.403296804643
449570000 0.532319179035 -0.405188304813
449580000 0.531373302823 -0.403563812509
449590000 0.531121067056 -0.40240481377
449600000 0.530913446763 -0.400925257519
449610000 0.530785146759 -0.400489861859
449620000 0.5295839403 -0.399706013609
449630000 0.530380221949 -0.400242948269
449640000 0.530317318246 -0.400255648539
449650000 0.529734322872 -0.399847610672
449660000 0.530125783512 -0.400607087111
449670000 0.530596469651 -0.400044506124
449680000 0.53109293305 -0.400075080297
449690000 0.529669514129 -0.399586456515
449700000 0.529643902249 -0.400408811283
449710000 0.529060712695 -0.400242531591
449720000 0.529214831606 -0.400050960352
449730000 0.528579710328 -0.399308472078
449740000 0.528764213425 -0.399713662456
449750000 0.528197412594 -0.399999115644
449760000 0.529036653573 -0.400420212987
449770000 0.52868441196 -0.400571076347
449780000 0.528864781979 -0.400398386417
449790000 0.528436519984 -0.400514629925
449800000 0.528986324141 -0.40142823523
449810000 0.528256748713 -0.400333599826
449820000 0.527826561119 -0.400691126882
449830000 0.527899597074 -0.400261185212
449840000 0.527645528266 -0.400306045374
449850000 0.527753486425 -0.400138741282
449860000 0.527328388583 -0.39946819027
449870000 0.526982377577 -0.399252205339
449880000 0.527115738448 -0.399237360392
449890000 0.528328579706 -0.400139308458
449900000 0.527247437151 -0.399924229202
449910000 0.527651288875 -0.399783659184
449920000 0.527328814875 -0.400746234625
449930000 0.528024484961 -0.400315360378
449940000 0.526443307866 -0.399964528339
449950000 0.526763376859 -0.39970454991
449960000 0.526379684923 -0.399441247783
449970000 0.526334339085 -0.3988875386
449980000 0.526233427082 -0.399301211869
449990000 0.526552244407 -0.399279592448
450000000 0.525580623927 -0.399668822974
