! Calibrated averaged scanner-service zoom
# Hz S RI R 50
470000000 0.432146758235 -0.201854309907
470010500 0.43143613101 -0.202305753207
470021000 0.432089614965 -0.202385410599
470031500 0.431375117435 -0.202800061965
470042000 0.432099340319 -0.202377505295
470052500 0.432560276816 -0.202673705824
470063000 0.432569213127 -0.202384351952
470073500 0.433357433299 -0.198702806238
470084000 0.43199562254 -0.201764726925
470094500 0.431579767246 -0.201590516423
470105000 0.432216059753 -0.20239156257
470115500 0.432177649758 -0.202073513812
470126000 0.432804748663 -0.201269499035
470136500 0.431190451772 -0.201494366535
470147000 0.432869143636 -0.202335544251
470157500 0.432444087564 -0.198679277615
470168000 0.433168656918 -0.203714797195
470178500 0.430609058162 -0.202956717778
470189000 0.434971851379 -0.199965122597
470199500 0.434513532606 -0.202341316531
470210000 0.431828165644 -0.200214525704
470220500 0.433797634759 -0.200236395253
470231000 0.434848913596 -0.199812567006
470241500 0.432194783408 -0.198785582684
470252000 0.435821769442 -0.201291670251
470262500 0.435224796731 -0.201952557185
470273000 0.431753523703 -0.198850235792
470283500 0.432119982257 -0.200099398197
470294000 0.435054051711 -0.198761746747
470304500 0.434124211634 -0.201925798096
470315000 0.428786824525 -0.199206683655
470325500 0.436052022546 -0.198465859723
470336000 0.432664602419 -0.198236080825
470346500 0.43398732839 -0.20525828229
470357000 0.431915896147 -0.203732153331
470367500 0.431027526598 -0.202723469657
470378000 0.43347186205 -0.19933930078
470388500 0.429259541857 -0.20026885205
470399000 0.42980203679 -0.198480927389
470409500 0.433197728317 -0.204630007327
470420000 0.433840809913 -0.198830006795
470430500 0.432471970906 -0.19580419902
470441000 0.433606633421 -0.203797096883
470451500 0.428782161411 -0.193082749793
470462000 0.43617979889 -0.201791716575
470472500 0.436757054396 -0.198978467361
470483000 0.434413732156 -0.199910391423
470493500 0.434292978989 -0.201183202863
470504000 0.43213321615 -0.202327839048
470514500 0.432760992552 -0.199704765036
470525000 0.439969918351 -0.193558861753
470535500 0.441384313045 -0.198197294766
470546000 0.430025169624 -0.200581758918
470556500 0.432372877021 -0.196689125234
470567000 0.433560687619 -0.195982991634
470577500 0.431877569593 -0.197984049487
470588000 0.440212528026 -0.196723584542
470598500 0.437200610612 -0.201690736011
470609000 0.433112033362 -0.201996966013
470619500 0.434469352582 -0.199032726763
470630000 0.434867276668 -0.200067595994
470640500 0.431798787119 -0.199076495128
470651000 0.434801749339 -0.193988346592
470661500 0.436387717673 -0.197073697441
470672000 0.436427831922 -0.197751331092
470682500 0.436518657148 -0.198108218132
470693000 0.433740269522 -0.197471411316
470703500 0.43313491171 -0.197698116002
470714000 0.436584201049 -0.198149757005
470724500 0.43592973224 -0.194562152704
470735000 0.434521720467 -0.197784250012
470745500 0.434354826944 -0.196447115013
470756000 0.435071961184 -0.198275754186
470766500 0.435227336489 -0.198179675104
470777000 0.435632361504 -0.198543855521
470787500 0.435272076573 -0.198491312215
470798000 0.434167397556 -0.198089758327
470808500 0.435469543517 -0.196568745066
470819000 0.436498624223 -0.197726973897
470829500 0.435758585802 -0.196251858803
470840000 0.435213778607 -0.197448488588
470850500 0.436017721807 -0.196819325043
470861000 0.435625643389 -0.196905135177
470871500 0.435129470443 -0.194720690513
470882000 0.436166863406 -0.19635720562
470892500 0.435491697437 -0.196198511939
470903000 0.436337435972 -0.19604861837
470913500 0.437144713942 -0.196837861105
470924000 0.436271755478 -0.195724761132
470934500 0.436327237911 -0.195750343737
470945000 0.436203605985 -0.196583491436
470955500 0.436971563817 -0.195339015922
470966000 0.436542072063 -0.195657019956
470976500 0.43551532872 -0.196461459624
470987000 0.436599813996 -0.195810610748
470997500 0.436168074295 -0.196161463178
471008000 0.436356236188 -0.195486627569
471018500 0.43656023126 -0.195931120809
471029000 0.43658011176 -0.195655745681
471039500 0.436933804228 -0.19531725122
471050000 0.436829275886 -0.195411648853
471060500 0.435991989516 -0.195316612877
471071000 0.43626252555 -0.195114849762
471081500 0.436474308686 -0.195346534798
471092000 0.43607491934 -0.195063555361
471102500 0.43615634612 -0.196202526717
471113000 0.436201785399 -0.19512799286
471123500 0.437539111966 -0.194928517994
471134000 0.43722937301 -0.195643292645
471144500 0.437124479447 -0.194770661462
471155000 0.437351615204 -0.196535468101
471165500 0.436349045462 -0.195200372878
471176000 0.436314665556 -0.195767980758
471186500 0.437585931718 -0.195287985841
471197000 0.437908198601 -0.195427611929
471207500 0.437307854822 -0.195989454104
471218000 0.43688821156 -0.195515237565
471228500 0.43682947947 -0.195251822709
471239000 0.435705355865 -0.197787300523
471249500 0.437101230204 -0.193615134978
471260000 0.436969701871 -0.194175564663
471270500 0.438567837267 -0.193773694239
471281000 0.437788050377 -0.194438759117
471291500 0.438092887605 -0.194621252411
471302000 0.437504952411 -0.194245178349
471312500 0.438335579072 -0.194390382873
471323000 0.438051312101 -0.19346111555
471333500 0.437948287911 -0.193977830267
471344000 0.437293160075 -0.193847117077
471354500 0.438347423578 -0.193603901664
471365000 0.438051531814 -0.193550764643
471375500 0.438352677134 -0.193904508107
471386000 0.438269218614 -0.193264875732
471396500 0.438344644107 -0.192614333346
471407000 0.438797587625 -0.194027875044
471417500 0.437474271462 -0.193683634331
471428000 0.438020127217 -0.194128216762
471438500 0.437406097638 -0.19430805314
471449000 0.437491473011 -0.194117462686
471459500 0.437477182069 -0.192509671296
471470000 0.438546690825 -0.193501497434
471480500 0.438589464022 -0.193039627392
471491000 0.438384674784 -0.193344382138
471501500 0.439321823463 -0.193132540343
471512000 0.438324784275 -0.192564355338
471522500 0.438597416349 -0.193002435906
471533000 0.437725936908 -0.192772915666
471543500 0.438183846375 -0.192775038247
471554000 0.438404685649 -0.193351382808
471564500 0.437995992893 -0.192599545543
471575000 0.437914065484 -0.192968615936
471585500 0.438606129784 -0.192662792458
471596000 0.438798098967 -0.192747685
471606500 0.438699586931 -0.192479569559
471617000 0.439601323506 -0.192776808557
471627500 0.439559207497 -0.192443387101
471638000 0.43895744638 -0.192519910684
471648500 0.439222540977 -0.191876899403
471659000 0.439480554724 -0.191997291177
471669500 0.439004393393 -0.191718812667
471680000 0.439564446502 -0.191887922078
471690500 0.439631013158 -0.191655758724
471701000 0.438885032095 -0.192267793815
471711500 0.439271348825 -0.191885917537
471722000 0.43911961734 -0.192019180117
471732500 0.439376942946 -0.191850721662
471743000 0.4394107434 -0.190922782112
471753500 0.44022926018 -0.190744287231
471764000 0.439921854797 -0.190240891578
471774500 0.4397257524 -0.190936446726
471785000 0.439439649941 -0.190513830211
471795500 0.439730325642 -0.190844289405
471806000 0.440244406993 -0.190811398911
471816500 0.439200642292 -0.191083119833
471827000 0.439393151562 -0.1911858898
471837500 0.439844300324 -0.189342152004
471848000 0.440103458618 -0.191327373278
471858500 0.440223178723 -0.191056725624
471869000 0.440114906223 -0.190545319055
471879500 0.439149451573 -0.191060308786
471890000 0.43964763789 -0.190900287441
471900500 0.440176299589 -0.191367998542
471911000 0.440408422984 -0.190700016791
471921500 0.440336232232 -0.190521100783
471932000 0.440480342704 -0.191428377714
471942500 0.440928320015 -0.190891767715
471953000 0.440343830518 -0.190630623419
471963500 0.440548043237 -0.191269502448
471974000 0.440028402893 -0.190201527565
471984500 0.439814923044 -0.190699248845
471995000 0.43985428217 -0.190483722779
472005500 0.439733232829 -0.190181234357
472016000 0.440339909883 -0.189722475527
472026500 0.439566025825 -0.189451380983
472037000 0.440695601841 -0.189928140907
472047500 0.440547842649 -0.189600329287
472058000 0.440156603883 -0.189787046323
472068500 0.44073230274 -0.18988688474
472079000 0.441321259586 -0.189959294051
472089500 0.441886119919 -0.189035430027
472100000 0.439564193657 -0.188678869641
472110500 0.440920327797 -0.189342442989
472121000 0.4409884219 -0.189562601342
472131500 0.440808657863 -0.189593425158
472142000 0.441263864258 -0.189089599037
472152500 0.440729014189 -0.188961049071
472163000 0.441172320006 -0.188717186705
472173500 0.440374069807 -0.188717659687
472184000 0.440977339649 -0.188818814878
472194500 0.440847954542 -0.190015443104
472205000 0.44089816665 -0.189079565714
472215500 0.440601770247 -0.188452034573
472226000 0.440554698195 -0.18857892884
472236500 0.441036609685 -0.18834560319
472247000 0.440845927741 -0.188141247565
472257500 0.440445340222 -0.187247280441
472268000 0.440925622664 -0.188071930068
472278500 0.441747736021 -0.188342720199
472289000 0.442237697217 -0.188500400592
472299500 0.441583130688 -0.187975536108
472310000 0.441660987922 -0.18872248787
472320500 0.44082453876 -0.187991792562
472331000 0.442290873163 -0.18829852605
472341500 0.441034079488 -0.186975495126
472352000 0.44185242167 -0.187694755437
472362500 0.441813507302 -0.187236424318
472373000 0.44241450459 -0.188243608855
472383500 0.440958421569 -0.188481006147
472394000 0.441937679162 -0.187991304027
472404500 0.442152847682 -0.187765187781
472415000 0.4417144736 -0.186921364322
472425500 0.44268133659 -0.18713002637
472436000 0.442161770622 -0.187706439761
472446500 0.442204808814 -0.186851238454
472457000 0.44200946707 -0.187369841207
472467500 0.442003430843 -0.187556070034
472478000 0.442541124696 -0.187252618291
472488500 0.441978231639 -0.187787425915
472499000 0.441647070397 -0.187298001777
472509500 0.441900307122 -0.187452938513
472520000 0.442046546565 -0.187149720693
472530500 0.443085283665 -0.186131317731
472541000 0.442670712511 -0.187578053679
472551500 0.442454470427 -0.186997463856
472562000 0.442978438333 -0.186418363975
472572500 0.442528237167 -0.186140041624
472583000 0.442929052198 -0.186373973298
472593500 0.443183061433 -0.187305484145
472604000 0.443208307723 -0.186143294604
472614500 0.442513912452 -0.18691456126
472625000 0.443137824869 -0.18687809885
472635500 0.442809004699 -0.186694553634
472646000 0.443258948954 -0.186749670433
472656500 0.443113100939 -0.186677170464
472667000 0.443261915642 -0.18612623236
472677500 0.442995308599 -0.186359010539
472688000 0.443592377288 -0.186529939456
472698500 0.442446905233 -0.186515386959
472709000 0.44360574318 -0.185630925286
472719500 0.442853765235 -0.186018755144
472730000 0.443047521258 -0.186500941841
472740500 0.443190715269 -0.186229956643
472751000 0.44390915604 -0.186186361989
472761500 0.443131118482 -0.186175993352
472772000 0.443454501489 -0.185749143874
472782500 0.443245639188 -0.18543233966
472793000 0.443117026495 -0.185682922976
472803500 0.443379675995 -0.185683963786
472814000 0.443133867041 -0.185826960881
472824500 0.443452095415 -0.185691811011
472835000 0.442642295396 -0.186047031219
472845500 0.443216757933 -0.184914910284
472856000 0.442706989924 -0.184770741981
472866500 0.443296096621 -0.185989113376
472877000 0.443711252788 -0.18567828952
472887500 0.443962489052 -0.186196095185
472898000 0.443105314837 -0.18567712601
472908500 0.443560475485 -0.185155671952
472919000 0.44370294021 -0.184980228649
472929500 0.443369658982 -0.184733699366
472940000 0.44339642864 -0.184732313915
472950500 0.443132933056 -0.184200698726
472961000 0.443614626495 -0.18513918531
472971500 0.443396228738 -0.184362736719
472982000 0.443576777381 -0.185466661334
472992500 0.444021875662 -0.18507583629
473003000 0.443519455382 -0.184591792311
473013500 0.443724535214 -0.184939088791
473024000 0.443703704515 -0.18446664623
473034500 0.444019625719 -0.1836962312
473045000 0.443737249811 -0.182766232792
473055500 0.444051682187 -0.183964939458
473066000 0.444395837693 -0.184069573232
473076500 0.444930139613 -0.184922370604
473087000 0.444580357188 -0.18341767024
473097500 0.444050001826 -0.183346717242
473108000 0.444353798684 -0.183994078707
473118500 0.444194858303 -0.183823431181
473129000 0.44489119827 -0.183921747722
473139500 0.444116165048 -0.183613794642
473150000 0.44420659697 -0.18361879535
473160500 0.443461075564 -0.183462498582
473171000 0.443827277167 -0.183051547971
473181500 0.444410900748 -0.183539292304
473192000 0.444134537675 -0.183194552998
473202500 0.444242211308 -0.18376858946
473213000 0.44433044004 -0.183690953467
473223500 0.444155262173 -0.182865550974
473234000 0.444381172332 -0.182588539374
473244500 0.444116452646 -0.18273342424
473255000 0.445204521875 -0.182983367049
473265500 0.44453061402 -0.18291919056
473276000 0.444812221347 -0.182239729304
473286500 0.444165962144 -0.18264221282
473297000 0.444323095761 -0.182367018198
473307500 0.445492988515 -0.182214351034
473318000 0.445528584979 -0.182956700242
473328500 0.445444024799 -0.182140845152
473339000 0.444406421836 -0.182151182053
473349500 0.445533900069 -0.1825950921
473360000 0.445362726279 -0.182867791229
473370500 0.444646659629 -0.181662646831
473381000 0.445049174881 -0.182057899986
473391500 0.445267474128 -0.181876806648
473402000 0.445085762718 -0.18248828426
473412500 0.444959935049 -0.183110406682
473423000 0.444921867145 -0.182190310854
473433500 0.445796653525 -0.182209149362
473444000 0.445812438838 -0.181478326328
473454500 0.446111043471 -0.180648983626
473465000 0.445834454321 -0.181525814811
473475500 0.446084606701 -0.182527008755
473486000 0.445677177485 -0.18189699599
473496500 0.445572187915 -0.181192399747
473507000 0.446063532067 -0.182551762012
473517500 0.445769238491 -0.18307221584
473528000 0.445346830828 -0.181247090684
473538500 0.445928943345 -0.180968500579
473549000 0.445104350157 -0.180748229303
473559500 0.44538060635 -0.181811290185
473570000 0.445669860824 -0.18215241345
473580500 0.446057037955 -0.181568345396
473591000 0.446164193793 -0.180683315079
473601500 0.446379872156 -0.181708945286
473612000 0.445937646689 -0.180853369289
473622500 0.446527596032 -0.181218114003
473633000 0.446311101438 -0.18140669453
473643500 0.445565251495 -0.180499889175
473654000 0.44594038935 -0.180448295169
473664500 0.444849533633 -0.181116463909
473675000 0.445367571496 -0.180623483138
473685500 0.446543488855 -0.180820607565
473696000 0.445709008466 -0.180650327556
473706500 0.446352462529 -0.180529735132
473717000 0.446284215625 -0.18097207039
473727500 0.44564917204 -0.180045751096
473738000 0.445744241269 -0.180193851044
473748500 0.446447911284 -0.181240592764
473759000 0.446885395955 -0.17921130202
473769500 0.446226772339 -0.180337680013
473780000 0.446223198196 -0.180362516504
473790500 0.445655636705 -0.18043427151
473801000 0.447278597536 -0.179137667339
473811500 0.446187042363 -0.179929769808
473822000 0.446597555301 -0.179629729561
473832500 0.446307173803 -0.180162339781
473843000 0.446342513376 -0.179926260892
473853500 0.446560814328 -0.179756956056
473864000 0.446002266024 -0.179729912468
473874500 0.446381061879 -0.178613096328
473885000 0.447002913515 -0.179992404933
473895500 0.446411869274 -0.17951578697
473906000 0.446578103773 -0.179332590388
473916500 0.446894764641 -0.1799951724
473927000 0.447180310295 -0.180124130593
473937500 0.447690637971 -0.179378845342
473948000 0.447911540842 -0.179075751012
473958500 0.447904915129 -0.179348694748
473969000 0.446671498042 -0.179831296333
473979500 0.446969955213 -0.179133548287
473990000 0.446696377159 -0.179119066268
474000500 0.44755403788 -0.179030300728
474011000 0.446978055475 -0.178487067216
474021500 0.447094718705 -0.178731515806
474032000 0.446873786969 -0.178475530366
474042500 0.447226236955 -0.179542156511
474053000 0.44834609366 -0.179050488076
474063500 0.447032120664 -0.178562879691
474074000 0.447666984113 -0.178431639678
474084500 0.447199481002 -0.179096491476
474095000 0.447254356518 -0.178640732464
474105500 0.448179307863 -0.179414866061
474116000 0.448170820507 -0.178589846924
474126500 0.448422530866 -0.178202479086
474137000 0.447915954455 -0.177852771086
474147500 0.447678324404 -0.178027609233
474158000 0.447590347364 -0.177791645086
474168500 0.447257620935 -0.178261478863
474179000 0.448054542864 -0.178254542064
474189500 0.448197219036 -0.178133023514
474200000 0.44827171455 -0.178035012441
474210500 0.445059106131 -0.179906181128
474221000 0.448016010249 -0.177464061993
474231500 0.447597343641 -0.177984263009
474242000 0.447756746694 -0.177762770455
474252500 0.447644750487 -0.177334762929
474263000 0.448409769725 -0.177049357632
474273500 0.446827175742 -0.17827831238
474284000 0.447541912756 -0.177079944399
474294500 0.447264764925 -0.178120563536
474305000 0.447583897854 -0.177287055671
474315500 0.44886905013 -0.176058219813
474326000 0.448956774909 -0.177486418325
474336500 0.447100290251 -0.179132924313
474347000 0.445935221342 -0.178638430771
474357500 0.448070130745 -0.18195676894
474368000 0.451089910804 -0.177715813892
474378500 0.44972736083 -0.176845770525
474389000 0.449182199799 -0.17580581446
474399500 0.447302829388 -0.175961037409
474410000 0.449519305002 -0.175954764427
474420500 0.448326743594 -0.17454308762
474431000 0.454265441542 -0.185442954282
474441500 0.447640580281 -0.177144578171
474452000 0.44837270301 -0.175264865079
474462500 0.447203638478 -0.174218365156
474473000 0.448777760354 -0.176320425135
474483500 0.446835911237 -0.175607757118
474494000 0.445589934388 -0.177858036166
474504500 0.450564446275 -0.176691397896
474515000 0.44770548102 -0.178471905856
474525500 0.449598676791 -0.177296127539
474536000 0.446333081558 -0.176361855848
474546500 0.447958067309 -0.182173083677
474557000 0.445946271478 -0.173538859274
474567500 0.448373942827 -0.174850395161
474578000 0.44725403653 -0.172535989237
474588500 0.449502563896 -0.173982167259
474599000 0.44753102493 -0.175779832335
474609500 0.447817371489 -0.176019232289
474620000 0.449312328565 -0.174105911056
474630500 0.447664069332 -0.173092730634
474641000 0.447376210775 -0.174377522811
474651500 0.448895477515 -0.175156882096
474662000 0.448301629574 -0.17618913275
474672500 0.449296223551 -0.174299928398
474683000 0.449921538274 -0.175420568533
474693500 0.448807880974 -0.174381721554
474704000 0.449427158756 -0.175246401567
474714500 0.448804216753 -0.174732392368
474725000 0.449662462263 -0.175341669974
474735500 0.448636839807 -0.173007332888
474746000 0.449515676746 -0.174111121515
474756500 0.449017627931 -0.173940365282
474767000 0.449463230517 -0.174196962596
474777500 0.449580453211 -0.174440480755
474788000 0.449518726133 -0.174330602852
474798500 0.449517486473 -0.174361887622
474809000 0.449517739817 -0.174265125517
474819500 0.449923381018 -0.174312428687
474830000 0.449368650149 -0.174269040757
474840500 0.449682726466 -0.173821485891
474851000 0.448982437311 -0.174830613767
474861500 0.448404050067 -0.175054474865
474872000 0.449696853966 -0.174339978911
474882500 0.449875398656 -0.174125511622
474893000 0.449868453038 -0.174008344343
474903500 0.450337385554 -0.174245548418
474914000 0.449570865447 -0.17324820668
474924500 0.449683772555 -0.173222282926
474935000 0.449866260578 -0.173487171654
474945500 0.450107321994 -0.17363550282
474956000 0.449490060319 -0.17393164474
474966500 0.4494577495 -0.173200197193
474977000 0.449651562554 -0.173073975892
474987500 0.45000640701 -0.173264623325
474998000 0.450110093341 -0.173198124815
475008500 0.450333539656 -0.172869902824
475019000 0.450079010416 -0.171950410712
475029500 0.449901094097 -0.17267128721
475040000 0.449749671235 -0.172908092544
475050500 0.45060642897 -0.172215636056
475061000 0.450357742389 -0.172429725385
475071500 0.449951423517 -0.172498407795
475082000 0.451026847304 -0.172356667426
475092500 0.450501424273 -0.172169819602
475103000 0.449999960914 -0.172042348766
475113500 0.449985260848 -0.173226167208
475124000 0.450226951051 -0.172729672302
475134500 0.450032614315 -0.172447096954
475145000 0.450627474795 -0.17143724052
475155500 0.450398712108 -0.171862805117
475166000 0.45022683893 -0.172354102978
475176500 0.45024691089 -0.171361573844
475187000 0.451260394403 -0.171434014975
475197500 0.450156732827 -0.171568557576
475208000 0.449471212861 -0.172388422051
475218500 0.450672290861 -0.171855491065
475229000 0.450313140354 -0.172305872948
475239500 0.450856911425 -0.172145409414
475250000 0.450666029492 -0.172862486945
475260500 0.450561654295 -0.171597463548
475271000 0.451410731411 -0.171762567269
475281500 0.451322234853 -0.171127463266
475292000 0.451135220328 -0.170150874104
475302500 0.450461725436 -0.170531069763
475313000 0.450128317508 -0.171176279725
475323500 0.451019644961 -0.171338500398
475334000 0.451460697961 -0.171103871002
475344500 0.451455690784 -0.17077038854
475355000 0.451593878088 -0.170626886728
475365500 0.451365746266 -0.170408927301
475376000 0.45141306776 -0.171121508646
475386500 0.451624216062 -0.171041233379
475397000 0.45099568357 -0.170882940524
475407500 0.450805032578 -0.171320193968
475418000 0.451611405888 -0.170979430414
475428500 0.451927805665 -0.169718786481
475439000 0.451429173164 -0.169608588797
475449500 0.451074330365 -0.170097505042
475460000 0.45185455748 -0.170053378103
475470500 0.452084267047 -0.170007713776
475481000 0.451732966228 -0.170022369459
475491500 0.451203993929 -0.170816230196
475502000 0.450978844213 -0.170496494025
475512500 0.451283309826 -0.169730536697
475523000 0.451631030803 -0.170275364189
475533500 0.451723668442 -0.169600605751
475544000 0.451456431606 -0.169935368913
475554500 0.451724741805 -0.16915559086
475565000 0.451616461604 -0.168982928341
475575500 0.451829492877 -0.169948380207
475586000 0.451939836426 -0.169228674835
475596500 0.452163324875 -0.169036337146
475607000 0.451671364098 -0.168660568388
475617500 0.45250126928 -0.168852583362
475628000 0.45177227222 -0.169559278285
475638500 0.452681324691 -0.168957151557
475649000 0.452738648275 -0.169256517022
475659500 0.452242237839 -0.168979549555
475670000 0.451663447008 -0.168576657304
475680500 0.452333427465 -0.16917805403
475691000 0.452738456581 -0.168315315081
475701500 0.452510873179 -0.16873199272
475712000 0.452416470114 -0.169444068755
475722500 0.452602189809 -0.169055769826
475733000 0.452476988765 -0.168863808841
475743500 0.452209911972 -0.168660250665
475754000 0.451632005191 -0.168319752394
475764500 0.451627583499 -0.168980408077
475775000 0.452247778368 -0.167807562119
475785500 0.452770806397 -0.167374191719
475796000 0.453348279669 -0.167466753654
475806500 0.452924357998 -0.16784844617
475817000 0.453088061131 -0.168176199316
475827500 0.453240156427 -0.168271418748
475838000 0.453104533894 -0.168619206532
475848500 0.452802461985 -0.168663057487
475859000 0.453547517894 -0.168765862744
475869500 0.453638285074 -0.167975731156
475880000 0.452889373619 -0.167738440636
475890500 0.453148333278 -0.167948712149
475901000 0.452844792871 -0.167986840257
475911500 0.453210418183 -0.16732344618
475922000 0.453593227091 -0.167282518802
475932500 0.453023153435 -0.167690435612
475943000 0.453420119852 -0.167673360555
475953500 0.453261940224 -0.167095277259
475964000 0.453179949999 -0.167280695045
475974500 0.453099465437 -0.16736201477
475985000 0.453241576885 -0.167711371316
475995500 0.453672366726 -0.166859062415
476006000 0.453587726472 -0.166799648853
476016500 0.453103855554 -0.166231985057
476027000 0.453386331723 -0.16659443757
476037500 0.454262197585 -0.166347325998
476048000 0.454731538308 -0.165968541811
476058500 0.453669764585 -0.166259097145
476069000 0.454143392963 -0.166503584306
476079500 0.454077707278 -0.16652408333
476090000 0.453169011291 -0.166644735294
476100500 0.453521889973 -0.165844504478
476111000 0.453879027407 -0.1655551353
476121500 0.454110090445 -0.165514129045
476132000 0.454780279918 -0.165189161405
476142500 0.454889570023 -0.16558592339
476153000 0.454277678903 -0.165155171324
476163500 0.454468858696 -0.166017063322
476174000 0.454648823137 -0.165224664839
476184500 0.454602184067 -0.164807507282
476195000 0.455102147014 -0.16507871079
476205500 0.454482860362 -0.165278718466
476216000 0.455419757263 -0.165520025779
476226500 0.455541044033 -0.16515645832
476237000 0.455619713621 -0.165123186195
476247500 0.455262228648 -0.165460558771
476258000 0.454626166735 -0.164314828399
476268500 0.453849231681 -0.164055122465
476279000 0.453833045015 -0.165062053872
476289500 0.454561680601 -0.165613644785
476300000 0.454668865546 -0.166384416819
476310500 0.455092876921 -0.165339515579
476321000 0.454867564238 -0.165417945202
476331500 0.454983424539 -0.165002072165
476342000 0.454300100267 -0.164043284876
476352500 0.454711623496 -0.164497992004
476363000 0.455387128081 -0.16459722604
476373500 0.454835540566 -0.164910811064
476384000 0.454535219293 -0.164017880798
476394500 0.454575441236 -0.16435894361
476405000 0.455281276189 -0.163804520878
476415500 0.454899174385 -0.164465962903
476426000 0.455423033272 -0.163574285768
476436500 0.456012760845 -0.1642391228
476447000 0.455428255443 -0.163624291771
476457500 0.456153859307 -0.163369445982
476468000 0.455003490546 -0.164363513082
476478500 0.455392340178 -0.163770671712
476489000 0.455064012563 -0.163685971556
476499500 0.455760477442 -0.16436152223
476510000 0.455736448767 -0.163374501331
476520500 0.4553363453 -0.163545246478
476531000 0.455345239425 -0.163048739032
476541500 0.455489776061 -0.162939788269
476552000 0.455952951499 -0.163509235458
476562500 0.455698517528 -0.163147135176
476573000 0.456288228805 -0.163595862977
476583500 0.454891958159 -0.164340725691
476594000 0.456479953759 -0.16278317204
476604500 0.456189648409 -0.163104476178
476615000 0.456427544984 -0.163727246741
476625500 0.454924367153 -0.162488971808
476636000 0.450732881165 -0.175615960237
476646500 0.446733089218 -0.162771223398
476657000 0.448159067261 -0.161391625328
476667500 0.449512648365 -0.167328666478
476678000 0.457383013249 -0.161995780502
476688500 0.456800085205 -0.161084323522
476699000 0.456869185097 -0.161429691881
476709500 0.45669555592 -0.162069234335
476720000 0.456692275382 -0.161827738328
476730500 0.456057668623 -0.162231861513
476741000 0.456491809558 -0.161453102038
476751500 0.45663292839 -0.161733799407
476762000 0.45626945351 -0.162076454212
476772500 0.455684885731 -0.163080975592
476783000 0.456656333124 -0.162605866382
476793500 0.455681969622 -0.162244042444
476804000 0.456860219003 -0.162409640134
476814500 0.457191660766 -0.161222552882
476825000 0.457160485208 -0.161653703352
476835500 0.45744961194 -0.161770471251
476846000 0.456664112262 -0.161576305306
476856500 0.457591066797 -0.162252670327
476867000 0.456983956087 -0.16094896055
476877500 0.457895520583 -0.161387044611
476888000 0.456899658122 -0.16059700228
476898500 0.45745532703 -0.161108676717
476909000 0.457317386404 -0.161155861745
476919500 0.457443701284 -0.161518307562
476930000 0.457554898932 -0.160847362355
476940500 0.45758574282 -0.160991942924
476951000 0.457997134197 -0.161202948211
476961500 0.457842415912 -0.161081982707
476972000 0.458131873687 -0.160909409697
476982500 0.458470166081 -0.160563282007
476993000 0.458385470021 -0.160443863286
477003500 0.45824580026 -0.160885296495
477014000 0.457504929666 -0.160312009428
477024500 0.457873726688 -0.16073054898
477035000 0.45779496436 -0.160928811091
477045500 0.457607607054 -0.15997583325
477056000 0.457730040917 -0.160300903577
477066500 0.457377804461 -0.160585738415
477077000 0.458425066337 -0.159975058649
477087500 0.458396513429 -0.159537129169
477098000 0.458234227164 -0.160028989271
477108500 0.457914072512 -0.1608112873
477119000 0.458294470302 -0.159736923203
477129500 0.458233988873 -0.159799323867
477140000 0.459552673662 -0.161183508072
477150500 0.458685988032 -0.160248870571
477161000 0.459638453305 -0.160494772756
477171500 0.459383367189 -0.160322280362
477182000 0.45801066293 -0.159501655858
477192500 0.458623093936 -0.16068320026
477203000 0.458332796584 -0.160433020362
477213500 0.458335975593 -0.159353042559
477224000 0.458168084327 -0.160045671566
477234500 0.458739372019 -0.158773316648
477245000 0.459904287717 -0.15838318082
477255500 0.45793996943 -0.159266146097
477266000 0.457805897233 -0.158593674197
477276500 0.459065518743 -0.158643251373
477287000 0.459618847042 -0.158442260423
477297500 0.458750810248 -0.158643397121
477308000 0.458410782112 -0.15834724283
477318500 0.459858301109 -0.158818218082
477329000 0.458293632077 -0.158414786672
477339500 0.458117524226 -0.158944411964
477350000 0.458916169777 -0.158440776889
477360500 0.46062555343 -0.158072465638
477371000 0.460711688859 -0.157998281425
477381500 0.459888193705 -0.15774130987
477392000 0.459931669877 -0.157692107075
477402500 0.461579252915 -0.157216596666
477413000 0.46046612218 -0.157315819666
477423500 0.459372424484 -0.157086852784
477434000 0.45976963158 -0.157242677575
477444500 0.460586946557 -0.156751843015
477455000 0.45896152409 -0.157337442799
477465500 0.460266648394 -0.15775650329
477476000 0.458991239841 -0.157095445232
477486500 0.461213862291 -0.155883281529
477497000 0.458442475682 -0.157553540017
477507500 0.460267979065 -0.159916845865
477518000 0.459101551111 -0.157013767927
477528500 0.461271080101 -0.154099168312
477539000 0.461066380738 -0.157328037641
477549500 0.460702515578 -0.157082913461
477560000 0.458024392371 -0.154978439067
477570500 0.461074911111 -0.15604635927
477581000 0.460959046389 -0.16034218406
477591500 0.463107379064 -0.157436956297
477602000 0.462430505884 -0.156235384863
477612500 0.462635514406 -0.155671672199
477623000 0.46011513648 -0.15653302834
477633500 0.464920471258 -0.157835588647
477644000 0.460933552569 -0.156254986197
477654500 0.459388372856 -0.156210354857
477665000 0.460364291042 -0.156324913161
477675500 0.460475391863 -0.155983997519
477686000 0.460934343284 -0.157051017507
477696500 0.460602583826 -0.156507963646
477707000 0.460582268767 -0.156153504094
477717500 0.4611721265 -0.15854060248
477728000 0.460628683057 -0.156123472957
477738500 0.459512850261 -0.155604271981
477749000 0.463410143479 -0.156045708615
477759500 0.460575091222 -0.157474477764
477770000 0.463263976548 -0.155016562591
477780500 0.46345294685 -0.155231216646
477791000 0.4628872803 -0.154837804816
477801500 0.463472354512 -0.156640348313
477812000 0.46312414087 -0.155577582399
477822500 0.46230892686 -0.155219957031
477833000 0.461696703016 -0.156920851768
477843500 0.461489942912 -0.155744027225
477854000 0.460975152027 -0.155218511776
477864500 0.460710423322 -0.154948686609
477875000 0.462221346954 -0.153395950603
477885500 0.460572808956 -0.154238999448
477896000 0.462414864493 -0.153233357561
477906500 0.46209994923 -0.155401129559
477917000 0.462584433612 -0.155405602335
477927500 0.46269679461 -0.154963588699
477938000 0.461303355189 -0.154521756823
477948500 0.461003426091 -0.154906554207
477959000 0.460823330669 -0.153852476063
477969500 0.462006270447 -0.15579414195
477980000 0.462189713585 -0.155967028678
477990500 0.463674766585 -0.15479967531
478001000 0.461743706852 -0.154947553344
478011500 0.46355059834 -0.153657787354
478022000 0.463151393026 -0.153110995058
478032500 0.46264822712 -0.154657575241
478043000 0.46406187264 -0.153659286502
478053500 0.46269674519 -0.152337511533
478064000 0.462811679998 -0.161718885326
478074500 0.460745054901 -0.149906043423
478085000 0.456899428014 -0.156109860114
478095500 0.463669452235 -0.152520810743
478106000 0.459942535884 -0.146017207331
478116500 0.467708493141 -0.143466365289
478127000 0.460838509176 -0.154227399585
478137500 0.459856418932 -0.154183722067
478148000 0.46113715258 -0.157596501113
478158500 0.467508344866 -0.156470211535
478169000 0.455988866156 -0.160934519873
478179500 0.479315843869 -0.145037332184
478190000 0.465781116808 -0.147699988486
478200500 0.471559829568 -0.144737538035
478211000 0.476431588228 -0.143447993658
478221500 0.459394381611 -0.152070534409
478232000 0.477077101736 -0.161630242158
478242500 0.440697941921 -0.156438138607
478253000 0.450567917367 -0.149248789962
478263500 0.462717817692 -0.14833121712
478274000 0.467549340078 -0.146039221623
478284500 0.47591924346 -0.149908964661
478295000 0.457634806348 -0.140817477581
478305500 0.461688365844 -0.174660970754
478316000 0.448266327992 -0.154184201708
478326500 0.463507326579 -0.171590390499
478337000 0.471392292227 -0.158450008463
478347500 0.453316055866 -0.149354425946
478358000 0.451262899267 -0.14344193053
478368500 0.456797291894 -0.152753943964
478379000 0.464812672614 -0.136980188789
478389500 0.456167037093 -0.159048001147
478400000 0.454297150519 -0.141030135434
478410500 0.447785393599 -0.150163940036
478421000 0.458565357018 -0.150333353521
478431500 0.483928408834 -0.142609866123
478442000 0.473991592282 -0.156900727824
478452500 0.497399505387 -0.151086702209
478463000 0.470703875753 -0.149642532273
478473500 0.468316315247 -0.163566335418
478484000 0.463593623355 -0.1655128384
478494500 0.458542000449 -0.163347423828
478505000 0.476117937635 -0.180525438215
478515500 0.470602863399 -0.143780044803
478526000 0.465660198399 -0.151126473596
478536500 0.455610063196 -0.144636035857
478547000 0.464609462834 -0.157179778005
478557500 0.461351274649 -0.143918967103
478568000 0.467756496157 -0.159935597928
478578500 0.466067000916 -0.139385343261
478589000 0.472557871913 -0.147870199955
478599500 0.468597827129 -0.150607660996
478610000 0.46556865743 -0.142573437687
478620500 0.468230999558 -0.152678708236
478631000 0.46323798244 -0.148180764484
478641500 0.443805663915 -0.143966844129
478652000 0.472769957652 -0.155473045307
478662500 0.463477748541 -0.166288498488
478673000 0.482363600425 -0.133096549035
478683500 0.476542803568 -0.144647084347
478694000 0.491294518187 -0.136091633448
478704500 0.476317032624 -0.16719719621
478715000 0.47039545031 -0.147501029404
478725500 0.466022334838 -0.150676542942
478736000 0.474409165376 -0.158309552602
478746500 0.478364829369 -0.158789425974
478757000 0.471739396656 -0.14963739292
478767500 0.464664721343 -0.148752183884
478778000 0.468034903089 -0.158989412271
478788500 0.461750781813 -0.156630818364
478799000 0.457150980119 -0.153938207112
478809500 0.490997435025 -0.15112464536
478820000 0.467199808232 -0.146805793385
478830500 0.459544420192 -0.14049216872
478841000 0.47366791098 -0.126077673475
478851500 0.473304254807 -0.150667504371
478862000 0.467254644812 -0.150609330405
478872500 0.46705638911 -0.148206809407
478883000 0.467435706595 -0.148519032526
478893500 0.465827741214 -0.149223193067
478904000 0.474018641693 -0.153960782788
478914500 0.475030536532 -0.139007319556
478925000 0.467522263199 -0.152014632392
478935500 0.473247113726 -0.152455339235
478946000 0.465686957293 -0.149321219187
478956500 0.468345223357 -0.149173144399
478967000 0.469929188271 -0.148319803625
478977500 0.468909283745 -0.149048540088
478988000 0.466909344011 -0.148762048141
478998500 0.470067019858 -0.146388103577
479009000 0.46770063428 -0.147924856655
479019500 0.468954173713 -0.148072162135
479030000 0.467332921219 -0.150033498908
479040500 0.469707150448 -0.147529299533
479051000 0.470024251405 -0.147851197415
479061500 0.46752868549 -0.147253270431
479072000 0.468644592548 -0.147744453055
479082500 0.468109190601 -0.148783972532
479093000 0.471289285606 -0.147054176557
479103500 0.468216187626 -0.14821462074
479114000 0.4680696572 -0.149059404567
479124500 0.468730896841 -0.148715563265
479135000 0.468341866566 -0.149443562309
479145500 0.469758309728 -0.148240784805
479156000 0.469990959081 -0.147921813643
479166500 0.468351703976 -0.147511341011
479177000 0.468215087565 -0.148265520078
479187500 0.469954815036 -0.14850733117
479198000 0.4731799147 -0.148376980988
479208500 0.470283244649 -0.149346958716
479219000 0.471786737377 -0.149746354603
479229500 0.471725695353 -0.146233516418
479240000 0.470832839486 -0.147777430138
479250500 0.470889339695 -0.146918234442
479261000 0.468925934478 -0.146543041261
479271500 0.471436681965 -0.14803524538
479282000 0.471106385617 -0.147460865166
479292500 0.468412748359 -0.148068696242
479303000 0.470195536596 -0.148653550618
479313500 0.471451589313 -0.146762723377
479324000 0.470932119753 -0.145417684985
479334500 0.470603585399 -0.146686629897
479345000 0.471158804493 -0.146613878386
479355500 0.470956426957 -0.146955091992
479366000 0.472340961364 -0.142334604448
479376500 0.470729154336 -0.1464477135
479387000 0.470261081716 -0.148340592085
479397500 0.469748887666 -0.145477300425
479408000 0.469354476619 -0.146524874524
479418500 0.471739146935 -0.144412110559
479429000 0.471402524474 -0.146721702955
479439500 0.470487527207 -0.144676899878
479450000 0.471652883556 -0.146398631533
479460500 0.470402923682 -0.147043563422
479471000 0.473191932209 -0.146859060246
479481500 0.471322442827 -0.14715121351
479492000 0.470738395618 -0.145777785903
479502500 0.472986033049 -0.145261974926
479513000 0.472798615537 -0.146634642387
479523500 0.472088655994 -0.14582968561
479534000 0.472907831357 -0.14699399377
479544500 0.472336446981 -0.145728501695
479555000 0.472107995172 -0.146690093401
479565500 0.472002343948 -0.145528209385
479576000 0.472791124254 -0.146368716242
479586500 0.472309428049 -0.145630118758
479597000 0.472857567578 -0.144696394027
479607500 0.472073481261 -0.145855694792
479618000 0.471603398334 -0.14530722316
479628500 0.471616332435 -0.1451855118
479639000 0.471964350772 -0.145393642401
479649500 0.472716856153 -0.145719943713
479660000 0.473355754909 -0.145228407393
479670500 0.473203788895 -0.146281652665
479681000 0.473455890112 -0.145259933883
479691500 0.472384304679 -0.145352402453
479702000 0.472736154828 -0.145718302837
479712500 0.473076114596 -0.144973165418
479723000 0.473573242557 -0.14525521513
479733500 0.473421185475 -0.145630518186
479744000 0.473308418845 -0.145772776628
479754500 0.473561829402 -0.145165679404
479765000 0.47381503273 -0.145142380379
479775500 0.47294914625 -0.145096016959
479786000 0.473727874023 -0.145160126084
479796500 0.474591818922 -0.145713992944
479807000 0.473653544179 -0.145018398988
479817500 0.47399057254 -0.145665836222
479828000 0.474008857704 -0.145654283765
479838500 0.473756938995 -0.146349670626
479849000 0.474074124967 -0.146021339012
479859500 0.475885605406 -0.144890173718
479870000 0.473469071189 -0.143857162697
479880500 0.473634347967 -0.144626978723
479891000 0.473991494904 -0.144467875924
479901500 0.474744990981 -0.143622783097
479912000 0.47387646056 -0.144252796719
479922500 0.473199591247 -0.14485842831
479933000 0.474363299754 -0.145526067006
479943500 0.474465432239 -0.144708869567
479954000 0.477040246031 -0.145593182863
479964500 0.474846234319 -0.144387251203
479975000 0.475625227589 -0.142829590974
479985500 0.475769985324 -0.144947356803
479996000 0.473909958796 -0.144976103538
480006500 0.4745065499 -0.143425077188
480017000 0.473501616219 -0.145169909406
480027500 0.47467407348 -0.143780475181
480038000 0.475142597356 -0.144294305997
480048500 0.47608670987 -0.143842132147
480059000 0.474819789637 -0.143304904276
480069500 0.475164141654 -0.143745499717
480080000 0.475569635405 -0.142844848532
480090500 0.475031136198 -0.142974937941
480101000 0.476427123921 -0.143558506711
480111500 0.4758327689 -0.144777511103
480122000 0.474383080681 -0.143332943833
480132500 0.475720881287 -0.144178664448
480143000 0.475907451574 -0.143996485747
480153500 0.476214208921 -0.143162226177
480164000 0.476404782947 -0.143869095521
480174500 0.476242489099 -0.143623458306
480185000 0.476631381754 -0.144252980778
480195500 0.475917663252 -0.143971151241
480206000 0.475969775406 -0.144168479644
480216500 0.476360016604 -0.143405499907
480227000 0.475758503418 -0.143254171852
480237500 0.47708028835 -0.143761116732
480248000 0.476083837229 -0.14341514157
480258500 0.475946007193 -0.143115985463
480269000 0.478639483964 -0.147465637563
480279500 0.477176401315 -0.143180885465
480290000 0.476603791011 -0.143331036462
480300500 0.477451730964 -0.142688239856
480311000 0.476331611296 -0.142574318442
480321500 0.478264235258 -0.142711996889
480332000 0.476407697143 -0.142434498541
480342500 0.476151173175 -0.143323269383
480353000 0.476683666566 -0.143168410338
480363500 0.477529845544 -0.142578267775
480374000 0.478233756817 -0.143498636626
480384500 0.476771903368 -0.140939950154
480395000 0.476123497111 -0.143606212726
480405500 0.478353047336 -0.142901075452
480416000 0.477854172859 -0.141952194982
480426500 0.478111050845 -0.140713495811
480437000 0.478681496775 -0.143023823471
480447500 0.47695881696 -0.14365780736
480458000 0.478583035292 -0.142817077451
480468500 0.477962128082 -0.143843639909
480479000 0.476738853403 -0.14119005317
480489500 0.477579820734 -0.142815498318
480500000 0.478174508163 -0.144140997299
480510500 0.479507289167 -0.141734361033
480521000 0.476630163881 -0.141222937962
480531500 0.479731401001 -0.141419881683
480542000 0.479356853514 -0.142774182585
480552500 0.477542242857 -0.142407162285
480563000 0.480213439234 -0.141205781933
480573500 0.480465765981 -0.140899696214
480584000 0.478820930982 -0.140031116792
480594500 0.478830861762 -0.142286088281
480605000 0.479391411814 -0.1408639613
480615500 0.478753349361 -0.14168916019
480626000 0.479067057256 -0.140656826873
480636500 0.480245126778 -0.140757225464
480647000 0.478906821609 -0.142092709603
480657500 0.479199404937 -0.141622519536
480668000 0.479328133415 -0.140573132388
480678500 0.479541237411 -0.141562714973
480689000 0.479764848159 -0.141257174202
480699500 0.479009623894 -0.141738308159
480710000 0.479512294515 -0.141488626604
480720500 0.479717252426 -0.142352662249
480731000 0.479679150126 -0.141897738259
480741500 0.480095027238 -0.141778040623
480752000 0.479275986421 -0.141784322187
480762500 0.480498688302 -0.141701963083
480773000 0.47996380394 -0.141424893182
480783500 0.479904508385 -0.142093244526
480794000 0.47981824581 -0.141144574805
480804500 0.481592404435 -0.141208755148
480815000 0.480599425974 -0.141187241228
480825500 0.480186715463 -0.140889793089
480836000 0.480010191157 -0.140851300123
480846500 0.479959133711 -0.140762137867
480857000 0.480634618095 -0.141653613787
480867500 0.480422653579 -0.14088669781
480878000 0.480863185909 -0.141647763071
480888500 0.481421898233 -0.141040500465
480899000 0.480765021185 -0.141010268565
480909500 0.480085969962 -0.141461158735
480920000 0.480874301976 -0.14075994632
480930500 0.481476977 -0.140809384619
480941000 0.480560564556 -0.139675554629
480951500 0.482121884284 -0.14176303669
480962000 0.482038019078 -0.140442875447
480972500 0.479696102244 -0.139797957008
480983000 0.478514781573 -0.141476786061
480993500 0.479889982526 -0.139946982691
481004000 0.482111122568 -0.139491281562
481014500 0.481010859241 -0.139725138242
481025000 0.48129934368 -0.139440658647
481035500 0.482178296321 -0.141075254595
481046000 0.480928156762 -0.141670404155
481056500 0.480979497026 -0.141102593481
481067000 0.481000024555 -0.139434745512
481077500 0.480280894721 -0.141366976237
481088000 0.482453760834 -0.139549768218
481098500 0.482306105501 -0.141446017203
481109000 0.481248429488 -0.140208569689
481119500 0.48209205574 -0.141165526707
481130000 0.48257153272 -0.139576111288
481140500 0.481714301974 -0.139795408987
481151000 0.48179840761 -0.138553213332
481161500 0.4832448278 -0.140923511775
481172000 0.481456600766 -0.139559851776
481182500 0.482947296475 -0.139340770192
481193000 0.483954767663 -0.139979838098
481203500 0.482987931635 -0.139894872019
481214000 0.482333581215 -0.139711340834
481224500 0.482650497185 -0.139837855405
481235000 0.482732759646 -0.140800116781
481245500 0.482500675466 -0.140518138823
481256000 0.483107504927 -0.140600247472
481266500 0.482692481079 -0.140123966165
481277000 0.483076540727 -0.139342127126
481287500 0.482978045427 -0.139836477693
481298000 0.483526556576 -0.141480999244
481308500 0.482961495687 -0.139572129967
481319000 0.484018845592 -0.139711185699
481329500 0.483306106868 -0.139727987112
481340000 0.483076095049 -0.140293630049
481350500 0.483540736871 -0.139413843874
481361000 0.483398358542 -0.139158442595
481371500 0.483646778168 -0.139636831881
481382000 0.484260955993 -0.138625632928
481392500 0.484280985039 -0.13906908285
481403000 0.484554017979 -0.139051646217
481413500 0.484530132344 -0.140167296413
481424000 0.483608205848 -0.139421037528
481434500 0.483567360806 -0.139374422081
481445000 0.483629271371 -0.139606185805
481455500 0.484834548129 -0.13961709586
481466000 0.485786887898 -0.13960679713
481476500 0.485622722909 -0.140082497124
481487000 0.484838062178 -0.139782334109
481497500 0.485025281588 -0.138846489184
481508000 0.484767455151 -0.140355736717
481518500 0.484599891213 -0.141633845514
481529000 0.483872073228 -0.140736466956
481539500 0.485088102381 -0.137510896948
481550000 0.485544284317 -0.140073945788
481560500 0.48413919564 -0.137886449274
481571000 0.486987569517 -0.137709587495
481581500 0.48459026441 -0.137627000165
481592000 0.488300743456 -0.14099853107
481602500 0.485509321518 -0.138995380333
481613000 0.486822147414 -0.140107379057
481623500 0.485143457137 -0.141309665687
481634000 0.487457294185 -0.139474996908
481644500 0.485650532252 -0.13836066072
481655000 0.485971587515 -0.138839230428
481665500 0.484596431817 -0.138863309401
481676000 0.485659221905 -0.139581541509
481686500 0.485989321647 -0.139740605577
481697000 0.484045553425 -0.139807111596
481707500 0.485497456583 -0.138273075212
481718000 0.487852542237 -0.138688459988
481728500 0.484660808575 -0.138609021497
481739000 0.486507572407 -0.136340026697
481749500 0.488449919816 -0.137332183558
481760000 0.486286365051 -0.140169823041
481770500 0.487366161282 -0.138345371196
481781000 0.485869942559 -0.138742495456
481791500 0.486151663172 -0.138303418754
481802000 0.487375585531 -0.136451805234
481812500 0.486233705338 -0.138204881407
481823000 0.486691796967 -0.138800254202
481833500 0.486251333186 -0.138069569259
481844000 0.486436466899 -0.13814971133
481854500 0.487229941802 -0.13769821997
481865000 0.48567481901 -0.137354111876
481875500 0.487058662556 -0.140458456725
481886000 0.486983932165 -0.138976904106
481896500 0.486522796679 -0.136470057497
481907000 0.48527980402 -0.139127625089
481917500 0.487193882912 -0.139254226614
481928000 0.486898961735 -0.136960885996
481938500 0.487138884095 -0.138471816754
481949000 0.487385734572 -0.136648558363
481959500 0.488246761878 -0.140938836095
481970000 0.487335429171 -0.140213454734
481980500 0.488386878075 -0.139069076716
481991000 0.489537045956 -0.137596545313
482001500 0.487113269517 -0.139048550303
482012000 0.489672845006 -0.137327018824
482022500 0.488910193763 -0.137155977326
482033000 0.487037118443 -0.137551416571
482043500 0.491397276238 -0.137029710018
482054000 0.49038140701 -0.136962514984
482064500 0.490369711467 -0.133906502267
482075000 0.486528793773 -0.133863319948
482085500 0.485382953655 -0.137402429714
482096000 0.488691930422 -0.138487768127
482106500 0.488372784433 -0.141744186245
482117000 0.478928061031 -0.147966700932
482127500 0.488313102951 -0.1340174234
482138000 0.489407488898 -0.138024910933
482148500 0.492369880272 -0.136174958831
482159000 0.485365509851 -0.137708123242
482169500 0.50011913953 -0.147147045157
482180000 0.494188520462 -0.130694258593
482190500 0.488513821087 -0.141098498113
482201000 0.484185629118 -0.131438152151
482211500 0.491646344591 -0.140488105636
482222000 0.486480290022 -0.14476795541
482232500 0.487030387507 -0.14153401385
482243000 0.500069953945 -0.138212095288
482253500 0.492260050578 -0.138760980388
482264000 0.479292562403 -0.134920293467
482274500 0.496710088095 -0.143703241357
482285000 0.49119967587 -0.145982898685
482295500 0.485364207073 -0.154985822272
482306000 0.496122783616 -0.123871626166
482316500 0.49268671338 -0.140742790666
482327000 0.479135706414 -0.134870528021
482337500 0.497846855536 -0.138762174939
482348000 0.491061144152 -0.131619232343
482358500 0.481423690082 -0.132772713022
482369000 0.482509203813 -0.136840640932
482379500 0.485067360485 -0.140165298053
482390000 0.498311178063 -0.134710007154
482400500 0.483832883074 -0.131963262382
482411000 0.509079869501 -0.124728640317
482421500 0.488270240149 -0.139661212977
482432000 0.497634750899 -0.137556073762
482442500 0.486725620264 -0.128734762165
482453000 0.489830239471 -0.155064883177
482463500 0.4812208684 -0.135255114956
482474000 0.499238875873 -0.136126641111
482484500 0.488734887877 -0.1330214128
482495000 0.489561151238 -0.114812697272
482505500 0.489811089227 -0.132536389241
482516000 0.503561352589 -0.144257689883
482526500 0.483855664164 -0.148896904806
482537000 0.474045864096 -0.142742971953
482547500 0.505083680587 -0.13264338542
482558000 0.500881039899 -0.12990999096
482568500 0.497506278572 -0.125360204458
482579000 0.483033206605 -0.122123773749
482589500 0.481691373412 -0.144209506784
482600000 0.495196000085 -0.145105993905
482610500 0.494586456894 -0.139376594835
482621000 0.510490360754 -0.133764158394
482631500 0.479922901968 -0.135142448639
482642000 0.480991723462 -0.134893960714
482652500 0.490527169784 -0.134060207612
482663000 0.491819976656 -0.135086528915
482673500 0.48868305877 -0.126364272191
482684000 0.499042186704 -0.143614534602
482694500 0.492330322444 -0.142496480404
482705000 0.516785875071 -0.11955557955
482715500 0.492150478796 -0.137942421502
482726000 0.491100924336 -0.139805928992
482736500 0.483395775236 -0.132863915994
482747000 0.495283354428 -0.133025092064
482757500 0.483645503847 -0.139568813155
482768000 0.504165797154 -0.148622233899
482778500 0.496479186816 -0.138276728365
482789000 0.485727070372 -0.143253610521
482799500 0.49426458656 -0.138027136219
482810000 0.492462147411 -0.138641117402
482820500 0.488738066985 -0.143555572668
482831000 0.490949701461 -0.136582785749
482841500 0.486985625255 -0.142056484213
482852000 0.490340165489 -0.133790399921
482862500 0.49439571682 -0.138778564872
482873000 0.494869319757 -0.141917527384
482883500 0.492029281359 -0.136366405556
482894000 0.497631815022 -0.128219954461
482904500 0.493495974321 -0.129894733861
482915000 0.491246580303 -0.134435753542
482925500 0.488927047814 -0.137405373159
482936000 0.493897948326 -0.135659084955
482946500 0.495519356894 -0.133871575882
482957000 0.493774167575 -0.135686405023
482967500 0.492526775522 -0.136992084189
482978000 0.493166956178 -0.136956663945
482988500 0.492324528042 -0.13510634892
482999000 0.4924854807 -0.135520086504
483009500 0.493859138018 -0.135056177294
483020000 0.493435449636 -0.135541316249
483030500 0.496632367353 -0.137802334861
483041000 0.494895624026 -0.136632000865
483051500 0.494998713603 -0.136015495202
483062000 0.494591499167 -0.137055860952
483072500 0.495180329747 -0.132755288255
483083000 0.495437558743 -0.136346875532
483093500 0.493428996561 -0.134400394799
483104000 0.49539610647 -0.138121945558
483114500 0.495959362975 -0.135482781498
483125000 0.494057225508 -0.137835999619
483135500 0.494662916647 -0.135313277807
483146000 0.496298023635 -0.138598113398
483156500 0.496580124171 -0.13782690101
483167000 0.495637489871 -0.134251640548
483177500 0.494819901006 -0.136918165101
483188000 0.493105904238 -0.132946317506
483198500 0.493337574768 -0.135848739318
483209000 0.493900739026 -0.132123988037
483219500 0.494956228423 -0.136480277751
483230000 0.494617908666 -0.134696718423
483240500 0.495524903025 -0.136491255289
483251000 0.491765820306 -0.136104559077
483261500 0.494792448404 -0.135655960975
483272000 0.495893522099 -0.134592155926
483282500 0.493872496401 -0.137900670749
483293000 0.4958023631 -0.139391128071
483303500 0.496234374723 -0.133295285371
483314000 0.497356137908 -0.137213519258
483324500 0.495432238176 -0.137443500969
483335000 0.492776899035 -0.135915980425
483345500 0.496431761987 -0.133042703449
483356000 0.4963503597 -0.136281944186
483366500 0.496593384581 -0.136823402579
483377000 0.497076700123 -0.133220020191
483387500 0.49445487973 -0.134004361831
483398000 0.494218718323 -0.133103602915
483408500 0.493742468543 -0.134934270637
483419000 0.494442765978 -0.136197400317
483429500 0.493404160545 -0.135928264919
483440000 0.49854009924 -0.136315667626
483450500 0.497571327201 -0.13523068076
483461000 0.497707334825 -0.13469246649
483471500 0.497588223404 -0.136337382457
483482000 0.497125610776 -0.1360297865
483492500 0.497059360464 -0.135805793985
483503000 0.495675733389 -0.13474792784
483513500 0.497593151456 -0.135286033478
483524000 0.499725659059 -0.135073253879
483534500 0.496464705265 -0.134654837928
483545000 0.49708582233 -0.134772962667
483555500 0.497721476494 -0.135727669239
483566000 0.497487250826 -0.13486058567
483576500 0.49715252111 -0.135437364667
483587000 0.49701782609 -0.135349188353
483597500 0.497085318066 -0.134889339594
483608000 0.49695225918 -0.134659945343
483618500 0.497158460015 -0.13509800618
483629000 0.498711217101 -0.135103578536
483639500 0.499033560905 -0.13497079778
483650000 0.497954089016 -0.134402079438
483660500 0.49847614023 -0.13484361772
483671000 0.497983832012 -0.135778981995
483681500 0.498538672706 -0.134772746732
483692000 0.500251667289 -0.13522767749
483702500 0.499211488079 -0.134659908515
483713000 0.4983524951 -0.135667043759
483723500 0.498198967782 -0.135490335919
483734000 0.497616864379 -0.135509548318
483744500 0.498906398311 -0.134804002762
483755000 0.4985439129 -0.134723300477
483765500 0.497328789636 -0.135281293115
483776000 0.498023163201 -0.135311206194
483786500 0.498588102485 -0.135110199831
483797000 0.498278915796 -0.136143899923
483807500 0.49862783014 -0.134881043958
483818000 0.500051630247 -0.133842774988
483828500 0.499608777705 -0.135077316705
483839000 0.498861793503 -0.136220712958
483849500 0.499674726367 -0.133988595673
483860000 0.500675688819 -0.135046442923
483870500 0.499849492122 -0.13437483558
483881000 0.499974363573 -0.135821181115
483891500 0.499861231339 -0.135023601676
483902000 0.498891024594 -0.134794246454
483912500 0.498796082484 -0.135105769892
483923000 0.500224592183 -0.13448594294
483933500 0.49897348869 -0.134941254094
483944000 0.499334537988 -0.134287732828
483954500 0.499799089696 -0.13493495017
483965000 0.499378708676 -0.13494407437
483975500 0.499658242789 -0.135752268059
483986000 0.499921729683 -0.135436864665
483996500 0.499864607526 -0.135128869534
484007000 0.499734352639 -0.134731234786
484017500 0.500292932017 -0.135180501498
484028000 0.500009512017 -0.134704720099
484038500 0.500219732574 -0.134624594511
484049000 0.499755319718 -0.134118120747
484059500 0.499466002814 -0.135232141389
484070000 0.4997867856 -0.134838826562
484080500 0.500023462811 -0.134319356663
484091000 0.500454773896 -0.134137965833
484101500 0.500429284715 -0.134193424299
484112000 0.500275164115 -0.134039810607
484122500 0.499972643442 -0.133807415122
484133000 0.500116961236 -0.134681345918
484143500 0.500131594153 -0.134114801628
484154000 0.501019926392 -0.1334453015
484164500 0.500514802754 -0.133974816432
484175000 0.501090575971 -0.134178605209
484185500 0.500545984034 -0.135249034234
484196000 0.501042020842 -0.134151117458
484206500 0.500820748939 -0.134584544595
484217000 0.500413931403 -0.133642426015
484227500 0.500718639018 -0.134390606415
484238000 0.501158308247 -0.134699834072
484248500 0.501597155901 -0.135764451087
484259000 0.501307521613 -0.133900091648
484269500 0.500963456544 -0.133283622492
484280000 0.501536316119 -0.133415731729
484290500 0.501564880116 -0.134068302167
484301000 0.502067352793 -0.134847372324
484311500 0.50183626362 -0.134456990166
484322000 0.502215475595 -0.134431450604
484332500 0.50188750217 -0.134497909119
484343000 0.502021814629 -0.13395394746
484353500 0.501945642915 -0.134430674033
484364000 0.501764513273 -0.134277361012
484374500 0.502201950836 -0.133409394037
484385000 0.501352215004 -0.134053222299
484395500 0.50167789089 -0.134793822248
484406000 0.50212049958 -0.133811798507
484416500 0.5015214131 -0.133626499804
484427000 0.502166835225 -0.133861690082
484437500 0.502369905148 -0.13375435395
484448000 0.502585272804 -0.13397351637
484458500 0.502384116941 -0.134077753306
484469000 0.502424222977 -0.134661736685
484479500 0.502522710657 -0.133625060516
484490000 0.502274978487 -0.133882817287
484500500 0.502801037502 -0.134099303075
484511000 0.502554355772 -0.133516094732
484521500 0.502529264885 -0.133694095229
484532000 0.502120377119 -0.133611924458
484542500 0.502516750275 -0.134111286034
484553000 0.503321609237 -0.134509006709
484563500 0.502734379263 -0.134023447246
484574000 0.502225416448 -0.134588831175
484584500 0.502295839712 -0.134098420767
484595000 0.502116856992 -0.134253916793
484605500 0.502570208071 -0.134073903343
484616000 0.501917152545 -0.133701826501
484626500 0.503042044132 -0.133871142743
484637000 0.502892661087 -0.134064670845
484647500 0.503048344533 -0.133229307837
484658000 0.503038470572 -0.133543467979
484668500 0.50353576255 -0.13432738333
484679000 0.503136648315 -0.133508350475
484689500 0.503743617145 -0.133830163197
484700000 0.503831338377 -0.133927975486
484710500 0.503473406859 -0.133744162597
484721000 0.50378659106 -0.133809349031
484731500 0.504202190196 -0.133119315676
484742000 0.503672468732 -0.13315467468
484752500 0.503986652417 -0.133734573133
484763000 0.50344933618 -0.133855331827
484773500 0.504042750279 -0.134187402055
484784000 0.503857312225 -0.134278284013
484794500 0.504236143673 -0.133729889042
484805000 0.504253012653 -0.133324817254
484815500 0.504115196519 -0.132997935335
484826000 0.504701205255 -0.133408611944
484836500 0.504235528299 -0.133999037597
484847000 0.504207771031 -0.132680257485
484857500 0.504649114823 -0.133474277087
484868000 0.503538808205 -0.133295305396
484878500 0.503914837444 -0.133813649477
484889000 0.503975770205 -0.133749297738
484899500 0.504210514964 -0.13373241383
484910000 0.504164852857 -0.133404555346
484920500 0.503997729262 -0.133495028123
484931000 0.504351917836 -0.133421972469
484941500 0.504113501715 -0.132809559441
484952000 0.504677073463 -0.133118410438
484962500 0.50433226868 -0.13390706546
484973000 0.504586703618 -0.132266680388
484983500 0.503978746615 -0.132585529845
484994000 0.504108588015 -0.132222201822
485004500 0.504640044715 -0.132573754184
485015000 0.504656242204 -0.133153635253
485025500 0.504854726897 -0.133596435545
485036000 0.504746465056 -0.133216575471
485046500 0.50559746334 -0.133201278935
485057000 0.505266891504 -0.132850256072
485067500 0.504771114273 -0.133159791344
485078000 0.505523363364 -0.133291411597
485088500 0.505244795415 -0.133215257081
485099000 0.504836994756 -0.133391987677
485109500 0.505285662981 -0.133328356148
485120000 0.505350973339 -0.132624676821
485130500 0.50542537548 -0.133863997722
485141000 0.505226160318 -0.13382329862
485151500 0.505249141183 -0.132947440134
485162000 0.505280962009 -0.133099787098
485172500 0.505269032995 -0.132871072151
485183000 0.504726766163 -0.132976130993
485193500 0.505557938776 -0.132776255463
485204000 0.505654052936 -0.132425202123
485214500 0.505771764718 -0.132335613769
485225000 0.505854984457 -0.132982888407
485235500 0.505644140888 -0.132496234117
485246000 0.505521961148 -0.133270161958
485256500 0.506004562908 -0.133583545981
485267000 0.505777171015 -0.133300318594
485277500 0.506162470366 -0.134042635006
485288000 0.506773430809 -0.133494205526
485298500 0.506633443785 -0.133303529399
485309000 0.506892312575 -0.133549873162
485319500 0.506465950261 -0.133676842722
485330000 0.506423380351 -0.133517615159
485340500 0.506240210708 -0.13317112157
485351000 0.506437469348 -0.132795418922
485361500 0.506034255311 -0.132887542019
485372000 0.505674742637 -0.133361327561
485382500 0.506422734897 -0.133068214055
485393000 0.50674914914 -0.132861230784
485403500 0.506623662261 -0.133092668668
485414000 0.507468359655 -0.13248570624
485424500 0.507158963969 -0.131713383731
485435000 0.507747707288 -0.132236858934
485445500 0.506499496731 -0.133307356365
485456000 0.507386297406 -0.133149293864
485466500 0.504308679452 -0.131917028191
485477000 0.508569101949 -0.134603998127
485487500 0.508446457136 -0.133780686548
485498000 0.510114578185 -0.132726959635
485508500 0.507011887824 -0.133723119412
485519000 0.504435356085 -0.132487612604
485529500 0.508381211307 -0.135282133415
485540000 0.50700316302 -0.132296194558
485550500 0.504219686979 -0.132258031928
485561000 0.510198981041 -0.131074883736
485571500 0.505709424342 -0.133538731873
485582000 0.510228489154 -0.132762117795
485592500 0.511342249869 -0.131750319756
485603000 0.507366190214 -0.1350764207
485613500 0.512958011718 -0.133723293714
485624000 0.511011352591 -0.131425953196
485634500 0.509079279669 -0.131302280811
485645000 0.507434792292 -0.130366730127
485655500 0.508562741447 -0.131353113077
485666000 0.51005171549 -0.134611256869
485676500 0.513513707306 -0.136423630087
485687000 0.510565306983 -0.134509011291
485697500 0.50738251507 -0.132082157766
485708000 0.515210722135 -0.1293277639
485718500 0.509320802094 -0.13407154508
485729000 0.505364150956 -0.133183032869
485739500 0.50775241602 -0.130431383292
485750000 0.507155079823 -0.131448939157
485760500 0.513887465754 -0.135723503122
485771000 0.506145137109 -0.132827540864
485781500 0.508067257817 -0.133371076605
485792000 0.507546280529 -0.131512912079
485802500 0.507816091499 -0.133058011982
485813000 0.50941915676 -0.134314784252
485823500 0.507920301541 -0.133570687691
485834000 0.507264631637 -0.133928101919
485844500 0.504740428644 -0.133183402693
485855000 0.508258190717 -0.130310383117
485865500 0.510992512078 -0.133066847906
485876000 0.503174402873 -0.134692193484
485886500 0.508596420798 -0.131682471154
485897000 0.510296934762 -0.132267162626
485907500 0.509493737933 -0.131903155595
485918000 0.509657329447 -0.132564259025
485928500 0.509720826717 -0.131034720795
485939000 0.50774394823 -0.132048736169
485949500 0.509613758173 -0.13111298609
485960000 0.509725241394 -0.132183799336
485970500 0.509994694349 -0.130976044827
485981000 0.508644036329 -0.132012248026
485991500 0.511308630177 -0.131721572432
486002000 0.510756342542 -0.131636775074
486012500 0.511761885967 -0.132041911797
486023000 0.513630112522 -0.13209132435
486033500 0.515666684395 -0.126373201291
486044000 0.51147909441 -0.132423580984
486054500 0.511043909058 -0.132635795778
486065000 0.512132398387 -0.130923976999
486075500 0.510966903104 -0.132537848491
486086000 0.510846450534 -0.130690128857
486096500 0.511225415811 -0.131319971635
486107000 0.509050928948 -0.128690150118
486117500 0.510129184502 -0.132359452453
486128000 0.514037656166 -0.132821549256
486138500 0.510645135068 -0.134447082439
486149000 0.509237984148 -0.132833341775
486159500 0.51179017338 -0.130050159716
486170000 0.513426289799 -0.136126779211
486180500 0.510745177343 -0.134827459433
486191000 0.514836191675 -0.125373599849
486201500 0.513677141912 -0.132768017074
486212000 0.509478644 -0.130664674011
486222500 0.508140646823 -0.131930447053
486233000 0.511579499198 -0.132344920942
486243500 0.509800323324 -0.137565908971
486254000 0.51810626537 -0.136992260979
486264500 0.511991430356 -0.132374575742
486275000 0.515156521727 -0.13851709569
486285500 0.500828480698 -0.126419589732
486296000 0.519509861097 -0.13876495832
486306500 0.50837774918 -0.114152844326
486317000 0.502488128483 -0.13265513399
486327500 0.51634618409 -0.149205967228
486338000 0.504793474591 -0.127206831144
486348500 0.518876765883 -0.133834345651
486359000 0.509417838588 -0.121807240427
486369500 0.516980866681 -0.167030536281
486380000 0.494719315399 -0.137497758398
486390500 0.510436980975 -0.136590202631
486401000 0.536474014819 -0.136089076296
486411500 0.497406251676 -0.151263016671
486422000 0.510600754482 -0.118582498538
486432500 0.526228004192 -0.125902970361
486443000 0.498656435094 -0.101311173757
486453500 0.517279272032 -0.137365537991
486464000 0.489045300821 -0.12501845578
486474500 0.490019741723 -0.151727585409
486485000 0.514346999686 -0.168620417657
486495500 0.518304557957 -0.141159041645
486506000 0.508641406535 -0.11665097921
486516500 0.522544871598 -0.121811464885
486527000 0.514824200013 -0.0993420553434
486537500 0.524847557194 -0.124747327283
486548000 0.496559512187 -0.129525563211
486558500 0.50940218434 -0.113462023034
486569000 0.503666326382 -0.127406609136
486579500 0.507324078274 -0.129866250598
486590000 0.527040777888 -0.131887909258
486600500 0.512102903361 -0.132039317111
486611000 0.535909920672 -0.119513607971
486621500 0.518989160007 -0.131786543976
486632000 0.534295766145 -0.140120122649
486642500 0.500679685688 -0.120725670255
486653000 0.512520696343 -0.136418546288
486663500 0.507680857467 -0.127552488546
486674000 0.520572664767 -0.124012221213
486684500 0.505442535721 -0.13161259751
486695000 0.515350400484 -0.128102125502
486705500 0.515282051241 -0.148474946387
486716000 0.496119837808 -0.128909216256
486726500 0.511490824015 -0.126284748757
486737000 0.518505694277 -0.131744290059
486747500 0.50451190219 -0.130294149866
486758000 0.508624321867 -0.125818740333
486768500 0.527672003348 -0.130002837864
486779000 0.506256933028 -0.138939354053
486789500 0.494799052402 -0.138388785489
486800000 0.514957542975 -0.117848049932
486810500 0.513956199967 -0.130666676208
486821000 0.513636341596 -0.129847916668
486831500 0.514713517212 -0.13060317695
486842000 0.513666867981 -0.131036857738
486852500 0.513776955669 -0.130938525742
486863000 0.51293737637 -0.130281902474
486873500 0.513684871904 -0.131345028487
486884000 0.514555039025 -0.130619694383
486894500 0.513915818322 -0.13137978336
486905000 0.514776441854 -0.131559271772
486915500 0.513830209364 -0.131064024621
486926000 0.513740576474 -0.131297807984
486936500 0.513550515484 -0.130415280639
486947000 0.514388958858 -0.131554124038
486957500 0.514104259973 -0.131168322535
486968000 0.5144673586 -0.131633130021
486978500 0.513334474064 -0.130192605842
486989000 0.515240514979 -0.131882655224
486999500 0.514432300377 -0.130718296398
487010000 0.515006269633 -0.131024215457
487020500 0.514011977172 -0.129866294061
487031000 0.513443732859 -0.131830260063
487041500 0.514246092245 -0.131334130554
487052000 0.514774130946 -0.131900668689
487062500 0.515400504472 -0.130813415222
487073000 0.516459391168 -0.131452413713
487083500 0.514226953562 -0.131199615562
487094000 0.514795116614 -0.13360184291
487104500 0.51466884446 -0.1316481587
487115000 0.513580413165 -0.128618821752
487125500 0.513593826742 -0.129463382771
487136000 0.514893567071 -0.130516504242
487146500 0.51554338709 -0.133328366001
487157000 0.51696200778 -0.130444533749
487167500 0.513669569856 -0.131673099645
487178000 0.516673585861 -0.12842463788
487188500 0.515554588119 -0.131783724351
487199000 0.515304400991 -0.130012736685
487209500 0.518374419466 -0.129432371005
487220000 0.514869878638 -0.12862773129
487230500 0.519365259722 -0.131020163842
487241000 0.517124698801 -0.130283879857
487251500 0.513266734374 -0.128546610815
487262000 0.515697339446 -0.132177325768
487272500 0.517041375895 -0.132701185417
487283000 0.517656298157 -0.131721062797
487293500 0.514885867675 -0.126634828311
487304000 0.513966520483 -0.12853010096
487314500 0.515525100322 -0.130615333701
487325000 0.515939634993 -0.135112899701
487335500 0.515139130321 -0.13009014008
487346000 0.517074305022 -0.133114062682
487356500 0.517343783263 -0.131188403748
487367000 0.513080546514 -0.131375724587
487377500 0.517439021323 -0.132351453007
487388000 0.515495467035 -0.129846213967
487398500 0.516414481279 -0.131002777616
487409000 0.516645056099 -0.129542957276
487419500 0.517842731221 -0.131786482003
487430000 0.518239141549 -0.130197729387
487440500 0.516205299764 -0.127930717556
487451000 0.519074795176 -0.131090454001
487461500 0.519253153287 -0.129925397358
487472000 0.517740279794 -0.134838872361
487482500 0.518759667293 -0.136409623566
487493000 0.480698339415 -0.117790723866
487503500 0.514711002676 -0.132015465788
487514000 0.514987677497 -0.12918441833
487524500 0.515287176261 -0.129401919936
487535000 0.517218106279 -0.129562755862
487545500 0.516701625618 -0.131609073389
487556000 0.517763504749 -0.129890208244
487566500 0.517568491552 -0.130344407959
487577000 0.516936457759 -0.129449899741
487587500 0.517207468802 -0.130089063665
487598000 0.517783233343 -0.13010571583
487608500 0.517310409563 -0.130041011268
487619000 0.518260195786 -0.130056279343
487629500 0.517902644895 -0.129881858518
487640000 0.517284809269 -0.129923471178
487650500 0.517188859781 -0.130182161778
487661000 0.517370552284 -0.130272551717
487671500 0.517509045299 -0.129985607938
487682000 0.518366540674 -0.130296746089
487692500 0.517611109966 -0.130648972043
487703000 0.518016843001 -0.130089464448
487713500 0.517823083764 -0.130191646996
487724000 0.517872647373 -0.129742171418
487734500 0.518527801191 -0.129839387944
487745000 0.518060134145 -0.129724252581
487755500 0.518036356244 -0.129567609921
487766000 0.517777922078 -0.130104382465
487776500 0.518131940479 -0.130133213228
487787000 0.518231363308 -0.12984042825
487797500 0.518295103733 -0.130532227591
487808000 0.518420737362 -0.129926886775
487818500 0.518371774622 -0.130128054153
487829000 0.517665638035 -0.130048507586
487839500 0.518326966456 -0.130313440976
487850000 0.518596395383 -0.130074484218
487860500 0.518326523878 -0.130203116213
487871000 0.518939933875 -0.13018686094
487881500 0.518760014632 -0.129867547471
487892000 0.51890200531 -0.129035006728
487902500 0.51942045664 -0.129130842676
487913000 0.518740019088 -0.129235325712
487923500 0.518781534535 -0.129416037227
487934000 0.519230710214 -0.129592968551
487944500 0.519876110067 -0.129297816531
487955000 0.520004324906 -0.129410782079
487965500 0.51942399567 -0.129563803016
487976000 0.518857080874 -0.129350838526
487986500 0.51912382002 -0.12920762061
487997000 0.51921683813 -0.129362813582
488007500 0.519601014456 -0.128531307833
488018000 0.519572019566 -0.129441559896
488028500 0.519524635269 -0.12984116159
488039000 0.519465430055 -0.129670451132
488049500 0.519773166713 -0.129260546024
488060000 0.519942968366 -0.129058389215
488070500 0.519749197658 -0.12903887087
488081000 0.52034041714 -0.129713024662
488091500 0.519714164381 -0.130169568032
488102000 0.519827198646 -0.129854215752
488112500 0.519870399306 -0.128826428337
488123000 0.520688206201 -0.129641590305
488133500 0.519696802565 -0.129332059441
488144000 0.520694381289 -0.129086097494
488154500 0.520198132525 -0.129381425616
488165000 0.521008380098 -0.129565825606
488175500 0.520135921305 -0.128818129417
488186000 0.519749325834 -0.128924439676
488196500 0.519746803554 -0.129152737723
488207000 0.520067580006 -0.129018306731
488217500 0.52048338813 -0.129122236177
488228000 0.520338032928 -0.129915020942
488238500 0.520315046623 -0.129353855236
488249000 0.521030658839 -0.129745772408
488259500 0.520378014384 -0.129319623776
488270000 0.520661767431 -0.129046507483
488280500 0.520290655115 -0.129671011096
488291000 0.520708849909 -0.12863781217
488301500 0.51991063745 -0.128653717202
488312000 0.521878547198 -0.128876584486
488322500 0.521864423591 -0.129756081194
488333000 0.521055728198 -0.129647988608
488343500 0.521067754549 -0.129446470873
488354000 0.52122808998 -0.129033354072
488364500 0.521529127034 -0.129338742931
488375000 0.52076984547 -0.129158710891
488385500 0.520994525172 -0.129695857438
488396000 0.521059660072 -0.12922769402
488406500 0.521012962365 -0.129101844046
488417000 0.521023175412 -0.129300932629
488427500 0.522392564318 -0.12892772359
488438000 0.52161479153 -0.129192798086
488448500 0.521368003702 -0.129080426733
488459000 0.521554323315 -0.129018045452
488469500 0.521506962564 -0.12929741799
488480000 0.521261952637 -0.129178970241
488490500 0.521311518657 -0.128968954224
488501000 0.521129961248 -0.129405961103
488511500 0.521416085283 -0.129234472918
488522000 0.521555026042 -0.129846578054
488532500 0.522006576276 -0.128876256169
488543000 0.521358726152 -0.128998957177
488553500 0.522304889735 -0.129785413988
488564000 0.522137494388 -0.129742661357
488574500 0.522199341961 -0.128847466136
488585000 0.521966116618 -0.129177077384
488595500 0.52257535822 -0.129023888257
488606000 0.522464264567 -0.129559712472
488616500 0.522262466407 -0.129274724184
488627000 0.52256098263 -0.128856235549
488637500 0.522377789588 -0.128967635489
488648000 0.522700727032 -0.128831683103
488658500 0.522802990041 -0.128899967293
488669000 0.522808645842 -0.128876668251
488679500 0.522563046865 -0.128208487979
488690000 0.522949893099 -0.129597601183
488700500 0.522339527537 -0.128533934441
488711000 0.522634259887 -0.128893990913
488721500 0.522878333658 -0.128582569584
488732000 0.522683748135 -0.128639448361
488742500 0.522414154527 -0.129568446804
488753000 0.522914730227 -0.129031378247
488763500 0.522682541222 -0.128757703252
488774000 0.522874954314 -0.128887848631
488784500 0.52294517954 -0.128821795054
488795000 0.523102763748 -0.128408165927
488805500 0.522746578415 -0.128751005285
488816000 0.523140039319 -0.128766786921
488826500 0.523085167827 -0.128402247441
488837000 0.523597119243 -0.128084323244
488847500 0.523628146514 -0.128568759502
488858000 0.522869862026 -0.128485207536
488868500 0.523040913967 -0.128740887623
488879000 0.523342284844 -0.128651806152
488889500 0.523755168071 -0.128707306715
488900000 0.524074687829 -0.128536751741
488910500 0.524282759765 -0.128646967878
488921000 0.523590280435 -0.128331156012
488931500 0.523105018371 -0.128468491422
488942000 0.523924303144 -0.128854667373
488952500 0.524847789865 -0.127425800976
488963000 0.524026695243 -0.128367660657
488973500 0.523937287468 -0.128269726934
488984000 0.524140914964 -0.128847435972
488994500 0.523681256224 -0.128307868179
489005000 0.524321848938 -0.128420249053
489015500 0.524103188165 -0.128162366527
489026000 0.524194665986 -0.128591559839
489036500 0.524273960986 -0.129042881506
489047000 0.524378176019 -0.12821132538
489057500 0.52461596939 -0.128481293037
489068000 0.524807951725 -0.128319708959
489078500 0.524734733504 -0.128534088896
489089000 0.524845880348 -0.128194119666
489099500 0.525026375241 -0.128336671485
489110000 0.524785993327 -0.128538042138
489120500 0.52485208146 -0.128131252398
489131000 0.52509922587 -0.128711094159
489141500 0.524832686521 -0.128658035798
489152000 0.525247023009 -0.128672560768
489162500 0.52477861476 -0.128635989713
489173000 0.525214959401 -0.128497493578
489183500 0.52524836954 -0.128198212678
489194000 0.52523089658 -0.128078865569
489204500 0.525334768208 -0.128498038089
489215000 0.525427633928 -0.12838487648
489225500 0.525663932812 -0.128576018988
489236000 0.525403211928 -0.128605449971
489246500 0.524924587646 -0.129034937153
489257000 0.525207283152 -0.128368640967
489267500 0.52521895229 -0.127825763903
489278000 0.525656914216 -0.1276048509
489288500 0.525534155805 -0.128443568542
489299000 0.52603090397 -0.127584188007
489309500 0.52586165095 -0.127530775091
489320000 0.525911655597 -0.127639779069
489330500 0.525863573652 -0.127317446468
489341000 0.525647843121 -0.127618245234
489351500 0.526052587155 -0.127970437521
489362000 0.525441325184 -0.12825931764
489372500 0.52790080999 -0.126702430637
489383000 0.525977009059 -0.127537295271
489393500 0.525715948284 -0.127176280997
489404000 0.526170099271 -0.127989820955
489414500 0.52626896707 -0.127820255025
489425000 0.525910680102 -0.127511003934
489435500 0.527196473063 -0.128356669714
489446000 0.527101169395 -0.128858684349
489456500 0.526616219053 -0.127600514488
489467000 0.526773951754 -0.12759965426
489477500 0.527216955103 -0.127569985213
489488000 0.525412353618 -0.127018673518
489498500 0.526884973561 -0.128617462121
489509000 0.526423718728 -0.127513770925
489519500 0.526022421941 -0.127681378156
489530000 0.527018283904 -0.129238476293
489540500 0.526595255794 -0.127445701873
489551000 0.526240958191 -0.129595344214
489561500 0.526306925146 -0.126037506481
489572000 0.527341058021 -0.127663277642
489582500 0.525826139003 -0.127191060464
489593000 0.528465551967 -0.128378156959
489603500 0.526983341215 -0.12806452696
489614000 0.528401834765 -0.128584768535
489624500 0.526950603129 -0.126686815904
489635000 0.528040051326 -0.125955477031
489645500 0.528926879828 -0.128571656432
489656000 0.531808697682 -0.130885173166
489666500 0.530827357686 -0.130127705849
489677000 0.526373155373 -0.126892677777
489687500 0.528089454923 -0.124031527268
489698000 0.527321702146 -0.129016131819
489708500 0.527631098263 -0.125790991889
489719000 0.528433116128 -0.12910665389
489729500 0.527633715331 -0.126490780459
489740000 0.52788347723 -0.127519566203
489750500 0.527600172872 -0.128533883844
489761000 0.527340802286 -0.127647122469
489771500 0.526940774307 -0.127597648554
489782000 0.527562278526 -0.127899031852
489792500 0.526525110247 -0.128107925307
489803000 0.526934631375 -0.128083879648
489813500 0.529124204303 -0.128484856511
489824000 0.528907410932 -0.128474214029
489834500 0.528977010886 -0.12780924144
489845000 0.52913538277 -0.129296997994
489855500 0.527761274251 -0.128111599734
489866000 0.529161295224 -0.127045977377
489876500 0.527828742305 -0.127069749597
489887000 0.528480011769 -0.127442118783
489897500 0.528715780589 -0.125693687368
489908000 0.529073617581 -0.128099303437
489918500 0.52994300473 -0.128270740843
489929000 0.52912536009 -0.127190640515
489939500 0.527827586247 -0.126872356305
489950000 0.530016958274 -0.126552091555
489960500 0.528620971304 -0.12698784251
489971000 0.529851400556 -0.126247949345
489981500 0.529476506652 -0.127869669351
489992000 0.52888756726 -0.127514175924
490002500 0.529317979334 -0.127509142366
490013000 0.52940363742 -0.127650224737
490023500 0.52993741039 -0.127767530179
490034000 0.529779415617 -0.127599509986
490044500 0.529428460983 -0.126510408647
490055000 0.529376483721 -0.127468139858
490065500 0.529163337409 -0.126956271582
490076000 0.528995610378 -0.126780332878
490086500 0.529651781672 -0.126778132605
490097000 0.529834437982 -0.12753378147
490107500 0.530334025503 -0.126749065749
490118000 0.531922003442 -0.128138566584
490128500 0.529166997335 -0.126770355206
490139000 0.52970429009 -0.128699650144
490149500 0.530176914635 -0.126908352652
490160000 0.53072459879 -0.128040265896
490170500 0.531480002507 -0.127867838523
490181000 0.530180224704 -0.128232272769
490191500 0.529177921078 -0.129047644103
490202000 0.528527345496 -0.128134114046
490212500 0.530672470363 -0.127058026362
490223000 0.529348494638 -0.130606533839
490233500 0.531525221515 -0.127685294789
490244000 0.529417395642 -0.129901605261
490254500 0.531148458981 -0.127631745878
490265000 0.534412672964 -0.126423756786
490275500 0.529275561675 -0.120126663793
490286000 0.531630419933 -0.12729593802
490296500 0.530065492575 -0.122787678853
490307000 0.533618182452 -0.124593323978
490317500 0.524705913469 -0.127454723935
490328000 0.534659158369 -0.132546497935
490338500 0.528410613537 -0.127789907754
490349000 0.533473279061 -0.130053300136
490359500 0.533440436901 -0.128541073008
490370000 0.534397928296 -0.112919189302
490380500 0.528752346312 -0.114799854314
490391000 0.526327782638 -0.119021485023
490401500 0.537632153735 -0.119328326976
490412000 0.532050826634 -0.120857646828
490422500 0.532246919159 -0.122249467445
490433000 0.53026518217 -0.138073933783
490443500 0.52963173129 -0.125320823869
490454000 0.528121154357 -0.137947987629
490464500 0.533316982274 -0.119622255134
490475000 0.534910623005 -0.127758113997
490485500 0.535846521199 -0.12383639032
490496000 0.525559657348 -0.126591680375
490506500 0.524714740442 -0.123302479997
490517000 0.527294602206 -0.125711975087
490527500 0.530647203216 -0.123910489561
490538000 0.53357495498 -0.130101710525
490548500 0.532911986659 -0.127559296066
490559000 0.529485995459 -0.125735719715
490569500 0.536286997228 -0.120891966613
490580000 0.519797594946 -0.123973251865
490590500 0.529843738707 -0.129384528603
490601000 0.533014225113 -0.127958485896
490611500 0.525970701143 -0.129452918685
490622000 0.528930322028 -0.128048673863
490632500 0.525571079229 -0.135780380243
490643000 0.533377439195 -0.137831827863
490653500 0.534116746948 -0.128567528428
490664000 0.53148692017 -0.128816094989
490674500 0.5308583817 -0.127107142105
490685000 0.535746724171 -0.132784903207
490695500 0.533578761845 -0.128048200407
490706000 0.531504389141 -0.126129880819
490716500 0.531827350881 -0.12602964705
490727000 0.534976903263 -0.126014191647
490737500 0.530367610092 -0.124141254753
490748000 0.537080704909 -0.124966151313
490758500 0.535828925657 -0.125911565772
490769000 0.534846991445 -0.126911391033
490779500 0.533830318894 -0.127182244579
490790000 0.53328587697 -0.126739097907
490800500 0.531516429156 -0.126652776209
490811000 0.533323256707 -0.127876310093
490821500 0.533776794018 -0.125668188407
490832000 0.534290679826 -0.127003764828
490842500 0.533304229142 -0.12559903674
490853000 0.53328793205 -0.127630980935
490863500 0.534539469523 -0.126178978835
490874000 0.534718907578 -0.126361822018
490884500 0.534250763563 -0.126465698663
490895000 0.534424582343 -0.126498980961
490905500 0.534493132634 -0.126850770828
490916000 0.534173410211 -0.126926299946
490926500 0.534691684196 -0.126361026706
490937000 0.535332949627 -0.126615182183
490947500 0.534809277447 -0.12632749516
490958000 0.535019583853 -0.126807977106
490968500 0.534678759804 -0.126478301608
490979000 0.534739073824 -0.126281877435
490989500 0.535420141927 -0.126341994905
491000000 0.535800637581 -0.126870762135
491010500 0.536208520844 -0.125930531766
491021000 0.53675014075 -0.12651705661
491031500 0.535406415516 -0.126281379388
491042000 0.534750789114 -0.126050912809
491052500 0.5349087144 -0.126463516111
491063000 0.535550636932 -0.126423961023
491073500 0.536499559858 -0.127734482533
491084000 0.534410177301 -0.126070835056
491094500 0.535385522531 -0.127111430419
491105000 0.533033770411 -0.126393616845
491115500 0.535419923576 -0.126752551669
491126000 0.536700064271 -0.126309331674
491136500 0.534544224977 -0.127616222106
491147000 0.536486942796 -0.126018226237
491157500 0.536006830201 -0.127483983072
491168000 0.535430845191 -0.125991517285
491178500 0.535507973778 -0.126930776885
491189000 0.535190500184 -0.128152413524
491199500 0.535832110204 -0.126891636606
491210000 0.535975632887 -0.126724112738
491220500 0.536652732641 -0.12685787607
491231000 0.53858420119 -0.127861075916
491241500 0.536167621013 -0.125945011886
491252000 0.53698678026 -0.125514212394
491262500 0.537781356131 -0.12734408444
491273000 0.536723079814 -0.126556024026
491283500 0.537459355331 -0.127074847389
491294000 0.537274152824 -0.125782788433
491304500 0.538149217888 -0.127358998666
491315000 0.538044813023 -0.125468040858
491325500 0.537820983083 -0.127156806693
491336000 0.536690790226 -0.127527804599
491346500 0.537135275041 -0.126183328087
491357000 0.537186372271 -0.125646881012
491367500 0.536581810158 -0.125657234553
491378000 0.537617959166 -0.127182764602
491388500 0.537555642197 -0.126254279667
491399000 0.537000466218 -0.12593159064
491409500 0.538279395754 -0.126415375791
491420000 0.536974933378 -0.125890487437
491430500 0.537420052758 -0.125849313893
491441000 0.538114574018 -0.126158579503
491451500 0.537953803774 -0.125774007857
491462000 0.537069802095 -0.126045749739
491472500 0.536822830648 -0.125480521993
491483000 0.537510448737 -0.12671061025
491493500 0.537759219352 -0.127845469037
491504000 0.537995657603 -0.126058234508
491514500 0.538443106638 -0.126709342188
491525000 0.537394829557 -0.126003498185
491535500 0.538848859967 -0.127680158602
491546000 0.538859965963 -0.126222834573
491556500 0.538019613796 -0.126495639363
491567000 0.537022629126 -0.126469799482
491577500 0.536864682974 -0.126713644021
491588000 0.537922523996 -0.126770353919
491598500 0.538027410095 -0.126717190856
491609000 0.538303532231 -0.1266245447
491619500 0.538740525818 -0.125828203225
491630000 0.538293537953 -0.125547706987
491640500 0.538693019108 -0.125827601846
491651000 0.538419667794 -0.125772421807
491661500 0.539099584686 -0.126263888294
491672000 0.539305914515 -0.12590148951
491682500 0.539100945345 -0.12597632043
491693000 0.539572444437 -0.126493723623
491703500 0.53952952411 -0.125720176178
491714000 0.53977083128 -0.12712666113
491724500 0.538787097697 -0.126154456773
491735000 0.539554129905 -0.125544117171
491745500 0.538461714605 -0.126202902492
491756000 0.539079665341 -0.126091350769
491766500 0.539243353253 -0.125972665537
491777000 0.539166549403 -0.126307660283
491787500 0.539850575297 -0.126349346489
491798000 0.539275484715 -0.126447628515
491808500 0.539707169771 -0.125700209796
491819000 0.540299209436 -0.126691453083
491829500 0.540091412277 -0.126263864262
491840000 0.5406308752 -0.12671481878
491850500 0.540332440831 -0.126456872889
491861000 0.539960687564 -0.125859393676
491871500 0.540467711211 -0.125940865871
491882000 0.539947010631 -0.126349454487
491892500 0.540307005571 -0.125908734056
491903000 0.540598390976 -0.126416913831
491913500 0.539986441655 -0.126023302252
491924000 0.540372800617 -0.12621094056
491934500 0.5409096566 -0.12625401046
491945000 0.541208757269 -0.126686283499
491955500 0.541136626063 -0.126809476304
491966000 0.540369178014 -0.126295029035
491976500 0.541024872804 -0.126191467934
491987000 0.540914819282 -0.126397216691
491997500 0.541013467311 -0.126344751212
492008000 0.540611209101 -0.126664909343
492018500 0.540807758204 -0.126284174124
492029000 0.540695458206 -0.126702189918
492039500 0.540981289718 -0.127056575999
492050000 0.540583845746 -0.12704671288
492060500 0.541715433164 -0.127110532368
492071000 0.541298362876 -0.126937868455
492081500 0.541383859346 -0.126331216706
492092000 0.541485829051 -0.126877783899
492102500 0.541971030344 -0.126603561885
492113000 0.54171676235 -0.126656712093
492123500 0.541758114542 -0.126551896876
492134000 0.541008913757 -0.125211437279
492144500 0.541949536239 -0.126427950274
492155000 0.541639185837 -0.127343684774
492165500 0.541752919921 -0.127001930732
492176000 0.541873585289 -0.12683126548
492186500 0.541915617461 -0.126733096424
492197000 0.541635858912 -0.126681653613
492207500 0.542231510852 -0.126448471128
492218000 0.541892872634 -0.127062626501
492228500 0.541364611367 -0.127099054653
492239000 0.542072501962 -0.126843039442
492249500 0.542097902879 -0.127143045037
492260000 0.541688508291 -0.127054198651
492270500 0.54230108082 -0.126958185276
492281000 0.542665650109 -0.126671659282
492291500 0.542172705538 -0.126210312863
492302000 0.542236247294 -0.127134867389
492312500 0.542380994256 -0.127078550419
492323000 0.542501885671 -0.127279602121
492333500 0.542952041818 -0.126946289955
492344000 0.542565461214 -0.126512294469
492354500 0.543082007831 -0.127444686862
492365000 0.543082449517 -0.127696560921
492375500 0.542036645574 -0.12730437867
492386000 0.543281549548 -0.126772754291
492396500 0.544255660676 -0.126666484503
492407000 0.543569800398 -0.126198844733
492417500 0.543194138882 -0.126272062605
492428000 0.544210182707 -0.127579151916
492438500 0.543586784491 -0.127349731777
492449000 0.54389452309 -0.127357951495
492459500 0.543376603972 -0.126446378374
492470000 0.54394222636 -0.126789902285
492480500 0.54345103601 -0.127473538178
492491000 0.544598330708 -0.127440534855
492501500 0.544224098723 -0.126773854594
492512000 0.543881879278 -0.127005810661
492522500 0.543676297899 -0.126395465751
492533000 0.543890315735 -0.126959663919
492543500 0.543506033139 -0.126112224489
492554000 0.544057336851 -0.127246669724
492564500 0.544191124843 -0.127386146235
492575000 0.544528033745 -0.127874802969
492585500 0.544272998597 -0.126412718318
492596000 0.544859699926 -0.127748666802
492606500 0.544424223088 -0.126396284232
492617000 0.544269863292 -0.12699854092
492627500 0.544895985036 -0.126982402318
492638000 0.545034638118 -0.127358516054
492648500 0.544576963418 -0.126785512626
492659000 0.545520341963 -0.127384599138
492669500 0.544636920829 -0.127266909749
492680000 0.545170479076 -0.127580036101
492690500 0.545099082051 -0.127659915152
492701000 0.544448249671 -0.12767584607
492711500 0.544298695888 -0.127288753497
492722000 0.544422705644 -0.128054427773
492732500 0.545173242709 -0.127615124248
492743000 0.545127453495 -0.126684173545
492753500 0.545468688812 -0.126538431255
492764000 0.546144267285 -0.127216879975
492774500 0.545766709246 -0.126802846966
492785000 0.545812912635 -0.127499241597
492795500 0.546060210827 -0.127426675052
492806000 0.545670780113 -0.126866701587
492816500 0.546486881782 -0.126855471856
492827000 0.546266333705 -0.127407977401
492837500 0.546560273402 -0.127825690488
492848000 0.546539874319 -0.12772413434
492858500 0.546613817247 -0.127320866115
492869000 0.545403383313 -0.127090814373
492879500 0.545176745199 -0.127461520521
492890000 0.545588351087 -0.127990059186
492900500 0.546344613388 -0.127638401208
492911000 0.544263477134 -0.127009948958
492921500 0.546651448206 -0.127739198855
492932000 0.546117199371 -0.127753857604
492942500 0.546587773152 -0.127983272937
492953000 0.546633351294 -0.127266620014
492963500 0.545795855681 -0.127352892701
492974000 0.546378239796 -0.127179042932
492984500 0.54577163179 -0.127625572906
492995000 0.546449279325 -0.127672223068
493005500 0.546898344522 -0.128375899071
493016000 0.547325822878 -0.128873455597
493026500 0.546312808877 -0.128634142897
493037000 0.546449469468 -0.129294889355
493047500 0.546665412305 -0.127890632244
493058000 0.546455819256 -0.127978784202
493068500 0.547653357415 -0.128163120569
493079000 0.546705962334 -0.128366629571
493089500 0.547262043746 -0.128266335419
493100000 0.546945167438 -0.128001615873
493110500 0.547118051342 -0.128028959618
493121000 0.547350380111 -0.128256939128
493131500 0.547582714834 -0.128266259123
493142000 0.547369889934 -0.128230698376
493152500 0.547826971026 -0.127539117539
493163000 0.547529444763 -0.127471688567
493173500 0.546845731067 -0.127946069573
493184000 0.547326630727 -0.12717077978
493194500 0.547060882285 -0.127941082058
493205000 0.547100324471 -0.128057227059
493215500 0.547930681237 -0.127944545662
493226000 0.547429092883 -0.127766712734
493236500 0.547148633445 -0.128424259285
493247000 0.546742103127 -0.128049583897
493257500 0.547147425729 -0.127952699806
493268000 0.547259392392 -0.127981050445
493278500 0.54748528873 -0.128549756447
493289000 0.547495233449 -0.128408639198
493299500 0.547993645525 -0.12749949202
493310000 0.547932478185 -0.128412890315
493320500 0.548155903165 -0.127977183823
493331000 0.549133941293 -0.128514527556
493341500 0.548435723638 -0.128036048951
493352000 0.548592313896 -0.128146285002
493362500 0.548700725939 -0.128055808929
493373000 0.548559984476 -0.128771125166
493383500 0.549024300098 -0.128658007224
493394000 0.5477626232 -0.129102032458
493404500 0.5496861497 -0.127739177398
493415000 0.549079906592 -0.128677856074
493425500 0.54939684318 -0.127911611377
493436000 0.548580866816 -0.128208617722
493446500 0.547059754833 -0.126415506376
493457000 0.550059098103 -0.128336295356
493467500 0.549903701246 -0.128565799397
493478000 0.550756530823 -0.126979305878
493488500 0.550794640191 -0.128401061814
493499000 0.550610567359 -0.127266715448
493509500 0.549331870516 -0.127974781981
493520000 0.548551118998 -0.127826182518
493530500 0.55134181344 -0.128104206425
493541000 0.550150774252 -0.128825677167
493551500 0.548523605782 -0.12758216939
493562000 0.552037615993 -0.126038629415
493572500 0.548059480308 -0.128723686263
493583000 0.550346373534 -0.127890106507
493593500 0.546158413068 -0.128938019543
493604000 0.549613844998 -0.127476591728
493614500 0.551199282531 -0.13065220948
493625000 0.546719360635 -0.125875907681
493635500 0.546123331411 -0.130986139862
493646000 0.549536339056 -0.129561007536
493656500 0.548171112218 -0.128963364195
493667000 0.551582847572 -0.129841400682
493677500 0.548510240262 -0.128467124814
493688000 0.549632011792 -0.130907848624
493698500 0.547491171545 -0.129631966935
493709000 0.54959181826 -0.128235022515
493719500 0.549576910218 -0.127032928751
493730000 0.549788270893 -0.129220228658
493740500 0.552262867894 -0.12904424551
493751000 0.549562932314 -0.130917727044
493761500 0.549379022575 -0.129730508851
493772000 0.552321268481 -0.129949513612
493782500 0.547743184957 -0.129186625154
493793000 0.551159370483 -0.13042831336
493803500 0.552109205285 -0.132987435203
493814000 0.547883479225 -0.129810973009
493824500 0.55125728732 -0.130271856809
493835000 0.551920762306 -0.127707639903
493845500 0.547270471982 -0.128824417488
493856000 0.552513043717 -0.12812115443
493866500 0.550563050221 -0.130317074176
493877000 0.553149649693 -0.128024269957
493887500 0.552461661475 -0.129405486642
493898000 0.547367604743 -0.129525345498
493908500 0.5520881313 -0.127827193447
493919000 0.551593601424 -0.12760840801
493929500 0.54967167513 -0.130456267653
493940000 0.550778344702 -0.128685727438
493950500 0.55165324425 -0.130397877553
493961000 0.552191716348 -0.129092014273
493971500 0.551586606878 -0.126911253647
493982000 0.550127520783 -0.130417264342
493992500 0.551435256869 -0.126283399941
494003000 0.549021544675 -0.129220855143
494013500 0.548751434488 -0.132384454464
494024000 0.551611875972 -0.128414580908
494034500 0.552013038233 -0.131241419633
494045000 0.548357732317 -0.136230186299
494055500 0.54985167761 -0.127254931275
494066000 0.552623867664 -0.130112787927
494076500 0.550361029073 -0.128628940747
494087000 0.554403836642 -0.130424179257
494097500 0.552714445807 -0.132107259138
494108000 0.538549960917 -0.131482768474
494118500 0.550753484366 -0.138836019458
494129000 0.550274142593 -0.137673008521
494139500 0.553691989477 -0.1329260671
494150000 0.548710237898 -0.132059243936
494160500 0.553736220272 -0.126894613279
494171000 0.558022254077 -0.123747091261
494181500 0.559660649581 -0.127552402707
494192000 0.570432964024 -0.136072010761
494202500 0.553905280057 -0.134927627518
494213000 0.552629627138 -0.139643785619
494223500 0.559460737842 -0.136097610327
494234000 0.548219400316 -0.12150293896
494244500 0.550307336622 -0.141297873572
494255000 0.554091710312 -0.119701861854
494265500 0.559216102573 -0.13857835131
494276000 0.544499382402 -0.121907666415
494286500 0.562892548354 -0.121463697478
494297000 0.545568035263 -0.117384252282
494307500 0.558443804056 -0.122879513806
494318000 0.553960116937 -0.128867526369
494328500 0.563323761747 -0.118427328498
494339000 0.554022025229 -0.142344562182
494349500 0.552763560785 -0.139358485292
494360000 0.54195235037 -0.116488626078
494370500 0.554584458917 -0.139172265841
494381000 0.545313613805 -0.139692552528
494391500 0.550469273434 -0.13018995183
494402000 0.567229666799 -0.132602731275
494412500 0.538193523976 -0.141433088715
494423000 0.556958104028 -0.133324148146
494433500 0.556180425023 -0.131439042344
494444000 0.548744346758 -0.142523236509
494454500 0.547174502928 -0.126748761836
494465000 0.546658944378 -0.130656329682
494475500 0.536547150366 -0.129964769819
494486000 0.543112215867 -0.152464884889
494496500 0.552237580596 -0.130184889717
494507000 0.546148341151 -0.12992691686
494517500 0.553383852384 -0.122210648539
494528000 0.548996039813 -0.123312576085
494538500 0.556675274263 -0.132226374154
494549000 0.575173677411 -0.118784168122
494559500 0.561034756609 -0.135647614763
494570000 0.539083487819 -0.123863639621
494580500 0.555953812716 -0.131065908629
494591000 0.572282157524 -0.136325047938
494601500 0.561344917276 -0.134226346948
494612000 0.556054574751 -0.121590378768
494622500 0.562018020315 -0.126167673266
494633000 0.552719381898 -0.120397686217
494643500 0.549394161128 -0.126682188385
494654000 0.54477378412 -0.133796473663
494664500 0.581502761936 -0.137106494632
494675000 0.562825858518 -0.145761447867
494685500 0.553185992737 -0.132361798066
494696000 0.556231672712 -0.122009916366
494706500 0.547519880921 -0.139823277303
494717000 0.552164504703 -0.135237370739
494727500 0.544825753377 -0.132769165282
494738000 0.559093267246 -0.129781715073
494748500 0.558505169361 -0.136920116319
494759000 0.551815909321 -0.124802524195
494769500 0.551165944743 -0.133322713764
494780000 0.549428447866 -0.138720985415
494790500 0.564825270119 -0.130504199963
494801000 0.549240907601 -0.126367031938
494811500 0.556156284383 -0.127218240742
494822000 0.547230500359 -0.117467871625
494832500 0.55584014699 -0.127490846212
494843000 0.55471156558 -0.129594893226
494853500 0.551336060458 -0.13130643084
494864000 0.564893535188 -0.133205911346
494874500 0.555642486868 -0.131923853709
494885000 0.559373731361 -0.129171426822
494895500 0.554357884408 -0.134061862141
494906000 0.557431543501 -0.126694188117
494916500 0.556116343554 -0.123579645618
494927000 0.555844693567 -0.130401169832
494937500 0.555525373957 -0.131514381611
494948000 0.555348224267 -0.130524845886
494958500 0.555999663685 -0.129863372747
494969000 0.554809961507 -0.131127246858
494979500 0.554041860243 -0.1309951023
494990000 0.555273501798 -0.133816425614
495000500 0.55656944603 -0.132330539419
495011000 0.557181178021 -0.129949920322
495021500 0.555969554726 -0.129657957992
495032000 0.556440310951 -0.130867982073
495042500 0.556067529568 -0.130283641209
495053000 0.555184408672 -0.132893570935
495063500 0.555571408281 -0.134356147224
495074000 0.556161674941 -0.130784905599
495084500 0.556277810758 -0.131613957155
495095000 0.557723740134 -0.132088005956
495105500 0.554492369579 -0.132725519679
495116000 0.557087685021 -0.132515471917
495126500 0.556831136772 -0.132789818159
495137000 0.556419487195 -0.130085476283
495147500 0.557442641668 -0.132557411823
495158000 0.556850499021 -0.130886883881
495168500 0.558648463525 -0.131650611044
495179000 0.555226057577 -0.13046912888
495189500 0.561124145458 -0.130171662833
495200000 0.558885920296 -0.131816324977
495210500 0.558218945766 -0.132756367612
495221000 0.558506580952 -0.13197332707
495231500 0.557027463817 -0.13145840625
495242000 0.558342485093 -0.134706013657
495252500 0.557710941887 -0.130855724551
495263000 0.555424522195 -0.134531494917
495273500 0.557562946663 -0.132995681278
495284000 0.556987244985 -0.132002284758
495294500 0.557383688875 -0.129931905419
495305000 0.556894505583 -0.134446923588
495315500 0.554174818397 -0.131768057152
495326000 0.55666495916 -0.129960188594
495336500 0.55686491317 -0.130000618028
495347000 0.553897540394 -0.13493083049
495357500 0.559221087882 -0.129392082708
495368000 0.556138770988 -0.131931524464
495378500 0.556647020506 -0.131648403723
495389000 0.555985699257 -0.132288329059
495399500 0.557723247755 -0.130558945997
495410000 0.559188326744 -0.131733998076
495420500 0.556381137356 -0.133789902922
495431000 0.558501601507 -0.133787157636
495441500 0.557336156977 -0.131990194913
495452000 0.558238201183 -0.132293944071
495462500 0.557807836574 -0.131911897546
495473000 0.557495078484 -0.130713250242
495483500 0.557082224305 -0.132999016687
495494000 0.559089816121 -0.132313818622
495504500 0.557181722842 -0.131658269304
495515000 0.558412728291 -0.131839050057
495525500 0.558370301855 -0.130728741953
495536000 0.556427582497 -0.130763923924
495546500 0.557878849459 -0.132840068422
495557000 0.557898062658 -0.131978207506
495567500 0.558174263838 -0.1316618305
495578000 0.55726788383 -0.132248089023
495588500 0.558116341943 -0.132380932805
495599000 0.557750424321 -0.132283352477
495609500 0.557700259238 -0.132501214906
495620000 0.558072490437 -0.132580512392
495630500 0.558348369172 -0.132132310521
495641000 0.558419160039 -0.132620007877
495651500 0.557859129358 -0.133126298421
495662000 0.558589597148 -0.132479970808
495672500 0.558318265901 -0.132863487297
495683000 0.558762013372 -0.132828863079
495693500 0.558643830778 -0.132662742029
495704000 0.558958159741 -0.133219510927
495714500 0.558773418146 -0.132605741552
495725000 0.55849924648 -0.132514633662
495735500 0.558970329466 -0.132159406798
495746000 0.558977531529 -0.132652275772
495756500 0.558771821667 -0.132421490428
495767000 0.557979423062 -0.132785027359
495777500 0.558629256772 -0.133037094547
495788000 0.558570561759 -0.132928482674
495798500 0.558713721084 -0.132775031891
495809000 0.558398947723 -0.132465847066
495819500 0.558991849201 -0.133106208891
495830000 0.558682686003 -0.132554308374
495840500 0.559048889221 -0.132536376781
495851000 0.559768966867 -0.132359285263
495861500 0.55995091634 -0.133483332214
495872000 0.559247366216 -0.133237915231
495882500 0.558937477277 -0.133942919168
495893000 0.55825327734 -0.134041450174
495903500 0.559489706802 -0.133621409395
495914000 0.558684745551 -0.134048897804
495924500 0.559812487611 -0.133621280454
495935000 0.559237825767 -0.133271545836
495945500 0.559705996022 -0.133314605284
495956000 0.558918150508 -0.132743119157
495966500 0.559904284945 -0.133218345941
495977000 0.559847906966 -0.13288026147
495987500 0.559826697178 -0.133245706902
495998000 0.559571742937 -0.133193830314
496008500 0.559462759667 -0.132848016612
496019000 0.559790832706 -0.133319680374
496029500 0.559887983244 -0.133788979129
496040000 0.559587555691 -0.133612984017
496050500 0.559530121042 -0.133364905074
496061000 0.559312005646 -0.133836793342
496071500 0.559996187167 -0.133365097214
496082000 0.55952484659 -0.133673474491
496092500 0.559589354733 -0.133496775505
496103000 0.559697414196 -0.133722084122
496113500 0.559440751459 -0.13345012501
496124000 0.559969944521 -0.134065281821
496134500 0.559723880316 -0.133748960541
496145000 0.559167287493 -0.133520609869
496155500 0.560134315883 -0.133800103566
496166000 0.560453042643 -0.13478404723
496176500 0.560656905089 -0.134117638755
496187000 0.560377252369 -0.133908512938
496197500 0.560276375832 -0.134017769004
496208000 0.558844885144 -0.133756806426
496218500 0.560177270873 -0.133722516363
496229000 0.560217856632 -0.13335726048
496239500 0.560403213102 -0.133823012034
496250000 0.560877657876 -0.133488476014
496260500 0.560568489927 -0.133740888396
496271000 0.560576230937 -0.133818663558
496281500 0.55995979419 -0.133785344464
496292000 0.559849699737 -0.134145684582
496302500 0.560450363061 -0.133803590062
496313000 0.560740598529 -0.133745612306
496323500 0.560762031787 -0.133922325513
496334000 0.560337938521 -0.133922750031
496344500 0.560619925543 -0.134209498526
496355000 0.560538447653 -0.133674672803
496365500 0.560050574531 -0.133976551393
496376000 0.559631209916 -0.133651331682
496386500 0.560250494812 -0.133996392691
496397000 0.561038486082 -0.134922877597
496407500 0.561345282376 -0.135180590297
496418000 0.561245436124 -0.135168747438
496428500 0.561104075261 -0.134209123356
496439000 0.561239537147 -0.134486042897
496449500 0.560873886948 -0.134343736947
496460000 0.560432212575 -0.134193383757
496470500 0.561128364809 -0.134405886756
496481000 0.561025649429 -0.134164637886
496491500 0.560899304147 -0.133817581639
496502000 0.562126205301 -0.134130322913
496512500 0.561854462013 -0.134101881488
496523000 0.561821381086 -0.134108848065
496533500 0.561671458894 -0.133832646871
496544000 0.562122004231 -0.133815589027
496554500 0.560860904348 -0.133854287096
496565000 0.561099007948 -0.134101066826
496575500 0.561046605332 -0.13522497734
496586000 0.561726759616 -0.135123555018
496596500 0.561791991552 -0.134436078978
496607000 0.56176749086 -0.134263136581
496617500 0.561664541373 -0.134486081749
496628000 0.561865826272 -0.134437088462
496638500 0.561330426322 -0.134312296893
496649000 0.561482506865 -0.134132208145
496659500 0.561497893277 -0.134570269273
496670000 0.561448134765 -0.134029943938
496680500 0.561719154955 -0.134370149908
496691000 0.561993947058 -0.134962465715
496701500 0.562078304554 -0.134666280617
496712000 0.561780707028 -0.135544929169
496722500 0.561651880842 -0.134812052653
496733000 0.561861505916 -0.134820723844
496743500 0.562364964786 -0.134278263314
496754000 0.561583272339 -0.135392620149
496764500 0.561538764728 -0.135493614475
496775000 0.56128487853 -0.136459575794
496785500 0.562132955825 -0.135556376462
496796000 0.561927054369 -0.135677810658
496806500 0.561676013999 -0.135419186302
496817000 0.561557604949 -0.135774923142
496827500 0.561778814725 -0.135387261576
496838000 0.562155574215 -0.135494096355
496848500 0.562164370084 -0.135105882911
496859000 0.562085067044 -0.134948621231
496869500 0.561969351989 -0.135316999711
496880000 0.562351022425 -0.135490121503
496890500 0.561964468868 -0.134840769794
496901000 0.562095015999 -0.134899607242
496911500 0.562490834493 -0.135309823863
496922000 0.562805759369 -0.135119024107
496932500 0.562642506751 -0.135245976041
496943000 0.563165308089 -0.135440136959
496953500 0.562849534409 -0.135227397365
496964000 0.562558600464 -0.134814279334
496974500 0.561899174576 -0.135542950852
496985000 0.562963435435 -0.135146792583
496995500 0.56262421228 -0.135331075132
497006000 0.562844724968 -0.135006532326
497016500 0.562515518022 -0.135452074941
497027000 0.563230710964 -0.135915263041
497037500 0.562689552184 -0.13557686719
497048000 0.562801267725 -0.135343630975
497058500 0.562610672783 -0.135368655764
497069000 0.562687030974 -0.135819288073
497079500 0.562732438425 -0.135653981902
497090000 0.562717003227 -0.135636879599
497100500 0.562694457627 -0.13515309602
497111000 0.562864553845 -0.135559495838
497121500 0.562858805521 -0.135445514379
497132000 0.562941059451 -0.13561061621
497142500 0.562849112267 -0.135475511321
497153000 0.562930650147 -0.135300913632
497163500 0.563090565498 -0.135294082207
497174000 0.563626680461 -0.135273351896
497184500 0.563551730047 -0.135519933718
497195000 0.563233631381 -0.135309379536
497205500 0.56296171763 -0.135493072354
497216000 0.562687335135 -0.135346298424
497226500 0.563384325869 -0.134938753323
497237000 0.558550661006 -0.131329933587
497247500 0.563473338852 -0.135620779822
497258000 0.563862003361 -0.135408775193
497268500 0.56367397463 -0.136141094062
497279000 0.563614044953 -0.135534843053
497289500 0.5639729912 -0.136064187908
497300000 0.563034161482 -0.135995654449
497310500 0.563711373407 -0.136146087403
497321000 0.563338146933 -0.135942705826
497331500 0.563613765766 -0.135849095347
497342000 0.563955017836 -0.135836068914
497352500 0.563738051877 -0.13566293494
497363000 0.563543938286 -0.136018371266
497373500 0.564199604683 -0.136275126451
497384000 0.564186575052 -0.136058706143
497394500 0.563965424349 -0.136279370061
497405000 0.563820378201 -0.135389551639
497415500 0.564020011316 -0.135036668842
497426000 0.564317745138 -0.136142653972
497436500 0.56441801188 -0.136034737472
497447000 0.564563632452 -0.136286708504
497457500 0.564760529137 -0.135818974327
497468000 0.564050273239 -0.135798794167
497478500 0.564120211003 -0.135764548925
497489000 0.56468165915 -0.136468669949
497499500 0.564656903185 -0.135920228485
497510000 0.56472678278 -0.136389827025
497520500 0.56388382669 -0.136268782788
497531000 0.563772866949 -0.136083906624
497541500 0.564532888585 -0.135984936835
497552000 0.564370649099 -0.136985525836
497562500 0.563221349159 -0.136056452259
497573000 0.564296307865 -0.136000810664
497583500 0.563807006889 -0.136597495088
497594000 0.564393210425 -0.13629945541
497604500 0.564410550057 -0.13585482893
497615000 0.564312484076 -0.136046337422
497625500 0.564193077809 -0.136156077281
497636000 0.564484135541 -0.136023045486
497646500 0.564012811049 -0.136241367628
497657000 0.564376090373 -0.136330849565
497667500 0.564787938294 -0.136375824157
497678000 0.564784463012 -0.136109731177
497688500 0.564412017422 -0.136785008135
497699000 0.564508387023 -0.137155804179
497709500 0.564971384145 -0.136222731212
497720000 0.56472574284 -0.136928167043
497730500 0.564362440177 -0.136473238734
497741000 0.564538537334 -0.136473805298
497751500 0.564099607333 -0.136534088433
497762000 0.564782360514 -0.136435858664
497772500 0.565090747282 -0.136467730074
497783000 0.56436650344 -0.135745513004
497793500 0.564711391098 -0.136916647821
497804000 0.564839223171 -0.137111202222
497814500 0.56525049361 -0.136668312843
497825000 0.564579430347 -0.137462503511
497835500 0.565019249226 -0.137164318328
497846000 0.564602836917 -0.136793062917
497856500 0.565754674499 -0.137312602846
497867000 0.564834245126 -0.136766857791
497877500 0.564875212569 -0.136699445845
497888000 0.565011759705 -0.136325728901
497898500 0.564823529786 -0.136329063561
497909000 0.565436438964 -0.136687613171
497919500 0.565142909406 -0.13659667604
497930000 0.565147805347 -0.136003543551
497940500 0.565205642946 -0.13661993455
497951000 0.565162166166 -0.136416888872
497961500 0.56526082674 -0.136881015908
497972000 0.565098795909 -0.137093920073
497982500 0.5647303755 -0.136938248544
497993000 0.565165690342 -0.13775609229
498003500 0.565190279722 -0.136630462604
498014000 0.565182726522 -0.136907979765
498024500 0.564973432172 -0.136528339569
498035000 0.565940443718 -0.136922018164
498045500 0.565779642427 -0.137024171279
498056000 0.564769172303 -0.137351484775
498066500 0.565922608743 -0.137163168548
498077000 0.565443718751 -0.136974940514
498087500 0.565268325717 -0.136588695946
498098000 0.56493838124 -0.136948200003
498108500 0.565672288685 -0.136635825135
498119000 0.565450059168 -0.137186960456
498129500 0.565689976976 -0.137109949436
498140000 0.565423586647 -0.137212549295
498150500 0.56563642282 -0.13713530468
498161000 0.565996287467 -0.13715823788
498171500 0.56561046024 -0.137143414948
498182000 0.565378513278 -0.137321492666
498192500 0.565419490833 -0.137990984703
498203000 0.566044145503 -0.137628553838
498213500 0.565754541027 -0.137716427489
498224000 0.565710409596 -0.137990784635
498234500 0.565833568511 -0.13775760659
498245000 0.566637538224 -0.137658250785
498255500 0.565623419467 -0.137608565652
498266000 0.565956461559 -0.138288359605
498276500 0.565455290224 -0.136446585678
498287000 0.566458993104 -0.134463861852
498297500 0.56349820553 -0.133883343199
498308000 0.5674864668 -0.136226459037
498318500 0.565119477523 -0.146225475615
498329000 0.566744643691 -0.144228128612
498339500 0.568524764224 -0.137872934839
498350000 0.565811527357 -0.138332534398
498360500 0.565486500498 -0.137735946765
498371000 0.565959551765 -0.136952950902
498381500 0.565636799687 -0.137207455346
498392000 0.56670299747 -0.137000001729
498402500 0.566920809533 -0.13751487941
498413000 0.566109508015 -0.137091348304
498423500 0.566244982597 -0.1370523147
498434000 0.566508575406 -0.138188993794
498444500 0.566789854502 -0.137417361972
498455000 0.564967046797 -0.137268640584
498465500 0.565489247468 -0.13775007922
498476000 0.566131526991 -0.137598015268
498486500 0.566641197247 -0.140373032868
498497000 0.562732437754 -0.138334543413
498507500 0.564119333641 -0.13878692931
498518000 0.564644780057 -0.140788605616
498528500 0.566839474063 -0.138293131705
498539000 0.567841410294 -0.137104584096
498549500 0.567542603124 -0.138564903291
498560000 0.564888609102 -0.13796450543
498570500 0.564362669425 -0.140933089323
498581000 0.562624166456 -0.136216607716
498591500 0.567398548397 -0.137201626137
498602000 0.566947028788 -0.138578514317
498612500 0.568749328316 -0.135809858055
498623000 0.566875000965 -0.140881368881
498633500 0.569270246313 -0.137557229348
498644000 0.571553079109 -0.13868754112
498654500 0.567068644044 -0.136019293779
498665000 0.566178942641 -0.136058822797
498675500 0.5678819151 -0.136075411129
498686000 0.563859629418 -0.136610476759
498696500 0.565718117249 -0.13831883426
498707000 0.566994028426 -0.139711766809
498717500 0.565221442458 -0.13659628686
498728000 0.567907323525 -0.138768845256
498738500 0.563961940339 -0.137332476771
498749000 0.57059950428 -0.136743662907
498759500 0.564876436384 -0.135537115402
498770000 0.566930922103 -0.137647334323
498780500 0.56697497243 -0.136851922688
498791000 0.563437651899 -0.139123714561
498801500 0.566780428257 -0.137640943896
498812000 0.567623328576 -0.13987424309
498822500 0.568620432716 -0.139102992468
498833000 0.567261456555 -0.138930298792
498843500 0.567462097985 -0.138799405876
498854000 0.56650178815 -0.135558974091
498864500 0.567041359996 -0.136162932228
498875000 0.566907435946 -0.141347987549
498885500 0.567505453728 -0.138139509119
498896000 0.568091949098 -0.136423358423
498906500 0.567198324183 -0.137858297994
498917000 0.567227429749 -0.138702724113
498927500 0.567286777583 -0.138639066502
498938000 0.567071036044 -0.138187494685
498948500 0.567162859055 -0.138324400085
498959000 0.567394216699 -0.139128014593
498969500 0.567388074563 -0.138330494996
498980000 0.567292061623 -0.138436304427
498990500 0.568827472664 -0.137967295929
499001000 0.568270636471 -0.13975631194
499011500 0.568128558889 -0.138095646462
499022000 0.567911838441 -0.139022357743
499032500 0.568609812286 -0.137868526501
499043000 0.564079612859 -0.139329113031
499053500 0.567741208666 -0.13907674203
499064000 0.567215174354 -0.137641980995
499074500 0.567038600959 -0.139115475821
499085000 0.567847212921 -0.137447771984
499095500 0.567194924399 -0.138277637362
499106000 0.566712767847 -0.138372532514
499116500 0.567323393625 -0.137116223123
499127000 0.567975541301 -0.143079929317
499137500 0.566758235959 -0.134372083401
499148000 0.56882978007 -0.137003079202
499158500 0.567872041895 -0.137740669501
499169000 0.572846821096 -0.136070195925
499179500 0.567639232654 -0.138400714204
499190000 0.565496166789 -0.134617223651
499200500 0.566632073159 -0.137702781666
499211000 0.578405944831 -0.139993154338
499221500 0.567847378738 -0.133318168848
499232000 0.570492288202 -0.142223399058
499242500 0.559815429897 -0.136409229612
499253000 0.549841512999 -0.13916456625
499263500 0.586751634082 -0.151529882364
499274000 0.570170597987 -0.134859151557
499284500 0.561085135341 -0.138777065414
499295000 0.57546107155 -0.134416750895
499305500 0.564136742197 -0.148023963303
499316000 0.570918708175 -0.144193379257
499326500 0.575933832401 -0.138065012073
499337000 0.567179827816 -0.134032720109
499347500 0.561283422625 -0.138748595776
499358000 0.57536188245 -0.142426477738
499368500 0.574763417031 -0.145043873756
499379000 0.5727854183 -0.137053944529
499389500 0.568217771586 -0.125656701523
499400000 0.560938426909 -0.128015590551
499410500 0.571741139829 -0.156774792642
499421000 0.555017950001 -0.134825436024
499431500 0.578342535572 -0.127455366925
499442000 0.571552580676 -0.130042696775
499452500 0.559149257873 -0.144646236589
499463000 0.56574457173 -0.140267525698
499473500 0.569457768775 -0.130360747677
499484000 0.566717086916 -0.133055813117
499494500 0.571853116555 -0.144946867662
499505000 0.56290756466 -0.142909688673
499515500 0.567554855136 -0.122282325692
499526000 0.55889084741 -0.15101055584
499536500 0.566052501305 -0.140745503632
499547000 0.572902365578 -0.137266930103
499557500 0.575593601687 -0.134370624549
499568000 0.550523373645 -0.136898994874
499578500 0.59894013624 -0.142756216455
499589000 0.566533732986 -0.137426860398
499599500 0.577186359407 -0.148192180005
499610000 0.563707368867 -0.148562752062
499620500 0.562633783992 -0.134858099976
499631000 0.566952011493 -0.137295799825
499641500 0.573210526186 -0.141469874534
499652000 0.575482211742 -0.138133101706
499662500 0.57075168814 -0.130520606429
499673000 0.569657606118 -0.144340870576
499683500 0.571488294128 -0.142425427796
499694000 0.57924973372 -0.135259385729
499704500 0.568277640537 -0.139320279118
499715000 0.565998560648 -0.143552841683
499725500 0.5677920959 -0.138598571489
499736000 0.569294884609 -0.14094626038
499746500 0.56815341401 -0.138488246494
499757000 0.566240278517 -0.13852282381
499767500 0.56995039552 -0.138060882438
499778000 0.567433191626 -0.138903328309
499788500 0.569091192146 -0.13831785804
499799000 0.569252633245 -0.139670819459
499809500 0.569907501486 -0.139492066297
499820000 0.568158791397 -0.140728509078
499830500 0.566837632547 -0.133756254107
499841000 0.570758468442 -0.138643773626
499851500 0.569622594527 -0.138516394108
499862000 0.569063644397 -0.13906436914
499872500 0.570341200186 -0.139700402086
499883000 0.568756392006 -0.139703066098
499893500 0.569533544647 -0.139332681231
499904000 0.57093961259 -0.139807053615
499914500 0.570053202898 -0.139174421421
499925000 0.568521765794 -0.137117113331
499935500 0.570245795036 -0.138883053711
499946000 0.570528835506 -0.14022152579
499956500 0.569162594182 -0.139723988288
499967000 0.569045197503 -0.140043628419
499977500 0.569940140591 -0.138863001023
499988000 0.569716494592 -0.139315831794
499998500 0.569170883507 -0.13939494733
500009000 0.570072417566 -0.139223968946
500019500 0.570438496352 -0.13895148597
500030000 0.570440420748 -0.14005671252
500040500 0.570250734563 -0.139296002904
500051000 0.569734038214 -0.13938072199
500061500 0.570320634767 -0.139066111226
500072000 0.569341062484 -0.139404045836
500082500 0.568857300954 -0.138342387769
500093000 0.568056523504 -0.139230185036
500103500 0.570163854721 -0.137815128716
500114000 0.56960136892 -0.139807291254
500124500 0.569944282277 -0.140004261493
500135000 0.569492100169 -0.138080811839
500145500 0.570245240152 -0.140337602267
500156000 0.570847955374 -0.141438896637
500166500 0.570588150058 -0.141288068469
500177000 0.569196049946 -0.139578804948
500187500 0.569375874966 -0.139507201811
500198000 0.570515581443 -0.137815868949
500208500 0.570153493342 -0.139510556378
500219000 0.569343307972 -0.137730767323
500229500 0.571737172078 -0.138851578885
500240000 0.570040748138 -0.137791273017
500250500 0.571133320284 -0.139971797589
500261000 0.569122996237 -0.138871823229
500271500 0.57177492763 -0.139764481542
500282000 0.569330193955 -0.139352272118
500292500 0.57102713465 -0.137771370127
500303000 0.570004515504 -0.140126724726
500313500 0.570649070683 -0.140698732472
500324000 0.570444687859 -0.138826897331
500334500 0.570725909965 -0.13678810495
500345000 0.570126792079 -0.140761004382
500355500 0.569904973118 -0.138808500465
500366000 0.572479469046 -0.140444012817
500376500 0.572172303046 -0.139753930236
500387000 0.570858584283 -0.139850655924
500397500 0.571286757403 -0.139757863277
500408000 0.571610638569 -0.139462809422
500418500 0.571562592899 -0.14164195578
500429000 0.570730421193 -0.141066810966
500439500 0.571859493301 -0.139800226479
500450000 0.57079430938 -0.137910968851
500460500 0.571419214059 -0.139490400953
500471000 0.570772073188 -0.139253873955
500481500 0.570842607456 -0.139680995068
500492000 0.570578279922 -0.139783901823
500502500 0.571324713687 -0.140587577501
500513000 0.570548670596 -0.139793162842
500523500 0.572115174952 -0.139273429737
500534000 0.571468173872 -0.140833577448
500544500 0.57155811954 -0.139963660901
500555000 0.57167257492 -0.140216190033
500565500 0.571396674997 -0.139897244351
500576000 0.571142128942 -0.140031025256
500586500 0.570961613974 -0.139493479419
500597000 0.571748769973 -0.1394430067
500607500 0.571457180701 -0.139534293085
500618000 0.571209330398 -0.139434988088
500628500 0.570737328234 -0.139135953954
500639000 0.570899489166 -0.139476628302
500649500 0.571607334489 -0.139254307656
500660000 0.571604052004 -0.139122674222
500670500 0.570902807833 -0.139510735099
500681000 0.571533235752 -0.138650136654
500691500 0.57197749786 -0.139465192336
500702000 0.571612086016 -0.140289087296
500712500 0.571509752232 -0.140057180562
500723000 0.57140888586 -0.140360888847
500733500 0.571711903078 -0.1400678131
500744000 0.571768799713 -0.13990945054
500754500 0.57120702571 -0.139539227141
500765000 0.5714940709 -0.139779483812
500775500 0.57177799052 -0.139664758814
500786000 0.571913647227 -0.139923960111
500796500 0.572017631134 -0.139803023878
500807000 0.571930086331 -0.139982237451
500817500 0.572341723983 -0.139746163812
500828000 0.572241660356 -0.140087153683
500838500 0.571768027215 -0.14004941059
500849000 0.572217891882 -0.139158114346
500859500 0.572266738874 -0.139742012705
500870000 0.572272110352 -0.13997621086
500880500 0.572240429423 -0.140568110838
500891000 0.57249362763 -0.140093608055
500901500 0.57237408093 -0.139771162755
500912000 0.572585603503 -0.139519642388
500922500 0.572222707724 -0.139946128833
500933000 0.57237891712 -0.139306531637
500943500 0.5733155364 -0.140141955213
500954000 0.572475935507 -0.140122080773
500964500 0.572078011137 -0.140753128652
500975000 0.572014922318 -0.139411215378
500985500 0.572420721371 -0.140053023297
500996000 0.572525137639 -0.139597377302
501006500 0.571869287746 -0.139936649317
501017000 0.571735469528 -0.1400298006
501027500 0.570733979843 -0.140211898734
501038000 0.571529701057 -0.139098914848
501048500 0.572066089016 -0.140130959196
501059000 0.572527308783 -0.139586778991
501069500 0.572836702864 -0.139944785349
501080000 0.573388533369 -0.14005016304
501090500 0.573304923722 -0.140849658349
501101000 0.573334943404 -0.140358044632
501111500 0.572917789754 -0.140047618873
501122000 0.572786535336 -0.139370142064
501132500 0.572925411881 -0.140360726958
501143000 0.573032034457 -0.140148787565
501153500 0.572625106047 -0.13984092569
501164000 0.572932624376 -0.139912896922
501174500 0.573120624533 -0.139779485334
501185000 0.572643184272 -0.139908926151
501195500 0.573070261879 -0.139929587172
501206000 0.572498776704 -0.139734520664
501216500 0.573188607428 -0.140181839996
501227000 0.573762076915 -0.139532227589
501237500 0.573321416428 -0.139980074838
501248000 0.573370009927 -0.140098769464
501258500 0.572709183486 -0.139714343061
501269000 0.573010828068 -0.140188485956
501279500 0.572931848849 -0.139962682031
501290000 0.572710125989 -0.139911817643
501300500 0.572891852526 -0.140062361343
501311000 0.573352972514 -0.140669636416
501321500 0.57342699816 -0.140032672286
501332000 0.573181928043 -0.140969894671
501342500 0.573200117397 -0.140236015425
501353000 0.573279194639 -0.140639823744
501363500 0.572698752805 -0.139775632464
501374000 0.572821541885 -0.14036359121
501384500 0.573113580093 -0.139996324935
501395000 0.573478839091 -0.139689385403
501405500 0.574031622143 -0.141412121399
501416000 0.572455540491 -0.140379457958
501426500 0.574001765308 -0.13974791638
501437000 0.57365729451 -0.140138800557
501447500 0.574082942978 -0.140677874584
501458000 0.572121296457 -0.141552214215
501468500 0.573609350583 -0.140805118484
501479000 0.573745303054 -0.140836287808
501489500 0.57374223261 -0.139983184932
501500000 0.573950697443 -0.140481756625
501510500 0.574038519336 -0.140667354725
501521000 0.573969951892 -0.139983884382
501531500 0.573724982024 -0.140042898681
501542000 0.574373733518 -0.139756540963
501552500 0.574231268704 -0.140462993195
501563000 0.57421537775 -0.140493090889
501573500 0.573931468841 -0.140165973505
501584000 0.573840539835 -0.139753366375
501594500 0.574447810129 -0.139834579146
501605000 0.574011687154 -0.140168333022
501615500 0.57348435035 -0.140413724006
501626000 0.574417697532 -0.140738268329
501636500 0.573417062811 -0.14082272027
501647000 0.574220821997 -0.14072715122
501657500 0.574196087211 -0.140447411382
501668000 0.574221165135 -0.140857072646
501678500 0.574175498766 -0.141066126589
501689000 0.574962670895 -0.142842692838
501699500 0.574567027229 -0.141711163425
501710000 0.574981471222 -0.140678657797
501720500 0.575353268513 -0.140244820163
501731000 0.575127656659 -0.140384258268
501741500 0.574576477167 -0.140146650156
501752000 0.574190137075 -0.140263038961
501762500 0.574487172895 -0.140410662946
501773000 0.574611664025 -0.140982919111
501783500 0.574785282056 -0.140415683306
501794000 0.574455701475 -0.140199170929
501804500 0.575041649494 -0.139788787487
501815000 0.574783952847 -0.140320582547
501825500 0.575223368961 -0.140605230445
501836000 0.574563237263 -0.14021371533
501846500 0.575172591025 -0.140601821347
501857000 0.574756926857 -0.140708638685
501867500 0.57442890674 -0.140865200491
501878000 0.574588871942 -0.140574675875
501888500 0.57538826806 -0.140939433377
501899000 0.575022806002 -0.140425195317
501909500 0.575057397951 -0.140404128293
501920000 0.574743513148 -0.140698258584
501930500 0.574492517997 -0.140378065512
501941000 0.575329012285 -0.140513465411
501951500 0.57456304781 -0.140461401042
501962000 0.575413306546 -0.140226983757
501972500 0.575058317217 -0.140286890818
501983000 0.575571484448 -0.13986922319
501993500 0.575550141314 -0.140391528769
502004000 0.57513357523 -0.139840989103
502014500 0.574956234478 -0.140477723961
502025000 0.575084179382 -0.140230418979
502035500 0.575014034568 -0.140801700424
502046000 0.575320442813 -0.140869250339
502056500 0.575739415185 -0.14054223265
502067000 0.575437771178 -0.140581663579
502077500 0.575852531168 -0.140166499401
502088000 0.57503688982 -0.140559720819
502098500 0.574934313117 -0.140235892787
502109000 0.575203893913 -0.140582602062
502119500 0.575614057066 -0.141313069354
502130000 0.574903878637 -0.14063000505
502140500 0.57561725105 -0.14112119195
502151000 0.575409089617 -0.140363708471
502161500 0.575281205479 -0.141024526298
502172000 0.575682598477 -0.140396445319
502182500 0.575755919428 -0.140210781072
502193000 0.575865467404 -0.140380617266
502203500 0.576013388764 -0.139850823839
502214000 0.575839819545 -0.141085942937
502224500 0.576039867165 -0.140961177075
502235000 0.575974705313 -0.140782996816
502245500 0.575720263629 -0.140841987686
502256000 0.575728813725 -0.140907231745
502266500 0.576295931432 -0.140519361915
502277000 0.575427978661 -0.14021720258
502287500 0.576461201779 -0.140045650001
502298000 0.575670118331 -0.140170557672
502308500 0.575941806756 -0.141275350929
502319000 0.576390442603 -0.140411627773
502329500 0.576674017586 -0.140399422285
502340000 0.57661269987 -0.140279589672
502350500 0.577057888073 -0.140808169478
502361000 0.576845179737 -0.140780589136
502371500 0.576871682704 -0.140847358629
502382000 0.576666596009 -0.140671570571
502392500 0.576522813512 -0.140650433259
502403000 0.576542551874 -0.140759709315
502413500 0.576624169012 -0.141019720802
502424000 0.576398720136 -0.140683190746
502434500 0.576272068815 -0.14073618611
502445000 0.576668276323 -0.140213162863
502455500 0.576094978579 -0.140935388784
502466000 0.576537378835 -0.141306489198
502476500 0.576871833906 -0.141204129026
502487000 0.576492978936 -0.141433049148
502497500 0.576758166255 -0.141283362657
502508000 0.576927934894 -0.141323728935
502518500 0.576845601417 -0.14096481037
502529000 0.575770121127 -0.14127902023
502539500 0.576501100026 -0.140789397703
502550000 0.57663366725 -0.140808058414
502560500 0.577491254409 -0.141071815943
502571000 0.576984175247 -0.140880478292
502581500 0.577385570166 -0.140619389055
502592000 0.577108850849 -0.140901797398
502602500 0.576903723764 -0.14094780312
502613000 0.577311957818 -0.140855774185
502623500 0.577213092922 -0.140832571448
502634000 0.576588520425 -0.140884623613
502644500 0.576596492454 -0.141253792895
502655000 0.577298076323 -0.13906541657
502665500 0.576978287714 -0.141492756601
502676000 0.576686132906 -0.141937967724
502686500 0.576955974629 -0.140752911627
502697000 0.577095864933 -0.14136452036
502707500 0.576980692043 -0.141273094816
502718000 0.577230256143 -0.140971775799
502728500 0.577577730726 -0.1407306766
502739000 0.577233500108 -0.14125884811
502749500 0.577685955743 -0.141397978597
502760000 0.57719193576 -0.140972850682
502770500 0.577661240135 -0.141015261892
502781000 0.577808063643 -0.140992642947
502791500 0.577922350433 -0.140836446741
502802000 0.577919736997 -0.141209085954
502812500 0.577702156058 -0.141000471125
502823000 0.577534259261 -0.140993148999
502833500 0.578216301931 -0.141281177109
502844000 0.57762593376 -0.141344336383
502854500 0.577943243006 -0.141340050553
502865000 0.578356250528 -0.141799424629
502875500 0.577889697647 -0.141426152168
502886000 0.577957910652 -0.141406135593
502896500 0.577882500619 -0.141504755757
502907000 0.577674093952 -0.141202046573
502917500 0.577509925931 -0.141471235952
502928000 0.578152057224 -0.141504758328
502938500 0.578637960387 -0.141516354716
502949000 0.578507820791 -0.141103406575
502959500 0.577814352988 -0.141128693985
502970000 0.577873950941 -0.141282618275
502980500 0.578511902534 -0.14163485132
502991000 0.578558393956 -0.14100528156
503001500 0.57859228231 -0.140994252545
503012000 0.578426362921 -0.141714270441
503022500 0.578694637903 -0.141338429104
503033000 0.57883859975 -0.140873541769
503043500 0.578215225969 -0.141537324106
503054000 0.578456922791 -0.141371580562
503064500 0.578420657644 -0.1418887611
503075000 0.579102343414 -0.141615887406
503085500 0.578659408064 -0.141902570502
503096000 0.578571882264 -0.141399628114
503106500 0.578279710606 -0.141554427759
503117000 0.578286226395 -0.141139982472
503127500 0.578746192394 -0.140564172067
503138000 0.577889735153 -0.140943258293
503148500 0.57827806656 -0.140430339053
503159000 0.579022480006 -0.140562602973
503169500 0.577315064371 -0.142235421403
503180000 0.579563243457 -0.141093318251
503190500 0.578606314861 -0.141126108205
503201000 0.578518073641 -0.141931534778
503211500 0.579385440796 -0.14145182571
503222000 0.576981589013 -0.142040460001
503232500 0.579518262487 -0.141096986115
503243000 0.578475667979 -0.142631105332
503253500 0.578437231915 -0.140096586167
503264000 0.579362941909 -0.142449414927
503274500 0.57841897271 -0.142328916645
503285000 0.578388915357 -0.140425539124
503295500 0.579504708942 -0.145407225874
503306000 0.579340687354 -0.14191739755
503316500 0.581710149748 -0.143786813748
503327000 0.578637368653 -0.142999063689
503337500 0.578892321142 -0.139708483206
503348000 0.583104085181 -0.141315073664
503358500 0.577235472112 -0.144877384323
503369000 0.577946607722 -0.140420117367
503379500 0.578917458424 -0.14534438339
503390000 0.579316265404 -0.141965593848
503400500 0.581008865298 -0.141308625054
503411000 0.578885240899 -0.141773560775
503421500 0.579086124483 -0.145963630547
503432000 0.587040851097 -0.138584175815
503442500 0.572584425012 -0.138131364588
503453000 0.579728666441 -0.14151219116
503463500 0.57963424284 -0.139239461166
503474000 0.578501739788 -0.144495144437
503484500 0.582708457995 -0.145324692395
503495000 0.581791468624 -0.141820034398
503505500 0.583594636689 -0.146292296649
503516000 0.583508641662 -0.142753824393
503526500 0.583246127085 -0.140142231633
503537000 0.57920716592 -0.139231265829
503547500 0.578298915375 -0.139142335542
503558000 0.576214341706 -0.143447387527
503568500 0.582895496063 -0.140430086106
503579000 0.574528033162 -0.141504170066
503589500 0.572093432931 -0.144768327502
503600000 0.577011516649 -0.138462388848
503610500 0.579304612148 -0.143428598716
503621000 0.578380570506 -0.140348137338
503631500 0.577365053377 -0.146272123656
503642000 0.57257439368 -0.146209521988
503652500 0.57596686915 -0.143640792715
503663000 0.583400110479 -0.13273570243
503673500 0.572534559498 -0.144913084515
503684000 0.579579381275 -0.148725830451
503694500 0.579623670153 -0.145153929339
503705000 0.578763551786 -0.142662867475
503715500 0.583379806063 -0.136848981681
503726000 0.582114127597 -0.13796383408
503736500 0.57836481887 -0.137144055034
503747000 0.578741818335 -0.141565956995
503757500 0.581211444386 -0.139768679399
503768000 0.579749601459 -0.141231801796
503778500 0.58446499243 -0.143316924299
503789000 0.582226733558 -0.143174524436
503799500 0.581538447293 -0.140311833798
503810000 0.581200006438 -0.140545144404
503820500 0.580921032536 -0.142865317053
503831000 0.579746733302 -0.140623212478
503841500 0.580985957149 -0.141412848297
503852000 0.580809648943 -0.141200598098
503862500 0.580029295831 -0.141195655386
503873000 0.581258357524 -0.141833418104
503883500 0.581031536116 -0.142007511414
503894000 0.581587559649 -0.142061484645
503904500 0.581986043718 -0.142522996347
503915000 0.581384473016 -0.142515254897
503925500 0.581573146552 -0.142472656957
503936000 0.581016201025 -0.142206465588
503946500 0.581014749649 -0.142641201524
503957000 0.580898638887 -0.142828587829
503967500 0.580966739421 -0.142039960774
503978000 0.581035860189 -0.142590924999
503988500 0.581194762042 -0.142456137551
503999000 0.58158298839 -0.142229012751
504009500 0.581545436708 -0.142799572922
504020000 0.581542555409 -0.142963201373
504030500 0.581702751356 -0.142773436323
504041000 0.581206945552 -0.14251656474
504051500 0.580582405492 -0.142985142446
504062000 0.582109321435 -0.142364965844
504072500 0.581861865635 -0.141875953779
504083000 0.581848425661 -0.142198470729
504093500 0.58159529793 -0.142939777178
504104000 0.581471565206 -0.142737453032
504114500 0.581506729648 -0.143355645353
504125000 0.581850555655 -0.14333764872
504135500 0.582065263181 -0.143162426507
504146000 0.581990922631 -0.142611167865
504156500 0.581756232992 -0.143016813544
504167000 0.582187196083 -0.142905646166
504177500 0.582490425833 -0.143089455138
504188000 0.582068802867 -0.142403297689
504198500 0.582191866315 -0.142396227346
504209000 0.582391391398 -0.142970802979
504219500 0.582132023615 -0.142345961545
504230000 0.581864062116 -0.142791161033
504240500 0.582070656427 -0.143254709995
504251000 0.582269927342 -0.142568310443
504261500 0.581895391313 -0.142934116189
504272000 0.581898314377 -0.143439947069
504282500 0.582486423602 -0.14299776137
504293000 0.582003670179 -0.142997062086
504303500 0.581767154808 -0.14294624062
504314000 0.581846417033 -0.143393246458
504324500 0.582291652764 -0.14276829584
504335000 0.582185110565 -0.142463995023
504345500 0.582945245793 -0.142586360346
504356000 0.583199795123 -0.142824218863
504366500 0.582584874853 -0.142964455205
504377000 0.581892287855 -0.142943327402
504387500 0.582337137132 -0.142389544364
504398000 0.582351572639 -0.14299764181
504408500 0.582281258601 -0.142898748826
504419000 0.582667229259 -0.143116507131
504429500 0.5830871112 -0.143157330706
504440000 0.582481781037 -0.142418556297
504450500 0.583175162382 -0.142563091524
504461000 0.58284949325 -0.142542268298
504471500 0.583893058127 -0.142689834459
504482000 0.583173928378 -0.143059013629
504492500 0.5819552878 -0.143629718074
504503000 0.58175231811 -0.143208380434
504513500 0.581108912186 -0.143208752536
504524000 0.582067277517 -0.143444470842
504534500 0.582714945213 -0.143212766393
504545000 0.58336509275 -0.142890906604
504555500 0.583464084295 -0.143120564602
504566000 0.583679203057 -0.142971358935
504576500 0.584044333305 -0.143273016776
504587000 0.583423314431 -0.142856324608
504597500 0.583027313347 -0.143035102605
504608000 0.583772401999 -0.143253438896
504618500 0.583768933513 -0.142864133868
504629000 0.583843877907 -0.143108831968
504639500 0.583349440725 -0.142689144576
504650000 0.583867256649 -0.143256344411
504660500 0.584160214874 -0.14246512184
504671000 0.584012368239 -0.143266322881
504681500 0.584116725318 -0.142428576353
504692000 0.584254012039 -0.142640838362
504702500 0.58367748343 -0.142534172105
504713000 0.583297514187 -0.143012085275
504723500 0.583456233543 -0.142946160281
504734000 0.583194424966 -0.142822095983
504744500 0.583967341222 -0.142998565784
504755000 0.583438831774 -0.142999389895
504765500 0.583638070415 -0.143386657567
504776000 0.583307676273 -0.143856355612
504786500 0.583483393669 -0.143679229004
504797000 0.583520928187 -0.14301972495
504807500 0.583682401906 -0.14327718356
504818000 0.584348083075 -0.143622424036
504828500 0.584513714994 -0.143097856158
504839000 0.584168343068 -0.143048613578
504849500 0.583726646565 -0.143271048791
504860000 0.583908039939 -0.14372847401
504870500 0.583810535249 -0.14385673693
504881000 0.584458629936 -0.143899620208
504891500 0.584345432986 -0.143455810048
504902000 0.584739003898 -0.143869351715
504912500 0.584917956897 -0.143498352574
504923000 0.584816755115 -0.143148417946
504933500 0.584965710171 -0.143674668957
504944000 0.585030953332 -0.143431899563
504954500 0.584293373179 -0.143734549136
504965000 0.584359364453 -0.143298747572
504975500 0.584584135707 -0.14380050505
504986000 0.584303923472 -0.143574395543
504996500 0.584045676171 -0.144325739419
505007000 0.58439545779 -0.143723706708
505017500 0.584416395207 -0.144222243417
505028000 0.58486713181 -0.143729416606
505038500 0.585010348988 -0.143555713682
505049000 0.58502633671 -0.143821493926
505059500 0.585136715866 -0.143370644938
505070000 0.585422995051 -0.142678429668
505080500 0.584786467847 -0.142615507689
505091000 0.58517787832 -0.143260066448
505101500 0.585120336237 -0.143535789896
505112000 0.584914525602 -0.14349459619
505122500 0.584922394727 -0.143796190775
505133000 0.585236982135 -0.144547828133
505143500 0.584690965827 -0.144003454129
505154000 0.584841827184 -0.144325811722
505164500 0.588281229671 -0.143300036523
505175000 0.585080197966 -0.143892033745
505185500 0.585524342283 -0.143502353383
505196000 0.585330050492 -0.143674298881
505206500 0.585329262343 -0.144224459927
505217000 0.585388520432 -0.144225098652
505227500 0.584795316872 -0.144247518867
505238000 0.585059134245 -0.144322285151
505248500 0.584845933127 -0.144008141223
505259000 0.585212489178 -0.143820663828
505269500 0.585167054001 -0.144494004483
505280000 0.585079871913 -0.143640544837
505290500 0.584478363031 -0.143825227498
505301000 0.585459353301 -0.143886496425
505311500 0.585586725899 -0.144282935572
505322000 0.585338157351 -0.143905695251
505332500 0.585704704634 -0.144037976089
505343000 0.585578570732 -0.143584747446
505353500 0.585817799556 -0.144019926159
505364000 0.585353988307 -0.143676646968
505374500 0.585952480913 -0.144181550983
505385000 0.586091922493 -0.144238765483
505395500 0.586213274553 -0.144118423282
505406000 0.58613917346 -0.144304389988
505416500 0.586163032781 -0.144142766265
505427000 0.585681171398 -0.14439140863
505437500 0.586636874827 -0.144049260801
505448000 0.586080162689 -0.143807416732
505458500 0.586312391665 -0.14413848053
505469000 0.586131875818 -0.143897739992
505479500 0.585798803057 -0.144073751204
505490000 0.58563593643 -0.144318751862
505500500 0.585771851221 -0.144116974868
505511000 0.586269387674 -0.144202272078
505521500 0.585864319142 -0.144447513743
505532000 0.58497210239 -0.144526758745
505542500 0.58493507434 -0.144929719484
505553000 0.584909067321 -0.144359321347
505563500 0.585014245225 -0.145132072354
505574000 0.586169471589 -0.144588739631
505584500 0.585873323592 -0.144372311841
505595000 0.58560164859 -0.145094772385
505605500 0.586071703403 -0.14460338248
505616000 0.586308876884 -0.144634599081
505626500 0.586742107699 -0.14441944074
505637000 0.58640722437 -0.144695666406
505647500 0.58631127988 -0.145054276437
505658000 0.586246753182 -0.144859530283
505668500 0.586344527297 -0.144865949289
505679000 0.586226557218 -0.144821371597
505689500 0.586445301108 -0.144203034223
505700000 0.586675255492 -0.144843917393
505710500 0.586767634918 -0.144431959667
505721000 0.5867883776 -0.144509182123
505731500 0.58706033599 -0.144780559366
505742000 0.586869415909 -0.144981094862
505752500 0.587030039426 -0.14489423142
505763000 0.586586600073 -0.144768380927
505773500 0.586612684093 -0.144947225185
505784000 0.586328641288 -0.145162885259
505794500 0.586492842528 -0.145514321565
505805000 0.58701190057 -0.145878752615
505815500 0.587568675845 -0.145408946529
505826000 0.586699863976 -0.145048293414
505836500 0.586563936079 -0.144554480771
505847000 0.587247463658 -0.144869189193
505857500 0.587833129166 -0.144514231867
505868000 0.587096477989 -0.144679911022
505878500 0.587517900294 -0.144665796144
505889000 0.587286015849 -0.144472448214
505899500 0.587288347614 -0.14503398203
505910000 0.587639707513 -0.145296769232
505920500 0.587504997489 -0.145342732121
505931000 0.587654223382 -0.144901643321
505941500 0.58754029485 -0.144841879409
505952000 0.587320242281 -0.144203547663
505962500 0.587564141076 -0.144314760287
505973000 0.587366114809 -0.143934635233
505983500 0.587287117891 -0.14419586867
505994000 0.586708789546 -0.144901458366
506004500 0.586767223064 -0.145652280777
506015000 0.587504542591 -0.144934448477
506025500 0.587664649611 -0.145137185122
506036000 0.587993141332 -0.145159145299
506046500 0.587903772109 -0.145611699986
506057000 0.587694548815 -0.145420410833
506067500 0.587824760421 -0.145370101649
506078000 0.587888010689 -0.144893127336
506088500 0.58771901432 -0.145096622552
506099000 0.587795840796 -0.144687210315
506109500 0.587666317603 -0.144974447509
506120000 0.58750586272 -0.145299875617
506130500 0.587651376446 -0.145692250812
506141000 0.587675602272 -0.145681510395
506151500 0.588271365805 -0.145378433519
506162000 0.588170016007 -0.145426739607
506172500 0.588348583014 -0.145496008648
506183000 0.588260586227 -0.145547466434
506193500 0.588314740413 -0.144810053424
506204000 0.588481094546 -0.145028258631
506214500 0.588504901892 -0.145296170495
506225000 0.588337878382 -0.145130610475
506235500 0.588683029897 -0.145313470641
506246000 0.588676978776 -0.145054678203
506256500 0.588841362034 -0.14537601988
506267000 0.587985264701 -0.145571874704
506277500 0.588181587577 -0.145167667511
506288000 0.58818517165 -0.144916088255
506298500 0.58829782345 -0.145010185431
506309000 0.588326958211 -0.145888900196
506319500 0.588171478985 -0.145714999705
506330000 0.588800862777 -0.145871724335
506340500 0.58843895049 -0.145906395857
506351000 0.588767902115 -0.145607971035
506361500 0.58853069703 -0.145655736633
506372000 0.588866438071 -0.146096584138
506382500 0.588729696495 -0.146022951169
506393000 0.588736756485 -0.146647890694
506403500 0.58893221611 -0.146533532815
506414000 0.588572527212 -0.1458498165
506424500 0.588665055767 -0.14624288457
506435000 0.58884371136 -0.145459384738
506445500 0.588400080405 -0.143806027066
506456000 0.588587726334 -0.145418273207
506466500 0.589021874338 -0.146051106604
506477000 0.588725680318 -0.14564015845
506487500 0.588528175453 -0.145794628082
506498000 0.588906416042 -0.145872674102
506508500 0.588664660039 -0.145478090692
506519000 0.589636896557 -0.14757823757
506529500 0.588863245698 -0.146255152846
506540000 0.589375513613 -0.146394846181
506550500 0.589715358658 -0.146329761728
506561000 0.589758932347 -0.145826119155
506571500 0.588674737608 -0.146476720665
506582000 0.589445199265 -0.146233800035
506592500 0.589652129143 -0.145448005432
506603000 0.589449291563 -0.146151927092
506613500 0.588429672829 -0.146052045558
506624000 0.589502729663 -0.146156321729
506634500 0.589991662046 -0.14604146302
506645000 0.589097337319 -0.145920991606
506655500 0.588620505138 -0.146195576083
506666000 0.58862245532 -0.146304242086
506676500 0.588850185105 -0.145966182283
506687000 0.589009133899 -0.146377148147
506697500 0.589983728549 -0.146683080346
506708000 0.588935369523 -0.14622530477
506718500 0.589475773025 -0.145461684601
506729000 0.588365419559 -0.144046641575
506739500 0.590221788378 -0.145634431774
506750000 0.589501242072 -0.145890142467
506760500 0.589445069248 -0.146605369729
506771000 0.589509119211 -0.145469844826
506781500 0.589550264008 -0.146035164293
506792000 0.589897283879 -0.146631248093
506802500 0.589902481291 -0.146528883313
506813000 0.590001021849 -0.145758834026
506823500 0.590202089659 -0.145567223819
506834000 0.589744395219 -0.143870493281
506844500 0.589677355442 -0.145905407177
506855000 0.59017096248 -0.146353751225
506865500 0.590829426675 -0.146089107129
506876000 0.590728337834 -0.146824076333
506886500 0.59059197701 -0.147295297209
506897000 0.589940576946 -0.146856191472
506907500 0.589619607672 -0.146668746089
506918000 0.590884870587 -0.146553635385
506928500 0.590360097882 -0.145918663306
506939000 0.590677249718 -0.146222228046
506949500 0.590511049595 -0.146514489674
506960000 0.590763119597 -0.146532104093
506970500 0.590457404889 -0.146544127283
506981000 0.590676137979 -0.146919720926
506991500 0.59065107253 -0.147049387528
507002000 0.590651006038 -0.147393736637
507012500 0.591069654089 -0.146420720132
507023000 0.589918973587 -0.146460773326
507033500 0.590234663938 -0.146607159326
507044000 0.5905637278 -0.146574702567
507054500 0.590879644881 -0.147505797769
507065000 0.591592175862 -0.146977119149
507075500 0.591816532574 -0.146563460391
507086000 0.592130894134 -0.147429861334
507096500 0.591609401101 -0.145941684602
507107000 0.589189668404 -0.146708637196
507117500 0.591038849698 -0.146303899293
507128000 0.591340890196 -0.147955077804
507138500 0.592162742189 -0.146950485805
507149000 0.591075327041 -0.14727083887
507159500 0.591019400211 -0.14691962662
507170000 0.590476417412 -0.147332188853
507180500 0.590536743394 -0.146303137583
507191000 0.589833151071 -0.148667637641
507201500 0.591078489357 -0.14744448048
507212000 0.59148577894 -0.147200788521
507222500 0.591839067313 -0.147188972167
507233000 0.594464818231 -0.15113197708
507243500 0.588849165945 -0.145527197645
507254000 0.591282578281 -0.147077326043
507264500 0.590007415924 -0.146691850781
507275000 0.589766594188 -0.146834969175
507285500 0.591559615384 -0.148350666701
507296000 0.590167168742 -0.147539589599
507306500 0.59193126174 -0.147272260291
507317000 0.59105525673 -0.148795192229
507327500 0.590698009767 -0.148522649208
507338000 0.592777130677 -0.147152252551
507348500 0.590291898929 -0.147153220176
507359000 0.590480422085 -0.14651055316
507369500 0.59217665393 -0.145991139788
507380000 0.591799059574 -0.146126191107
507390500 0.593497992048 -0.146862254995
507401000 0.592066555218 -0.147446316927
507411500 0.590618924625 -0.147801142052
507422000 0.589655643427 -0.145507875923
507432500 0.588600651943 -0.147322091038
507443000 0.592721453978 -0.146009545086
507453500 0.58909971583 -0.148892690196
507464000 0.594438327743 -0.146842051918
507474500 0.591897452993 -0.147069194624
507485000 0.592050512336 -0.148689611624
507495500 0.591581928053 -0.147713444245
507506000 0.593040159743 -0.147044772213
507516500 0.589485450195 -0.145573607956
507527000 0.593734904129 -0.147344551053
507537500 0.591721008102 -0.148783898891
507548000 0.59400613697 -0.14368968892
507558500 0.594530816438 -0.148216720514
507569000 0.592466890344 -0.147949431983
507579500 0.594014382236 -0.149219090514
507590000 0.594257805597 -0.147508940656
507600500 0.592182879224 -0.147249119667
507611000 0.593126259066 -0.147470947751
507621500 0.593003713023 -0.146086959432
507632000 0.592841523278 -0.147342425038
507642500 0.593463690019 -0.150058629082
507653000 0.594390685487 -0.146698877696
507663500 0.594737932058 -0.148000302643
507674000 0.593826923278 -0.147533806474
507684500 0.59349638675 -0.147484545668
507695000 0.593458674783 -0.147043399652
507705500 0.592689620048 -0.14646057075
507716000 0.591001781224 -0.147375936278
507726500 0.59087576943 -0.147964958823
507737000 0.592136880842 -0.148006005413
507747500 0.591901664155 -0.151636796004
507758000 0.592788074722 -0.14727220136
507768500 0.592433342392 -0.147040755364
507779000 0.592601454208 -0.148218685099
507789500 0.594806096266 -0.147429496226
507800000 0.592810545973 -0.150142407009
507810500 0.592801583794 -0.148215728786
507821000 0.592046192259 -0.149477619716
507831500 0.594604482961 -0.147570863843
507842000 0.592996305985 -0.148393139903
507852500 0.592654782338 -0.149146843088
507863000 0.592988341737 -0.148389036081
507873500 0.595614476062 -0.147422408477
507884000 0.592279051252 -0.147593469168
507894500 0.592942893169 -0.146994964517
507905000 0.5935002989 -0.148036920135
507915500 0.592548473848 -0.148061479095
507926000 0.59252792603 -0.147882182563
507936500 0.594435683043 -0.148274835602
507947000 0.592714395859 -0.148194800469
507957500 0.593041614818 -0.147998958978
507968000 0.593333279501 -0.148134625872
507978500 0.593578244687 -0.148052581431
507989000 0.593161092641 -0.148001915245
507999500 0.593140054698 -0.14821433948
508010000 0.592973063098 -0.147954949436
508020500 0.592509907833 -0.14815508771
508031000 0.593399878703 -0.148209171884
508041500 0.59311752753 -0.148269496173
508052000 0.593259661363 -0.147283465022
508062500 0.593506950688 -0.146928488433
508073000 0.594273712877 -0.147989615337
508083500 0.593636189363 -0.14893716333
508094000 0.592843256889 -0.148081014778
508104500 0.593308725178 -0.14802755193
508115000 0.593114958987 -0.149089717528
508125500 0.59357694541 -0.148464237409
508136000 0.593618281996 -0.148830847504
508146500 0.594437435244 -0.148289734522
508157000 0.594061526454 -0.148213141058
508167500 0.593477023533 -0.147872356905
508178000 0.594408932612 -0.148296385442
508188500 0.593988779451 -0.148370262955
508199000 0.593829971722 -0.149118860009
508209500 0.59417113075 -0.1488922403
508220000 0.594465115119 -0.148598089086
508230500 0.594420685934 -0.148131933036
508241000 0.594585368784 -0.147774657713
508251500 0.594444269678 -0.147959166609
508262000 0.594287317885 -0.147146590231
508272500 0.594261596135 -0.14882624343
508283000 0.59373505328 -0.147490478324
508293500 0.59425162543 -0.148684328011
508304000 0.593764302114 -0.14897747568
508314500 0.593981671887 -0.148648450354
508325000 0.595144724404 -0.148398171306
508335500 0.595337077686 -0.149070974344
508346000 0.594747294249 -0.148254858038
508356500 0.595037416266 -0.148877395968
508367000 0.594420057038 -0.149106478411
508377500 0.5951219108 -0.14861376673
508388000 0.594740108951 -0.149016140389
508398500 0.594598287277 -0.14846808296
508409000 0.594692712316 -0.149024895162
508419500 0.594584873065 -0.149336163357
508430000 0.594656677492 -0.148836471878
508440500 0.594358937746 -0.148504043565
508451000 0.594880349332 -0.14860105949
508461500 0.594826357577 -0.148785610191
508472000 0.595040133116 -0.148992634909
508482500 0.594898186506 -0.148288975021
508493000 0.594809624596 -0.148962906902
508503500 0.594954130222 -0.149254626494
508514000 0.594474098528 -0.148706029914
508524500 0.594819308621 -0.149245377529
508535000 0.594847795262 -0.149167360573
508545500 0.594956802974 -0.149361611285
508556000 0.595334523205 -0.150067872411
508566500 0.594818826509 -0.149777322513
508577000 0.595188168684 -0.149016337168
508587500 0.59556047125 -0.149403519311
508598000 0.595398104118 -0.149513141518
508608500 0.59572216325 -0.149659197453
508619000 0.595250689673 -0.148807476697
508629500 0.59579693055 -0.149280685836
508640000 0.594861882576 -0.149182771962
508650500 0.594810604305 -0.149377867645
508661000 0.595288797953 -0.149244334427
508671500 0.595154518977 -0.149588515289
508682000 0.595222060229 -0.149647544857
508692500 0.594856347689 -0.149389631206
508703000 0.595371385507 -0.149836821647
508713500 0.595837495502 -0.149149726544
508724000 0.595366359516 -0.149366714902
508734500 0.595908109763 -0.149420437754
508745000 0.595777749991 -0.149102675324
508755500 0.595939154318 -0.149129590958
508766000 0.596082462954 -0.149245380782
508776500 0.596178463648 -0.149652602159
508787000 0.596197650593 -0.14958768115
508797500 0.595838917654 -0.14884697929
508808000 0.595451776764 -0.14914874923
508818500 0.595780633313 -0.149788604983
508829000 0.595654354096 -0.149225708796
508839500 0.595792294019 -0.149125223401
508850000 0.595778136262 -0.148635529529
508860500 0.595873163698 -0.148999881558
508871000 0.596215773058 -0.149536899008
508881500 0.595979620055 -0.149347914231
508892000 0.596448040838 -0.149879403578
508902500 0.596090585694 -0.149032940177
508913000 0.595967741447 -0.149514643066
508923500 0.595953292817 -0.149488266879
508934000 0.5958511267 -0.148917200009
508944500 0.595933508076 -0.149327053245
508955000 0.596331592236 -0.149293999994
508965500 0.595959582709 -0.149123507776
508976000 0.59621600713 -0.149214691343
508986500 0.596469772015 -0.148890055991
508997000 0.5959420869 -0.148979227165
509007500 0.596083847732 -0.149220597799
509018000 0.596084159744 -0.149299918947
509028500 0.596478241109 -0.14927135442
509039000 0.596543676645 -0.149421418879
509049500 0.596153617171 -0.149890756848
509060000 0.596586341429 -0.149754099712
509070500 0.595738862748 -0.149631547107
509081000 0.595962824877 -0.149358089863
509091500 0.596543857046 -0.149865377207
509102000 0.596812201984 -0.149670910699
509112500 0.5974748687 -0.150249600539
509123000 0.59628689939 -0.149512540399
509133500 0.596686189089 -0.14927930723
509144000 0.594814565183 -0.152546645436
509154500 0.596277826039 -0.152780895654
509165000 0.613129180511 -0.152830695379
509175500 0.596620071313 -0.15167097393
509186000 0.596505275505 -0.150964792533
509196500 0.59767795964 -0.149927752402
509207000 0.597257735004 -0.150164715456
509217500 0.597499622601 -0.150132637499
509228000 0.597570821578 -0.150603210503
509238500 0.597356120606 -0.150076473996
509249000 0.597841668081 -0.150222302493
509259500 0.597653595352 -0.150431729162
509270000 0.597711106487 -0.1507784758
509280500 0.597871053116 -0.1505121806
509291000 0.597849426441 -0.150534746598
509301500 0.597321993169 -0.151235024766
509312000 0.596972922168 -0.150699282277
509322500 0.597635232837 -0.151192842045
509333000 0.597684165683 -0.15013960841
509343500 0.597574063912 -0.150548681263
509354000 0.597459873865 -0.150338957915
509364500 0.597538082858 -0.151025885936
509375000 0.597714333995 -0.150808056581
509385500 0.597256145585 -0.150449691655
509396000 0.597871605713 -0.150848799864
509406500 0.59778197872 -0.150471465499
509417000 0.597288980499 -0.150337877421
509427500 0.597822096375 -0.150674570806
509438000 0.5978958162 -0.150395590437
509448500 0.597553466478 -0.151097433184
509459000 0.598520537446 -0.150861990392
509469500 0.598358804166 -0.150562966283
509480000 0.598267678269 -0.150640752453
509490500 0.597679895949 -0.150528170664
509501000 0.597939556262 -0.150992352581
509511500 0.598301585407 -0.150963394475
509522000 0.598290567774 -0.150618643629
509532500 0.597681150386 -0.150848797667
509543000 0.598078422608 -0.150697375411
509553500 0.598168852556 -0.151124964989
509564000 0.598343813676 -0.150891899253
509574500 0.597816466056 -0.150456946592
509585000 0.598190603321 -0.150225181303
509595500 0.59787801173 -0.149803994805
509606000 0.598176638591 -0.150422287981
509616500 0.598259748595 -0.150487520392
509627000 0.598784922187 -0.151287703353
509637500 0.598289103783 -0.150841314852
509648000 0.598631675225 -0.150937515889
509658500 0.598536564146 -0.150559953118
509669000 0.598603692131 -0.15080153582
509679500 0.598934274778 -0.151422940922
509690000 0.599256122202 -0.150870540869
509700500 0.598742700722 -0.150994795716
509711000 0.598682306941 -0.150766131831
509721500 0.598334001702 -0.150595250706
509732000 0.598830487681 -0.151490702854
509742500 0.598779510283 -0.151407184429
509753000 0.598556884568 -0.151337981914
509763500 0.599908511385 -0.150911466798
509774000 0.599284774096 -0.150822363108
509784500 0.599013353265 -0.151053821117
509795000 0.598898659991 -0.1508324229
509805500 0.599140495259 -0.151633308459
509816000 0.599352730419 -0.151339587721
509826500 0.599506114034 -0.151445847971
509837000 0.599405855758 -0.151109189823
509847500 0.60002741497 -0.151229991637
509858000 0.600712137201 -0.151472471576
509868500 0.599714122662 -0.151470103897
509879000 0.599720100403 -0.151421571686
509889500 0.599357804765 -0.151980908016
509900000 0.599479303784 -0.15151599615
509910500 0.599222875339 -0.151684285609
509921000 0.599061665942 -0.152136429141
509931500 0.599884886393 -0.150952328319
509942000 0.600116601146 -0.151050316911
509952500 0.599232740571 -0.151594258859
509963000 0.599691938816 -0.151760646531
509973500 0.599258477973 -0.151949381372
509984000 0.599946453263 -0.152777947229
509994500 0.599728865904 -0.151787972167
510005000 0.59968758366 -0.151935596402
510015500 0.599965633153 -0.151753489251
510026000 0.599537548061 -0.151713430919
510036500 0.599687358817 -0.151406024977
510047000 0.599435331462 -0.151752291996
510057500 0.599857917427 -0.151441010778
510068000 0.599877792462 -0.151496165716
510078500 0.599784388813 -0.152008413553
510089000 0.600406497877 -0.151633037826
510099500 0.599756638993 -0.151779465684
510110000 0.599520731622 -0.151829094207
510120500 0.599806083212 -0.15166910352
510131000 0.599320685352 -0.151486645773
510141500 0.598705447869 -0.152584392713
510152000 0.599859004012 -0.152324872381
510162500 0.60022946433 -0.152243312382
510173000 0.599845688226 -0.152099566111
510183500 0.599995254546 -0.152270144937
510194000 0.600399175718 -0.152310356195
510204500 0.600094094851 -0.152496256545
510215000 0.599819077328 -0.152847135322
510225500 0.600022952276 -0.152354826083
510236000 0.600208662275 -0.152301082712
510246500 0.600573457604 -0.152526390901
510257000 0.600992072813 -0.152399519119
510267500 0.60095419108 -0.151944177666
510278000 0.601209726389 -0.152061757504
510288500 0.600329421364 -0.152008732155
510299000 0.600574211468 -0.151787134941
510309500 0.600726012006 -0.151676111873
510320000 0.600431226393 -0.152042465284
510330500 0.600327421325 -0.151698188765
510341000 0.600474617049 -0.152148281603
510351500 0.600075057167 -0.151987877744
510362000 0.600772726272 -0.152405150087
510372500 0.600138258622 -0.152426222327
510383000 0.600681355574 -0.152288245075
510393500 0.601132544396 -0.152642748291
510404000 0.601028756283 -0.152794570425
510414500 0.600589083149 -0.153112836207
510425000 0.600955573436 -0.152683120802
510435500 0.60058603966 -0.152944241424
510446000 0.60060356863 -0.152924302799
510456500 0.600409356455 -0.152549835879
510467000 0.600775697429 -0.152757184793
510477500 0.600823791865 -0.152348085772
510488000 0.600969334732 -0.152033914523
510498500 0.601183352361 -0.152954033985
510509000 0.601236051377 -0.152341414558
510519500 0.600767795204 -0.15266845454
510530000 0.601190686705 -0.152823649934
510540500 0.601049013039 -0.152957545441
510551000 0.601366326566 -0.153349139383
510561500 0.600959909909 -0.152973748605
510572000 0.601481758797 -0.152982402503
510582500 0.601115808908 -0.153325984871
510593000 0.600705543365 -0.153096203699
510603500 0.60157704169 -0.153482779115
510614000 0.601626338889 -0.153226431157
510624500 0.601465052838 -0.153347354964
510635000 0.601905431416 -0.153154765997
510645500 0.60180979864 -0.153522062397
510656000 0.602018988846 -0.152885560797
510666500 0.601824463389 -0.152957244884
510677000 0.601926485827 -0.152568374138
510687500 0.601467313999 -0.153240896392
510698000 0.601371373344 -0.152833520032
510708500 0.601922410892 -0.152759548573
510719000 0.602780189031 -0.1526134392
510729500 0.602394873769 -0.153334337579
510740000 0.602236413416 -0.153132633856
510750500 0.602159079987 -0.152563055334
510761000 0.602872854615 -0.153283200785
510771500 0.602240368653 -0.153840947181
510782000 0.602102092105 -0.153970664385
510792500 0.601913429158 -0.153293853211
510803000 0.60222877761 -0.154384049386
510813500 0.602632501602 -0.153128022438
510824000 0.602515007334 -0.153574685679
510834500 0.602544006667 -0.153523176303
510845000 0.602576586676 -0.153575167205
510855500 0.602406182293 -0.153427697374
510866000 0.602464134149 -0.153541024909
510876500 0.602207092504 -0.153442112134
510887000 0.6024454395 -0.153552970464
510897500 0.60249617025 -0.153159796872
510908000 0.602406346561 -0.153328980857
510918500 0.60240232777 -0.152997404929
510929000 0.602180959936 -0.15349549233
510939500 0.602820682154 -0.153622933455
510950000 0.602685598478 -0.153366749496
510960500 0.602194436819 -0.153960582719
510971000 0.602637931711 -0.153665550341
510981500 0.602676289369 -0.153992968418
510992000 0.602912711545 -0.15387873545
511002500 0.602502843733 -0.154461682771
511013000 0.60202887509 -0.154028275539
511023500 0.602657502105 -0.153318043708
511034000 0.60312407516 -0.153723214593
511044500 0.603111112871 -0.153808792018
511055000 0.603852882952 -0.154214376252
511065500 0.603103796119 -0.154265242251
511076000 0.603028803939 -0.154188609691
511086500 0.603181694841 -0.15411732287
511097000 0.602784804136 -0.154570212047
511107500 0.602128774122 -0.153942350669
511118000 0.602656592053 -0.154525892222
511128500 0.602779477933 -0.155320797935
511139000 0.603211381121 -0.154902322254
511149500 0.603122107662 -0.154986039049
511160000 0.603429110263 -0.154850357026
511170500 0.603250061022 -0.15462340515
511181000 0.603385682176 -0.155134790601
511191500 0.602990564835 -0.155432736588
511202000 0.60200572876 -0.156569640082
511212500 0.601859920616 -0.15640228444
511223000 0.602717443464 -0.15498685664
511233500 0.603071359053 -0.154735313997
511244000 0.60227676475 -0.155014629722
511254500 0.603505950358 -0.154781608438
511265000 0.603460727782 -0.154622423565
511275500 0.603104817029 -0.154760579169
511286000 0.602706672095 -0.154798601756
511296500 0.602807852057 -0.154390146693
511307000 0.603100724487 -0.154916922768
511317500 0.602974899871 -0.154449474454
511328000 0.603447668276 -0.154574204495
511338500 0.603456644442 -0.154339314789
511349000 0.603503739898 -0.154676474686
511359500 0.603540960027 -0.15471278624
511370000 0.602947110734 -0.154829756061
511380500 0.603660505451 -0.155306821579
511391000 0.603670402794 -0.155511432101
511401500 0.603692706533 -0.154481064865
511412000 0.603955318041 -0.15443742292
511422500 0.603892117417 -0.154716967174
511433000 0.604324994824 -0.155062011664
511443500 0.602476555135 -0.154906792275
511454000 0.602463502396 -0.156321369816
511464500 0.601679409834 -0.153731244806
511475000 0.603975500758 -0.154843492827
511485500 0.60392090432 -0.154989066414
511496000 0.604563691937 -0.154553416545
511506500 0.603019627431 -0.154981622394
511517000 0.605284704225 -0.155006331721
511527500 0.60389309117 -0.155169767966
511538000 0.604559423657 -0.155555342132
511548500 0.604913895431 -0.15442850139
511559000 0.604718660526 -0.154903768912
511569500 0.603966831097 -0.154047021921
511580000 0.604413339387 -0.155484820293
511590500 0.605468623811 -0.154867749744
511601000 0.6045931702 -0.154755411527
511611500 0.603197849388 -0.155246497243
511622000 0.604240552047 -0.155519409907
511632500 0.603449274493 -0.155226037246
511643000 0.606127642351 -0.15553351734
511653500 0.602561186704 -0.154845307333
511664000 0.604157226216 -0.15783294383
511674500 0.604117663721 -0.153459200138
511685000 0.604764345999 -0.15464129519
511695500 0.603879194559 -0.155665967844
511706000 0.605241956312 -0.156022512837
511716500 0.604743181793 -0.155562774203
511727000 0.603635886277 -0.155854364616
511737500 0.605955486134 -0.154549595264
511748000 0.60410421557 -0.154453952746
511758500 0.605695959247 -0.154088669297
511769000 0.607101501791 -0.155761947058
511779500 0.605578287436 -0.156374373267
511790000 0.603458170736 -0.154566898861
511800500 0.605123230078 -0.155510004872
511811000 0.605178176795 -0.15568613554
511821500 0.604933713601 -0.156085852115
511832000 0.604974326451 -0.156402275025
511842500 0.604920423704 -0.156188785092
511853000 0.60505796521 -0.157361808674
511863500 0.603533247528 -0.155511283064
511874000 0.605587474023 -0.155632984595
511884500 0.604977257376 -0.156669973139
511895000 0.605578662889 -0.156058970274
511905500 0.60515109842 -0.155813440735
511916000 0.604874741634 -0.156034033126
511926500 0.604788794875 -0.155748363232
511937000 0.605022133702 -0.155620166528
511947500 0.605652275238 -0.155756119894
511958000 0.605892953711 -0.156610235911
511968500 0.605838630794 -0.155750585183
511979000 0.605288556365 -0.156742014815
511989500 0.605385771752 -0.156076303553
512000000 0.60610060631 -0.156004527427
