! Calibrated averaged scanner-service zoom
# Hz S RI R 50
150000000 0.265820362648 -0.184913437907
150012000 0.265554163527 -0.186395077498
150024000 0.266471512852 -0.185816943264
150036000 0.264552512045 -0.185407183416
150048000 0.265644844998 -0.184938300468
150060000 0.265416696217 -0.186886481399
150072000 0.266159047685 -0.18638879476
150084000 0.264357450463 -0.185752430647
150096000 0.265622295055 -0.185481598545
150108000 0.265079510251 -0.18682230656
150120000 0.265674897416 -0.186551451473
150132000 0.264413695798 -0.186215100668
150144000 0.265085174815 -0.186142651412
150156000 0.264915058289 -0.18712494909
150168000 0.26537254577 -0.186678509859
150180000 0.264910717945 -0.186549707869
150192000 0.264521635651 -0.186732421805
150204000 0.264957725 -0.187513927775
150216000 0.265280957451 -0.187317228515
150228000 0.265178395241 -0.186898603511
150240000 0.264333362677 -0.187085319548
150252000 0.264568451049 -0.187415177279
150264000 0.26474131904 -0.187906913834
150276000 0.265395128922 -0.187437313715
150288000 0.263668958797 -0.187008228624
150300000 0.264771018887 -0.187083166082
150312000 0.264224351692 -0.188304292778
150324000 0.265239627212 -0.188099258293
150336000 0.263527032103 -0.187417084646
150348000 0.265135614154 -0.187318554645
150360000 0.264102593068 -0.188937729048
150372000 0.265243993704 -0.188748660517
150384000 0.263459191594 -0.187923886565
150396000 0.26472323457 -0.187763636116
150408000 0.264018602949 -0.189239948476
150420000 0.264740984429 -0.188960938047
150432000 0.263614380761 -0.188617357058
150444000 0.264070697202 -0.188486851042
150456000 0.263862949343 -0.189779301311
150468000 0.264471345745 -0.189232402447
150480000 0.263932642336 -0.189121443104
150492000 0.263760099608 -0.18905607044
150504000 0.264370206762 -0.190349124522
150516000 0.264503291729 -0.190097391133
150528000 0.264585711124 -0.189847330511
150540000 0.263349888056 -0.189434807514
150552000 0.264305795332 -0.190250691191
150564000 0.2640214583 -0.19067886773
150576000 0.26481504269 -0.190630856038
150588000 0.263218512557 -0.189860037423
150600000 0.26455877315 -0.190401282695
150612000 0.263656198035 -0.191781438108
150624000 0.264817434959 -0.19165660341
150636000 0.263081001752 -0.190457499242
150648000 0.264569357687 -0.190828599343
150660000 0.263349088442 -0.192282003761
150672000 0.264566202508 -0.192446002122
150684000 0.262822661487 -0.191475664486
150696000 0.264314097022 -0.191794136432
150708000 0.263257301753 -0.193231161806
150720000 0.26426135428 -0.193380262791
150732000 0.262999708067 -0.19274194277
150744000 0.263891101038 -0.193204603627
150756000 0.263287237367 -0.194363505767
150768000 0.264481806838 -0.194027467231
150780000 0.263590617788 -0.194033563902
150792000 0.26374240072 -0.194611018034
150804000 0.263538396281 -0.195600695107
150816000 0.264234718972 -0.195521867275
150828000 0.26410488113 -0.195739559783
150840000 0.263284992341 -0.19556898975
150852000 0.26420030356 -0.196774676433
150864000 0.263933194628 -0.197216362142
150876000 0.264855825019 -0.198060223061
150888000 0.263339926055 -0.197019764814
150900000 0.264735546522 -0.198521850524
150912000 0.263842169284 -0.199783643899
150924000 0.264933572044 -0.200967187633
150936000 0.263724120141 -0.200091389461
150948000 0.265448053855 -0.20135919778
150960000 0.263735287485 -0.202558730873
150972000 0.264761193232 -0.203722570992
150984000 0.263560760389 -0.202560283231
150996000 0.265278874194 -0.203552547899
151008000 0.263816391615 -0.204679925355
151020000 0.264943435286 -0.205249308003
151032000 0.26358767811 -0.204325802829
151044000 0.264421089098 -0.205352759092
151056000 0.263755275289 -0.206081130956
151068000 0.265046741401 -0.206126836126
151080000 0.2639507322 -0.205871181209
151092000 0.263979658197 -0.206804810662
151104000 0.264372038417 -0.208496753536
151116000 0.264779354888 -0.209270376911
151128000 0.265774840447 -0.206759723992
151140000 0.26355455058 -0.207364897268
151152000 0.263725247613 -0.208121145265
151164000 0.263679948988 -0.208188382113
151176000 0.264382375547 -0.208435136917
151188000 0.262994250967 -0.207474123741
151200000 0.264048801689 -0.20858837151
151212000 0.263617339776 -0.222346614705
151224000 0.264344777978 -0.222914193522
151236000 0.263076299571 -0.22192780232
151248000 0.264291427519 -0.222769980944
151260000 0.26286890365 -0.222907608748
151272000 0.263836407042 -0.223518832563
151284000 0.262389635465 -0.221939514558
151296000 0.263901256156 -0.223005717941
151308000 0.26215494132 -0.22341267438
151320000 0.263353087465 -0.22400865337
151332000 0.261679162929 -0.222668032111
151344000 0.262965454512 -0.223565386635
151356000 0.261659303381 -0.223915967863
151368000 0.26287338358 -0.224119500757
151380000 0.261310499018 -0.22339586305
151392000 0.261809866764 -0.223806055647
151404000 0.261043389661 -0.224391599937
151416000 0.26233394363 -0.224343763591
151428000 0.261227277879 -0.224298878883
151440000 0.260580893395 -0.224218636476
151452000 0.260560542415 -0.225156172809
151464000 0.261148539328 -0.224676870034
151476000 0.260887527051 -0.224878896116
151488000 0.260016098124 -0.224057935695
151500000 0.260451284832 -0.225502808725
151512000 0.260249628421 -0.225316962973
151524000 0.260700633568 -0.225945047208
151536000 0.259459431694 -0.224606955796
151548000 0.260339883815 -0.225893882247
151560000 0.259057120727 -0.225835936661
151572000 0.25974734574 -0.226297795359
151584000 0.258581528304 -0.224421377118
151596000 0.259837590332 -0.226057890842
151608000 0.258296761522 -0.22564223128
151620000 0.259226552442 -0.226848127389
151632000 0.257823273412 -0.22492748308
151644000 0.258856313652 -0.226389077866
151656000 0.258242615297 -0.226267501681
151668000 0.259576049743 -0.227633977112
151680000 0.257414053572 -0.22581049306
151692000 0.257731106658 -0.226617004356
151704000 0.25699949174 -0.227011306413
151716000 0.258475259103 -0.227223591364
151728000 0.257287642 -0.226812508829
151740000 0.256728294635 -0.226871093802
151752000 0.256380012992 -0.227824166403
151764000 0.257413729624 -0.227700297374
151776000 0.256800711662 -0.227922982009
151788000 0.25619504437 -0.227360006895
151800000 0.256308389277 -0.228644284733
151812000 0.256055283327 -0.228179230827
151824000 0.256441580862 -0.228999492155
151836000 0.255294333904 -0.227203579842
151848000 0.255950926091 -0.229174124704
151860000 0.254810568373 -0.228510731194
151872000 0.255098937818 -0.229595052085
151884000 0.254288810017 -0.227458789321
151896000 0.2553591241 -0.229460714394
151908000 0.253775160816 -0.228597487655
151920000 0.25452557147 -0.230140452
151932000 0.253763359112 -0.228201297708
151944000 0.254539875622 -0.229935770615
151956000 0.253162081632 -0.229422627497
151968000 0.25400243675 -0.230449538153
151980000 0.252939032451 -0.228799239411
151992000 0.253212974675 -0.229888530618
152004000 0.252418496224 -0.229862298548
152016000 0.253794101705 -0.230647548389
152028000 0.252674886135 -0.229753641456
152040000 0.251898106528 -0.230012603916
152052000 0.25159251741 -0.230397619011
152064000 0.252514878832 -0.230701665856
152076000 0.252103302727 -0.230677899432
152088000 0.251394571549 -0.229879026373
152100000 0.251189934261 -0.230991861834
152112000 0.251093865307 -0.23099453823
152124000 0.251478484969 -0.231685676059
152136000 0.250662627045 -0.230195191671
152148000 0.250982590442 -0.232125537277
152160000 0.25006600159 -0.231232063421
152172000 0.25003667898 -0.232320035852
152184000 0.249871448061 -0.230456294474
152196000 0.250624825292 -0.232537013631
152208000 0.248864758283 -0.231459270043
152220000 0.249368130165 -0.232934544187
152232000 0.24891542221 -0.230869438372
152244000 0.249149487932 -0.232684006492
152256000 0.247922781299 -0.232105094829
152268000 0.248700582468 -0.233321392388
152280000 0.247818443402 -0.231560170261
152292000 0.247802005678 -0.232857694791
152304000 0.24707369056 -0.232529994435
152316000 0.247841871943 -0.233807026271
152328000 0.247158258132 -0.232695437308
152340000 0.246542951661 -0.233084278119
152352000 0.246110264333 -0.233291221122
152364000 0.246664375542 -0.234067910575
152376000 0.246650340489 -0.233671612704
152388000 0.245952372262 -0.233080158405
152400000 0.245648343367 -0.234158553471
152412000 0.244071389762 -0.236087528672
152424000 0.244452308453 -0.238087461424
152436000 0.243140025987 -0.23695435463
152448000 0.243539014866 -0.239277510844
152460000 0.242701376824 -0.236677470863
152472000 0.243202591854 -0.238173542887
152484000 0.242027839954 -0.237293071905
152496000 0.242364243248 -0.239170930143
152508000 0.241979990331 -0.23745756344
152520000 0.242331644218 -0.237711558718
152532000 0.24106825514 -0.237625950508
152544000 0.241285295907 -0.238777713782
152556000 0.241167209941 -0.238589898197
152568000 0.24111343602 -0.237525287876
152580000 0.239879287735 -0.238375569692
152592000 0.240215737704 -0.238323856922
152604000 0.240172289491 -0.239549371236
152616000 0.239996785996 -0.237484053665
152628000 0.23919443779 -0.239057057005
152640000 0.238860858366 -0.238285063542
152652000 0.238972057404 -0.24037714345
152664000 0.238880367317 -0.237521170118
152676000 0.238450051642 -0.239526298378
152688000 0.23786859556 -0.238415102583
152700000 0.237926032227 -0.240962245617
152712000 0.237790206923 -0.237869197774
152724000 0.237860935893 -0.239982521935
152736000 0.23591919293 -0.238684609896
152748000 0.236721057691 -0.240130263897
152760000 0.236516499727 -0.23842265149
152772000 0.236647279719 -0.239952294352
152784000 0.235469986586 -0.238845075608
152796000 0.235635566841 -0.24069306318
152808000 0.235541487066 -0.23913246225
152820000 0.235411141891 -0.239339266054
152832000 0.234325536803 -0.239104309689
152844000 0.234423641301 -0.240362528859
152856000 0.234188892577 -0.240000552965
152868000 0.234385456826 -0.239147948529
152880000 0.233055864287 -0.239652666129
152892000 0.233347708214 -0.239847483355
152904000 0.23304842768 -0.241068416269
152916000 0.233339623811 -0.239106884726
152928000 0.232177031438 -0.240454396675
152940000 0.232081990384 -0.239934654783
152952000 0.231761324892 -0.242007135354
152964000 0.231979919019 -0.239262493932
152976000 0.23126303264 -0.241178679031
152988000 0.231064255305 -0.240002933354
153000000 0.230736137575 -0.242314036477
153012000 0.230677062375 -0.239456776022
153024000 0.23059202225 -0.241507768678
153036000 0.22967429137 -0.240030367537
153048000 0.229471268776 -0.242333060998
153060000 0.229428864987 -0.23987449262
153072000 0.229183966527 -0.241269221962
153084000 0.228337954 -0.239943485492
153096000 0.228382518402 -0.241775666268
153108000 0.22824621033 -0.240252451942
153120000 0.228524170894 -0.240614883125
153132000 0.227511239558 -0.240218539172
153144000 0.227163628002 -0.241440002091
153156000 0.227097348236 -0.240941384905
153168000 0.227381514762 -0.240223823476
153180000 0.226062540588 -0.240320036827
153192000 0.226265084171 -0.240624251992
153204000 0.226095637 -0.241313075015
153216000 0.225972764883 -0.239757997485
153228000 0.225287408337 -0.241017248769
153240000 0.225109753988 -0.240530345145
153252000 0.224634258675 -0.24232940891
153264000 0.224999088444 -0.239855723705
153276000 0.224393199247 -0.241684691663
153288000 0.224065986978 -0.240426630864
153300000 0.223352658716 -0.242552709797
153312000 0.223862053698 -0.239988571662
153324000 0.223640954303 -0.241956162835
153336000 0.222879261822 -0.240346675951
153348000 0.222095564124 -0.242672991787
153360000 0.222564531083 -0.240099688398
153372000 0.222444031928 -0.241686766878
153384000 0.221763656807 -0.240335772229
153396000 0.221245154897 -0.242202263703
153408000 0.221442305081 -0.240552152186
153420000 0.221417991614 -0.241195671917
153432000 0.220479412586 -0.240443598312
153444000 0.220754360901 -0.241611915899
153456000 0.220282445246 -0.241463425815
153468000 0.220225609319 -0.240801375597
153480000 0.219087835839 -0.240726951485
153492000 0.219234441671 -0.241089395123
153504000 0.218747622055 -0.242015467022
153516000 0.219165131784 -0.240175294459
153528000 0.218065534937 -0.241604743117
153540000 0.218075518611 -0.24095989605
153552000 0.216601857354 -0.242707524227
153564000 0.218288760623 -0.241078436158
153576000 0.216914196699 -0.241999414136
153588000 0.216881915609 -0.240868060569
153600000 0.216064995332 -0.242852477467
153612000 0.215052512836 -0.242254479349
153624000 0.214571182911 -0.243746303751
153636000 0.215516538206 -0.242717625586
153648000 0.215858356526 -0.241450250822
153660000 0.213932264741 -0.242183066781
153672000 0.213398784657 -0.243536298674
153684000 0.213972978318 -0.243333578635
153696000 0.214722330341 -0.241328799534
153708000 0.212922164556 -0.242086093501
153720000 0.212247857057 -0.243136120045
153732000 0.212542625535 -0.243540672594
153744000 0.213727394049 -0.241321862314
153756000 0.212238449802 -0.241934335379
153768000 0.210841684914 -0.242594337164
153780000 0.210880723023 -0.24348478633
153792000 0.21239515331 -0.241199660946
153804000 0.21136799155 -0.241962383938
153816000 0.210017284813 -0.242507148753
153828000 0.20957896646 -0.243600979063
153840000 0.211024366692 -0.241351458497
153852000 0.210501514152 -0.241817088484
153864000 0.208818707374 -0.242327465571
153876000 0.208216826132 -0.243663016536
153888000 0.209429483692 -0.241860272234
153900000 0.209487923386 -0.24152737153
153912000 0.207669889538 -0.242059527191
153924000 0.207043348042 -0.243592112085
153936000 0.208567048621 -0.242754767239
153948000 0.20844008816 -0.241362167455
153960000 0.206635850341 -0.242088562434
153972000 0.205891038509 -0.242954931254
153984000 0.206420607956 -0.24313325825
153996000 0.20746524981 -0.241212249468
154008000 0.205578564885 -0.241863154841
154020000 0.20484425836 -0.242422818193
154032000 0.205119217847 -0.243239127173
154044000 0.206560925677 -0.241140394381
154056000 0.204858003036 -0.241824867216
154068000 0.203715905433 -0.242123610708
154080000 0.203664199386 -0.243138695582
154092000 0.205312726335 -0.240780981266
154104000 0.203959574872 -0.2417841131
154116000 0.203006587833 -0.241950014604
154128000 0.202249265597 -0.243107576438
154140000 0.203891988809 -0.24108331005
154152000 0.20313820629 -0.241538359896
154164000 0.20167458632 -0.241874924786
154176000 0.200885346159 -0.242904476472
154188000 0.202298967357 -0.241178722424
154200000 0.202143377535 -0.241006104212
154212000 0.200622059181 -0.241596038074
154224000 0.199828736247 -0.243165373577
154236000 0.200847900616 -0.242118167246
154248000 0.20148335417 -0.241271902126
154260000 0.199559767191 -0.24161828164
154272000 0.198866538677 -0.242525521672
154284000 0.198971301637 -0.242516201323
154296000 0.200286044651 -0.241102512815
154308000 0.198361504933 -0.241503118425
154320000 0.19766216816 -0.242260418121
154332000 0.197702123074 -0.242804443213
154344000 0.199758068216 -0.240898850332
154356000 0.198611699413 -0.241221082377
154368000 0.197651473156 -0.241419871846
154380000 0.196805131442 -0.242376681353
154392000 0.198035968648 -0.240822705168
154404000 0.196520805458 -0.241646452321
154416000 0.195618837683 -0.241515074828
154428000 0.194660876335 -0.242739673702
154440000 0.19656525216 -0.240918822237
154452000 0.195736647188 -0.241408224
154464000 0.194328667368 -0.241517372481
154476000 0.19316006915 -0.242579779495
154488000 0.195085261917 -0.241243013221
154500000 0.194604476306 -0.2412052259
154512000 0.193130259724 -0.241387242008
154524000 0.192099872558 -0.242711936983
154536000 0.193394236069 -0.241835903935
154548000 0.193544803129 -0.241274511764
154560000 0.192128994664 -0.2413336692
154572000 0.191010354532 -0.242021997483
154584000 0.191704929243 -0.242243202374
154596000 0.192408507792 -0.241058909679
154608000 0.191327641406 -0.241074842489
154620000 0.189901787454 -0.241803740515
154632000 0.19022888709 -0.242516672553
154644000 0.191611552524 -0.240863450639
154656000 0.189986875599 -0.241530485609
154668000 0.188941180715 -0.241447481627
154680000 0.188621436454 -0.242345199822
154692000 0.190487537263 -0.240776973415
154704000 0.188932395831 -0.241375587451
154716000 0.1879824019 -0.241209803618
154728000 0.186963555061 -0.242187609274
154740000 0.189154316413 -0.2408032577
154752000 0.187992268064 -0.241222036398
154764000 0.186819599398 -0.241260594867
154776000 0.185572811938 -0.24196493845
154788000 0.187478125687 -0.24097375561
154800000 0.186913823046 -0.240981647914
154812000 0.18578377233 -0.242375093417
154824000 0.186903408966 -0.240739319219
154836000 0.184990561971 -0.24123375733
154848000 0.185390205001 -0.240979894186
154860000 0.184300252631 -0.242389932863
154872000 0.185348640071 -0.240808501107
154884000 0.184006221031 -0.241284640366
154896000 0.183485815463 -0.241318360969
154908000 0.182835098667 -0.241715313845
154920000 0.184077341893 -0.240607441788
154932000 0.182800015706 -0.241217313836
154944000 0.181953381041 -0.241716758896
154956000 0.181572300804 -0.241254051939
154968000 0.182543419353 -0.240646672466
154980000 0.18183613479 -0.241190659951
154992000 0.180217380836 -0.241863113136
155004000 0.180644797544 -0.240867664541
155016000 0.180727015614 -0.241034222034
155028000 0.180949821812 -0.241082382251
155040000 0.17908264926 -0.241462209789
155052000 0.179524809333 -0.240862807921
155064000 0.179265117301 -0.241715960196
155076000 0.179784749961 -0.240867642469
155088000 0.17775028115 -0.241160073871
155100000 0.1782786849 -0.240957744187
155112000 0.177435294381 -0.242094877736
155124000 0.178516595898 -0.240853053751
155136000 0.17663451459 -0.240961915423
155148000 0.177063681227 -0.240835747451
155160000 0.17587938735 -0.242005244078
155172000 0.177122735651 -0.240693506326
155184000 0.175559513409 -0.240997344962
155196000 0.175326967849 -0.241190507981
155208000 0.174450291291 -0.241514281208
155220000 0.175819545251 -0.240526430059
155232000 0.174299524973 -0.240871603217
155244000 0.173680387239 -0.241453116175
155256000 0.173010272817 -0.241021610756
155268000 0.174129666122 -0.240619325795
155280000 0.173207569755 -0.241075616543
155292000 0.171489305277 -0.241269545822
155304000 0.172129649056 -0.240597644264
155316000 0.172581546217 -0.241137959165
155328000 0.172402561119 -0.240749326197
155340000 0.170531458568 -0.241081847362
155352000 0.170705386905 -0.240631649298
155364000 0.170607352172 -0.241443898547
155376000 0.170999254384 -0.240789202795
155388000 0.169049090909 -0.240767449985
155400000 0.16951844288 -0.240496409459
155412000 0.168534794542 -0.241561120387
155424000 0.169662793912 -0.240469362961
155436000 0.167843693287 -0.240517483084
155448000 0.16788359685 -0.240524524633
155460000 0.166804816101 -0.241526631069
155472000 0.168071441383 -0.240487813542
155484000 0.166730452464 -0.240601294943
155496000 0.166095728153 -0.240862295325
155508000 0.165365180887 -0.241005144466
155520000 0.166498382269 -0.240565511069
155532000 0.165198071252 -0.2405812181
155544000 0.164282523615 -0.241077211115
155556000 0.164090782721 -0.240668217899
155568000 0.164926775237 -0.240613512006
155580000 0.164106382403 -0.240742709679
155592000 0.162561245854 -0.241261196904
155604000 0.162915878195 -0.240481207832
155616000 0.163114142614 -0.240733230826
155628000 0.162897878706 -0.240559664323
155640000 0.161126062444 -0.240742941854
155652000 0.161472506363 -0.240353743427
155664000 0.161237788048 -0.241090155812
155676000 0.161510013693 -0.240561475572
155688000 0.15973100277 -0.240568736243
155700000 0.160103839559 -0.240255025081
155712000 0.15915049018 -0.241367509986
155724000 0.1600954776 -0.240349064121
155736000 0.158381108844 -0.240352909737
155748000 0.158288962541 -0.240254191356
155760000 0.157367357256 -0.241136356968
155772000 0.158500504524 -0.240081431542
155784000 0.157211245347 -0.240277731474
155796000 0.156428005042 -0.240216991397
155808000 0.155816459472 -0.240552975051
155820000 0.156892124824 -0.240029429863
155832000 0.155746814755 -0.240172980826
155844000 0.154537305995 -0.240339341731
155856000 0.15452820746 -0.240049981734
155868000 0.155115979873 -0.239960021933
155880000 0.154230089059 -0.240103619921
155892000 0.152478526685 -0.240284113668
155904000 0.153272776337 -0.239769630005
155916000 0.153121867931 -0.239988544811
155928000 0.152967594272 -0.239910000808
155940000 0.151044289667 -0.240023387164
155952000 0.151507367956 -0.239379934908
155964000 0.150932871964 -0.240205504525
155976000 0.148306240668 -0.23715292467
155988000 0.147448059882 -0.238733358338
156000000 0.151796666754 -0.239192897128
156012000 0.145895996768 -0.240258458044
156024000 0.14813024394 -0.239720993161
156036000 0.14710713524 -0.240269198955
156048000 0.147911029803 -0.240152857768
156060000 0.147672596275 -0.239502521762
156072000 0.146468295709 -0.239660891709
156084000 0.144916972384 -0.240128241065
156096000 0.146424728708 -0.239668370385
156108000 0.145841572711 -0.239467102679
156120000 0.144935762667 -0.239310302556
156132000 0.143373789793 -0.239518250686
156144000 0.144982850384 -0.239246326752
156156000 0.144380348337 -0.239405623473
156168000 0.143320343694 -0.239232908691
156180000 0.142083398725 -0.238945405894
156192000 0.143208984221 -0.239092309171
156204000 0.142577705788 -0.239487138744
156216000 0.141804291896 -0.238961380199
156228000 0.140705198115 -0.238467792322
156240000 0.141006053889 -0.238830275151
156252000 0.140746993362 -0.239246095878
156264000 0.140210884965 -0.238623385797
156276000 0.138763304601 -0.238256891323
156288000 0.138687461268 -0.238814000635
156300000 0.138822772177 -0.23886467631
156312000 0.13827497474 -0.238257749683
156324000 0.137101502601 -0.23801297571
156336000 0.136033309771 -0.238647383398
156348000 0.136921385524 -0.238430574625
156360000 0.136564137445 -0.23810295452
156372000 0.135185882023 -0.237825276476
156384000 0.133696886684 -0.238342076403
156396000 0.135244523777 -0.2378948515
156408000 0.134505216924 -0.237931426833
156420000 0.133573707878 -0.237458622166
156432000 0.132025846228 -0.237793414175
156444000 0.133694701038 -0.237375152735
156456000 0.132833497334 -0.237664246725
156468000 0.131937675176 -0.237179907277
156480000 0.130662561471 -0.236940883037
156492000 0.131572823654 -0.237059235504
156504000 0.130886172452 -0.237571756697
156516000 0.130077372435 -0.236800964182
156528000 0.128999115018 -0.236370145825
156540000 0.129314367446 -0.236742446096
156552000 0.128980674179 -0.237156652066
156564000 0.128127021837 -0.236393612948
156576000 0.127020407938 -0.236078609159
156588000 0.126708876465 -0.23628646794
156600000 0.12678609717 -0.23665768021
156612000 0.1261192088 -0.235890384523
156624000 0.125405828785 -0.235643470264
156636000 0.123952064596 -0.23600358579
156648000 0.124874999771 -0.236057042209
156660000 0.124336260636 -0.235561149234
156672000 0.123090476239 -0.235330770237
156684000 0.12144378859 -0.235591043813
156696000 0.122949841828 -0.235234724931
156708000 0.122170053956 -0.235131855313
156720000 0.121304407804 -0.23474216163
156732000 0.119595187806 -0.23470216498
156744000 0.121299036381 -0.234864664451
156756000 0.12045112042 -0.234745280676
156768000 0.119670075147 -0.234419071883
156780000 0.118290389898 -0.233926348961
156792000 0.119225014463 -0.234294914915
156804000 0.118378904219 -0.234425852985
156816000 0.117611818299 -0.233655523282
156828000 0.116563448661 -0.233291759871
156840000 0.117015998123 -0.233593293186
156852000 0.116283876908 -0.233936985585
156864000 0.11572084478 -0.2331513962
156876000 0.11453216839 -0.232688373607
156888000 0.11408713337 -0.232827632119
156900000 0.114162126074 -0.233439106336
156912000 0.113595018313 -0.232371609757
156924000 0.112654761691 -0.232135058183
156936000 0.111276581596 -0.23199839189
156948000 0.112087234776 -0.23250271004
156960000 0.111622051015 -0.231777638482
156972000 0.110567055469 -0.231582381901
156984000 0.108594473014 -0.231212096638
156996000 0.110265616735 -0.231745594161
157008000 0.109299576484 -0.231147040185
157020000 0.108510562752 -0.230794529071
157032000 0.10684866436 -0.230365800419
157044000 0.108406062541 -0.230921647987
157056000 0.10749807933 -0.230704033061
157068000 0.106749304024 -0.230243261407
157080000 0.105200354094 -0.229483925853
157092000 0.106339759164 -0.230124774759
157104000 0.105138767764 -0.230117577376
157116000 0.104749412895 -0.229240661
157128000 0.103718114996 -0.228729508038
157140000 0.104108976905 -0.229310461062
157152000 0.103130899977 -0.229438051593
157164000 0.102850791467 -0.228619243448
157176000 0.101486209017 -0.227871088242
157188000 0.101131702201 -0.227987039007
157200000 0.100971736258 -0.228492774076
157212000 0.100225225615 -0.227811376708
157224000 0.0992947101747 -0.227519371514
157236000 0.099355385727 -0.227160572891
157248000 0.0977232785684 -0.226596697316
157260000 0.0978464652976 -0.226858676797
157272000 0.0973992735562 -0.226693523785
157284000 0.0973965193835 -0.22636455334
157296000 0.0958764554289 -0.225936966262
157308000 0.0954115680933 -0.225838067151
157320000 0.0958413050435 -0.225785075949
157332000 0.0950058569081 -0.225308613988
157344000 0.0942702734749 -0.224917056004
157356000 0.0936339327645 -0.224753133193
157368000 0.0938671507633 -0.224968979907
157380000 0.0928941713996 -0.224078876536
157392000 0.0926048107817 -0.224377988825
157404000 0.0916817697593 -0.22356925911
157416000 0.0918775236141 -0.224106568003
157428000 0.0905214235376 -0.22327416982
157440000 0.0904984374477 -0.223026197832
157452000 0.089554625068 -0.222439367534
157464000 0.0897306363202 -0.222874595221
157476000 0.0882895074866 -0.22217641281
157488000 0.0885833861225 -0.221975922057
157500000 0.0870372097485 -0.221214611922
157512000 0.0871561444024 -0.221456064217
157524000 0.0861449237776 -0.220957948755
157536000 0.0865250898029 -0.220742537831
157548000 0.0848679916228 -0.219805868495
157560000 0.0848897961368 -0.220231750593
157572000 0.0844997165232 -0.219936056217
157584000 0.084432022972 -0.219554627716
157596000 0.0829929987922 -0.218835140552
157608000 0.0825959331931 -0.218864320505
157620000 0.0826692398777 -0.218826024018
157632000 0.0820790960491 -0.218311919341
157644000 0.0812983387527 -0.217777623691
157656000 0.0808045121266 -0.217525546414
157668000 0.0806799137002 -0.217877519965
157680000 0.0800124834932 -0.217189259246
157692000 0.0796321650264 -0.216825701564
157704000 0.0787361505183 -0.2162130142
157716000 0.0786337167927 -0.216734545295
157728000 0.0775662730849 -0.215816456441
157740000 0.0774273315009 -0.215458692859
157752000 0.0768225411553 -0.214968630695
157764000 0.0766124910255 -0.215441498786
157776000 0.0753705916942 -0.21437225537
157788000 0.0754135167019 -0.214314684942
157800000 0.0741758280469 -0.21310478976
157812000 0.0741837056033 -0.213603626458
157824000 0.0733092401992 -0.212868761554
157836000 0.0734247993605 -0.212786180281
157848000 0.0720122947971 -0.211619986913
157860000 0.0719135699063 -0.212114621603
157872000 0.0716167370826 -0.211671425605
157884000 0.0714250858571 -0.211517113177
157896000 0.0702527336643 -0.210395975608
157908000 0.0697548020494 -0.210422619588
157920000 0.0697167848309 -0.210429352187
157932000 0.0692384967524 -0.209907483724
157944000 0.0685356033055 -0.209097426381
157956000 0.0680524723692 -0.209045009745
157968000 0.0678071261109 -0.209200756394
157980000 0.0672891564585 -0.208522883552
157992000 0.0667950888372 -0.208017090627
158004000 0.0661318943878 -0.207362182361
158016000 0.0658104829214 -0.207729009046
158028000 0.0650263706669 -0.206656988677
158040000 0.0648998318825 -0.206355136969
158052000 0.0639172039354 -0.20556833558
158064000 0.0638811133781 -0.206131296312
158076000 0.0629637017032 -0.205165493841
158088000 0.0629811944707 -0.205041231044
158100000 0.0620066438728 -0.203824042723
158112000 0.0617093307751 -0.204234941076
158124000 0.0611825398453 -0.203363479919
158136000 0.0611468800265 -0.203206832667
158148000 0.0601074103057 -0.202139200613
158160000 0.0598080871983 -0.202500699527
158172000 0.0595944183077 -0.202078562041
158184000 0.0592305796558 -0.201823425614
158196000 0.0583624155345 -0.200639666866
158208000 0.057818675813 -0.200521927845
158220000 0.0575906685746 -0.20062836648
158232000 0.057304182723 -0.200069590388
158244000 0.0567721782242 -0.199185911799
158256000 0.056084603204 -0.198985897394
158268000 0.0560187431849 -0.199238383084
158280000 0.0553502911385 -0.198460378362
158292000 0.0551238757631 -0.197885655931
158304000 0.0545008790011 -0.197225311318
158316000 0.0542007445097 -0.197588296626
158328000 0.0533564874882 -0.196523039734
158340000 0.0532765522226 -0.196302462947
158352000 0.052731718622 -0.195584739384
158364000 0.0521504291904 -0.195809165919
158376000 0.0515940785977 -0.194908332557
158388000 0.0515760340599 -0.194954084261
158400000 0.0506485227127 -0.193530938049
158412000 0.0506435118355 -0.193661825592
158424000 0.0504411692405 -0.19303609782
158436000 0.0496052924381 -0.193019654724
158448000 0.0491538328353 -0.191719147846
158460000 0.049001086347 -0.191998959432
158472000 0.0484261580575 -0.191049535113
158484000 0.0477745256056 -0.191558303167
158496000 0.0473527044272 -0.189867859138
158508000 0.0471650573888 -0.190402200837
158520000 0.0466451755764 -0.18946818481
158532000 0.0460676170274 -0.189854123338
158544000 0.0455609049308 -0.188052570625
158556000 0.0454609059676 -0.188450505622
158568000 0.0449995743544 -0.187571020824
158580000 0.0443695205855 -0.187900023086
158592000 0.043869579315 -0.18672645139
158604000 0.0435694650171 -0.186685810228
158616000 0.0429331432122 -0.185641150565
158628000 0.0426629189693 -0.185961347143
158640000 0.0422627089559 -0.185065653962
158652000 0.041990959608 -0.184539353284
158664000 0.0412888714788 -0.183774978749
158676000 0.0410638432662 -0.183763112828
158688000 0.0405258055854 -0.183587302117
158700000 0.0403754761228 -0.182778695345
158712000 0.0399702312791 -0.182354313809
158724000 0.0394183369619 -0.181662141761
158736000 0.0388505548662 -0.181947289423
158748000 0.0387152205189 -0.180406739185
158760000 0.0382988181371 -0.18057976869
158772000 0.0379323800519 -0.179671815936
158784000 0.0375160241507 -0.180018282536
158796000 0.0370319476874 -0.178579858147
158808000 0.0366840818232 -0.179106207781
158820000 0.0364294488558 -0.178015577111
158832000 0.0354426366504 -0.178189462596
158844000 0.0352653554437 -0.176579392136
158856000 0.0350048431496 -0.17698489228
158868000 0.0348962088175 -0.176088187156
158880000 0.0340117862422 -0.17638717236
158892000 0.0339103808612 -0.175341811492
158904000 0.0332261355949 -0.175182533081
158916000 0.0329551914527 -0.174222486546
158928000 0.0325802756284 -0.174301308589
158940000 0.0321940171123 -0.173429754101
158952000 0.0319825989243 -0.173029442739
158964000 0.0316013405838 -0.172211445178
158976000 0.0311029627611 -0.172080580646
158988000 0.0305300095633 -0.171951463704
159000000 0.0304315481976 -0.171186256262
159012000 0.0299904402523 -0.170690726458
159024000 0.0294895071846 -0.17011995062
159036000 0.0288676444322 -0.169956790713
159048000 0.028972411204 -0.168772250668
159060000 0.0285771394449 -0.168869662598
159072000 0.0282653206244 -0.168108107836
159084000 0.0273824276566 -0.168055563721
159096000 0.0273429201107 -0.167017891293
159108000 0.0270790532897 -0.167233734392
159120000 0.0267760320278 -0.166337634156
159132000 0.0258399174328 -0.166043854758
159144000 0.0258803545169 -0.164760865449
159156000 0.0256344121954 -0.165175970329
159168000 0.0253451361857 -0.164277265654
159180000 0.0245543114524 -0.164162859603
159192000 0.024381809963 -0.163337862567
159204000 0.024020431306 -0.163129383316
159216000 0.0236824242868 -0.162385217798
159228000 0.0231966449834 -0.162170373893
159240000 0.0231413811347 -0.16144648502
159252000 0.0221107357573 -0.160778714292
159264000 0.0225645021869 -0.160244782017
159276000 0.022003234809 -0.159882749113
159288000 0.0213777379025 -0.159891149852
159300000 0.0214054203108 -0.159047751427
159312000 0.0211566801245 -0.158582214665
159324000 0.0207098432237 -0.157875485347
159336000 0.0199385231073 -0.157537134937
159348000 0.0201398475691 -0.156575886781
159360000 0.0197763851908 -0.156668575229
159372000 0.0195040285889 -0.155716372286
159384000 0.0185164881041 -0.155550468733
159396000 0.0186870693967 -0.154681980197
159408000 0.018282227751 -0.15473161764
159420000 0.0180782747127 -0.153915907332
159432000 0.0172259705456 -0.15349876998
159444000 0.0174007182485 -0.152493522787
159456000 0.0170336772271 -0.152808005716
159468000 0.0168209096801 -0.151892902724
159480000 0.0160078103154 -0.151534231225
159492000 0.0158916017191 -0.150820777149
159504000 0.0154571386436 -0.150579475738
159516000 0.0153152577667 -0.14985272633
159528000 0.0148304937079 -0.149413765878
159540000 0.0144643411589 -0.148764801093
159552000 0.014616458352 -0.148257840664
159564000 0.0143270726692 -0.147815591989
159576000 0.0138391451036 -0.147210346883
159588000 0.0131991576437 -0.147187314306
159600000 0.0133627935871 -0.146419314328
159612000 0.0134890983176 -0.14555737637
159624000 0.0128024977465 -0.145759624219
159636000 0.0120717550865 -0.144799210392
159648000 0.011793925434 -0.143956277601
159660000 0.0125036657235 -0.143415073872
159672000 0.0114916195646 -0.143498569287
159684000 0.0111059991187 -0.142549900786
159696000 0.0104912393889 -0.142008456469
159708000 0.0108505875768 -0.141684029819
159720000 0.0100973420989 -0.141419635124
159732000 0.0102726839092 -0.1405132816
159744000 0.00935428835504 -0.139927225561
159756000 0.0097756700813 -0.139545148541
159768000 0.00943730121535 -0.139377007246
159780000 0.00949413843691 -0.138343844787
159792000 0.00819922862553 -0.137809798979
159804000 0.00818930195476 -0.137614655514
159816000 0.00830608029334 -0.137066647023
159828000 0.00827526042401 -0.136387980017
159840000 0.0069993429027 -0.135790773584
159852000 0.00723584621676 -0.135120762485
159864000 0.00763091568048 -0.134744201453
159876000 0.00724946355448 -0.134609664398
159888000 0.0061163339192 -0.133627292037
159900000 0.00610486477387 -0.133086094338
159912000 0.0066122144639 -0.132861960716
159924000 0.00587670299459 -0.132682951633
159936000 0.00511444693088 -0.131756663211
159948000 0.00505785906831 -0.130915508559
159960000 0.005609542684 -0.13076952592
159972000 0.00484848191331 -0.130639103027
159984000 0.00445288186058 -0.129630002969
159996000 0.00397605540759 -0.128905532115
160008000 0.00414553415813 -0.128955548408
160020000 0.00355113201772 -0.128652980137
160032000 0.00376067509842 -0.127653573825
160044000 0.00275554611497 -0.126730240629
160056000 0.0030346936207 -0.126828625837
160068000 0.00263745479524 -0.12641852618
160080000 0.00284311417942 -0.12557783906
160092000 0.00152862219832 -0.124624655525
160104000 0.00145114640829 -0.124579660423
160116000 0.0015602983966 -0.124116611307
160128000 0.00169767555459 -0.123609634018
160140000 0.00048946638982 -0.122561035733
160152000 0.000646642315886 -0.122139390326
160164000 0.00100441756066 -0.121984790426
160176000 0.000716408364854 -0.121794200159
160188000 -0.000271849487344 -0.1205139484
160200000 -0.000399565321944 -0.12025704335
160212000 5.14062990439e-05 -0.120215666923
160224000 -0.000625171559539 -0.119844731565
160236000 -0.00112371761102 -0.118761516041
160248000 -0.00109910925012 -0.117992199115
160260000 -0.000697763160675 -0.117964447515
160272000 -0.00150319858217 -0.117711180181
160284000 -0.00147010276983 -0.116748416807
160296000 -0.00192612190082 -0.115823208346
160308000 -0.00198092730377 -0.116117315567
160320000 -0.00266113428185 -0.115671839143
160332000 -0.00150196839189 -0.114922854353
160344000 -0.00291643113359 -0.113705763344
160356000 -0.00277538856531 -0.114050026226
160368000 -0.0029126856404 -0.113405379571
160380000 -0.00257484162472 -0.113109310766
160392000 -0.00359861210126 -0.111715166105
160404000 -0.00396912599291 -0.111768812899
160416000 -0.00372822137518 -0.111496338907
160428000 -0.00337088965839 -0.11111560586
160440000 -0.00435419753507 -0.109642466738
160452000 -0.004520382098 -0.109437929345
160464000 -0.00412737209426 -0.109430231904
160476000 -0.00439855419409 -0.109251634243
160488000 -0.00510991456181 -0.107776236134
160500000 -0.00535852450042 -0.107658781791
160512000 -0.0050602069249 -0.107698967199
160524000 -0.00566818715475 -0.107211388955
160536000 -0.0060131386055 -0.105999323762
160548000 -0.00598516154663 -0.105228052217
160560000 -0.00586901614902 -0.105529920805
160572000 -0.00666192419748 -0.10518301001
160584000 -0.00661703991674 -0.104175075455
160596000 -0.00689920351329 -0.103198733275
160608000 -0.00720025073931 -0.103439174968
160620000 -0.00740839534885 -0.102665185628
160632000 -0.00705687470764 -0.101762086028
160644000 -0.00763116545186 -0.100801968722
160656000 -0.00808438937267 -0.101405301683
160668000 -0.00837123626293 -0.100913449639
160680000 -0.00796674598308 -0.100779015976
160692000 -0.00870901318341 -0.0991084973148
160704000 -0.00940709656501 -0.0992356711073
160716000 -0.00922352938984 -0.0991378653355
160728000 -0.00889285805449 -0.0988674673544
160740000 -0.00964537976485 -0.0971865273599
160752000 -0.00990586618584 -0.0970465985538
160764000 -0.00966924672388 -0.0972570348661
160776000 -0.010076310732 -0.097058420332
160788000 -0.0104605737784 -0.0953620890405
160800000 -0.0107765188928 -0.0951083586027
160812000 -0.0115084383807 -0.0947308632973
160824000 -0.0114453432052 -0.0945750472848
160836000 -0.0113299177512 -0.0940604507111
160848000 -0.0115326510344 -0.0932311129086
160860000 -0.0121467393871 -0.0915687485664
160872000 -0.0128599745247 -0.0920560965946
160884000 -0.0122783714305 -0.0921618803827
160896000 -0.0125268619195 -0.0914635389324
160908000 -0.0129380392489 -0.0905834541778
160920000 -0.0130499800497 -0.0908068233846
160932000 -0.0134225811261 -0.0902189256599
160944000 -0.0135695392191 -0.0894540180714
160956000 -0.0137493927494 -0.0886258895679
160968000 -0.0138074613048 -0.0886789024168
160980000 -0.0143169743917 -0.0880262573472
160992000 -0.0144916091951 -0.0873758514021
161004000 -0.0145236690143 -0.086720642668
161016000 -0.0149498662327 -0.0864740968231
161028000 -0.0155369017415 -0.0860419765311
161040000 -0.0154182754202 -0.0854566301583
161052000 -0.015389801846 -0.0848289080982
161064000 -0.0158748337961 -0.0842676529919
161076000 -0.0162102247367 -0.0841242009228
161088000 -0.016095790071 -0.0838298464299
161100000 -0.0162453654034 -0.0830978198873
161112000 -0.0170584716034 -0.082471413836
161124000 -0.0172321374449 -0.0822238286632
161136000 -0.0171759244939 -0.0818802425663
161148000 -0.0173210735279 -0.0811487277292
161160000 -0.0176764557676 -0.0802250791357
161172000 -0.0178984982155 -0.0804775681893
161184000 -0.0180492613218 -0.0800171921371
161196000 -0.0183258669461 -0.0792285830206
161208000 -0.0186644326519 -0.0782264428735
161220000 -0.0189021122256 -0.0785406974947
161232000 -0.0191771912202 -0.0777424960974
161244000 -0.0194041660207 -0.0772165665273
161256000 -0.0193805763323 -0.0763350746666
161268000 -0.0196081138803 -0.0764426301976
161280000 -0.020127474255 -0.0756584594612
161292000 -0.0201999868446 -0.0751460809737
161304000 -0.0201510935194 -0.0744412404279
161316000 -0.0208647770633 -0.0742200516315
161328000 -0.0214006471739 -0.0737173222995
161340000 -0.0212583109469 -0.0732324154089
161352000 -0.0212671565385 -0.0725322861857
161364000 -0.0218263174196 -0.0720273139769
161376000 -0.0221270427742 -0.0717431467037
161388000 -0.0222213697892 -0.0716405402116
161400000 -0.0222724153175 -0.0708059716861
161412000 -0.0230264237115 -0.0700454658179
161424000 -0.0233863172869 -0.0697892931924
161436000 -0.023283088218 -0.0696018477881
161448000 -0.0234100626326 -0.0687996004125
161460000 -0.0237487114365 -0.0678258052245
161472000 -0.0240287254697 -0.0680748263054
161484000 -0.024207471011 -0.0676321130699
161496000 -0.0243874117884 -0.0668586760953
161508000 -0.0246358701485 -0.0658537667241
161520000 -0.0250620508699 -0.0662021110881
161532000 -0.0252558675224 -0.065445539972
161544000 -0.0254849778972 -0.0647652643302
161556000 -0.0252934871461 -0.0639668041728
161568000 -0.025728692427 -0.0640460011079
161580000 -0.0261489749716 -0.0632673529915
161592000 -0.0261787576376 -0.062722853878
161604000 -0.0261636820749 -0.0620986884649
161616000 -0.0268699092661 -0.0617952665569
161628000 -0.0273559520623 -0.0612312774195
161640000 -0.0272739570926 -0.0607443209101
161652000 -0.0271236881728 -0.0601146299783
161664000 -0.0277066655692 -0.0597490742045
161676000 -0.027888432684 -0.0592445708579
161688000 -0.0280886912373 -0.0590723456737
161700000 -0.0281572167236 -0.0583481474842
161712000 -0.0287319154515 -0.0573528341759
161724000 -0.02920005871 -0.0571165634484
161736000 -0.0292103454851 -0.0569763253961
161748000 -0.0293169788213 -0.0562527975477
161760000 -0.0295414625498 -0.055216601442
161772000 -0.0300202789832 -0.0554232530742
161784000 -0.030092120887 -0.0550725692131
161796000 -0.0302620184316 -0.054121589532
161808000 -0.0305314169396 -0.0532521044002
161820000 -0.0311286578936 -0.053396835961
161832000 -0.0313061089719 -0.0526665548695
161844000 -0.0315412003485 -0.0519853724001
161856000 -0.0312013677442 -0.0513002984985
161868000 -0.0318046533952 -0.0512494437806
161880000 -0.0322053674496 -0.0506115283367
161892000 -0.0321317105477 -0.049912362927
161904000 -0.0321209891924 -0.0493368252925
161916000 -0.0329718486636 -0.0488999653875
161928000 -0.0332977775393 -0.0481417090622
161940000 -0.0332378166128 -0.047785962712
161952000 -0.0331813587631 -0.0472958145127
161964000 -0.0337717019474 -0.0468018706425
161976000 -0.0341278777436 -0.0460039334425
161988000 -0.034346321111 -0.0460068823717
162000000 -0.0343012929687 -0.0453569286621
162012000 -0.0348474301655 -0.0447259337897
162024000 -0.0353171596396 -0.0434510851377
162036000 -0.0363616500121 -0.0431089080805
162048000 -0.0363776017946 -0.0431552312591
162060000 -0.0359315479343 -0.0426154866549
162072000 -0.036082359381 -0.0413741852511
162084000 -0.0369599139004 -0.0409187954979
162096000 -0.0375939026605 -0.0411229161546
162108000 -0.0370488000713 -0.0404251304735
162120000 -0.036893639078 -0.0392381206714
162132000 -0.0379527835117 -0.0386745360002
162144000 -0.0386231938025 -0.038659767632
162156000 -0.0381442130584 -0.0380575949324
162168000 -0.0378713227024 -0.0368261992295
162180000 -0.0385765341045 -0.0364445797972
162192000 -0.0395597548284 -0.0364896176004
162204000 -0.0394324988553 -0.0357833634298
162216000 -0.0389212824421 -0.0347760570148
162228000 -0.0395197028379 -0.0340225506672
162240000 -0.0408919065049 -0.0339166030204
162252000 -0.0404949020066 -0.033346937779
162264000 -0.0399760438433 -0.0325791195731
162276000 -0.0403081892228 -0.0316878051838
162288000 -0.0414652090227 -0.0314977422263
162300000 -0.041748634971 -0.0313875618648
162312000 -0.0412014414917 -0.0306780964331
162324000 -0.04139720434 -0.0294114298108
162336000 -0.0424290837764 -0.0288233147117
162348000 -0.0426408034509 -0.028849252472
162360000 -0.0421359153455 -0.0284310718079
162372000 -0.0421609794045 -0.0270787977118
162384000 -0.0430915992943 -0.0264773771809
162396000 -0.0436930673718 -0.0266265678406
162408000 -0.0430593398708 -0.0259893822073
162420000 -0.042961074844 -0.0248097955274
162432000 -0.0440668557326 -0.0241574256947
162444000 -0.0446794434761 -0.0239446086347
162456000 -0.0439773505729 -0.0234991458677
162468000 -0.043515866676 -0.0223949303707
162480000 -0.0441499460609 -0.0217993124313
162492000 -0.0451878091759 -0.0210520879292
162504000 -0.0454280885975 -0.0208961285011
162516000 -0.0448407676495 -0.0201931094139
162528000 -0.0453503097453 -0.0193320928343
162540000 -0.0465952515908 -0.0190078229248
162552000 -0.0463596451938 -0.0186371152375
162564000 -0.0458129121457 -0.0179595223667
162576000 -0.046026891471 -0.0169551507011
162588000 -0.0472194029091 -0.0165988668007
162600000 -0.0474726500632 -0.0163616614478
162612000 -0.0469354296552 -0.0159143481773
162624000 -0.0469305403726 -0.0145218713187
162636000 -0.0480188344252 -0.0137491445137
162648000 -0.0483722695935 -0.0138221704789
162660000 -0.0477882242586 -0.0135861654177
162672000 -0.0476469676769 -0.012208374072
162684000 -0.0485782838412 -0.0114421177679
162696000 -0.0492895157297 -0.0114280577453
162708000 -0.0486429940134 -0.0110366058395
162720000 -0.048579231381 -0.00974668363249
162732000 -0.0494949560364 -0.00897503439458
162744000 -0.0502318889676 -0.00867446511857
162756000 -0.0495856377099 -0.0082059129432
162768000 -0.0492707592772 -0.0072867722852
162780000 -0.0498436428 -0.00660293765357
162792000 -0.0512461277166 -0.00627935596
162804000 -0.050625232399 -0.00568686898146
162816000 -0.0501053940182 -0.00489643261396
162828000 -0.0506012726021 -0.00394270990768
162840000 -0.0517923442752 -0.00348122959328
162852000 -0.0517159248346 -0.00319921205138
162864000 -0.0511181250549 -0.00256367659168
162876000 -0.0512487572354 -0.00154846605196
162888000 -0.0523749827575 -0.00100234144544
162900000 -0.0526645982709 -0.000741383305704
162912000 -0.0520961237187 -0.000387614381175
162924000 -0.0519534472183 0.00102931375319
162936000 -0.0530811673241 0.00193590032278
162948000 -0.0534227817593 0.00195863882479
162960000 -0.0529512842172 0.00212543664901
162972000 -0.0526891306974 0.00350715838136
162984000 -0.0536520510187 0.00427367096536
162996000 -0.0542796702011 0.0045960596673
163008000 -0.0537742056987 0.00476611229472
163020000 -0.0533909366276 0.00595406418304
163032000 -0.0541329484981 0.00700769306359
163044000 -0.0551265597991 0.00735573705387
163056000 -0.0545151232571 0.00756991834635
163068000 -0.0539712453548 0.00847856829699
163080000 -0.0548396912989 0.00924819600955
163092000 -0.0557362041141 0.00967293759615
163104000 -0.0553778200996 0.0102463435519
163116000 -0.054856593645 0.010983757244
163128000 -0.055226510956 0.0119260375614
163140000 -0.0564463907148 0.0126206219966
163152000 -0.0563559644102 0.0128562893701
163164000 -0.0557525906889 0.013408619871
163176000 -0.0557340970661 0.0145113411388
163188000 -0.0570064927497 0.0152703933242
163200000 -0.0572908155759 0.0155005263812
163212000 -0.0575634608841 0.0168904732885
163224000 -0.0588205777491 0.0166680778141
163236000 -0.0564555043902 0.0172274367454
163248000 -0.0573937780389 0.0190589616631
163260000 -0.0580824648673 0.0197285180231
163272000 -0.0594752700079 0.0195563786184
163284000 -0.0571086667393 0.0200042401369
163296000 -0.0577565212291 0.0213336374494
163308000 -0.0584020596514 0.0222550730195
163320000 -0.0601611047831 0.022469121334
163332000 -0.0578423456342 0.0227538861601
163344000 -0.0580960938579 0.0237031472264
163356000 -0.0588133272279 0.0250857341533
163368000 -0.0601821206015 0.0254376712145
163380000 -0.0588915800275 0.0254431638282
163392000 -0.0585677631223 0.026033490989
163404000 -0.0593863440556 0.027791346317
163416000 -0.060899785798 0.0281801714317
163428000 -0.0601659288452 0.0281258592727
163440000 -0.0591863333418 0.0286110427266
163452000 -0.0600058495252 0.0306302329012
163464000 -0.0609864191155 0.0310051455911
163476000 -0.0614936748166 0.0308971583135
163488000 -0.0597234798461 0.0311735866248
163500000 -0.0605238199893 0.0333062047821
163512000 -0.061218859318 0.0338642931765
163524000 -0.0625905950065 0.0337145864814
163536000 -0.0601776300411 0.0340485153726
163548000 -0.0609883254479 0.0360247754338
163560000 -0.0617876058145 0.036628777376
163572000 -0.0633967043007 0.0368774397104
163584000 -0.0607392115452 0.0368659410406
163596000 -0.061430391106 0.0383177763128
163608000 -0.0620024347546 0.0393021385358
163620000 -0.0638356312944 0.0397173399899
163632000 -0.0615480941959 0.039713134847
163644000 -0.0618683742437 0.0407183330463
163656000 -0.0623548198694 0.0422343352028
163668000 -0.063918714398 0.0425974108173
163680000 -0.0624791694289 0.0424514382632
163692000 -0.0621822166634 0.0429656463527
163704000 -0.0626941100329 0.0448002290735
163716000 -0.0639804401222 0.0454319963772
163728000 -0.063548510492 0.0452343890041
163740000 -0.0625066946468 0.0456054434758
163752000 -0.0630639808431 0.047773186617
163764000 -0.0639983092611 0.04834952632
163776000 -0.0645850997788 0.048160769273
163788000 -0.062826430781 0.0482938339387
163800000 -0.0631997613313 0.0504527761751
163812000 -0.0640562820259 0.0512398380481
163824000 -0.0653285937678 0.0510735435152
163836000 -0.0630174347158 0.0511269918981
163848000 -0.0635955007919 0.0532357158806
163860000 -0.0642837350246 0.0539374103799
163872000 -0.0658001143945 0.0542650889546
163884000 -0.0634294863302 0.0540696963777
163896000 -0.0638819389027 0.0555538512273
163908000 -0.064338480681 0.0566792726124
163920000 -0.0662519066548 0.0572753733406
163932000 -0.0640133096834 0.056920633172
163944000 -0.0642669748958 0.0580568189819
163956000 -0.0646762140864 0.0594982076466
163968000 -0.0662988919136 0.0600576640423
163980000 -0.0647363427031 0.0598232169862
163992000 -0.0644525039835 0.0603746942087
164004000 -0.0647744939773 0.0623141874257
164016000 -0.0659355882101 0.0630828986499
164028000 -0.0656927751727 0.0628959737824
164040000 -0.0646275220187 0.063052344792
164052000 -0.0648205939591 0.065268924719
164064000 -0.0658208392028 0.0659654601604
164076000 -0.0665880522206 0.0658682902303
164088000 -0.0648392465678 0.0657022834173
164100000 -0.0650343684936 0.0680789590605
164112000 -0.0662030278799 0.0686736902734
164124000 -0.067139268073 0.0692372739621
164136000 -0.0650000788482 0.0687198118894
164148000 -0.0652923870601 0.0708587963508
164160000 -0.065941588831 0.0716035752377
164172000 -0.0676207258469 0.0721938697877
164184000 -0.0653069805462 0.0715221951967
164196000 -0.0655904089115 0.0730908486295
164208000 -0.0659659499745 0.0744009332853
164220000 -0.0678853037182 0.0752587439517
164232000 -0.0656951272463 0.0745510976479
164244000 -0.0659186689012 0.0757842607593
164256000 -0.0661968938617 0.0774393374416
164268000 -0.0679499044989 0.0783407684785
164280000 -0.0665633780589 0.0778004890728
164292000 -0.0663407292325 0.0784171553393
164304000 -0.0663775211679 0.0804656423792
164316000 -0.0677532736928 0.0813067808328
164328000 -0.067526061668 0.0811692453026
164340000 -0.0664871632317 0.0813602147922
164352000 -0.0664851829448 0.0837497316841
164364000 -0.067529649282 0.0845851813627
164376000 -0.0683782090005 0.0845692558555
164388000 -0.0668222560418 0.0843954986661
164400000 -0.0668553218841 0.0866905478976
164412000 -0.0662992578958 0.0863927198918
164424000 -0.0669824232143 0.0876111758556
164436000 -0.0670065522378 0.0877425470743
164448000 -0.0667289059879 0.0884984083273
164460000 -0.0665163609217 0.089422245741
164472000 -0.0671671574547 0.090765511738
164484000 -0.0674205499499 0.0909715214068
164496000 -0.067209693907 0.091707168254
164508000 -0.0665743186627 0.0925661160897
164520000 -0.0675159769295 0.0940096135477
164532000 -0.0680498329023 0.0942657765514
164544000 -0.0677435142695 0.0948793470154
164556000 -0.0668675087664 0.0955094384559
164568000 -0.0676279798223 0.0969339855681
164580000 -0.0677812978372 0.097423846343
164592000 -0.0678222386585 0.0978874407245
164604000 -0.0671453112788 0.0986885580807
164616000 -0.0678189722439 0.0999478730665
164628000 -0.0677678021754 0.100566414639
164640000 -0.0681203220116 0.101027868168
164652000 -0.0675804509046 0.101583731512
164664000 -0.0678489019156 0.102887476246
164676000 -0.0679953909068 0.103923772119
164688000 -0.0683905870305 0.104176175779
164700000 -0.0678280752295 0.104791927513
164712000 -0.0678588428253 0.106054440036
164724000 -0.0686194802698 0.107397199802
164736000 -0.068505445287 0.107551240222
164748000 -0.0681713154932 0.108354309183
164760000 -0.0679054416396 0.109281046088
164772000 -0.0684111034275 0.110668184986
164784000 -0.0686548955103 0.110998684216
164796000 -0.0684130642059 0.111595222722
164808000 -0.0675373379814 0.11237098891
164820000 -0.0683307755197 0.113971019661
164832000 -0.0685431874587 0.114135227693
164844000 -0.0683526009876 0.114951255081
164856000 -0.0674522168232 0.115480816785
164868000 -0.0680764211652 0.116985498548
164880000 -0.0681905389949 0.117499702317
164892000 -0.0681879079529 0.11801790461
164904000 -0.0675003626002 0.118677930479
164916000 -0.068119322452 0.120136121131
164928000 -0.0678884842718 0.120621774506
164940000 -0.0681769500306 0.121236741014
164952000 -0.067679909895 0.121781044272
164964000 -0.0678851943584 0.123107848037
164976000 -0.0680612235484 0.124135248207
164988000 -0.0684916025229 0.124504335359
165000000 -0.0679915669648 0.125116537079
165012000 -0.0679997699047 0.126459601823
165024000 -0.0685442604794 0.127842643749
165036000 -0.0687542051104 0.128279252205
165048000 -0.0684470804626 0.129204372324
165060000 -0.0681447731514 0.130102606289
165072000 -0.0687419492974 0.131702165061
165084000 -0.0691218167297 0.132246775949
165096000 -0.0689727674039 0.133030306725
165108000 -0.0682740640042 0.133776552651
165120000 -0.0690405414966 0.135575550729
165132000 -0.0692227488011 0.135899125285
165144000 -0.0691453649652 0.13675863475
165156000 -0.0682800372946 0.137230485694
165168000 -0.0689001916366 0.138834843194
165180000 -0.0688660171468 0.139315270494
165192000 -0.0689123340535 0.139894397485
165204000 -0.0681707862691 0.140344118087
165216000 -0.0685125889562 0.14182073191
165228000 -0.0682935718405 0.142311693925
165240000 -0.0685259786805 0.142837718937
165252000 -0.0678330925433 0.143233587157
165264000 -0.0678358885128 0.144639457017
165276000 -0.0678976083884 0.145546844228
165288000 -0.0681542926003 0.146157217272
165300000 -0.0675431054073 0.146473572201
165312000 -0.0674610358772 0.147818208027
165324000 -0.067461011619 0.14902425917
165336000 -0.0675181905646 0.149386197653
165348000 -0.0670605586709 0.150075720558
165360000 -0.0665298853719 0.15077844215
165372000 -0.0667689690351 0.152380432836
165384000 -0.0671807606631 0.152869675978
165396000 -0.0667823661177 0.153365380043
165408000 -0.065908684372 0.153939792126
165420000 -0.0664368994047 0.155724297951
165432000 -0.0664544297804 0.155915985022
165444000 -0.0662710200025 0.156706992123
165456000 -0.0654405242495 0.156966326587
165468000 -0.0657888587392 0.158538851498
165480000 -0.0656925455748 0.15913916816
165492000 -0.0657998908484 0.15951050764
165504000 -0.0649591899007 0.159806705503
165516000 -0.0650654217233 0.161405965681
165528000 -0.0649080442282 0.161951230324
165540000 -0.0651189886175 0.162556077293
165552000 -0.064384520808 0.162932902858
165564000 -0.0643792231839 0.164275359324
165576000 -0.0642464414437 0.16520732247
165588000 -0.0643976830868 0.165690601261
165600000 -0.063954339244 0.166185320306
165612000 -0.0642611202699 0.167625750849
165624000 -0.0642403494244 0.168378556087
165636000 -0.063364633085 0.169337480332
165648000 -0.0636073759391 0.171185756074
165660000 -0.063472118769 0.171131574748
165672000 -0.0637816323058 0.171690610614
165684000 -0.0624955704108 0.172463110716
165696000 -0.0625329477226 0.174327190957
165708000 -0.06301411108 0.174998238041
165720000 -0.0631640089735 0.174981161907
165732000 -0.0609203996567 0.175274050657
165744000 -0.0610033785842 0.178250078694
165756000 -0.0624364048389 0.17981565855
165768000 -0.0622179884987 0.178308465738
165780000 -0.0609654859987 0.178931516941
165792000 -0.060834684832 0.18020757835
165804000 -0.0617780584562 0.182255641962
165816000 -0.0612521802137 0.18120893534
165828000 -0.0604134912904 0.181869895611
165840000 -0.0601726890618 0.183048416861
165852000 -0.0608287218893 0.185337290651
165864000 -0.0603275223772 0.184480160419
165876000 -0.0597584998812 0.185072482951
165888000 -0.0592833845848 0.186082804425
165900000 -0.0595198613557 0.18817782647
165912000 -0.0593195838202 0.187594931673
165924000 -0.0594755330733 0.188385305088
165936000 -0.0585190063468 0.189124215743
165948000 -0.0585067239958 0.191066478019
165960000 -0.0585679368068 0.191080807495
165972000 -0.0588402800253 0.19170404812
165984000 -0.0575392839267 0.19247237082
165996000 -0.0574717632886 0.194444095917
166008000 -0.0578880741252 0.195123600115
166020000 -0.0580874743228 0.195132586103
166032000 -0.0567701125656 0.195760891395
166044000 -0.0565303231288 0.19735742617
166056000 -0.0571932209439 0.198948585638
166068000 -0.0570977783172 0.198552217305
166080000 -0.0558862214426 0.199090586537
166092000 -0.0556086237317 0.200412924914
166104000 -0.0564501239645 0.202746641249
166116000 -0.0562069908321 0.201535907386
166128000 -0.0553331575964 0.202344507983
166140000 -0.0550587258819 0.203403282541
166152000 -0.055418097004 0.205714244171
166164000 -0.0552095985922 0.204962653932
166176000 -0.0547681691506 0.20564417396
166188000 -0.0542826563433 0.206497971003
166200000 -0.0541415414006 0.208888984453
166212000 -0.0541758952638 0.208282404119
166224000 -0.0542719300815 0.209170720314
166236000 -0.0532808770988 0.209970521865
166248000 -0.0530547204321 0.21202061848
166260000 -0.0532585214556 0.211990132578
166272000 -0.0534688895982 0.212718371242
166284000 -0.052240083566 0.213385929141
166296000 -0.0519709657961 0.215307955822
166308000 -0.0523191848686 0.216240500216
166320000 -0.0525159494038 0.216320639586
166332000 -0.0512699761594 0.216815522936
166344000 -0.0509310136443 0.21845423692
166356000 -0.0513399784956 0.220092713452
166368000 -0.0514047533375 0.21954351498
166380000 -0.0502496593049 0.220012314115
166392000 -0.0498596208679 0.22135950857
166404000 -0.0503707895089 0.223617911066
166416000 -0.0502523856654 0.22255006734
166428000 -0.04932082724 0.223224194283
166440000 -0.0489827799762 0.224328898056
166452000 -0.0491260390751 0.226661103375
166464000 -0.0489277440617 0.225917017203
166476000 -0.0485391163887 0.226466758894
166488000 -0.0478340930729 0.227371570969
166500000 -0.0474942547731 0.229723412204
166512000 -0.0475382971818 0.229165666467
166524000 -0.0475368902264 0.230036341226
166536000 -0.0464441644899 0.230698055042
166548000 -0.046026154633 0.232729038097
166560000 -0.0461962507515 0.232720825593
166572000 -0.0463535495387 0.233419963304
166584000 -0.0451464701884 0.233997176793
166596000 -0.0444298697151 0.235767063012
166608000 -0.0447378526355 0.236730797786
166620000 -0.0452014276969 0.236967305545
166632000 -0.0439160945243 0.237239678804
166644000 -0.0434513202622 0.238870675605
166656000 -0.0437654598211 0.240599422223
166668000 -0.0439736602485 0.240215126404
166680000 -0.0428355056808 0.240724499946
166692000 -0.0423849256824 0.242065051863
166704000 -0.0426749395511 0.244542730771
166716000 -0.0428796528733 0.243692363412
166728000 -0.0420247760748 0.244440553033
166740000 -0.0415847802071 0.245465725073
166752000 -0.0414105831921 0.248006875243
166764000 -0.0415046377791 0.247306191442
166776000 -0.041318810654 0.248084325443
166788000 -0.040519024964 0.249038830506
166800000 -0.039934133572 0.251516272717
166812000 -0.0406297078255 0.252227492755
166824000 -0.0407370139261 0.253291250868
166836000 -0.040254136733 0.253967896057
166848000 -0.0396665691147 0.254161137572
166860000 -0.0390661289806 0.255191664523
166872000 -0.039116260915 0.256127050559
166884000 -0.0387797068519 0.256784304724
166896000 -0.0379672806509 0.256917496524
166908000 -0.0373956558545 0.258400757143
166920000 -0.0373529580258 0.258944019852
166932000 -0.0366917218307 0.25953778512
166944000 -0.036443181304 0.2596815965
166956000 -0.0362048381964 0.261316424025
166968000 -0.0359058799796 0.261680436467
166980000 -0.0352179907586 0.262359395915
166992000 -0.0350611571342 0.262588647118
167004000 -0.0343241095125 0.264049613166
167016000 -0.0337437162513 0.264544683031
167028000 -0.0335445954448 0.265144192535
167040000 -0.0333635329394 0.265650892355
167052000 -0.0327789003189 0.266813311932
167064000 -0.0321587508624 0.267430951915
167076000 -0.0320239700932 0.268192780225
167088000 -0.0316163984994 0.268901479754
167100000 -0.0309106514875 0.269654706755
167112000 -0.0301304259399 0.270232188696
167124000 -0.0301720633084 0.271366452271
167136000 -0.029670918288 0.272131936679
167148000 -0.0291255356844 0.272284980238
167160000 -0.0284836300469 0.273416250819
167172000 -0.0283430984304 0.274378447197
167184000 -0.0280308769848 0.275003730302
167196000 -0.0272240167129 0.275144580906
167208000 -0.0265957132276 0.276609594341
167220000 -0.0265095989059 0.277251771583
167232000 -0.0260162013425 0.277923290941
167244000 -0.0257032137794 0.278153137535
167256000 -0.0251112802662 0.279655727919
167268000 -0.0245911594997 0.280069463871
167280000 -0.0241856358818 0.280719127586
167292000 -0.0240368510093 0.280894262547
167304000 -0.0232438162215 0.282343600648
167316000 -0.0225214146179 0.282998240483
167328000 -0.0223379533755 0.283444089313
167340000 -0.0221177037476 0.283976994766
167352000 -0.0215003071475 0.285027330708
167364000 -0.0207271963528 0.28557107853
167376000 -0.0210770418812 0.286291455683
167388000 -0.0202911596233 0.287045906261
167400000 -0.0192886967171 0.287722627265
167412000 -0.0186221220868 0.28823142914
167424000 -0.018620780851 0.289346721582
167436000 -0.018050842247 0.289981142789
167448000 -0.017449157893 0.290212106396
167460000 -0.0167103899839 0.291319829543
167472000 -0.0164959542314 0.292233381251
167484000 -0.0158223318849 0.292859892232
167496000 -0.0152631663246 0.292951695667
167508000 -0.0144327914154 0.294184270802
167520000 -0.0142814300672 0.294909663686
167532000 -0.0136222225485 0.295485526641
167544000 -0.0132556962485 0.295650274272
167556000 -0.0125493524728 0.29701370645
167568000 -0.0121760339686 0.297490614096
167580000 -0.011594093196 0.297981470305
167592000 -0.0113630058099 0.298285742822
167604000 -0.0103967541698 0.299609177704
167616000 -0.00980978589625 0.300019159216
167628000 -0.00942035664551 0.300585307532
167640000 -0.00918215958237 0.301077673956
167652000 -0.00835549184095 0.301933303843
167664000 -0.00747625507486 0.302305410164
167676000 -0.00724182515924 0.303290722704
167688000 -0.00674897569738 0.303789062627
167700000 -0.00577943427902 0.30432350454
167712000 -0.0049057883196 0.304778568026
167724000 -0.00478745372068 0.305761925243
167736000 -0.00406865445249 0.306427815859
167748000 -0.00352549466168 0.306498415175
167760000 -0.00263099789314 0.30731247168
167772000 -0.00232271233973 0.308279581265
167784000 -0.0015183538412 0.308732161424
167796000 -0.000923935548404 0.308662785119
167808000 0.000127300514893 0.30967180155
167820000 0.000281644711236 0.310400670542
167832000 0.00119243521958 0.310703465141
167844000 0.00160916574218 0.310716126991
167856000 0.00265755913376 0.311857640647
167868000 0.00324417956393 0.312098772044
167880000 0.00406828142535 0.312158044221
167892000 0.00452104608891 0.312252506412
167904000 0.00579315464533 0.313009029276
167916000 0.00696042658922 0.31333574409
167928000 0.00749738867867 0.313314020374
167940000 0.00820332150406 0.313506003752
167952000 0.00934697796504 0.314291639334
167964000 0.0103143920621 0.314475466784
167976000 0.0108564479889 0.315322925575
167988000 0.0115118486765 0.315528966079
168000000 0.0126055389208 0.316076902064
168012000 0.0155409233403 0.315422039774
168024000 0.0166761553148 0.316490208726
168036000 0.0172951362268 0.316647041449
168048000 0.0177496860963 0.31846184746
168060000 0.0180767442887 0.318211438846
168072000 0.018835785651 0.319112350959
168084000 0.0193623152879 0.319313359374
168096000 0.0197323679639 0.320973785756
168108000 0.0203142370952 0.321145879658
168120000 0.0208469544859 0.321624133102
168132000 0.0216587606418 0.322066696391
168144000 0.0219479331493 0.323337901072
168156000 0.022708285342 0.323672234825
168168000 0.022805894437 0.324137953218
168180000 0.023722559986 0.325007561115
168192000 0.024058382277 0.325679236061
168204000 0.0249150379204 0.326187819177
168216000 0.0248781492884 0.326490697236
168228000 0.0260978688721 0.327730405672
168240000 0.0263703301613 0.327937068123
168252000 0.0272577755714 0.328927001033
168264000 0.0269901557637 0.328901845635
168276000 0.0281673438447 0.330197638791
168288000 0.0286180113237 0.330242383096
168300000 0.0293705992817 0.331727193993
168312000 0.0293641877862 0.331594045313
168324000 0.0304936423816 0.332608044355
168336000 0.0310756906571 0.332679235568
168348000 0.0317154014516 0.334441337427
168360000 0.0318941222781 0.33415818683
168372000 0.032655440193 0.334844667488
168384000 0.0333168896903 0.335048529413
168396000 0.0339852497847 0.336557713733
168408000 0.0345109377556 0.336792391499
168420000 0.0349975546097 0.337318277503
168432000 0.0358325670687 0.337549710598
168444000 0.0360331400757 0.338722436406
168456000 0.0368723405943 0.339019590185
168468000 0.037005510877 0.339464774083
168480000 0.038031976504 0.340220880242
168492000 0.0382970241828 0.340859382122
168504000 0.0390991239738 0.341453881292
168516000 0.0390957913581 0.341622577732
168528000 0.0404020804251 0.342776609641
168540000 0.0407175893549 0.342910308158
168552000 0.0415997853717 0.343745324746
168564000 0.0413726204081 0.343800642787
168576000 0.0426215951136 0.345072749379
168588000 0.0430407682315 0.345044893482
168600000 0.0439081737617 0.346354924755
168612000 0.043811119423 0.346263956703
168624000 0.0450245765213 0.347078419033
168636000 0.0455573724529 0.347064102452
168648000 0.0463305406341 0.348799027658
168660000 0.0464773761732 0.348543338371
168672000 0.0472127371057 0.349280427995
168684000 0.0476902946562 0.349285026423
168696000 0.0482062198984 0.350880231517
168708000 0.0487505436337 0.350934017307
168720000 0.0494227616188 0.351384060323
168732000 0.0502955064319 0.351520128941
168744000 0.0507123407647 0.352599015384
168756000 0.0515042616528 0.35293722573
168768000 0.0515911159603 0.353311889115
168780000 0.0527071842791 0.35394879341
168792000 0.0531076630665 0.354582785193
168804000 0.0539299785796 0.355134598917
168816000 0.0538820885583 0.355395295082
168828000 0.055276646366 0.356352351154
168840000 0.055571135211 0.356441723806
168852000 0.0564361203539 0.3571998041
168864000 0.0561508385107 0.357434647357
168876000 0.057587679247 0.358627852692
168888000 0.057958831377 0.358617545458
168900000 0.058777370775 0.35977897903
168912000 0.0586613831204 0.359728941366
168924000 0.0599110995557 0.360475620784
168936000 0.0603458342719 0.36055390648
168948000 0.0612753135748 0.362034120172
168960000 0.0614300062845 0.361864986957
168972000 0.0623380729535 0.362463496994
168984000 0.063953618406 0.361906731458
168996000 0.0648848291545 0.364375696205
169008000 0.0640945479504 0.364015688469
169020000 0.0646714029212 0.364385409458
169032000 0.0653551975448 0.364572345114
169044000 0.0659189835964 0.365683652833
169056000 0.0665939891588 0.365959569848
169068000 0.0667860239685 0.36638633465
169080000 0.0678692049553 0.366890422623
169092000 0.068198314728 0.367512921863
169104000 0.0689993257109 0.368021340212
169116000 0.0690882179751 0.368283802378
169128000 0.0705037586845 0.369075620483
169140000 0.0707466487 0.369107048542
169152000 0.0716673224334 0.369836753209
169164000 0.0713607562068 0.370044401441
169176000 0.0729303308408 0.371064755652
169188000 0.0730842490746 0.37105750984
169200000 0.0742049407647 0.372202844129
169212000 0.0791176099523 0.360053904631
169224000 0.0800630667678 0.361201690966
169236000 0.0797872858871 0.361074671944
169248000 0.0815589544448 0.361638335292
169260000 0.082031606679 0.361611531485
169272000 0.0831346577519 0.363089869966
169284000 0.0828438993893 0.362895644545
169296000 0.0842721495438 0.363648427506
169308000 0.0848736692018 0.36371436104
169320000 0.0857842046791 0.365360906641
169332000 0.0858156076865 0.365416142023
169344000 0.0868832196797 0.365573473268
169356000 0.0876078241943 0.365489228157
169368000 0.0886164386601 0.366757928919
169380000 0.0888178530441 0.367073890295
169392000 0.0892960775097 0.36711936969
169404000 0.0899688234801 0.367355444037
169416000 0.0904325126884 0.368310585164
169428000 0.0910085612236 0.369064964055
169440000 0.0912240587775 0.368927557152
169452000 0.0925187426461 0.369433227798
169464000 0.0928291096397 0.369927171543
169476000 0.093686275301 0.370774090592
169488000 0.0936421593644 0.370698713735
169500000 0.0954072074545 0.371464590827
169512000 0.095606920503 0.371660918099
169524000 0.0966696990153 0.372761714611
169536000 0.0963286260289 0.372800314062
169548000 0.0981042376814 0.373539050712
169560000 0.0983727401064 0.373567802692
169572000 0.0994822970939 0.374935295732
169584000 0.0991592285389 0.374798032159
169596000 0.100392718825 0.375207748717
169608000 0.100805849703 0.375364963993
169620000 0.101753778983 0.376620123304
169632000 0.101774603512 0.376556066677
169644000 0.102630992159 0.376644047402
169656000 0.103068002413 0.376696051464
169668000 0.103845791862 0.377894232575
169680000 0.10417418926 0.378131324134
169692000 0.104773582393 0.37795257717
169704000 0.105414158779 0.378167284531
169716000 0.105932018071 0.379204830311
169728000 0.106719086801 0.379788514337
169740000 0.106816096924 0.37956914883
169752000 0.108407685031 0.379890230462
169764000 0.108538884628 0.380278352332
169776000 0.109541634324 0.381163118187
169788000 0.109663655932 0.38060069878
169800000 0.111216320374 0.3810461098
169812000 0.111562508542 0.381397199185
169824000 0.112202285945 0.382840091288
169836000 0.111656752649 0.383266698735
169848000 0.113353324472 0.383888716634
169860000 0.113571661194 0.384020759805
169872000 0.114685852759 0.385172126173
169884000 0.114388362971 0.385054842495
169896000 0.11559552178 0.38540353847
169908000 0.115913401972 0.385400459606
169920000 0.116967174266 0.386655793115
169932000 0.11695239218 0.38668852083
169944000 0.117733516123 0.386666818394
169956000 0.11819204887 0.386704502994
169968000 0.119066567956 0.387817781178
169980000 0.119525307043 0.388103710445
169992000 0.120174050229 0.387956152642
170004000 0.120771392549 0.388049637457
170016000 0.121428371958 0.389098192966
170028000 0.122357485447 0.389665546413
170040000 0.12251133885 0.389777597422
170052000 0.12399130584 0.390090788203
170064000 0.124207907668 0.390101314123
170076000 0.125129424973 0.390837775967
170088000 0.12503183835 0.39074898408
170100000 0.126722045417 0.391481735112
170112000 0.126869868992 0.39137493046
170124000 0.128035171451 0.392056621689
170136000 0.127703110055 0.392245758686
170148000 0.12942580239 0.392643473509
170160000 0.129575988908 0.392608770475
170172000 0.130780147857 0.393512143027
170184000 0.130456878256 0.393699412669
170196000 0.13168303185 0.393827523676
170208000 0.131888412489 0.393900106509
170220000 0.132954076977 0.39497110303
170232000 0.133073012659 0.395082375737
170244000 0.133889177403 0.394992044007
170256000 0.134290455847 0.395046836457
170268000 0.135195535439 0.395961197491
170280000 0.135744735212 0.39642209152
170292000 0.136265648974 0.396255031678
170304000 0.137109316361 0.396559939493
170316000 0.137802789924 0.397374589389
170328000 0.138778989825 0.398101668702
170340000 0.138882321666 0.398147646885
170352000 0.140285660189 0.398267902761
170364000 0.140519719942 0.398791783115
170376000 0.141446460594 0.399404347088
170388000 0.141331407161 0.399392512497
170400000 0.142832509308 0.399720343345
170412000 0.142637793186 0.399663980381
170424000 0.143323825913 0.399921913386
170436000 0.143886194841 0.400567734157
170448000 0.144254307347 0.400933431027
170460000 0.144846217778 0.400841654243
170472000 0.145525578675 0.401310352284
170484000 0.146403012781 0.401911218543
170496000 0.146865774628 0.401720854737
170508000 0.147367461165 0.401998794758
170520000 0.148118926691 0.402784095166
170532000 0.148819223517 0.403119403475
170544000 0.14919959179 0.403096262054
170556000 0.149935498935 0.403406483748
170568000 0.150799295968 0.403928014403
170580000 0.151386554287 0.404225143987
170592000 0.151752522693 0.404213884667
170604000 0.152448180561 0.404791228286
170616000 0.153529206395 0.405658312252
170628000 0.154517230998 0.405096378997
170640000 0.153982312053 0.405438443442
170652000 0.154753735224 0.406006100989
170664000 0.155446612844 0.405782995435
170676000 0.155872362027 0.40596747148
170688000 0.156454294495 0.406529715505
170700000 0.157128081647 0.406970976821
170712000 0.157569159486 0.406741700394
170724000 0.158236133197 0.407082479627
170736000 0.158925737431 0.407670406267
170748000 0.159504116185 0.407935866853
170760000 0.160074460697 0.407946008187
170772000 0.160835417572 0.408592197549
170784000 0.161691461481 0.409301717277
170796000 0.162100489107 0.409151591888
170808000 0.162631576656 0.409333834594
170820000 0.163409696456 0.409818324939
170832000 0.164212906313 0.41017252915
170844000 0.164435726317 0.410272884535
170856000 0.165123470594 0.410527848956
170868000 0.165983843216 0.411100074071
170880000 0.166524243556 0.411269268824
170892000 0.166752201538 0.41119114346
170904000 0.167419285794 0.41174661473
170916000 0.168242296354 0.411832940674
170928000 0.16873835908 0.411896765868
170940000 0.169005866412 0.412158726952
170952000 0.169600797716 0.412799878994
170964000 0.170251282263 0.412600034664
170976000 0.170797142068 0.412898754881
170988000 0.171387456418 0.41345734591
171000000 0.172095227364 0.413808555816
171012000 0.172608707725 0.413653629737
171024000 0.173222290287 0.413940766264
171036000 0.173974435623 0.414688837212
171048000 0.174539962426 0.414826721624
171060000 0.17494868334 0.414634603456
171072000 0.175798282007 0.415095059496
171084000 0.176627558212 0.415743753037
171096000 0.177041693251 0.415562619135
171108000 0.177492223516 0.415772910387
171120000 0.178299632239 0.416277372769
171132000 0.179051232031 0.416697794865
171144000 0.179231146134 0.41666294417
171156000 0.180164619237 0.416793089017
171168000 0.180883489767 0.41724959793
171180000 0.180930717348 0.417398153926
171192000 0.181433725503 0.417365063095
171204000 0.182064152977 0.417805519534
171216000 0.18278968652 0.417897933179
171228000 0.183253651567 0.417926401741
171240000 0.183546054457 0.418189322659
171252000 0.184244795514 0.41881672602
171264000 0.184744550265 0.418741841154
171276000 0.185337703342 0.418663359533
171288000 0.186013910871 0.419195991607
171300000 0.18679078763 0.419567930868
171312000 0.187275509598 0.419437340668
171324000 0.187890557152 0.419621215559
171336000 0.188572269423 0.420304405809
171348000 0.189167864284 0.420469644392
171360000 0.189500873236 0.420273544358
171372000 0.190233865669 0.420640279591
171384000 0.19107052638 0.421286587232
171396000 0.191207141924 0.421002112778
171408000 0.191618703104 0.421106665232
171420000 0.192417007157 0.421458746393
171432000 0.193122179111 0.421733216224
171444000 0.193323497198 0.421579093938
171456000 0.194033914529 0.421801137712
171468000 0.194760549354 0.42223006877
171480000 0.195392433948 0.42237926908
171492000 0.195643001032 0.42221164927
171504000 0.196284597895 0.422764222451
171516000 0.197084007752 0.422857577218
171528000 0.197527453204 0.422870589105
171540000 0.198043695562 0.423208775517
171552000 0.198846482141 0.423771338305
171564000 0.199555775011 0.423653957846
171576000 0.20005320681 0.423880984088
171588000 0.200713008145 0.42441585219
171600000 0.201546825536 0.424771039328
171612000 0.201390297772 0.424685772693
171624000 0.202271864577 0.424642259931
171636000 0.202861264448 0.424835229827
171648000 0.203708924267 0.425633114014
171660000 0.20376964378 0.425469896453
171672000 0.204334650328 0.42562686522
171684000 0.205441406284 0.425417160581
171696000 0.205801473548 0.425997601367
171708000 0.206612288349 0.426107917018
171720000 0.206526103525 0.426430561763
171732000 0.207943530823 0.425990555042
171744000 0.207957477272 0.426461107857
171756000 0.209156718301 0.427077665484
171768000 0.208767736174 0.427049898212
171780000 0.210120597532 0.426620905349
171792000 0.209902546342 0.427298207678
171804000 0.211656016715 0.427853715203
171816000 0.210727805606 0.427710357249
171828000 0.212028297912 0.427287432566
171840000 0.211966506011 0.427917726853
171852000 0.213918695594 0.428723638577
171864000 0.213030231938 0.428364744763
171876000 0.214136805255 0.428013232822
171888000 0.214260941404 0.428452779912
171900000 0.215846439122 0.429267718743
171912000 0.21528245048 0.42894069568
171924000 0.216131899006 0.428864219759
171936000 0.216850093565 0.429042462399
171948000 0.217885229791 0.429738899259
171960000 0.217868204016 0.429647430205
171972000 0.218402017004 0.429849774448
171984000 0.21941902716 0.42963884716
171996000 0.219819319477 0.43023757746
172008000 0.220382710605 0.430259968786
172020000 0.220432565439 0.430589429464
172032000 0.221898950119 0.430225038621
172044000 0.222050778124 0.430874492385
172056000 0.223374210219 0.431205061001
172068000 0.222926625267 0.431278804367
172080000 0.22428548925 0.430818426274
172092000 0.224243198533 0.431520118383
172104000 0.226105846002 0.432033273662
172116000 0.225149151955 0.431936712601
172128000 0.226319001108 0.431341191879
172140000 0.226476630174 0.432030907372
172152000 0.228515911873 0.432659953273
172164000 0.227647946148 0.432474324453
172176000 0.228733582455 0.43199399807
172188000 0.228896012279 0.432609737722
172200000 0.23050111763 0.433200714114
172212000 0.229891010889 0.433030564058
172224000 0.230863802476 0.432860277253
172236000 0.23165181669 0.433044935969
172248000 0.232621974283 0.434010687154
172260000 0.232241022007 0.433536624529
172272000 0.232893875978 0.433736525093
172284000 0.233936596484 0.43348036981
172296000 0.23437865315 0.434092921482
172308000 0.234902130469 0.434072270261
172320000 0.235048860921 0.434354686487
172332000 0.23619266183 0.433879848979
172344000 0.236311599919 0.434475097779
172356000 0.237622065569 0.43469162594
172368000 0.237133499437 0.434916827761
172380000 0.238223761546 0.434227148099
172392000 0.238321040236 0.434932337904
172404000 0.240049885882 0.435303485538
172416000 0.239292777344 0.435387714657
172428000 0.240445709136 0.434737848189
172440000 0.240448453812 0.435501294058
172452000 0.242435693728 0.435922933923
172464000 0.241517780929 0.435815930384
172476000 0.242478335132 0.43523248131
172488000 0.242719502956 0.435791292035
172500000 0.244374301359 0.43623743846
172512000 0.243659698644 0.436186974354
172524000 0.244523886617 0.436047511576
172536000 0.245097788877 0.436214061816
172548000 0.246075789135 0.436723598014
172560000 0.246062409753 0.436814171653
172572000 0.246714853087 0.436925117745
172584000 0.2475157268 0.436616407211
172596000 0.247998288748 0.437112539856
172608000 0.248417712606 0.437171165115
172620000 0.248748925464 0.437543080413
172632000 0.249692035195 0.437022152125
172644000 0.24973417589 0.437470472567
172656000 0.25100161008 0.43759871117
172668000 0.250512368473 0.437927420966
172680000 0.25156495884 0.437138793699
172692000 0.251731076846 0.437883756773
172704000 0.253374153519 0.437877116858
172716000 0.252365617454 0.438037152836
172728000 0.253568816915 0.437483391662
172740000 0.253687306687 0.4382423169
172752000 0.255685015854 0.438508933619
172764000 0.254660989501 0.438630215129
172776000 0.255604751472 0.438070674189
172788000 0.255938766361 0.438700750643
172800000 0.257699979655 0.438924266256
172812000 0.257897779919 0.438903229356
172824000 0.25776870895 0.439387680341
172836000 0.257800269222 0.438968443406
172848000 0.258335116594 0.439122084134
172860000 0.259780584905 0.439270232215
172872000 0.259672720331 0.439847916221
172884000 0.260015371515 0.439666107335
172896000 0.26046957625 0.439690326888
172908000 0.261759458089 0.439669308368
172920000 0.261999660902 0.440247346236
172932000 0.262524782098 0.440275744563
172944000 0.262685962938 0.440231385815
172956000 0.263819483972 0.440085837232
172968000 0.264128097453 0.44042747872
172980000 0.26465179189 0.440806990497
172992000 0.264688521022 0.440342817079
173004000 0.265449230516 0.440394828715
173016000 0.266623007717 0.44072707708
173028000 0.266892679112 0.441189068624
173040000 0.266864713071 0.440849568475
173052000 0.267349442586 0.440643508498
173064000 0.268346697557 0.440718854512
173076000 0.269048235152 0.441381491894
173088000 0.268723661066 0.440881629441
173100000 0.269365022737 0.441132367515
173112000 0.271166905034 0.441205351784
173124000 0.271070761648 0.441714223746
173136000 0.270873307522 0.441411914856
173148000 0.271362312768 0.441420214181
173160000 0.27269060581 0.441365834045
173172000 0.272750842353 0.441916629202
173184000 0.273050216801 0.441883852505
173196000 0.273469485076 0.441905465679
173208000 0.274708060538 0.441894906554
173220000 0.274973318559 0.442441253327
173232000 0.275283802617 0.442494499743
173244000 0.275394862961 0.442323685426
173256000 0.276164045997 0.442196764267
173268000 0.276728877846 0.442516711222
173280000 0.277349834584 0.442938838055
173292000 0.27727597765 0.442535478087
173304000 0.278050736127 0.442412899019
173316000 0.279085804332 0.442741744486
173328000 0.279300314851 0.443154618989
173340000 0.279232498119 0.442912208111
173352000 0.279971194301 0.442867561737
173364000 0.281461353479 0.44285604914
173376000 0.281845632493 0.443386142049
173388000 0.281572815283 0.443157707535
173400000 0.282280608985 0.443325238619
173412000 0.283967582769 0.443240800694
173424000 0.28420112604 0.443776037068
173436000 0.284046546656 0.443607450412
173448000 0.284204409024 0.443680995758
173460000 0.285880133019 0.44366771385
173472000 0.285957505865 0.444108346197
173484000 0.286086760173 0.444041319634
173496000 0.28653653731 0.444220636366
173508000 0.287824850344 0.444332982337
173520000 0.287900853994 0.444673624053
173532000 0.288256419069 0.444588023673
173544000 0.288401874561 0.444252619908
173556000 0.289245498326 0.444167372809
173568000 0.289766141891 0.444592598194
173580000 0.290395038985 0.444813459085
173592000 0.290393775496 0.444475831357
173604000 0.291220548565 0.444323703665
173616000 0.292323905174 0.444614994719
173628000 0.29282510183 0.444993737254
173640000 0.292619363478 0.444769910296
173652000 0.293209512845 0.444721507316
173664000 0.294561175116 0.444635450525
173676000 0.294899616725 0.445147931992
173688000 0.294580216183 0.44500307926
173700000 0.295229378715 0.445098958524
173712000 0.296888688358 0.444908371082
173724000 0.296942935476 0.445443455033
173736000 0.296607805474 0.445294278224
173748000 0.297312779794 0.445327032584
173760000 0.298573253851 0.445134825133
173772000 0.298755459192 0.445726823473
173784000 0.298880677263 0.44566126158
173796000 0.299304100119 0.445646531483
173808000 0.300207281823 0.445500434776
173820000 0.300618573917 0.44591792723
173832000 0.300995462207 0.446031533249
173844000 0.301201098977 0.445837548821
173856000 0.301924714994 0.445674808485
173868000 0.302583787627 0.445869564089
173880000 0.303164315428 0.44616345845
173892000 0.303171364879 0.44593646711
173904000 0.303840088296 0.445904810048
173916000 0.304853036115 0.446053922169
173928000 0.305412662223 0.446304959319
173940000 0.305068312207 0.446135096573
173952000 0.305654956599 0.446083597239
173964000 0.306906990202 0.445997415842
173976000 0.307348423584 0.446530150211
173988000 0.306944335067 0.446397244462
174000000 0.307504519934 0.446378061855
