! Calibrated averaged scanner-service zoom
# Hz S RI R 50
976000000 0.559499665858 -0.603026053534
976004000 0.558336093526 -0.603385822813
976008000 0.559278664662 -0.604738198509
976012000 0.558978512968 -0.603801621457
976016000 0.559020115223 -0.602913661865
976020000 0.562131246374 -0.60505903104
976024000 0.562135037115 -0.602592077742
976028000 0.561348344278 -0.600232484045
976032000 0.560127967356 -0.603286947569
976036000 0.56036457203 -0.600968611343
976040000 0.562989417097 -0.601914571985
976044000 0.557989506417 -0.603840108484
976048000 0.557624058961 -0.604655219204
976052000 0.557896892552 -0.603362400728
976056000 0.560821755617 -0.607862900578
976060000 0.55653302507 -0.607521544507
976064000 0.554085346399 -0.611313731553
976068000 0.555652276661 -0.610059146034
976072000 0.558178287737 -0.607277968981
976076000 0.556281532696 -0.606595213805
976080000 0.556184466206 -0.612043529634
976084000 0.561906553371 -0.607276966361
976088000 0.559407586563 -0.606307722973
976092000 0.563108574101 -0.608837129847
976096000 0.560009528935 -0.609561292991
976100000 0.560502535803 -0.607546529724
976104000 0.560102049682 -0.607055460223
976108000 0.565327599901 -0.603098529314
976112000 0.561523288942 -0.605169212404
976116000 0.56083351252 -0.603194702331
976120000 0.56172060688 -0.599612335115
976124000 0.561292843243 -0.601966879879
976128000 0.565126236947 -0.603321108871
976132000 0.560406129825 -0.60551856347
976136000 0.560904444122 -0.600506640903
976140000 0.559344086362 -0.603910141293
976144000 0.559285114318 -0.599929550186
976148000 0.560153163229 -0.606412042846
976152000 0.560576675497 -0.603253813381
976156000 0.561188452004 -0.605482839808
976160000 0.563214348391 -0.605793346609
976164000 0.559265355812 -0.605748902422
976168000 0.556496876663 -0.604132901904
976172000 0.560243346529 -0.605581353583
976176000 0.558575728469 -0.604061330858
976180000 0.554760201806 -0.605935563669
976184000 0.559273911465 -0.606953673671
976188000 0.559941390632 -0.60646440833
976192000 0.560721318994 -0.607307096708
976196000 0.558771716265 -0.606618126831
976200000 0.558366810722 -0.604483721962
976204000 0.559469648601 -0.602785274606
976208000 0.560893320273 -0.602272039508
976212000 0.558060687309 -0.606310936347
976216000 0.55861885486 -0.605211546351
976220000 0.560121492385 -0.605957840474
976224000 0.56025987146 -0.606153959326
976228000 0.562197827047 -0.607223793664
976232000 0.559716867325 -0.603895158982
976236000 0.559901263779 -0.601831973635
976240000 0.56249355584 -0.601773056897
976244000 0.561690922234 -0.60486992112
976248000 0.563563884193 -0.604131343066
976252000 0.560502742371 -0.602482988625
976256000 0.560989320671 -0.60652593264
976260000 0.566218141313 -0.604228861316
976264000 0.564157102016 -0.603796291271
976268000 0.562374851481 -0.604891939029
976272000 0.563762378493 -0.60366546472
976276000 0.564358877335 -0.600652366289
976280000 0.559777424226 -0.605647868135
976284000 0.561898023659 -0.602524408458
976288000 0.564803810216 -0.604410616813
976292000 0.562745980815 -0.602570398526
976296000 0.564243656182 -0.606815309537
976300000 0.561406106607 -0.604723157745
976304000 0.564076307143 -0.604894782663
976308000 0.561417257143 -0.603347417978
976312000 0.559366958325 -0.608239285738
976316000 0.560139900786 -0.603289351845
976320000 0.558409162111 -0.604864434468
976324000 0.555203580436 -0.606188314249
976328000 0.557680838829 -0.603764678975
976332000 0.559807326631 -0.606371302151
976336000 0.558880828888 -0.604729832758
976340000 0.561637015329 -0.603369629403
976344000 0.559735975353 -0.606834297812
976348000 0.562603036606 -0.609191609927
976352000 0.559090444823 -0.610289459467
976356000 0.561283717605 -0.60611962614
976360000 0.557587603077 -0.608351469014
976364000 0.561062987946 -0.607276692829
976368000 0.556246409219 -0.608834038845
976372000 0.556635302898 -0.610454455037
976376000 0.556954736591 -0.612057680492
976380000 0.55532954546 -0.607165446549
976384000 0.557414625377 -0.610177590662
976388000 0.555347922548 -0.609776881835
976392000 0.557459163141 -0.605371229573
976396000 0.559034346571 -0.606481104161
976400000 0.553547515302 -0.607456094209
976404000 0.556478826175 -0.6080706205
976408000 0.556438971735 -0.604311232292
976412000 0.555088214547 -0.60561105595
976416000 0.553851114537 -0.608266333402
976420000 0.555247313279 -0.607592710265
976424000 0.556280397525 -0.604461558562
976428000 0.556934333214 -0.6060943151
976432000 0.557851846425 -0.604322284509
976436000 0.556642189158 -0.606165684774
976440000 0.557959935237 -0.60783244619
976444000 0.555152555496 -0.604705148781
976448000 0.559412062977 -0.604176990222
976452000 0.55848986096 -0.60129531389
976456000 0.558486086647 -0.605821111513
976460000 0.560032444946 -0.604567924043
976464000 0.561819635678 -0.60341690497
976468000 0.561765563838 -0.604241895591
976472000 0.56046652135 -0.599092324567
976476000 0.557884382178 -0.603372536292
976480000 0.560520788415 -0.604497282734
976484000 0.559702800102 -0.604251871536
976488000 0.560037323141 -0.608402010904
976492000 0.557411237582 -0.606827064279
976496000 0.556178526976 -0.60703960329
976500000 0.558118527032 -0.605635582319
976504000 0.556333652902 -0.605903476821
976508000 0.559521429029 -0.60593523998
976512000 0.558926260157 -0.603104040074
976516000 0.55542751521 -0.602089900992
976520000 0.556460151619 -0.603380540586
976524000 0.554251137397 -0.603574642552
976528000 0.557437425182 -0.602954741528
976532000 0.559623919785 -0.604811917844
976536000 0.558618301116 -0.606199436005
976540000 0.559444331171 -0.604019247824
976544000 0.561243071495 -0.603702850073
976548000 0.558237993387 -0.601580107763
976552000 0.555596383588 -0.603842620704
976556000 0.556857011595 -0.601971371793
976560000 0.559943643105 -0.602581878529
976564000 0.559467208613 -0.601043229812
976568000 0.559151039555 -0.601595482508
976572000 0.560484700378 -0.601716856835
976576000 0.565301248156 -0.601388284367
976580000 0.566219935051 -0.601425019013
976584000 0.566908316416 -0.601010683241
976588000 0.562051166235 -0.603542725882
976592000 0.563337676539 -0.603599706253
976596000 0.559922614945 -0.600270310674
976600000 0.562893059218 -0.603447667544
976604000 0.561248907645 -0.603300033553
976608000 0.560739117891 -0.601824421242
976612000 0.557847462537 -0.602786863643
976616000 0.56200090206 -0.601731925489
976620000 0.55981408867 -0.605059925557
976624000 0.562494131483 -0.603229121503
976628000 0.561041552474 -0.607349375145
976632000 0.560338916904 -0.606931494145
976636000 0.557520939464 -0.606628135626
976640000 0.56130033886 -0.606931991247
976644000 0.558969267047 -0.609377705295
976648000 0.561566634383 -0.608748305223
976652000 0.559302268905 -0.610106484154
976656000 0.56107938749 -0.607728026947
976660000 0.560239717739 -0.606584577842
976664000 0.55948857455 -0.604846462864
976668000 0.557963424262 -0.60591425438
976672000 0.561721958169 -0.609517326894
976676000 0.560989697917 -0.605439616362
976680000 0.5620714159 -0.609339613024
976684000 0.557499628283 -0.60954349712
976688000 0.557522005341 -0.606645915069
976692000 0.562212299345 -0.610221941254
976696000 0.561406727419 -0.610632236206
976700000 0.558033876357 -0.612811194692
976704000 0.563860081786 -0.609739584823
976708000 0.565508581883 -0.605786336136
976712000 0.563408324471 -0.6075688965
976716000 0.560306430279 -0.60749561968
976720000 0.566331442818 -0.605113596981
976724000 0.565092110092 -0.604446184611
976728000 0.56440852231 -0.60639770731
976732000 0.563665771078 -0.606317398344
976736000 0.566093294021 -0.60609702458
976740000 0.560454608234 -0.604037832376
976744000 0.560943516387 -0.60206382875
976748000 0.560576138284 -0.605659688704
976752000 0.563471420122 -0.603022354656
976756000 0.557993841551 -0.604728597093
976760000 0.557544749115 -0.604527005908
976764000 0.558667482745 -0.604793836274
976768000 0.562105826119 -0.602227261877
976772000 0.559196185061 -0.611319689804
976776000 0.556879105652 -0.609118945869
976780000 0.558484388175 -0.614366795391
976784000 0.554696949371 -0.612564878342
976788000 0.556875852716 -0.613763040586
976792000 0.558773709407 -0.612617695831
976796000 0.555665650914 -0.611044770807
976800000 0.557387889947 -0.609736107871
976804000 0.557517061227 -0.610384502746
976808000 0.559149013398 -0.609666801226
976812000 0.559800127629 -0.605632092029
976816000 0.555713320266 -0.603491814851
976820000 0.553801696693 -0.605477931169
976824000 0.557020344696 -0.60202477244
976828000 0.555540677164 -0.605528766342
976832000 0.554681890833 -0.606973382132
976836000 0.553464868191 -0.605109959367
976840000 0.554907315328 -0.606058009192
976844000 0.557686818265 -0.609921761021
976848000 0.556455496354 -0.605997454099
976852000 0.556983648284 -0.611127136875
976856000 0.556405268725 -0.607509273844
976860000 0.564135108367 -0.610809983961
976864000 0.560129025869 -0.614043766976
976868000 0.560474714675 -0.610577553242
976872000 0.563085396366 -0.611483297928
976876000 0.567253888236 -0.607039899941
976880000 0.564238147007 -0.608693812079
976884000 0.564571422431 -0.609122152487
976888000 0.562545472595 -0.60881818107
976892000 0.561121617801 -0.608335915655
976896000 0.562521090013 -0.603640983575
976900000 0.565049202103 -0.606778420427
976904000 0.564711241579 -0.603589251023
976908000 0.565979297297 -0.604289898426
976912000 0.561358058071 -0.604738477424
976916000 0.56475290669 -0.604841681861
976920000 0.561892984082 -0.603460439829
976924000 0.562884063788 -0.601779176646
976928000 0.558900919228 -0.602772911151
976932000 0.561977022787 -0.601726118942
976936000 0.561645473639 -0.605475005206
976940000 0.558529621774 -0.606506892378
976944000 0.560413351031 -0.599890085049
976948000 0.561433895787 -0.607611373111
976952000 0.555016743392 -0.604488060457
976956000 0.555137801442 -0.608789404445
976960000 0.560077431662 -0.610401950696
976964000 0.559563195453 -0.605554845267
976968000 0.560028761183 -0.608673332555
976972000 0.560567132017 -0.609186231744
976976000 0.55841844204 -0.604383420153
976980000 0.563063766103 -0.603742298212
976984000 0.56167193763 -0.606888680788
976988000 0.5656170998 -0.603803415185
976992000 0.560642720151 -0.604389008914
976996000 0.561418716377 -0.60592940521
977000000 0.56132992624 -0.603100723793
977004000 0.56206939464 -0.604594529428
977008000 0.56213221777 -0.601192802194
977012000 0.561659221077 -0.605370599088
977016000 0.560121182352 -0.608983485583
977020000 0.562719881963 -0.605029081123
977024000 0.558806812772 -0.604538178675
977028000 0.560815573025 -0.606083856666
977032000 0.560996762228 -0.605882551903
977036000 0.560738495699 -0.610675158928
977040000 0.563129469813 -0.610035460335
977044000 0.557941418576 -0.607177013649
977048000 0.559830912984 -0.608335336519
977052000 0.556412386785 -0.609898962768
977056000 0.55458967922 -0.606926095801
977060000 0.555159732229 -0.611728219375
977064000 0.5532939907 -0.611133763687
977068000 0.552625739802 -0.610831446646
977072000 0.556175719147 -0.610231849928
977076000 0.55355160575 -0.609508859876
977080000 0.554603744166 -0.613470938247
977084000 0.558594821421 -0.610960928837
977088000 0.554839140029 -0.612375308153
977092000 0.557977524768 -0.607263907819
977096000 0.559229454606 -0.609563670978
977100000 0.561382322077 -0.604223741306
977104000 0.559874855118 -0.609173978428
977108000 0.562923273391 -0.606012777018
977112000 0.559675852267 -0.60566597233
977116000 0.560586698781 -0.608533665477
977120000 0.559148355305 -0.603888810678
977124000 0.557617348376 -0.608553545304
977128000 0.557189295039 -0.609599630811
977132000 0.558890079789 -0.60863375598
977136000 0.557149585905 -0.609106875436
977140000 0.558437662249 -0.607539019998
977144000 0.553564071118 -0.603515122936
977148000 0.557288447739 -0.60651619003
977152000 0.559137904662 -0.606396061416
977156000 0.557013195094 -0.605961903801
977160000 0.556241381439 -0.603726544294
977164000 0.553624266475 -0.604513069036
977168000 0.55838626397 -0.605302872551
977172000 0.56079379875 -0.605535090885
977176000 0.555701134392 -0.605046622205
977180000 0.556313755498 -0.603251460119
977184000 0.559614080519 -0.604941818859
977188000 0.559953832744 -0.606015706043
977192000 0.557481336942 -0.606510789881
977196000 0.561049971456 -0.609169354064
977200000 0.559934319347 -0.607925092599
977204000 0.561413051657 -0.607597965333
977208000 0.558919650226 -0.607042069103
977212000 0.560775813837 -0.609794296426
977216000 0.557307276718 -0.60631484216
977220000 0.561876362047 -0.608773084828
977224000 0.56038796425 -0.609448231751
977228000 0.557235293556 -0.607324638655
977232000 0.558510644869 -0.612562196657
977236000 0.555422026157 -0.607446389712
977240000 0.554773586194 -0.608298668971
977244000 0.555856662414 -0.609115185682
977248000 0.555295157511 -0.604605129178
977252000 0.555963699299 -0.609385075487
977256000 0.554869707639 -0.609777389109
977260000 0.556908410331 -0.609956679607
977264000 0.558565074764 -0.608691938583
977268000 0.555295138967 -0.604962244966
977272000 0.559512340366 -0.606995854085
977276000 0.558630878123 -0.605239687951
977280000 0.558065198941 -0.608819830867
977284000 0.557370891995 -0.608059120495
977288000 0.555317613089 -0.604900342312
977292000 0.556582085671 -0.606622232846
977296000 0.554542255548 -0.604538672208
977300000 0.556550211364 -0.604211082578
977304000 0.55611488373 -0.605481361084
977308000 0.561152454618 -0.603015307402
977312000 0.556779283901 -0.601451207773
977316000 0.55570148536 -0.605728454332
977320000 0.557219500921 -0.606991170998
977324000 0.556177328154 -0.608619807227
977328000 0.557894546127 -0.609685379419
977332000 0.557972116547 -0.612385974214
977336000 0.559381493106 -0.61101426659
977340000 0.560286417183 -0.614167080552
977344000 0.557392026781 -0.60751286809
977348000 0.557256649266 -0.608962977426
977352000 0.554025252714 -0.612445563731
977356000 0.555145073338 -0.609501429582
977360000 0.560536207648 -0.607748223909
977364000 0.557803442599 -0.608958696636
977368000 0.563425548659 -0.60193554301
977372000 0.559213976283 -0.607485592854
977376000 0.559411744318 -0.608560284234
977380000 0.559694718664 -0.604591112524
977384000 0.557076425212 -0.603754858219
977388000 0.559691687719 -0.605488405354
977392000 0.558957778956 -0.60674137574
977396000 0.559266159521 -0.606815229898
977400000 0.561956351505 -0.606846916873
977404000 0.554444865539 -0.609338372271
977408000 0.555704386315 -0.604460657447
977412000 0.550761271675 -0.602688921531
977416000 0.555615402644 -0.601701156445
977420000 0.558007938 -0.602050588897
977424000 0.558619295055 -0.601695406253
977428000 0.560754144628 -0.598007304229
977432000 0.560497257845 -0.60436218104
977436000 0.558271381898 -0.605903133843
977440000 0.559530932127 -0.604924345402
977444000 0.561064658863 -0.600932156872
977448000 0.560413742589 -0.604600042099
977452000 0.562216466156 -0.605423458257
977456000 0.558758074173 -0.609501474647
977460000 0.55816371316 -0.607802405883
977464000 0.558177137139 -0.607160345726
977468000 0.561982776315 -0.609416234572
977472000 0.562811248966 -0.609324363461
977476000 0.561090791259 -0.607209924443
977480000 0.561993794921 -0.609645769078
977484000 0.55741387293 -0.607172421767
977488000 0.557042932806 -0.607846877355
977492000 0.559070316124 -0.607876130445
977496000 0.556285050539 -0.610036659957
977500000 0.556115688039 -0.609336896752
977504000 0.556994044577 -0.605097620239
977508000 0.557145069686 -0.607065293882
977512000 0.558057288769 -0.611645446649
977516000 0.556420830437 -0.606377746078
977520000 0.556494048141 -0.607089727599
977524000 0.554012060511 -0.607012052483
977528000 0.554645252718 -0.606631448433
977532000 0.558665634011 -0.606825064603
977536000 0.555801028809 -0.603839312053
977540000 0.559988083317 -0.610073281404
977544000 0.555774737378 -0.606635671764
977548000 0.559123012248 -0.607895084464
977552000 0.556821696472 -0.609401822852
977556000 0.55627939055 -0.60589404295
977560000 0.555595968727 -0.608723880592
977564000 0.559641264395 -0.606740803465
977568000 0.55762698822 -0.612484344409
977572000 0.564944417671 -0.607920552676
977576000 0.562051286718 -0.608652431194
977580000 0.558933638978 -0.603054518661
977584000 0.559289501623 -0.604697179527
977588000 0.560932670381 -0.609327366681
977592000 0.561299322709 -0.605110635058
977596000 0.560500017041 -0.607993792069
977600000 0.562658447285 -0.610086652609
977604000 0.555815352625 -0.611898035167
977608000 0.558146847596 -0.606025872253
977612000 0.557012078627 -0.606437815278
977616000 0.557510876655 -0.606709991976
977620000 0.554701461983 -0.609326009405
977624000 0.559090866966 -0.610548650546
977628000 0.555872143878 -0.610234432873
977632000 0.553525270585 -0.609776005365
977636000 0.557172284503 -0.610134015822
977640000 0.562224418228 -0.609370811443
977644000 0.554202449359 -0.60738041906
977648000 0.55296997049 -0.606019402089
977652000 0.555621740953 -0.607936962989
977656000 0.5550099643 -0.610786355899
977660000 0.555955204847 -0.609613212019
977664000 0.553424096696 -0.609929781308
977668000 0.554499294646 -0.606811713663
977672000 0.551217148006 -0.612860489638
977676000 0.559863863471 -0.608480855669
977680000 0.554014468365 -0.610096268549
977684000 0.557482193759 -0.608007510772
977688000 0.556508296753 -0.603552444523
977692000 0.553654971945 -0.609638074905
977696000 0.555732959521 -0.60295149536
977700000 0.557568433802 -0.603167469368
977704000 0.557136156916 -0.603457943611
977708000 0.552685285677 -0.603087720404
977712000 0.555461827822 -0.601196389284
977716000 0.555679341604 -0.599293869202
977720000 0.557527676767 -0.600391978063
977724000 0.555690676277 -0.600709368502
977728000 0.554664650135 -0.597671861905
977732000 0.556402371395 -0.601425434825
977736000 0.553291284625 -0.603690883411
977740000 0.558420245876 -0.60147381689
977744000 0.558175259332 -0.602026685333
977748000 0.556399491125 -0.6011817244
977752000 0.559772911466 -0.602317111877
977756000 0.559884355609 -0.600587731354
977760000 0.559236039941 -0.60157030708
977764000 0.559178406239 -0.605769569473
977768000 0.556042796557 -0.605568980284
977772000 0.555511539425 -0.603147743998
977776000 0.557918339682 -0.604369994379
977780000 0.556496182422 -0.608546842906
977784000 0.555264517084 -0.607131325388
977788000 0.553226978131 -0.606353586107
977792000 0.555272311981 -0.608193677553
977796000 0.556434769738 -0.606396445684
977800000 0.553653256495 -0.611431510732
977804000 0.55543801999 -0.610150165044
977808000 0.557638420854 -0.607614025729
977812000 0.55326654861 -0.605887887842
977816000 0.554378228407 -0.607463589945
977820000 0.555452493304 -0.602350312065
977824000 0.555549799045 -0.604471658427
977828000 0.559279114315 -0.603182850734
977832000 0.55360577932 -0.602461879798
977836000 0.560770216616 -0.604450960428
977840000 0.560776039614 -0.604113011762
977844000 0.559623940315 -0.604377734083
977848000 0.559493207412 -0.605046059292
977852000 0.557806390824 -0.603713420264
977856000 0.56289085703 -0.602648934952
977860000 0.557399111421 -0.602401815306
977864000 0.559033015579 -0.602305195702
977868000 0.555234296231 -0.604368572378
977872000 0.558125252634 -0.603714679504
977876000 0.557238801203 -0.60479429041
977880000 0.557032590476 -0.607572377562
977884000 0.557616323252 -0.606408167139
977888000 0.560619960541 -0.604295393771
977892000 0.557255568565 -0.606902539344
977896000 0.558337046499 -0.605031034422
977900000 0.562058506208 -0.607596460766
977904000 0.555660342305 -0.601932371582
977908000 0.557526143998 -0.604652222123
977912000 0.557808931351 -0.602899381618
977916000 0.555953266618 -0.604853462802
977920000 0.557369194468 -0.604625505357
977924000 0.555738533158 -0.60873783943
977928000 0.55684419736 -0.60636138921
977932000 0.555634105884 -0.605132648029
977936000 0.55691559813 -0.606562982696
977940000 0.555172797103 -0.607410648262
977944000 0.558598746664 -0.603773468964
977948000 0.556447195075 -0.605763590299
977952000 0.553890336222 -0.603774920479
977956000 0.553933293502 -0.606124940141
977960000 0.557181914175 -0.606741690819
977964000 0.558118655754 -0.603931050307
977968000 0.555540985029 -0.603991027652
977972000 0.55595330694 -0.607681133649
977976000 0.553835482785 -0.610246176235
977980000 0.550419816161 -0.604957569115
977984000 0.54867627483 -0.608368430097
977988000 0.551026614743 -0.603933656256
977992000 0.548657757269 -0.603317673359
977996000 0.548609609303 -0.605707494383
978000000 0.549662930784 -0.606354086346
978004000 0.551235141021 -0.608325818172
978008000 0.551338828212 -0.606718896411
978012000 0.554628731219 -0.605893222009
978016000 0.555695292883 -0.610105558553
978020000 0.556431358524 -0.609025813522
978024000 0.559682220671 -0.610416710695
978028000 0.552772683005 -0.610360852328
978032000 0.557397546631 -0.606054377103
978036000 0.557868093864 -0.607227596818
978040000 0.557731309047 -0.612251257834
978044000 0.556128957504 -0.610926542438
978048000 0.557602519651 -0.61177880732
978052000 0.557145998948 -0.607800450969
978056000 0.55889664133 -0.611685099308
978060000 0.553734138119 -0.607757926564
978064000 0.551605231623 -0.60601383385
978068000 0.553944326414 -0.610503807058
978072000 0.556341848684 -0.608461522234
978076000 0.556362186131 -0.603869201689
978080000 0.558451594743 -0.601622081603
978084000 0.55941730279 -0.608562894895
978088000 0.555725538962 -0.605355344007
978092000 0.556871638878 -0.604353109259
978096000 0.552241973609 -0.607954796813
978100000 0.554511022041 -0.61337428733
978104000 0.5530492559 -0.610059071162
978108000 0.553472340978 -0.612527370928
978112000 0.553999180163 -0.61115149932
978116000 0.558675308809 -0.61239985999
978120000 0.557131257927 -0.612622807649
978124000 0.559360750273 -0.614669770892
978128000 0.561693921588 -0.612093543947
978132000 0.561475090781 -0.610773116986
978136000 0.557505528853 -0.606070007441
978140000 0.560005777618 -0.613133614637
978144000 0.556755386985 -0.612838995403
978148000 0.557401796419 -0.608729748014
978152000 0.561525696447 -0.612087950772
978156000 0.556676015121 -0.609644512726
978160000 0.560797642711 -0.608268728887
978164000 0.556205759923 -0.608626270144
978168000 0.55486597668 -0.605652655133
978172000 0.554414034111 -0.605624590223
978176000 0.560270086446 -0.611754229027
978180000 0.552810164999 -0.609141091584
978184000 0.558678339825 -0.610578183726
978188000 0.562899128873 -0.6086545313
978192000 0.560568727808 -0.609940012364
978196000 0.56157595149 -0.609209681533
978200000 0.560750573844 -0.60982263884
978204000 0.558688546803 -0.607833249446
978208000 0.555259469565 -0.605712779271
978212000 0.551801733566 -0.617987414973
978216000 0.529826841378 -0.606658532396
978220000 0.543750027898 -0.600592196905
978224000 0.555084210129 -0.612064469217
978228000 0.546031465589 -0.618815144442
978232000 0.555831514383 -0.61210966916
978236000 0.557010390757 -0.61015252034
978240000 0.562645744417 -0.615419062081
978244000 0.544994494031 -0.602198158071
978248000 0.55065189687 -0.625148415572
978252000 0.551921109709 -0.607808787282
978256000 0.535451708183 -0.597600703703
978260000 0.559008870784 -0.588406607477
978264000 0.565494020279 -0.614010648944
978268000 0.563627408828 -0.609656983286
978272000 0.566814357232 -0.610422787722
978276000 0.573589080528 -0.61450209499
978280000 0.560989923977 -0.618513899986
978284000 0.569624357512 -0.613844043881
978288000 0.569061898682 -0.615985976249
978292000 0.567893458953 -0.614318429823
978296000 0.566032336894 -0.613281504691
978300000 0.561494221577 -0.612967994128
978304000 0.560357715404 -0.613952447913
978308000 0.558170325564 -0.611066569976
978312000 0.554773481294 -0.615455095883
978316000 0.558128481614 -0.614628222652
978320000 0.553190818646 -0.608800434056
978324000 0.554488316222 -0.614347896558
978328000 0.556522207909 -0.609923351057
978332000 0.550936515553 -0.609598254251
978336000 0.553092222474 -0.61357338101
978340000 0.547555783084 -0.610157474106
978344000 0.550730290013 -0.607728526495
978348000 0.549910720326 -0.613050798138
978352000 0.552945067229 -0.603684747821
978356000 0.546613852027 -0.605834083647
978360000 0.548442270254 -0.60762180846
978364000 0.548850989778 -0.607900836479
978368000 0.54523978925 -0.60140896125
978372000 0.544915947063 -0.605150616655
978376000 0.553167220968 -0.603183327309
978380000 0.553688731755 -0.607792585556
978384000 0.553178414755 -0.609240773084
978388000 0.55468387194 -0.608847122892
978392000 0.560503299342 -0.610682289293
978396000 0.561529532725 -0.610932832543
978400000 0.556303775435 -0.613294170429
978404000 0.556386344103 -0.608354079524
978408000 0.557597439687 -0.612487728938
978412000 0.557887593466 -0.61181675381
978416000 0.553255577718 -0.611776292323
978420000 0.555704365854 -0.608433863731
978424000 0.549312071914 -0.616705224587
978428000 0.551384342971 -0.613107207706
978432000 0.556178838034 -0.607342526478
978436000 0.553750962066 -0.610923039022
978440000 0.55920493157 -0.612552071268
978444000 0.56039935723 -0.609678425928
978448000 0.562788781517 -0.611660066156
978452000 0.561127743704 -0.605932333539
978456000 0.557826608583 -0.607581593812
978460000 0.5588585405 -0.609641459474
978464000 0.563966857754 -0.603463715164
978468000 0.560589397379 -0.608861398416
978472000 0.559361031024 -0.606562843867
978476000 0.560430119781 -0.603285908098
978480000 0.556370311729 -0.603952212376
978484000 0.556960380775 -0.605049435591
978488000 0.558149054552 -0.608043483884
978492000 0.5560576989 -0.6024383525
978496000 0.557609546138 -0.608491134018
978500000 0.562253141426 -0.608239956335
978504000 0.558373249944 -0.605505690784
978508000 0.563129617504 -0.606950313587
978512000 0.560697939294 -0.607724639483
978516000 0.566315255618 -0.6098678526
978520000 0.564121083948 -0.608431541565
978524000 0.562302601521 -0.607435602738
978528000 0.557407621976 -0.609992641021
978532000 0.553001640777 -0.608068956188
978536000 0.554821068952 -0.608754118522
978540000 0.55498675314 -0.611462390113
978544000 0.554965218846 -0.610776505117
978548000 0.556304917335 -0.609049132394
978552000 0.557878394305 -0.607054819476
978556000 0.555187126446 -0.610679837675
978560000 0.555701767604 -0.606286269194
978564000 0.558888304054 -0.606648697682
978568000 0.558471710534 -0.607584082005
978572000 0.559788647793 -0.603141677568
978576000 0.559664131611 -0.605203148665
978580000 0.560441459233 -0.606558043812
978584000 0.558176109095 -0.607298472638
978588000 0.558765054213 -0.608247260592
978592000 0.561433577275 -0.60902263118
978596000 0.559289586154 -0.611464036097
978600000 0.562845988097 -0.612541865761
978604000 0.557541726452 -0.612790193884
978608000 0.560879172164 -0.611988164657
978612000 0.55672765042 -0.613732467877
978616000 0.558542045727 -0.615003417523
978620000 0.558330593631 -0.614344528373
978624000 0.555301315241 -0.609491610882
978628000 0.556438566924 -0.610534484273
978632000 0.560765792739 -0.611989888938
978636000 0.557002865418 -0.610431057593
978640000 0.56256186762 -0.608909306345
978644000 0.558967165062 -0.606405280305
978648000 0.563673297325 -0.606526418341
978652000 0.561962982328 -0.607638076317
978656000 0.558588399732 -0.603362547762
978660000 0.562306185729 -0.60692793423
978664000 0.560980490741 -0.608490815939
978668000 0.560524057528 -0.605335459402
978672000 0.559006046123 -0.60509285344
978676000 0.555956059068 -0.605796750756
978680000 0.556605476389 -0.608066644703
978684000 0.555533783138 -0.606708749545
978688000 0.561951673079 -0.60459365772
978692000 0.556226250235 -0.60666594846
978696000 0.554538954373 -0.605725927104
978700000 0.557381144819 -0.607766982944
978704000 0.55925488813 -0.610681307147
978708000 0.555936710774 -0.607753410342
978712000 0.557256112451 -0.609923727924
978716000 0.561321437914 -0.610933602631
978720000 0.563200948316 -0.612274444129
978724000 0.557668201286 -0.610879037903
978728000 0.559536631492 -0.612803455922
978732000 0.560787110309 -0.611575203786
978736000 0.560021908829 -0.613171393701
978740000 0.560253399163 -0.615801629842
978744000 0.561234330945 -0.614177616261
978748000 0.559398308566 -0.613025368261
978752000 0.558869827505 -0.614870170433
978756000 0.558571150385 -0.616597446096
978760000 0.559682548186 -0.612502693242
978764000 0.556127645878 -0.613047247836
978768000 0.559966148723 -0.610709897211
978772000 0.557082080539 -0.612444511789
978776000 0.556543572748 -0.609135224099
978780000 0.554078431818 -0.607400793177
978784000 0.558165181038 -0.608253378132
978788000 0.561765148214 -0.608154739909
978792000 0.557852977198 -0.604427419286
978796000 0.556352443077 -0.603818489776
978800000 0.556492383471 -0.604997833054
978804000 0.557242818485 -0.606544215719
978808000 0.557833226846 -0.604402858399
978812000 0.554924119962 -0.607050272414
978816000 0.557914883331 -0.61103551652
978820000 0.552189629638 -0.606379692244
978824000 0.555599241526 -0.609853823112
978828000 0.555597838211 -0.61252943489
978832000 0.554018936353 -0.612053723845
978836000 0.553944742931 -0.608191571748
978840000 0.553383382732 -0.608862156164
978844000 0.554580044414 -0.608891406478
978848000 0.553243216733 -0.60927021112
978852000 0.55744141362 -0.610141778981
978856000 0.555669667727 -0.610365816186
978860000 0.556892196871 -0.606597864777
978864000 0.555542665968 -0.608390423436
978868000 0.552752760238 -0.609842667315
978872000 0.557026466491 -0.610093652564
978876000 0.555831949336 -0.608666146522
978880000 0.553123359365 -0.607281011171
978884000 0.553408342216 -0.609412333311
978888000 0.55632476665 -0.61351671297
978892000 0.556405342347 -0.611871555308
978896000 0.554571242521 -0.609115014955
978900000 0.55653993536 -0.608015511204
978904000 0.554928067336 -0.611240660977
978908000 0.556955714544 -0.610018718506
978912000 0.55861494597 -0.607400322354
978916000 0.564769703929 -0.610196199255
978920000 0.556261007357 -0.606851689709
978924000 0.559106949213 -0.611929640526
978928000 0.555302766269 -0.608962462768
978932000 0.561640418256 -0.610676843796
978936000 0.558034687555 -0.610609880927
978940000 0.560399404929 -0.611104711209
978944000 0.562789611868 -0.610953562562
978948000 0.563386463823 -0.611512031369
978952000 0.560541488148 -0.613686565183
978956000 0.561378033837 -0.610282331783
978960000 0.558129331652 -0.613740419043
978964000 0.559143011555 -0.611900235387
978968000 0.558868779691 -0.6153972857
978972000 0.560627942214 -0.612578727909
978976000 0.560268611089 -0.613022263773
978980000 0.557995326831 -0.609750014562
978984000 0.558713231941 -0.607849045189
978988000 0.555946442459 -0.607988662556
978992000 0.557140824668 -0.60359041838
978996000 0.556333976222 -0.604986576813
979000000 0.556177298603 -0.600037591683
979004000 0.557687010918 -0.598389057713
979008000 0.559019847295 -0.603004403161
979012000 0.559522315059 -0.603008376493
979016000 0.558456265611 -0.608002019865
979020000 0.562247336551 -0.605537196277
979024000 0.559687283347 -0.60972952831
979028000 0.559267675357 -0.608468398568
979032000 0.558436192167 -0.607835286764
979036000 0.558500832711 -0.606577140431
979040000 0.558034314572 -0.609757414601
979044000 0.557785552684 -0.607835785009
979048000 0.553379863143 -0.606043471982
979052000 0.557024494868 -0.605945715542
979056000 0.558290082989 -0.605527065072
979060000 0.55546073999 -0.606553238139
979064000 0.553227964624 -0.60385355578
979068000 0.553282616416 -0.606577720707
979072000 0.549178823786 -0.601423865826
979076000 0.554086538388 -0.604494652671
979080000 0.554593114982 -0.60138339445
979084000 0.556450467109 -0.608057683073
979088000 0.552192313736 -0.604088277755
979092000 0.551455450269 -0.60685225829
979096000 0.555669401818 -0.604332752135
979100000 0.555537444862 -0.605810622149
979104000 0.549288067975 -0.601546883637
979108000 0.553225529929 -0.607656577731
979112000 0.558273507572 -0.605023087105
979116000 0.557901050103 -0.610604729986
979120000 0.556478511202 -0.604640933891
979124000 0.563010634029 -0.607194512669
979128000 0.558863004185 -0.609762001726
979132000 0.557927353218 -0.612857916276
979136000 0.55722642624 -0.610027965645
979140000 0.555332098854 -0.612599417367
979144000 0.557905959591 -0.611060416604
979148000 0.559202693733 -0.613603201199
979152000 0.557919879471 -0.61440838915
979156000 0.557680291269 -0.612345647154
979160000 0.554885281321 -0.612733058186
979164000 0.554688348618 -0.613333216325
979168000 0.551081979462 -0.610733564107
979172000 0.548631657327 -0.612400770252
979176000 0.545594109736 -0.617067830971
979180000 0.550277130614 -0.610921605754
979184000 0.552739807973 -0.612863756208
979188000 0.552898310841 -0.61435950381
979192000 0.556958971455 -0.61095674842
979196000 0.551115120706 -0.611024104417
979200000 0.55502670586 -0.611464969277
979204000 0.552963353459 -0.611092873932
979208000 0.550913192674 -0.611808685737
979212000 0.552234810857 -0.609840819321
979216000 0.549151896003 -0.609608001726
979220000 0.553333022358 -0.609080348727
979224000 0.554100564778 -0.607402338277
979228000 0.55128346083 -0.602720381352
979232000 0.549390730634 -0.61026768808
979236000 0.55255226172 -0.609372539165
979240000 0.550732797212 -0.605393282262
979244000 0.5517469661 -0.606821490913
979248000 0.55400931675 -0.606830606095
979252000 0.558876207314 -0.605743185904
979256000 0.551643975349 -0.604977015752
979260000 0.556281599573 -0.604227355369
979264000 0.555946027475 -0.602864909036
979268000 0.554904853914 -0.60520513798
979272000 0.551907322117 -0.610020437213
979276000 0.554601083454 -0.607527460544
979280000 0.553893946422 -0.607201413608
979284000 0.549251557519 -0.606358723267
979288000 0.552660865594 -0.607729860193
979292000 0.552810815954 -0.607840901119
979296000 0.553656393154 -0.610053826479
979300000 0.556765401795 -0.611834786921
979304000 0.554712755332 -0.613648526847
979308000 0.558324539367 -0.611472611773
979312000 0.557397766196 -0.613486100931
979316000 0.556150696958 -0.614295422008
979320000 0.560017385889 -0.610258093657
979324000 0.555408714945 -0.613780271098
979328000 0.557598500831 -0.611992738877
979332000 0.55785885694 -0.6051104128
979336000 0.554507364772 -0.606423324937
979340000 0.552796414656 -0.610871087733
979344000 0.555737139958 -0.608329720909
979348000 0.555367817296 -0.607312276172
979352000 0.551609875292 -0.609244935109
979356000 0.552311135983 -0.611785016748
979360000 0.557330061401 -0.614131736116
979364000 0.550571078906 -0.613041631082
979368000 0.552522149436 -0.612901252347
979372000 0.553809666282 -0.610828456726
979376000 0.551190039223 -0.612913156521
979380000 0.553439306123 -0.614904991771
979384000 0.555451268862 -0.611938072598
979388000 0.554721576605 -0.613191717753
979392000 0.553599037799 -0.611136940949
979396000 0.554280430661 -0.61225520144
979400000 0.556277254034 -0.608252867738
979404000 0.555355348038 -0.609536818461
979408000 0.551967137904 -0.607125300902
979412000 0.553401613563 -0.605491673157
979416000 0.556903013229 -0.605559856503
979420000 0.55600076714 -0.605197934742
979424000 0.556600853932 -0.605596153498
979428000 0.555531505116 -0.605329288788
979432000 0.55734569874 -0.601763904832
979436000 0.559752709965 -0.604795119556
979440000 0.560303521632 -0.60310022595
979444000 0.560929850742 -0.606232160396
979448000 0.55607576377 -0.604410658781
979452000 0.561736111879 -0.607774416821
979456000 0.561307867845 -0.604752506602
979460000 0.562101439427 -0.608939531547
979464000 0.556949586715 -0.61001887887
979468000 0.556475400522 -0.609886644428
979472000 0.552486729716 -0.611267499988
979476000 0.557056699128 -0.609943091061
979480000 0.555253626417 -0.612324539863
979484000 0.553660414496 -0.611069277796
979488000 0.554101379837 -0.611188425398
979492000 0.549492829056 -0.609650679643
979496000 0.553752406564 -0.60929909354
979500000 0.553434960229 -0.608257054654
979504000 0.555085323257 -0.607617525986
979508000 0.554901790776 -0.60776509189
979512000 0.553342922612 -0.605583352159
979516000 0.552905985174 -0.607443933137
979520000 0.553915912708 -0.607950167024
979524000 0.561363226931 -0.607344758978
979528000 0.556858019947 -0.606404516892
979532000 0.559229795075 -0.605991825927
979536000 0.554151275251 -0.609985908598
979540000 0.558759971182 -0.609176470072
979544000 0.56042849535 -0.613263338888
979548000 0.561472036893 -0.610944811964
979552000 0.561579350659 -0.606039323625
979556000 0.564706950727 -0.60315448346
979560000 0.567766008842 -0.598232090867
979564000 0.568310142199 -0.601368069402
979568000 0.564891618441 -0.598191387723
979572000 0.56948708748 -0.598750686629
979576000 0.569821060871 -0.590894050302
979580000 0.567317855805 -0.599822629135
979584000 0.561807914365 -0.599015878557
979588000 0.563548936057 -0.59839719581
979592000 0.561952069242 -0.599289693175
979596000 0.559231108414 -0.59823936342
979600000 0.553858049312 -0.599078308262
979604000 0.552413190962 -0.602734290218
979608000 0.548833047056 -0.605046959269
979612000 0.554850076035 -0.604296646077
979616000 0.555856414616 -0.608198272792
979620000 0.55469219879 -0.605283822597
979624000 0.55180715075 -0.610529875844
979628000 0.55634957432 -0.608221885467
979632000 0.557265867013 -0.610209003049
979636000 0.552569223707 -0.61476073453
979640000 0.556482040046 -0.612653638551
979644000 0.557606046369 -0.612950154228
979648000 0.557606675771 -0.611563344136
979652000 0.556263422228 -0.614202724459
979656000 0.559365366027 -0.612405913853
979660000 0.555643903324 -0.616855692538
979664000 0.556986868838 -0.614983772004
979668000 0.55481718316 -0.616803642106
979672000 0.555602552969 -0.613640774297
979676000 0.554652855434 -0.614629088283
979680000 0.556440603075 -0.614935162249
979684000 0.552329993991 -0.614211258646
979688000 0.556090721735 -0.613016198122
979692000 0.55237925463 -0.612776639187
979696000 0.5564559116 -0.612207427951
979700000 0.554467441564 -0.60864656886
979704000 0.554139591839 -0.611707771393
979708000 0.557100997678 -0.609103498898
979712000 0.555350221669 -0.608242663491
979716000 0.557478045237 -0.610123552904
979720000 0.551596418967 -0.608806529624
979724000 0.555083003694 -0.606357595503
979728000 0.559059659176 -0.608872780123
979732000 0.555214501448 -0.606139991521
979736000 0.551676034877 -0.610710237223
979740000 0.555048688546 -0.60796159405
979744000 0.553940012721 -0.609000581514
979748000 0.556388642143 -0.60774390272
979752000 0.554952543662 -0.609864473109
979756000 0.555194209944 -0.608110727001
979760000 0.55397413522 -0.608798436679
979764000 0.553011394384 -0.610045969653
979768000 0.552219131982 -0.61163369619
979772000 0.553309746808 -0.61316695879
979776000 0.547409352321 -0.611568758742
979780000 0.551309823392 -0.611713487106
979784000 0.552779098313 -0.611862681694
979788000 0.549572996541 -0.613177135667
979792000 0.552766460172 -0.614685406876
979796000 0.549858470396 -0.612834979858
979800000 0.547903933245 -0.61354562358
979804000 0.548027622966 -0.614859188176
979808000 0.551523980469 -0.611167262828
979812000 0.553252774995 -0.616087266446
979816000 0.553929280377 -0.611451327842
979820000 0.552790472349 -0.612838178536
979824000 0.552551550747 -0.611967025817
979828000 0.560199232853 -0.610489639373
979832000 0.562811195586 -0.613982184215
979836000 0.560260250192 -0.608711881024
979840000 0.560549030582 -0.612686559402
979844000 0.557894246997 -0.614064320661
979848000 0.555189327579 -0.609614449541
979852000 0.555337958251 -0.604386236993
979856000 0.557189324601 -0.605333069111
979860000 0.555939438014 -0.605860573908
979864000 0.558020622447 -0.609329918602
979868000 0.558881334636 -0.604264566535
979872000 0.554520367514 -0.607863189509
979876000 0.555542523704 -0.608167567094
979880000 0.556745885667 -0.61394601677
979884000 0.557374037786 -0.610472732467
979888000 0.559934726107 -0.612046765873
979892000 0.558209285761 -0.615726191547
979896000 0.556249987954 -0.615004068067
979900000 0.555635730805 -0.610265423735
979904000 0.55701555992 -0.611973106626
979908000 0.55627604248 -0.609135999409
979912000 0.559163697742 -0.610199353406
979916000 0.56315864787 -0.6118089583
979920000 0.556548305602 -0.611364222209
979924000 0.559643337081 -0.609130904692
979928000 0.560527989902 -0.606861664898
979932000 0.558223510275 -0.612265494518
979936000 0.560925900786 -0.603966199215
979940000 0.560665014651 -0.607834970142
979944000 0.55687460367 -0.606380934266
979948000 0.556289292063 -0.608750815844
979952000 0.557605670039 -0.609225865802
979956000 0.553598726304 -0.611884466934
979960000 0.556011176516 -0.611526899073
979964000 0.553887843254 -0.610143252507
979968000 0.553101186617 -0.614450632909
979972000 0.547499901573 -0.620690370951
979976000 0.55246615353 -0.616668963426
979980000 0.5535724062 -0.610398433898
979984000 0.555712890877 -0.611022502946
979988000 0.555808661826 -0.614805835324
979992000 0.573223902307 -0.598930865508
979996000 0.56015594021 -0.612573035472
980000000 0.553360869884 -0.609368642571
