! Calibrated averaged scanner-service zoom
# Hz S RI R 50
156000000 0.254746126894 0.403662615537
156006000 0.262888501947 0.398990227652
156012000 0.261514375984 0.403623361579
156018000 0.261792801442 0.407267494949
156024000 0.262243594151 0.405446663017
156030000 0.262218331293 0.405559522242
156036000 0.262098997338 0.405589536499
156042000 0.26283327907 0.405331747764
156048000 0.262571072034 0.405515090282
156054000 0.263027801829 0.405879431664
156060000 0.262785814813 0.405800020024
156066000 0.263556122187 0.40581746977
156072000 0.26337900841 0.40605039711
156078000 0.263873528197 0.40631070325
156084000 0.263546822415 0.40633717892
156090000 0.26410515698 0.406250324805
156096000 0.26415890262 0.406474873751
156102000 0.264526698578 0.406649999916
156108000 0.264263851973 0.406614279645
156114000 0.264723704736 0.406507249595
156120000 0.265032892889 0.406856850014
156126000 0.265301484375 0.407085109173
156132000 0.265302631754 0.40709718907
156138000 0.265593833492 0.407039465174
156144000 0.266116022875 0.407265049266
156150000 0.266067919624 0.407466970999
156156000 0.266394940176 0.407509881758
156162000 0.266430292828 0.407558412115
156168000 0.266981784562 0.407654113468
156174000 0.266685606148 0.407820160182
156180000 0.267173544568 0.408076807515
156186000 0.267152225297 0.408082248312
156192000 0.267726178261 0.408019797174
156198000 0.267509591283 0.408204230909
156204000 0.268003917764 0.408516008969
156210000 0.267717313823 0.408388897948
156216000 0.268426411287 0.408521988043
156222000 0.268346883292 0.408516672512
156228000 0.268719464566 0.408883669552
156234000 0.268396520376 0.408780236911
156240000 0.268901082277 0.408806900531
156246000 0.269014534888 0.409042285809
156252000 0.269311908404 0.409339483963
156258000 0.269124170771 0.409238002617
156264000 0.269562374494 0.409306215294
156270000 0.270003751939 0.409525301726
156276000 0.270192097012 0.409788774546
156282000 0.270249813848 0.409821957107
156288000 0.270516421856 0.409793769062
156294000 0.270925416537 0.409927521232
156300000 0.271050402321 0.410078206885
156306000 0.271195790143 0.410106809073
156312000 0.271327812734 0.410103540023
156318000 0.271911191494 0.410184466716
156324000 0.271772468476 0.410388760806
156330000 0.272008000889 0.41093281395
156336000 0.272141294113 0.410483354414
156342000 0.27267552022 0.41054120673
156348000 0.272477239662 0.410826432027
156354000 0.272807943786 0.41101325157
156360000 0.27276555649 0.411050338221
156366000 0.273332645372 0.411160827743
156372000 0.273250799304 0.411136775974
156378000 0.27370945013 0.41155540028
156384000 0.273425677544 0.41142530992
156390000 0.274114677499 0.411434679123
156396000 0.274225875335 0.411556643865
156402000 0.274387687276 0.411811318127
156408000 0.274271900945 0.411637788258
156414000 0.274541093667 0.411838627864
156420000 0.275031037241 0.411979608739
156426000 0.275211902336 0.412290252403
156432000 0.275133966736 0.412114636564
156438000 0.275438195363 0.412342217439
156444000 0.275966218203 0.412334971613
156450000 0.275884825741 0.412770794519
156456000 0.276164433183 0.412683362327
156462000 0.276195353829 0.412847021259
156468000 0.276742021717 0.412716550745
156474000 0.276662606686 0.413032126651
156480000 0.277087336219 0.413170242036
156486000 0.276834053595 0.413086685867
156492000 0.277512359646 0.413089142966
156498000 0.277313126127 0.413317999988
156504000 0.277703927591 0.413507659258
156510000 0.277641508803 0.413556362376
156516000 0.278247581894 0.413703973952
156522000 0.278161825259 0.413773103348
156528000 0.278651456546 0.414210765538
156534000 0.278365746145 0.413990814435
156540000 0.278892876579 0.414017305678
156546000 0.279027208985 0.414174130426
156552000 0.27934901362 0.414462485269
156558000 0.27927390956 0.414309941993
156564000 0.279671634711 0.414457565328
156570000 0.279957891257 0.414782400453
156576000 0.280273747606 0.414978240491
156582000 0.280280854159 0.41485223915
156588000 0.280522250389 0.414975377328
156594000 0.280943083082 0.414917990576
156600000 0.281003358302 0.415366967161
156606000 0.280835970705 0.415474873185
156612000 0.281477268008 0.415198795914
156618000 0.281476095282 0.415479610331
156624000 0.282022546035 0.415541958707
156630000 0.28187584728 0.415980770429
156636000 0.282626247453 0.415741566877
156642000 0.28226276009 0.415892296931
156648000 0.283061016828 0.416034355264
156654000 0.282660013019 0.416377264956
156660000 0.283361855384 0.416355712982
156666000 0.283092709967 0.41606599868
156672000 0.283461668611 0.416114317724
156678000 0.283782083091 0.416687433876
156684000 0.28415359825 0.416656137319
156690000 0.284041260749 0.416469431319
156696000 0.284821808332 0.417012161179
156702000 0.284627652625 0.416969479715
156708000 0.284633351061 0.417052820445
156714000 0.28486005131 0.416824561133
156720000 0.285336586808 0.417299414499
156726000 0.285360673113 0.417361448776
156732000 0.285315262825 0.417637362522
156738000 0.285823190809 0.41739214776
156744000 0.286053973603 0.41774873653
156750000 0.286382982597 0.417755050136
156756000 0.286144364742 0.41814358466
156762000 0.286692941087 0.417802375873
156768000 0.286753196413 0.418043002537
156774000 0.287290495152 0.41804899679
156780000 0.287173187628 0.41856750727
156786000 0.287754619386 0.418300726223
156792000 0.287612620174 0.418404736739
156798000 0.288307811641 0.418480196189
156804000 0.288156599307 0.418986174074
156810000 0.288537271027 0.418605440006
156816000 0.288389155854 0.41872328585
156822000 0.289145553055 0.418936170886
156828000 0.288984266321 0.419348925634
156834000 0.289287552609 0.4192566227
156840000 0.289320346338 0.419270762489
156846000 0.289984161605 0.419471531426
156852000 0.289935474034 0.419747833611
156858000 0.290058253934 0.419664995715
156864000 0.290018389206 0.419391450663
156870000 0.290831260784 0.419855156579
156876000 0.290923491915 0.420029198283
156882000 0.290930524561 0.420102852933
156888000 0.2912863528 0.419929858379
156894000 0.29159891186 0.420219445978
156900000 0.291842036006 0.420239221129
156906000 0.29160364746 0.420488411977
156912000 0.292079278102 0.420235313794
156918000 0.292245722746 0.420473644524
156924000 0.292655209518 0.420529007689
156930000 0.292623317033 0.420954625849
156936000 0.29307015256 0.420752267512
156942000 0.293003449496 0.420795694861
156948000 0.293709496462 0.421002843655
156954000 0.293530474915 0.421341805304
156960000 0.293819191717 0.421091905744
156966000 0.293803991242 0.421179224428
156972000 0.294565040726 0.421484804278
156978000 0.294584936181 0.421769372533
156984000 0.294771336543 0.421719232576
156990000 0.294866106989 0.421645477104
156996000 0.295431762466 0.421798363265
157002000 0.295281971447 0.422008188518
157008000 0.295471045894 0.422058812411
157014000 0.295840036713 0.421596141041
157020000 0.296244121979 0.422174233947
157026000 0.296463229974 0.422280072798
157032000 0.296371395082 0.422424020558
157038000 0.296791950244 0.422393992434
157044000 0.296980666504 0.422573068795
157050000 0.29732557854 0.422779251727
157056000 0.297196108969 0.423009686775
157062000 0.297633009181 0.422874175226
157068000 0.297734819547 0.422920569206
157074000 0.298282889775 0.423123588284
157080000 0.298148635371 0.42336405453
157086000 0.298658106085 0.423273649184
157092000 0.298312852588 0.423070178928
157098000 0.299145541197 0.423417969982
157104000 0.29887712528 0.423739571512
157110000 0.299314509848 0.423564591139
157116000 0.299244669089 0.423480826207
157122000 0.299929339786 0.423817126063
157128000 0.299869509299 0.423936636263
157134000 0.300164491178 0.423882114829
157140000 0.30020341593 0.423847452224
157146000 0.300737474481 0.424171541365
157152000 0.300988953635 0.424540583205
157158000 0.300970723424 0.42449658262
157164000 0.301164251127 0.424220168826
157170000 0.301805081708 0.42423565838
157176000 0.30181668006 0.424736984914
157182000 0.301899412528 0.424815584226
157188000 0.302183488755 0.424826343304
157194000 0.302310969358 0.424930633347
157200000 0.302811033662 0.425199024613
157206000 0.303328946021 0.425535770428
157212000 0.302768870872 0.425030993849
157218000 0.304085339135 0.425352149458
157224000 0.303661124555 0.425881326446
157230000 0.303687816975 0.425515693075
157236000 0.303603772341 0.425420936524
157242000 0.304500957841 0.425546359791
157248000 0.304463121104 0.426191985391
157254000 0.304646000287 0.426160637816
157260000 0.304771699095 0.425872638879
157266000 0.305447329944 0.425981429365
157272000 0.305454883716 0.426315410579
157278000 0.30553201414 0.426693140248
157284000 0.30558465315 0.426434057422
157290000 0.306149202467 0.426453253065
157296000 0.306417187965 0.426891762611
157302000 0.306480906923 0.427175897957
157308000 0.306426992737 0.426771736694
157314000 0.306941623223 0.42679502753
157320000 0.307355430304 0.427067281546
157326000 0.307395672801 0.427519832354
157332000 0.307422301137 0.427077929636
157338000 0.307585206704 0.427086285159
157344000 0.308333621689 0.427366894298
157350000 0.308399020083 0.427952313818
157356000 0.308434478573 0.42754601923
157362000 0.308540319161 0.427445251608
157368000 0.309374481893 0.427637361898
157374000 0.309337703909 0.428272504386
157380000 0.30979858579 0.428081845835
157386000 0.309452883412 0.427852453542
157392000 0.310495287 0.428431033621
157398000 0.31032901966 0.428659577
157404000 0.310582099099 0.428640310491
157410000 0.310486726285 0.42840863613
157416000 0.311235781491 0.42851866964
157422000 0.311254328632 0.428978653461
157428000 0.311345459217 0.429108669326
157434000 0.311295499073 0.428612695329
157440000 0.312022152279 0.42880262417
157446000 0.312105714608 0.429065896204
157452000 0.312278979672 0.429422716716
157458000 0.312070695715 0.428940615635
157464000 0.312611892994 0.42903678848
157470000 0.313085461734 0.429197031393
157476000 0.313204228936 0.4297120204
157482000 0.313159447288 0.429379780801
157488000 0.313509957307 0.429441373874
157494000 0.314192430606 0.429701845205
157500000 0.314283774699 0.430243454865
157506000 0.31433186106 0.429961359508
157512000 0.314337840051 0.429874872998
157518000 0.31513737787 0.430146490208
157524000 0.315185744174 0.430660123438
157530000 0.315329349743 0.430370823006
157536000 0.315290678589 0.430279560358
157542000 0.316206981253 0.430311856318
157548000 0.316173072026 0.430918465806
157554000 0.316468038932 0.430836837378
157560000 0.316428083964 0.430612780288
157566000 0.317156402648 0.430781812964
157572000 0.317125232633 0.431222685912
157578000 0.317414405604 0.431290808976
157584000 0.317253921406 0.431051996656
157590000 0.317973138068 0.431141818204
157596000 0.318132435154 0.431370908937
157602000 0.318422756827 0.431697039059
157608000 0.318297087947 0.431266432222
157614000 0.318575006498 0.43195425668
157620000 0.319177024461 0.431705936433
157626000 0.319344317416 0.432168665051
157632000 0.319297826021 0.431777885785
157638000 0.31944912877 0.431840378759
157644000 0.320169206134 0.432004595002
157650000 0.320265135796 0.432387295601
157656000 0.320267069824 0.432014470675
157662000 0.320332562744 0.432056519951
157668000 0.321078394882 0.432068478093
157674000 0.321266017802 0.432711937484
157680000 0.321404219378 0.432409801767
157686000 0.321371589386 0.432200354439
157692000 0.322166997834 0.432222345041
157698000 0.322289527425 0.432956065699
157704000 0.322692085361 0.43284269963
157710000 0.322558187661 0.432704727046
157716000 0.323293780372 0.432777068057
157722000 0.32337931234 0.433285956265
157728000 0.323495940778 0.433307780885
157734000 0.323488009146 0.433059229582
157740000 0.324141755964 0.433082342697
157746000 0.324403949651 0.43351398228
157752000 0.324527557042 0.433800730341
157758000 0.324489841668 0.433351891816
157764000 0.325055148059 0.433460813435
157770000 0.325329200697 0.433673785615
157776000 0.325510511594 0.434010348258
157782000 0.325440391745 0.433742851052
157788000 0.325682827449 0.43370719088
157794000 0.326291004304 0.433974673898
157800000 0.326535688776 0.434498972043
157806000 0.326596940378 0.434244931528
157812000 0.326890972232 0.434279499785
157818000 0.326943166467 0.434486949041
157824000 0.327442154407 0.434451240801
157830000 0.327322211583 0.434432227877
157836000 0.327832593611 0.43454295263
157842000 0.327941928623 0.434679011542
157848000 0.328359891926 0.43474545119
157854000 0.328463381044 0.43474497195
157860000 0.328764077634 0.43482965395
157866000 0.329151238258 0.434976955248
157872000 0.329507451349 0.435157766658
157878000 0.329363064308 0.434955331281
157884000 0.329748106518 0.435079582062
157890000 0.330246632306 0.435197413947
157896000 0.330463703757 0.435321504841
157902000 0.330498892068 0.435279846081
157908000 0.330853668544 0.435532658904
157914000 0.331247945889 0.43562915393
157920000 0.331318355914 0.435765882535
157926000 0.331299770839 0.435528341558
157932000 0.331792473711 0.435831978894
157938000 0.332086210917 0.435870160859
157944000 0.332124422405 0.436095030416
157950000 0.332605112506 0.435982527951
157956000 0.332695067953 0.436078164727
157962000 0.333080673483 0.43610921919
157968000 0.333250538196 0.436354197062
157974000 0.333657827747 0.436354546081
157980000 0.333715969653 0.43638415095
157986000 0.334124645356 0.436427849615
157992000 0.334284915439 0.43654973964
157998000 0.334668608456 0.436658454176
158004000 0.334663185542 0.436717636776
158010000 0.335097401893 0.436828845303
158016000 0.335212194302 0.43690486229
158022000 0.335670289291 0.437080469637
158028000 0.33556947552 0.43694334994
158034000 0.335892536104 0.437116746972
158040000 0.336208261467 0.436902668566
158046000 0.336486669123 0.437228216425
158052000 0.33601589955 0.437195342282
158058000 0.336979420041 0.43743817525
158064000 0.337277012981 0.437495447081
158070000 0.337456139578 0.437750570179
158076000 0.337770089149 0.437633087047
158082000 0.338080169209 0.437755540213
158088000 0.33837406021 0.437850275251
158094000 0.33854103363 0.438055058419
158100000 0.338934469581 0.437843298184
158106000 0.339079567896 0.437954500337
158112000 0.339455551565 0.437960740042
158118000 0.339557654563 0.438127149628
158124000 0.340005332858 0.438216254905
158130000 0.340072710031 0.438194117456
158136000 0.340412592815 0.438169616286
158142000 0.340673330016 0.438398865899
158148000 0.340988781786 0.438450863276
158154000 0.34133243844 0.438773128874
158160000 0.341417652319 0.43860923767
158166000 0.34210341851 0.439149821814
158172000 0.342010690014 0.438779610551
158178000 0.342052532858 0.438758096686
158184000 0.342290100283 0.438824380412
158190000 0.342699435118 0.438863824941
158196000 0.342950541496 0.439032591191
158202000 0.343094263359 0.439062583693
158208000 0.343465243349 0.439253868794
158214000 0.343761815001 0.439326145548
158220000 0.344012811302 0.439410098769
158226000 0.344285992644 0.439416403809
158232000 0.344612533205 0.43941705403
158238000 0.344842950652 0.439434430519
158244000 0.344953390727 0.439639412168
158250000 0.345365130817 0.439512266758
158256000 0.34560584981 0.439664391414
158262000 0.345852015323 0.439722525913
158268000 0.346104934674 0.439885522306
158274000 0.346457856151 0.439889712173
158280000 0.346557175284 0.439962047438
158286000 0.346883238087 0.439932403335
158292000 0.347111275408 0.440091900326
158298000 0.347470467038 0.440030034243
158304000 0.347489468788 0.440160950933
158310000 0.347857262589 0.440167541696
158316000 0.348271504243 0.440265609058
158322000 0.348519983748 0.440430118052
158328000 0.348588979363 0.440422446671
158334000 0.349015197442 0.440466743823
158340000 0.349315835935 0.440547446174
158346000 0.349627949535 0.440601417704
158352000 0.350086214273 0.440623960422
158358000 0.350101261658 0.440574804779
158364000 0.35028956211 0.440801332134
158370000 0.350563848494 0.440869471462
158376000 0.350811685352 0.440823132841
158382000 0.351224600661 0.44080427237
158388000 0.351449939248 0.44100114505
158394000 0.351698090989 0.441118723344
158400000 0.351947558006 0.441034553018
158406000 0.352300397449 0.441284736877
158412000 0.352567077946 0.441131597011
158418000 0.352836362825 0.441349997362
158424000 0.353840658903 0.441349274499
158430000 0.35324278128 0.441560282889
158436000 0.353351426752 0.441943007575
158442000 0.353761199589 0.441418337978
158448000 0.354240881113 0.44142078953
158454000 0.354447748678 0.441668622542
158460000 0.354939254643 0.441647138139
158466000 0.354827117708 0.441695453288
158472000 0.355360979821 0.441776094831
158478000 0.355479701641 0.441902202019
158484000 0.355711195329 0.44183637685
158490000 0.355780207564 0.441714169262
158496000 0.356348903772 0.441807180781
158502000 0.356544752948 0.441874479794
158508000 0.356899505211 0.441963432418
158514000 0.356925992524 0.441907632714
158520000 0.357426448685 0.442002738194
158526000 0.357527894909 0.442146236564
158532000 0.358075640551 0.442060191224
158538000 0.357917077453 0.442069878999
158544000 0.357927845616 0.442218087778
158550000 0.35864291294 0.442264935086
158556000 0.358870291932 0.442361940831
158562000 0.359212985345 0.442267528532
158568000 0.359373949189 0.442411111472
158574000 0.359679551055 0.442502191965
158580000 0.359915398902 0.442645320878
158586000 0.360058253211 0.442557332958
158592000 0.360355168214 0.442593447207
158598000 0.360706294266 0.442592172393
158604000 0.360931112024 0.442645941218
158610000 0.361321687889 0.442520376419
158616000 0.361462198341 0.442545675121
158622000 0.361897034169 0.442660394496
158628000 0.36209840463 0.442825266293
158634000 0.362329693079 0.442763724071
158640000 0.362494988135 0.442788301215
158646000 0.362954078758 0.442876097593
158652000 0.363239821553 0.443046807889
158658000 0.363508825923 0.442993339348
158664000 0.36341563358 0.442955000244
158670000 0.363978871104 0.443131486265
158676000 0.364250739697 0.44318194935
158682000 0.364422030917 0.443206155471
158688000 0.364644599071 0.443163373388
158694000 0.364978969984 0.443160201318
158700000 0.365251118269 0.443223518197
158706000 0.365435664057 0.443303189788
158712000 0.365762799236 0.443281800388
158718000 0.366026089856 0.443318989972
158724000 0.36623923327 0.443522292781
158730000 0.366246146944 0.443511402722
158736000 0.366747545405 0.443483451359
158742000 0.366903742258 0.443475224191
158748000 0.367359712512 0.443550062968
158754000 0.367562374864 0.443599423564
158760000 0.367873198611 0.44350846932
158766000 0.367951626618 0.443612368765
158772000 0.369049559895 0.444309887428
158778000 0.368662112896 0.443685276547
158784000 0.367996277589 0.443582428592
158790000 0.369080055838 0.443656318192
158796000 0.369582697009 0.443810334949
158802000 0.369724096197 0.443895742833
158808000 0.370142576808 0.443903549137
158814000 0.370184232317 0.443882335384
158820000 0.370629001475 0.444136005225
158826000 0.370776741054 0.4443188696
158832000 0.370853708174 0.444192509691
158838000 0.371246123149 0.444145889878
158844000 0.371597364328 0.444089979307
158850000 0.372018510711 0.444295920429
158856000 0.371995432744 0.44428430599
158862000 0.372488947313 0.444250142901
158868000 0.372303361999 0.444187799276
158874000 0.373132877044 0.444396462288
158880000 0.373213170133 0.444488903846
158886000 0.373578971503 0.444362558543
158892000 0.373620450566 0.44432156567
158898000 0.374156369736 0.444458267297
158904000 0.374450608294 0.444624533426
158910000 0.374582450489 0.444480133851
158916000 0.374669990406 0.444465459478
158922000 0.375235207226 0.444554865754
158928000 0.375345547748 0.444676953897
158934000 0.375650537769 0.444550584978
158940000 0.375818061668 0.444531771671
158946000 0.376284467643 0.444654290265
158952000 0.376437182613 0.444711998646
158958000 0.376773075143 0.444726455622
158964000 0.376909441368 0.444726385304
158970000 0.377381430185 0.44476231236
158976000 0.377648475289 0.444890273226
158982000 0.377848038148 0.444869620729
158988000 0.378007529956 0.444679711461
158994000 0.378414689614 0.444841482042
159000000 0.378706267413 0.444923376944
159006000 0.378667477893 0.444788173256
159012000 0.378954445353 0.444856285774
159018000 0.379550067928 0.444963691605
159024000 0.379618089822 0.445050865454
159030000 0.379925877014 0.444957558384
159036000 0.380029638433 0.444909046681
159042000 0.380659195925 0.445006920054
159048000 0.380753913258 0.445125110428
159054000 0.381032104473 0.444990417104
159060000 0.381291532323 0.444910220536
159066000 0.381761346731 0.445134179726
159072000 0.38193515375 0.445321722232
159078000 0.382182693912 0.445277229126
159084000 0.382435461897 0.445152073575
159090000 0.38278369069 0.445238993125
159096000 0.383166787198 0.445446401424
159102000 0.383482720275 0.445339961813
159108000 0.383578239811 0.445226135303
159114000 0.383924623351 0.445159474567
159120000 0.3843552168 0.445423068426
159126000 0.384535109359 0.445189484314
159132000 0.384675584377 0.445221029293
159138000 0.38474927304 0.445365966536
159144000 0.385368378799 0.44531344331
159150000 0.385416308928 0.445571132436
159156000 0.385709735566 0.445144311285
159162000 0.38602765339 0.444946869996
159168000 0.386641269666 0.445263863988
159174000 0.386758792253 0.445462919563
159180000 0.386890247208 0.445226814411
159186000 0.387055567446 0.445189390671
159192000 0.387527114581 0.445288970313
159198000 0.387746680193 0.445426155491
159204000 0.387957119006 0.445227493694
159210000 0.388157088228 0.445150021024
159216000 0.388571503157 0.445287005066
159222000 0.388866442078 0.445511820965
159228000 0.389107874622 0.445346525884
159234000 0.389263461872 0.445260164356
159240000 0.390091678995 0.444717114853
159246000 0.389909265536 0.445332682706
159252000 0.38832163812 0.444078115892
159258000 0.390336662034 0.445097052163
159264000 0.390679596765 0.44526219375
159270000 0.391127149252 0.445434542568
159276000 0.391285949162 0.445483477817
159282000 0.391367210258 0.445336553315
159288000 0.391671909952 0.445347282961
159294000 0.392092540407 0.445525271422
159300000 0.392140461759 0.445495959473
159306000 0.392286662711 0.445270230333
159312000 0.392687215866 0.445284770278
159318000 0.393079381451 0.445389521748
159324000 0.393197322512 0.445556028331
159330000 0.393457832226 0.44532119983
159336000 0.393694022661 0.445245821003
159342000 0.394147953938 0.445339851612
159348000 0.39428751802 0.445480268189
159354000 0.394406509369 0.44510762929
159360000 0.394551374364 0.445008193892
159366000 0.394959520329 0.445113704487
159372000 0.395367553371 0.445314804792
159378000 0.395460959679 0.445121611809
159384000 0.395739922714 0.445175395345
159390000 0.39613525128 0.44526640204
159396000 0.3963826577 0.445392179909
159402000 0.396538139603 0.445146393633
159408000 0.396921668725 0.445132729096
159414000 0.39721974457 0.44528871159
159420000 0.397704657069 0.445447613519
159426000 0.39783958765 0.445373194918
159432000 0.397981694795 0.445224912123
159438000 0.398227125614 0.445242414944
159444000 0.398667335505 0.445399993245
159450000 0.398859904832 0.445469093776
159456000 0.399057923022 0.445294321411
159462000 0.399366563486 0.445170661609
159468000 0.399824125302 0.445318154439
159474000 0.399919747733 0.445520818723
159480000 0.40011021601 0.445246182142
159486000 0.40031155762 0.445154311215
159492000 0.40075671128 0.445333903303
159498000 0.400803844695 0.445383525405
159504000 0.400868079661 0.445077634857
159510000 0.401122697723 0.445087215767
159516000 0.401588460101 0.445148966999
159522000 0.401970473611 0.445265745042
159528000 0.402044336255 0.445157962547
159534000 0.402798774249 0.444786909961
159540000 0.402744946339 0.445095558211
159546000 0.402561168179 0.445864227356
159552000 0.403179316458 0.445106950496
159558000 0.403485839792 0.445005804699
159564000 0.403746389673 0.445004764351
159570000 0.404247349079 0.445252428929
159576000 0.404300468627 0.445145689005
159582000 0.404456626386 0.445003669035
159588000 0.404625809531 0.444997396942
159594000 0.405131776198 0.445144830814
159600000 0.405242083154 0.445096525424
159606000 0.405632966385 0.445264263999
159612000 0.405760071457 0.445111925043
159618000 0.405705317096 0.444878864438
159624000 0.406189722655 0.444833108175
159630000 0.40676221487 0.445188309301
159636000 0.40688763802 0.445272089048
159642000 0.4067882449 0.444864406985
159648000 0.40724667515 0.444712642411
159654000 0.407824451391 0.445169189383
159660000 0.407746859995 0.445163571209
159666000 0.407758427772 0.444810092904
159672000 0.408117063417 0.444746228463
159678000 0.408591334773 0.4451159436
159684000 0.408867033107 0.44521110226
159690000 0.408793999445 0.444889380838
159696000 0.408995687527 0.444576528233
159702000 0.409715026026 0.445348289977
159708000 0.409965357213 0.445066368662
159714000 0.4091732774 0.444852586476
159720000 0.410128459276 0.444429191881
159726000 0.410787094701 0.44471330232
159732000 0.41116735983 0.444990993767
159738000 0.411193688696 0.44482105858
159744000 0.411099449738 0.44449786081
159750000 0.411681384445 0.444599581299
159756000 0.412100469441 0.444922110425
159762000 0.411866064956 0.444529701575
159768000 0.412143771339 0.444464096453
159774000 0.412746764586 0.443916862017
159780000 0.412983138289 0.444836635934
159786000 0.413227969134 0.444771688841
159792000 0.413126031846 0.444375878158
159798000 0.413602580386 0.444362736249
159804000 0.414290510583 0.444745588239
159810000 0.414366820283 0.444743998822
159816000 0.414374783942 0.444408223695
159822000 0.414688444465 0.444218595125
159828000 0.415343837079 0.444528045902
159834000 0.415548055061 0.444713880197
159840000 0.415440497778 0.444392676207
159846000 0.415545478891 0.444060310279
159852000 0.416218199398 0.444345777289
159858000 0.416515884836 0.44463608536
159864000 0.416355596855 0.444287378642
159870000 0.416515159987 0.443938632464
159876000 0.417165636463 0.444167196016
159882000 0.417655814346 0.444426253189
159888000 0.417518725737 0.444304269962
159894000 0.41756452792 0.443884960035
159900000 0.417971835948 0.44398701281
159906000 0.418576673304 0.444271740985
159912000 0.418533715141 0.444127010374
159918000 0.418527073637 0.443764990169
159924000 0.419007628835 0.443674732102
159930000 0.419673590559 0.444073943239
159936000 0.419739950584 0.444046198552
159942000 0.419630777467 0.443672594572
159948000 0.419858002999 0.443564301811
159954000 0.420659928708 0.444193750078
159960000 0.420550075886 0.444010047312
159966000 0.420593229064 0.443579520349
159972000 0.420770130947 0.443551902965
159978000 0.421573772641 0.443823320138
159984000 0.421997955663 0.443915724893
159990000 0.421721466624 0.443621349226
159996000 0.421719603426 0.443273619441
160002000 0.422663468655 0.443655040987
160008000 0.422756913114 0.443885429002
160014000 0.422662019639 0.443612475871
160020000 0.422679648143 0.443214246872
160026000 0.423427254954 0.443407318017
160032000 0.423777888411 0.44366664742
160038000 0.423781477025 0.443547296023
160044000 0.423686665628 0.443171438443
160050000 0.424148331831 0.443036806322
160056000 0.424838591686 0.443574937382
160062000 0.424538390265 0.44312306913
160068000 0.424706652354 0.44298774943
160074000 0.425143805267 0.442869874975
160080000 0.425886265989 0.443285540954
160086000 0.425691334641 0.443180727633
160092000 0.425640044336 0.442884188141
160098000 0.425963262477 0.442681395998
160104000 0.42679224682 0.443143353499
160110000 0.426663496933 0.443094868787
160116000 0.426614615149 0.442761724191
160122000 0.42676922563 0.442514203713
160128000 0.427737350534 0.442942579668
160134000 0.427912378865 0.443064076571
160140000 0.427853637755 0.442748085226
160146000 0.42784078601 0.442454262787
160152000 0.428776087386 0.442733827625
160158000 0.428804845421 0.442877164917
160164000 0.428749154558 0.442588528813
160170000 0.428745432274 0.442207592946
160176000 0.429543866385 0.442382009823
160182000 0.429922648273 0.442596837584
160188000 0.429792279352 0.442466189684
160194000 0.429756233618 0.44212431712
160200000 0.430400640736 0.442215106056
160206000 0.430687610726 0.442510511695
160212000 0.43066194246 0.442327185523
160218000 0.430894038617 0.442224724899
160224000 0.431336484739 0.44225522845
160230000 0.431607543883 0.44236648916
160236000 0.431549306732 0.442181456306
160242000 0.431802250868 0.442061547662
160248000 0.432132354561 0.441971022693
160254000 0.432186462379 0.442036334682
160260000 0.432611367936 0.442012571388
160266000 0.433022395991 0.441909899023
160272000 0.432988138477 0.44173245432
160278000 0.433238843202 0.441749004815
160284000 0.433476766702 0.441780776445
160290000 0.433534564136 0.441610582519
160296000 0.433689811905 0.441484827511
160302000 0.434175973456 0.441594011484
160308000 0.434504355224 0.441824094266
160314000 0.43433800208 0.441643103348
160320000 0.434397670318 0.441856062007
160326000 0.435030247032 0.441600046811
160332000 0.435247297876 0.442489384409
160338000 0.43532176693 0.441589333181
160344000 0.435590420654 0.441411373132
160350000 0.436048805819 0.441480182041
160356000 0.436475806216 0.441601213693
160362000 0.436366672791 0.441376070869
160368000 0.43671267602 0.441333159861
160374000 0.437098974997 0.441362086548
160380000 0.437406241482 0.441400318353
160386000 0.437306722281 0.441361964525
160392000 0.437564603888 0.441196089388
160398000 0.43781861505 0.441160679117
160404000 0.438280044237 0.441198107929
160410000 0.438376436224 0.441177159387
160416000 0.438249526974 0.441089036593
160422000 0.438777342894 0.440981062771
160428000 0.439113199201 0.441021379219
160434000 0.439315069269 0.44109537601
160440000 0.43935549841 0.440910505009
160446000 0.439628251395 0.440797727199
160452000 0.439929114929 0.440913903098
160458000 0.440317240527 0.441049705973
160464000 0.440321922924 0.440818763425
160470000 0.440512992319 0.440681646925
160476000 0.440610270697 0.440582086041
160482000 0.441255450628 0.440738853608
160488000 0.441013012739 0.440464667432
160494000 0.441328443986 0.440339257388
160500000 0.441602094377 0.440365346826
160506000 0.441973884829 0.440431372012
160512000 0.441801080388 0.440340448555
160518000 0.442073920326 0.440242158304
160524000 0.442503770144 0.440305861278
160530000 0.442899227925 0.440380473564
160536000 0.442959753626 0.440396853541
160542000 0.443172531975 0.440207781813
160548000 0.443547430037 0.440271173954
160554000 0.44394066018 0.440348324251
160560000 0.443939237034 0.440330306286
160566000 0.444150337474 0.440233821816
160572000 0.444318664084 0.440196327227
160578000 0.444741853773 0.440237309417
160584000 0.444903528846 0.44024986055
160590000 0.444944792141 0.440084855679
160596000 0.445161253523 0.439914838513
160602000 0.44543515074 0.439846158808
160608000 0.445041785774 0.439696228267
160614000 0.444261708307 0.439243050803
160620000 0.443828942213 0.438776150001
160626000 0.443453735977 0.438432713975
160632000 0.443529660135 0.438482439809
160638000 0.444150286813 0.438618327745
160644000 0.445159518146 0.438761673064
160650000 0.446177835293 0.439033302076
160656000 0.447479865938 0.439531860781
160662000 0.447503842172 0.439555268934
160668000 0.447922962314 0.439422988681
160674000 0.448231535276 0.439342638285
160680000 0.448718000908 0.439473981719
160686000 0.448663688554 0.439366972047
160692000 0.448755182558 0.439286144092
160698000 0.449194387481 0.439266008395
160704000 0.449505375782 0.439296310712
160710000 0.449642046788 0.439379302008
160716000 0.449655208995 0.439307819234
160722000 0.449953079754 0.43907078764
160728000 0.450304139264 0.439074817713
160734000 0.450557416454 0.439021715424
160740000 0.450355201434 0.438845260265
160746000 0.450784941296 0.438660993967
160752000 0.451121882681 0.438716275004
160758000 0.451504685617 0.438946882061
160764000 0.451497676681 0.438909969711
160770000 0.451753104515 0.438777184775
160776000 0.45225442157 0.438839241575
160782000 0.452530446626 0.438898396518
160788000 0.452335881 0.438691962622
160794000 0.452579208515 0.438418809935
160800000 0.452873570302 0.438401145093
160806000 0.453148130722 0.438182195364
160812000 0.453813636164 0.438438517271
160818000 0.453570804074 0.438493572517
160824000 0.453171776049 0.438076467999
160830000 0.453695917127 0.437969121338
160836000 0.454705109301 0.4377853161
160842000 0.454514147359 0.437495108192
160848000 0.454188122478 0.436575451642
160854000 0.454558014262 0.435884526516
160860000 0.454946461959 0.436880694076
160866000 0.456255688735 0.436380859909
160872000 0.452606538657 0.437568428676
160878000 0.458253292125 0.438291456928
160884000 0.456387885551 0.43734845566
160890000 0.456362552926 0.438090843355
160896000 0.456069714487 0.437875040682
160902000 0.456085563262 0.437530618638
160908000 0.457303473097 0.437623045087
160914000 0.457463230737 0.43787534834
160920000 0.457143026435 0.437779106132
160926000 0.45687844823 0.437438233402
160932000 0.457882759158 0.437347130903
160938000 0.458387788461 0.43763927586
160944000 0.458047934313 0.437619956257
160950000 0.457686321642 0.437175529612
160956000 0.458494800701 0.437105495108
160962000 0.459167943864 0.437361973958
160968000 0.458893302992 0.437500086277
160974000 0.458415967445 0.437077910816
160980000 0.459129705521 0.436921932108
160986000 0.459979210813 0.43707772347
160992000 0.459739249673 0.437263979971
160998000 0.459395751515 0.436921301283
161004000 0.45959851919 0.43657026079
161010000 0.460699238499 0.436747292157
161016000 0.460571211669 0.437042819122
161022000 0.460375274048 0.43677170921
161028000 0.460302975885 0.436408445215
161034000 0.46168512314 0.436552345407
161040000 0.461632402912 0.436888232268
161046000 0.461282859545 0.436634083054
161052000 0.461187655155 0.436321542528
161058000 0.462242716388 0.436264795092
161064000 0.462526685175 0.436551952702
161070000 0.462108703063 0.436490023495
161076000 0.461825417457 0.436232060616
161082000 0.46285303564 0.436085301572
161088000 0.463218308971 0.43631191745
161094000 0.463004257542 0.436393727051
161100000 0.462693608569 0.436045908893
161106000 0.463470657063 0.43589633517
161112000 0.464156696309 0.436148773999
161118000 0.46388983523 0.436276563492
161124000 0.463446796618 0.435968333917
161130000 0.46406738267 0.435774709878
161136000 0.464934085641 0.435974991174
161142000 0.464670303261 0.436191736843
161148000 0.464455169471 0.4358898281
161154000 0.464608374594 0.435638074457
161160000 0.465818705873 0.435743514275
161166000 0.465695302653 0.436030719744
161172000 0.465232626694 0.435844818219
161178000 0.465432911502 0.4355818741
161184000 0.466648866227 0.435505968376
161190000 0.466621719535 0.435935977824
161196000 0.466317278725 0.435813126213
161202000 0.466098525392 0.435469712295
161208000 0.467193230967 0.435367972736
161214000 0.467516189907 0.435614138931
161220000 0.467097526998 0.435518066133
161226000 0.466922583003 0.435192186946
161232000 0.467762884148 0.435024506764
161238000 0.468352554487 0.435290088637
161244000 0.468027057145 0.435373552019
161250000 0.467707235026 0.435057937953
161256000 0.468655755835 0.43503181966
161262000 0.469068534704 0.435048422838
161268000 0.468991141004 0.435419754669
161274000 0.468598995226 0.435121198516
161280000 0.469228697391 0.434946731575
161286000 0.470168069791 0.435054494283
161292000 0.469962900179 0.435270818976
161298000 0.469544438182 0.435083054326
161304000 0.469808959653 0.434755371009
161310000 0.470818697725 0.43475115345
161316000 0.470817613692 0.435115102013
161322000 0.470434294322 0.434958932193
161328000 0.470445974982 0.434585079267
161334000 0.471672131061 0.434531512283
161340000 0.471725817911 0.434836942893
161346000 0.471435975142 0.434760916232
161352000 0.471233455588 0.434461763157
161358000 0.472384336727 0.434354052117
161364000 0.47266083076 0.434602559134
161370000 0.472312787771 0.434679709705
161376000 0.472023073398 0.434350605717
161382000 0.473079206328 0.434203949049
161388000 0.473595821371 0.434465960645
161394000 0.473284649854 0.434456981781
161400000 0.472778840509 0.434252741272
161406000 0.473448244955 0.434276330752
161412000 0.473710524382 0.434173384073
161418000 0.474318712771 0.434013742008
161424000 0.474179554587 0.434222709253
161430000 0.474533525127 0.43406104417
161436000 0.474254031111 0.433976071114
161442000 0.475502910434 0.434059138686
161448000 0.475156058983 0.434284554844
161454000 0.475332604535 0.434104040718
161460000 0.475243622337 0.433976395116
161466000 0.475984777142 0.433950820821
161472000 0.475901512983 0.433963039021
161478000 0.476037809785 0.433962771195
161484000 0.475875945433 0.433535447309
161490000 0.476563050917 0.433629385753
161496000 0.476927378501 0.433700583768
161502000 0.476694207914 0.433805485953
161508000 0.476896890473 0.433535342479
161514000 0.477464571816 0.433553882102
161520000 0.477833147698 0.433451484805
161526000 0.477562976834 0.433583213368
161532000 0.477847008631 0.433344834655
161538000 0.478125485314 0.433290974567
161544000 0.47867367882 0.433166124998
161550000 0.478230847185 0.433358178826
161556000 0.478670073293 0.433195717429
161562000 0.478893070108 0.432900090196
161568000 0.479340771561 0.432943291927
161574000 0.479389262401 0.433324167502
161580000 0.479358551453 0.433171913838
161586000 0.479242171143 0.432960947494
161592000 0.480107692973 0.432903402418
161598000 0.480126737684 0.433197993907
161604000 0.48018613822 0.433061706716
161610000 0.480116246902 0.432855224793
161616000 0.480881274384 0.432780329463
161622000 0.481062900294 0.432852058127
161628000 0.481006821522 0.432752654776
161634000 0.480829509782 0.43250750932
161640000 0.481506641262 0.43242672646
161646000 0.481929711599 0.432571646504
161652000 0.481806039356 0.43283741758
161658000 0.481908141212 0.432499244081
161664000 0.482319505418 0.432483695618
161670000 0.482781832827 0.432356477279
161676000 0.482680900259 0.432721845678
161682000 0.482557894636 0.432444156929
161688000 0.483138255641 0.432234937487
161694000 0.483565871747 0.432273518469
161700000 0.483356881789 0.432554793863
161706000 0.4834804136 0.432265512853
161712000 0.483596516882 0.432174949309
161718000 0.484339220109 0.431883880779
161724000 0.483611018499 0.432091552701
161730000 0.484288150521 0.432085695152
161736000 0.484377070798 0.432241483913
161742000 0.484829502914 0.431719540074
161748000 0.485064196516 0.432181206156
161754000 0.485208942151 0.431945944949
161760000 0.485022110856 0.431877216969
161766000 0.485522776082 0.431647751121
161772000 0.48590816576 0.431821210828
161778000 0.486174448217 0.431974329047
161784000 0.485784959396 0.431702864587
161790000 0.486576396201 0.431613574126
161796000 0.486904495595 0.431632990731
161802000 0.48666625746 0.431790263336
161808000 0.486750431294 0.43159331357
161814000 0.48723183907 0.431569724235
161820000 0.487674312913 0.431395205793
161826000 0.487507396686 0.431680234578
161832000 0.487515239237 0.431391521315
161838000 0.487876867949 0.431378687581
161844000 0.488431743046 0.431199369546
161850000 0.488224345745 0.431578126646
161856000 0.488438904957 0.431307193192
161862000 0.488538207246 0.431212806744
161868000 0.489195298429 0.430975942691
161874000 0.489032565848 0.431402948362
161880000 0.489232944839 0.431236352308
161886000 0.489096025804 0.431190262747
161892000 0.489968119926 0.430993953438
161898000 0.489989264063 0.431384425961
161904000 0.490011121338 0.431265231855
161910000 0.489787868973 0.431069694523
161916000 0.490539993801 0.430919034862
161922000 0.490816254188 0.431056917447
161928000 0.490781734859 0.431077576244
161934000 0.490513596545 0.43082159522
161940000 0.491319755172 0.430845429382
161946000 0.491824054665 0.431039886897
161952000 0.491449788739 0.431090514492
161958000 0.491425824601 0.431049934411
161964000 0.491961542118 0.430738034418
161970000 0.492486199196 0.430506495918
161976000 0.492270835301 0.430763971586
161982000 0.492333317259 0.43069628094
161988000 0.492733575343 0.430678384153
161994000 0.493231736418 0.430459701492
162000000 0.492935673964 0.430807233269
