! Calibrated averaged scanner-service zoom
# Hz S RI R 50
159810000 0.413557694165 0.444293125874
159811755 0.413700692689 0.444503339386
159813510 0.413379925794 0.444297985925
159815265 0.413169612346 0.443971333663
159817020 0.413869646052 0.444246925121
159818775 0.414086865042 0.444591755944
159820530 0.413724393328 0.44438493634
159822285 0.413571432552 0.444032313802
159824040 0.413919801258 0.444123687795
159825795 0.414338648571 0.444445010921
159827550 0.414034281835 0.444345343523
159829305 0.413825436219 0.4440575562
159831060 0.413973980949 0.443997484748
159832815 0.414557277995 0.444424787904
159834570 0.414366597151 0.444375520283
159836325 0.414154811594 0.444123493895
159838080 0.414230858521 0.443969742724
159839835 0.414759676892 0.444318378785
159841590 0.414783390419 0.444398165007
159843345 0.414413077976 0.44406147877
159845100 0.414385397271 0.443854597082
159846855 0.415072698208 0.44418384635
159848610 0.415095504918 0.444461221659
159850365 0.414826905032 0.444031459527
159852120 0.414838344977 0.443792040757
159853875 0.415321262402 0.444051145613
159855630 0.415448538072 0.444274851921
159857385 0.415213201547 0.444096443736
159859140 0.415149194607 0.443777742277
159860895 0.415665102686 0.444009348454
159862650 0.415808563815 0.444276883938
159864405 0.41558786917 0.444195001412
159866160 0.415405913161 0.44379327448
159867915 0.415816700458 0.443902844175
159869670 0.416139386725 0.444256097431
159871425 0.416027002097 0.444249615999
159873180 0.415649221101 0.443909251923
159874935 0.415935019854 0.443799132309
159876690 0.416361334059 0.44427302031
159878445 0.416182106815 0.444195301774
159880200 0.415950362142 0.443904860547
159881955 0.416119123622 0.443723854213
159883710 0.416644519014 0.444124683658
159885465 0.41646711252 0.444134351308
159887220 0.416228790864 0.443833117522
159888975 0.416303670125 0.443585733811
159890730 0.416921635202 0.443985264886
159892485 0.416863517911 0.444197591226
159894240 0.416631522554 0.443905054103
159895995 0.41662346948 0.443599712426
159897750 0.417140432118 0.443846852479
159899505 0.417218143545 0.444066379474
159901260 0.416983142032 0.443652588112
159903015 0.416818782076 0.443492312501
159904770 0.417414245705 0.443714314856
159906525 0.41766865342 0.444077360775
159908280 0.417378451439 0.443889728787
159910035 0.417184341688 0.443551797019
159911790 0.417627547255 0.443585042718
159913545 0.41796053941 0.443951595624
159915300 0.417840522264 0.443874011453
159917055 0.417513870125 0.443551642155
159918810 0.417745864103 0.44346839731
159920565 0.418324052592 0.443943141004
159922320 0.418180006235 0.443961648486
159924075 0.417861670833 0.443583213475
159925830 0.418027454138 0.443395975447
159927585 0.418599052253 0.443783216741
159929340 0.418509853094 0.443904071201
159931095 0.418179424791 0.443615418742
159932850 0.418228314111 0.44332562763
159934605 0.418801530362 0.44368173124
159936360 0.41879711182 0.443843474109
159938115 0.418405202318 0.443611449428
159939870 0.418617482299 0.443355332867
159941625 0.419068360408 0.4435827953
159943380 0.419149126845 0.443760167392
159945135 0.418922480222 0.443689813022
159946890 0.418780322288 0.443329287969
159948645 0.419287349311 0.443531179564
159950400 0.419436198429 0.443837358031
159952155 0.419169420025 0.443689736853
159953910 0.419062264546 0.443367126068
159955665 0.419368432803 0.443461057716
159957420 0.419894523989 0.443773124949
159959175 0.419617157755 0.443752111748
159960930 0.419270860491 0.443457610431
159962685 0.419508828804 0.443333986656
159964440 0.420090842266 0.443839438772
159966195 0.419887971824 0.443831237995
159967950 0.419676084559 0.443528205293
159969705 0.419765075536 0.443290457481
159971460 0.420309887968 0.443713438126
159973215 0.420338458809 0.443740736815
159974970 0.420108199301 0.443550304342
159976725 0.420010548471 0.44322147594
159978480 0.420713775428 0.443595321347
159980235 0.420581474468 0.44371804277
159981990 0.420327012681 0.443465331963
159983745 0.420321598674 0.443156362024
159985500 0.420840638295 0.443453458189
159987255 0.420641308584 0.443362944136
159989010 0.420787744327 0.443543778898
159990765 0.42092205098 0.44347740481
159992520 0.420823724599 0.443360272853
159994275 0.420815811819 0.443298112182
159996030 0.421137729626 0.443424035232
159997785 0.421281431594 0.443525087205
159999540 0.421152360137 0.444262649897
160001295 0.421047028122 0.443269802109
160003050 0.42139682585 0.443432832364
160004805 0.421458216242 0.443432340704
160006560 0.421436615168 0.443444776509
160008315 0.421336293424 0.443228280953
160010070 0.421595058414 0.443322321646
160011825 0.421699018531 0.443432375705
160013580 0.421668218656 0.443444309021
160015335 0.42155181839 0.443206108421
160017090 0.421846563762 0.443360755532
160018845 0.4219024211 0.443386064288
160020600 0.421963496299 0.443367538032
160022355 0.421774714295 0.443221736457
160024110 0.422037002285 0.443281985453
160025865 0.422068914506 0.443310734187
160027620 0.422284333879 0.443422955251
160029375 0.422044320902 0.443314395762
160031130 0.422300061431 0.443255823862
160032885 0.422446194994 0.443339751355
160034640 0.422671763203 0.443336090477
160036395 0.422464126451 0.443213100568
160038150 0.422731235204 0.443196961033
160039905 0.422878309215 0.443219524944
160041660 0.423099639841 0.443349564419
160043415 0.422921576402 0.443289613321
160045170 0.422843186627 0.443018176903
160046925 0.423211058377 0.443245021316
160048680 0.423323071955 0.443237791901
160050435 0.423324943183 0.443172360029
160052190 0.423305138118 0.442984109038
160053945 0.423583126271 0.443168774146
160055700 0.423645334739 0.443168429746
160057455 0.423667341342 0.443226503361
160059210 0.423499931169 0.442953943826
160060965 0.423848668792 0.443025183226
160062720 0.423846927985 0.443053891179
160064475 0.423967685684 0.443012002348
160066230 0.423794645448 0.44286462937
160067985 0.424042599151 0.442969248576
160069740 0.424103152274 0.443003480479
160071495 0.424136919712 0.443008660472
160073250 0.424010255875 0.442819671371
160075005 0.424197256086 0.442850539909
160076760 0.424394299901 0.442943140493
160078515 0.424485659558 0.442918755432
160080270 0.42436750853 0.44280017534
160082025 0.424459964404 0.44271716535
160083780 0.424752941679 0.442768283946
160085535 0.424780677291 0.442899869132
160087290 0.424614941832 0.442876231759
160089045 0.424717765925 0.44267239395
160090800 0.424948579994 0.442798526887
160092555 0.425158936117 0.442864606824
160094310 0.425014398847 0.442807294651
160096065 0.425013715859 0.442566893431
160097820 0.425220599902 0.442768555834
160099575 0.425341832341 0.44276305978
160101330 0.425390239391 0.442815424956
160103085 0.425238887787 0.442576340295
160104840 0.425575706939 0.44278643232
160106595 0.425592268744 0.442711610079
160108350 0.425659323989 0.44275582482
160110105 0.425470628612 0.442527735069
160111860 0.425733889217 0.442685007309
160113615 0.425899436621 0.442718068023
160115370 0.426018764149 0.442849010361
160117125 0.425778267748 0.442655857546
160118880 0.426013491362 0.442632006599
160120635 0.426067181023 0.442726195647
160122390 0.42624191657 0.442770942311
160124145 0.425972507777 0.442507200302
160125900 0.426378074011 0.442575548453
160127655 0.426534525256 0.442649951289
160129410 0.4267080481 0.442776899043
160131165 0.426538261173 0.442639072285
160132920 0.426485090675 0.442508312357
160134675 0.426758029338 0.44265415411
160136430 0.426942295428 0.442743082176
160138185 0.426889892228 0.442623958682
160139940 0.426855428585 0.442441985662
160141695 0.4271120687 0.442562208525
160143450 0.427242922854 0.442610700373
160145205 0.427168336139 0.442688163039
160146960 0.42708399043 0.442404106655
160148715 0.427431054244 0.442580859523
160150470 0.427373427197 0.442539433425
160152225 0.427542663337 0.442537615887
160153980 0.427426801393 0.442354391351
160155735 0.427603282259 0.442389099416
160157490 0.427722575625 0.442370371939
160159245 0.427941284651 0.442468923972
160161000 0.427601827344 0.442311921621
160162755 0.428413518617 0.442409821268
160164510 0.42826025804 0.442493789107
160166265 0.427852026446 0.442226774685
160168020 0.427847403459 0.441836415928
160169775 0.428578042728 0.442215661529
160171530 0.428510300998 0.442368038905
160173285 0.428197645476 0.44220642296
160175040 0.428016874895 0.441812525156
160176795 0.428782186709 0.44215581848
160178550 0.428867271831 0.4424618741
160180305 0.428422599172 0.442200898595
160182060 0.428174703049 0.441777066577
160183815 0.428903859825 0.441981676972
160185570 0.429055212414 0.442363292514
160187325 0.428795439766 0.442264535508
160189080 0.428558738168 0.441869710617
160190835 0.429139796397 0.441920104328
160192590 0.429487589825 0.442350088337
160194345 0.429119141112 0.442212802729
160196100 0.428798395584 0.441916505043
160197855 0.429360820363 0.441869574651
160199610 0.429759476554 0.442252164194
160201365 0.429418460421 0.442240626527
160203120 0.429251732149 0.441975263418
160204875 0.429464587638 0.441720996816
160206630 0.430132033537 0.44220264463
160208385 0.429987899319 0.442302843315
160210140 0.429620069687 0.442038884253
160211895 0.429545524112 0.441707433268
160213650 0.430351739082 0.442100246158
160215405 0.430207686497 0.442251346811
160217160 0.429916637713 0.442118928312
160218915 0.429765772492 0.441686936697
160220670 0.430576115962 0.441998076519
160222425 0.430624819337 0.44228219464
160224180 0.430221651181 0.44211294567
160225935 0.42998079663 0.441665260316
160227690 0.430639380959 0.441930294995
160229445 0.430963133103 0.442220934168
160231200 0.43060792614 0.442093761325
160232955 0.430228771559 0.441631449399
160234710 0.430855363993 0.441718900105
160236465 0.431209764964 0.442124925928
160238220 0.430800585178 0.442107998222
160239975 0.430427211511 0.44162276726
160241730 0.430909940667 0.441587015997
160243485 0.431434206375 0.441949664916
160245240 0.431136206442 0.441939253614
160246995 0.43093265826 0.441737177154
160248750 0.430953442071 0.441474084595
160250505 0.431617728297 0.441845492307
160252260 0.43146152152 0.441911818967
160254015 0.431181433292 0.441695930813
160255770 0.431169621656 0.441396561597
160257525 0.431936423166 0.441725086241
160259280 0.43189454171 0.441883184741
160261035 0.431577981639 0.44174384952
160262790 0.431371133232 0.441245591897
160264545 0.432209772462 0.441572285637
160266300 0.432225932393 0.441804466463
160268055 0.43182446287 0.44164498183
160269810 0.431635786325 0.441185210332
160271565 0.432355708842 0.441400124756
160273320 0.432646201948 0.441743144373
160275075 0.432210727491 0.441597386284
160276830 0.431909148373 0.441122988278
160278585 0.432528432702 0.44123306432
160280340 0.432950628216 0.441622698527
160282095 0.432501379 0.441570960853
160283850 0.432214043594 0.441143820831
160285605 0.432677671174 0.441096707663
160287360 0.43321357334 0.441565727432
160289115 0.432868229165 0.441553026827
160290870 0.43252125315 0.441304868692
160292625 0.432729734331 0.441036914677
160294380 0.433497300679 0.441538941682
160296135 0.433183738429 0.441599156801
160297890 0.432828269438 0.441362253469
160299645 0.432858403432 0.441011982444
160301400 0.433581853894 0.441426583908
160303155 0.43346832556 0.441576180082
160304910 0.433275701385 0.441452006749
160306665 0.432933236509 0.441001913138
160308420 0.433886174482 0.441362378587
160310175 0.43378641028 0.441614181611
160311930 0.433495443907 0.441455792432
160313685 0.433231699525 0.441038585918
160315440 0.434021415034 0.441226514113
160317195 0.434439911903 0.441606928624
160318950 0.433878210561 0.441627583215
160320705 0.433585723269 0.440910723792
160322460 0.434207736616 0.441153589083
160324215 0.43450082959 0.441576099558
160325970 0.43419175997 0.441470455378
160327725 0.433932336593 0.441135523826
160329480 0.434017804264 0.441445016467
160331235 0.434809910068 0.441402236218
160332990 0.434596063954 0.441550554041
160334745 0.434272751849 0.441334429184
160336500 0.434289420569 0.441013587204
160338255 0.434262408984 0.441004623512
160340010 0.434806812547 0.441163128836
160341765 0.435092601228 0.441553607462
160343520 0.434765717729 0.441473788992
160345275 0.434355223307 0.441015949348
160347030 0.435041350765 0.441081234342
160348785 0.435365685759 0.441393998964
160350540 0.435123665271 0.441392676173
160352295 0.43474654675 0.440965960045
160354050 0.435198146154 0.440981651976
160355805 0.435802410094 0.441304816197
160357560 0.435554637126 0.441389334176
160359315 0.435151480411 0.440970828795
160361070 0.435577653287 0.440932530704
160362825 0.436031369372 0.441199950823
160364580 0.435968813586 0.441270380904
160366335 0.435719989408 0.441016578613
160368090 0.435686121149 0.440848162083
160369845 0.436371321807 0.441072018473
160371600 0.436376950435 0.44128271813
160373355 0.435940206164 0.44104148637
160375110 0.435961124403 0.440797305224
160376865 0.436584970394 0.440997567898
160378620 0.436659531054 0.441297843973
160380375 0.436343326106 0.441158081749
160382130 0.436022104904 0.440735286028
160383885 0.436645859255 0.440891396495
160385640 0.436864213785 0.441241436991
160387395 0.436583356339 0.441154395284
160389150 0.436231878346 0.440772070025
160390905 0.436919852952 0.440843258594
160392660 0.437157931141 0.44113765128
160394415 0.436913522384 0.441140397385
160396170 0.43651871556 0.440769819149
160397925 0.436956020474 0.440724252499
160399680 0.437465925746 0.441166290119
160401435 0.437273955144 0.441176807617
160403190 0.436797044074 0.440801908221
160404945 0.437135759905 0.440651156287
160406700 0.437631236932 0.440951476516
160408455 0.43760215238 0.441080693707
160410210 0.437160043283 0.440850166346
160411965 0.437274338636 0.440604424836
160413720 0.437890039374 0.440846011779
160415475 0.437833660155 0.441030287455
160417230 0.437398758879 0.440790619028
160418985 0.437377256249 0.440577503539
160420740 0.438044499933 0.440705859856
160422495 0.438184409601 0.440994233942
160424250 0.437808894803 0.440860746807
160426005 0.437560967098 0.440524394061
160427760 0.438229138899 0.440613668911
160429515 0.438505957226 0.441012529307
160431270 0.437946589216 0.440668371682
160433025 0.437775071249 0.440483810923
160434780 0.438451725285 0.440535356155
160436535 0.438771903843 0.440910443542
160438290 0.43858789561 0.440973633648
160440045 0.438155687026 0.44054066721
160441800 0.438585639877 0.440493156014
160443555 0.439178393745 0.440852275101
160445310 0.438955383812 0.440988789126
160447065 0.438574664225 0.440654286037
160448820 0.438794883246 0.440440822603
160450575 0.439370895361 0.440750399712
160452330 0.439308632151 0.440797763533
160454085 0.438910783672 0.440589321543
160455840 0.438978909805 0.440407437455
160457595 0.439577599987 0.440687102496
160459350 0.439585806555 0.440806366313
160461105 0.439170680433 0.440621650946
160462860 0.439088776346 0.440309498677
160464615 0.43974697329 0.440528943405
160466370 0.439808727189 0.440727134044
160468125 0.439407382113 0.440694433266
160469880 0.439153699815 0.440152707404
160471635 0.439810404108 0.440421069352
160473390 0.440149553428 0.440735526744
160475145 0.439788446763 0.440615706791
160476900 0.439468899705 0.440239817848
160478655 0.439987230848 0.440238400666
160480410 0.440309496105 0.440507496055
160482165 0.440123523006 0.440595836308
160483920 0.439740801048 0.440110568618
160485675 0.440126798081 0.440107561471
160487430 0.440731393229 0.440436603521
160489185 0.440363184397 0.44053137012
160490940 0.439927938895 0.44015922506
160492695 0.440397841549 0.440067066888
160494450 0.440934555979 0.440304675891
160496205 0.440686917057 0.44039881098
160497960 0.440229792931 0.440051290775
160499715 0.440436736396 0.439950570023
160501470 0.441147171609 0.440231282027
160503225 0.440974217349 0.440362482168
160504980 0.440598860038 0.440241272404
160506735 0.440556112841 0.439946729113
160508490 0.441186066307 0.440121686678
160510245 0.441196054487 0.440292240459
160512000 0.440954203911 0.440292423023
160513755 0.440990723617 0.440182898283
160515510 0.440646542892 0.440090097472
160517265 0.440770512849 0.439947288961
160519020 0.440957029767 0.43995346977
160520775 0.441316900801 0.440157780348
160522530 0.441040376873 0.440117883462
160524285 0.441103950292 0.43990734443
160526040 0.441330551423 0.439929728297
160527795 0.441748071376 0.440094081509
160529550 0.441371608097 0.440149416188
160531305 0.441461643947 0.440032332513
160533060 0.441510695441 0.439889295688
160534815 0.441992937147 0.440176351193
160536570 0.441743935243 0.440183085245
160538325 0.441643222328 0.440116748046
160540080 0.441737459729 0.439861747829
160541835 0.442243499176 0.440134441508
160543590 0.44210478797 0.440221305848
160545345 0.44189502977 0.440104294499
160547100 0.441909268876 0.439892461324
160548855 0.442324605893 0.440094561051
160550610 0.442932524396 0.439742715056
160552365 0.442092656183 0.440062714199
160554120 0.442239832181 0.439887723869
160555875 0.442662370588 0.440113201064
160557630 0.442815897229 0.440253105601
160559385 0.4424969295 0.44011859721
160561140 0.442531857091 0.439897078863
160562895 0.442797095245 0.439976004396
160564650 0.443127707219 0.440122673051
160566405 0.442749904414 0.44002789612
160568160 0.442801388779 0.439894564891
160569915 0.443042139274 0.439808945387
160571670 0.443497308201 0.440111781003
160573425 0.443110833205 0.440046650894
160575180 0.442955019757 0.439892238958
160576935 0.443108519208 0.439448309112
160578690 0.443700159992 0.440023365302
160580445 0.443448416248 0.440051720338
160582200 0.443325141532 0.439881079362
160583955 0.443507503435 0.439658564961
160585710 0.443970065906 0.439872348827
160587465 0.443828649409 0.440020006827
160589220 0.443591506805 0.43985205048
160590975 0.44369332795 0.439648851421
160592730 0.444035404723 0.439852254098
160594485 0.444111272852 0.439978758239
160596240 0.443818171823 0.439850747455
160597995 0.443867553367 0.439606928377
160599750 0.44433220591 0.439740512425
160601505 0.444448198104 0.439947119777
160603260 0.443742023465 0.439691436266
160605015 0.443774898315 0.439529768729
160606770 0.443754468664 0.439398559763
160608525 0.443836381341 0.439510135036
160610280 0.443234556687 0.439276646464
160612035 0.443019174022 0.439054071141
160613790 0.443081892113 0.438999176247
160615545 0.44333455061 0.439056869881
160617300 0.442741251364 0.438961854673
160619055 0.442601474615 0.438732964366
160620810 0.442406179632 0.438493810637
160622565 0.442727179586 0.438622869998
160624320 0.442355995565 0.438579662667
160626075 0.442008420877 0.438349926693
160627830 0.441844367787 0.437977567882
160629585 0.442171765609 0.438066535796
160631340 0.442215109548 0.438330854813
160633095 0.442204669255 0.43823325307
160634850 0.442448537102 0.438113596369
160636605 0.443152726363 0.438387642969
160638360 0.443346905611 0.438618906924
160640115 0.443265511084 0.438609295385
160641870 0.443636332499 0.43855064216
160643625 0.444132762488 0.438637621233
160645380 0.444503175458 0.438895144993
160647135 0.444377889567 0.438883671574
160648890 0.444761431925 0.438847784473
160650645 0.445255098858 0.438960530758
160652400 0.445763863357 0.439238357513
160654155 0.445624780342 0.439213971873
160655910 0.44586409788 0.439170624138
160657665 0.446195011749 0.43915835297
160659420 0.44680608397 0.439417518479
160661175 0.446441343817 0.439457332453
160662930 0.446489146917 0.439298305497
160664685 0.446559875898 0.439163966906
160666440 0.447033513799 0.439390015307
160668195 0.446854813002 0.439440436442
160669950 0.446724437803 0.439268944351
160671705 0.446817542248 0.439077432017
160673460 0.447378321642 0.439292433353
160675215 0.447178049407 0.439389518552
160676970 0.446987133808 0.439210479984
160678725 0.447037027333 0.439037244228
160680480 0.448146081313 0.439244073863
160682235 0.447605859474 0.439347563933
160683990 0.447238592151 0.439126498832
160685745 0.447300200222 0.438988998769
160687500 0.447754145674 0.439042221196
160689255 0.447504151455 0.438812106242
160691010 0.448010538424 0.438837018998
160692765 0.448205614924 0.439066018209
160694520 0.447872184921 0.439134304272
160696275 0.447724590455 0.438851073552
160698030 0.448203739127 0.438878487376
160699785 0.448385151542 0.438993275537
160701540 0.448168352577 0.438988225163
160703295 0.448014863571 0.438656816425
160705050 0.448309796096 0.43868981571
160706805 0.44862854018 0.438952903766
160708560 0.448539662196 0.438917526509
160710315 0.448029340112 0.438747690283
160712070 0.448404751968 0.438663907862
160713825 0.448724418348 0.439028496698
160715580 0.448645757235 0.439056513454
160717335 0.448250618974 0.438908565118
160719090 0.448494528375 0.438744992869
160720845 0.448843253884 0.438803023449
160722600 0.448868789139 0.438928232307
160724355 0.448391288928 0.438819568143
160726110 0.448604701027 0.438578259235
160727865 0.448995835279 0.438649354898
160729620 0.44908662209 0.438622240047
160731375 0.448774295828 0.438537763749
160733130 0.448711530777 0.438338551489
160734885 0.44923567051 0.438149257821
160736640 0.449474121167 0.438474316678
160738395 0.449165668475 0.438554586456
160740150 0.449015464628 0.43818687423
160741905 0.44957875658 0.438133826193
160743660 0.449751717161 0.438382018772
160745415 0.449645053167 0.438365993351
160747170 0.449348293401 0.438089363459
160748925 0.449837373663 0.437991906859
160750680 0.450267363696 0.438333129629
160752435 0.450210412688 0.438410376568
160754190 0.44969341867 0.43815648362
160755945 0.450218289371 0.438059718886
160757700 0.450617526539 0.438363182534
160759455 0.450547460813 0.438495347349
160761210 0.450087570532 0.43828225881
160762965 0.45045374159 0.438147637325
160764720 0.450880887011 0.438247686937
160766475 0.450902977186 0.438458647197
160768230 0.450351216023 0.438329161415
160769985 0.450558615581 0.438194578976
160771740 0.45098164443 0.438292197654
160773495 0.451070794302 0.438511546963
160775250 0.450670021485 0.438400974429
160777005 0.450591891622 0.438139743739
160778760 0.450987136336 0.438126974254
160780515 0.451290209409 0.438375081486
160782270 0.450796370701 0.438344507336
160784025 0.450551914864 0.438025325799
160785780 0.451073802185 0.437989155711
160787535 0.451346027246 0.438252115889
160789290 0.451067449415 0.438201272829
160791045 0.450852023683 0.437921196427
160792800 0.451313138425 0.437856366991
160794555 0.451628298633 0.438069601217
160796310 0.451524694365 0.438174445226
160798065 0.451059778286 0.437876770415
160799820 0.45156404169 0.437751082742
160801575 0.452006506839 0.437928882082
160803330 0.45191518522 0.437979140974
160805085 0.451594480612 0.437829143074
160806840 0.451888874587 0.437659991228
160808595 0.452363154839 0.437764466095
160810350 0.452384732433 0.437935450501
160812105 0.451951261335 0.437766599017
160813860 0.452103325204 0.437524228411
160815615 0.452622022588 0.437637580055
160817370 0.452641916026 0.437797063051
160819125 0.452362167603 0.437781511352
160820880 0.452242308212 0.437555527092
160822635 0.452628863844 0.437499125138
160824390 0.452847824589 0.437704067673
160826145 0.45257536369 0.437791510001
160827900 0.452244610112 0.437421787461
160829655 0.4526829267 0.437444275517
160831410 0.452942529358 0.437678732534
160833165 0.452698106482 0.437546958574
160834920 0.452339689791 0.437120902148
160836675 0.45277005865 0.436921672612
160838430 0.453172185476 0.437011859288
160840185 0.453025125148 0.436930251505
160841940 0.452337100099 0.436494516552
160843695 0.453073324361 0.436360477212
160845450 0.453373220088 0.43633026634
160847205 0.453204942258 0.436304982164
160848960 0.452878558574 0.435947949882
160850715 0.453156175177 0.435701388691
160852470 0.453707341206 0.435619409464
160854225 0.453779315656 0.435721567218
160855980 0.453357883593 0.435427228312
160857735 0.453528249013 0.435074910615
160859490 0.454069199621 0.434985316823
160861245 0.454067191328 0.435146967558
160863000 0.453754793978 0.43539037516
160864755 0.454048409019 0.435479888376
160866510 0.453949153654 0.435426317949
160868265 0.454395555546 0.435637183316
160870020 0.454707990935 0.435849906781
160871775 0.454288270985 0.436147981313
160873530 0.454951345035 0.436410513149
160875285 0.454420415803 0.436154025647
160877040 0.454915607282 0.436392830927
160878795 0.454410254837 0.436669906624
160880550 0.454187758339 0.436652249203
160882305 0.454366769857 0.436493769327
160884060 0.455011751312 0.436887975208
160885815 0.454779625101 0.437218678397
160887570 0.454368267979 0.437174294721
160889325 0.454545373251 0.43702576444
160891080 0.455256962683 0.437330130137
160892835 0.455209211968 0.437431794087
160894590 0.454751430961 0.43724044169
160896345 0.454714252246 0.436991249591
160898100 0.45553488211 0.437117616387
160899855 0.455570697726 0.437348841162
160901610 0.455070025132 0.437231091455
160903365 0.455146121731 0.437078522099
160905120 0.455890109141 0.437102534039
160906875 0.456011011821 0.437356186705
160908630 0.455551551269 0.437224146478
160910385 0.45551816283 0.437003837526
160912140 0.456088962575 0.437008491702
160913895 0.456521664632 0.437187008937
160915650 0.455990862523 0.437198196413
160917405 0.455902008552 0.43702791595
160919160 0.456122941398 0.436877923472
160920915 0.456683158705 0.437067879464
160922670 0.456292801033 0.437168052774
160924425 0.455855262106 0.436939472858
160926180 0.456192060487 0.436773394815
160927935 0.45676132048 0.43695243963
160929690 0.456377829705 0.437090812959
160931445 0.455893222412 0.436872827288
160933200 0.456178744706 0.436721698815
160934955 0.456859147742 0.436956288337
160936710 0.456664814814 0.437094074756
160938465 0.456144816699 0.436906973925
160940220 0.456328403307 0.436651266113
160941975 0.456945099374 0.436714524407
160943730 0.456947599873 0.436927763578
160945485 0.456441646842 0.436816202075
160947240 0.456441066874 0.436594473927
160948995 0.457130680466 0.436703660274
160950750 0.457332579481 0.436892903409
160952505 0.456789622438 0.43679947373
160954260 0.456796465418 0.436585927097
160956015 0.457261497733 0.436569938977
160957770 0.457706029105 0.436713187874
160959525 0.457216044519 0.436725482289
160961280 0.457085473288 0.436621359071
160963035 0.457437896509 0.436476287834
160964790 0.458021821603 0.436677531838
160966545 0.457492212621 0.436831403866
160968300 0.457434236446 0.436619883388
160970055 0.457715338422 0.436359355484
160971810 0.45823037875 0.436530553108
160973565 0.45791460524 0.436758424577
160975320 0.457575500832 0.436565032803
160977075 0.457765888452 0.436337272536
160978830 0.45848147947 0.436574878799
160980585 0.45828779338 0.436780941946
160982340 0.457774092984 0.43652617725
160984095 0.457826887954 0.436225648372
160985850 0.458475391917 0.436391177559
160987605 0.458565844956 0.436547018859
160989360 0.458036319599 0.436467727375
160991115 0.457992652905 0.436250684664
160992870 0.45868418636 0.436359029951
160994625 0.458915884346 0.4365005997
160996380 0.458237529039 0.4365120031
160998135 0.458261349375 0.436234554248
160999890 0.458704930351 0.436161808847
161001645 0.459109324427 0.436319344614
161003400 0.458647083908 0.436383524625
161005155 0.458428973638 0.436208010015
161006910 0.458816110012 0.436126812334
161008665 0.459339004616 0.436275860892
161010420 0.458985982539 0.436378574556
161012175 0.4586941819 0.436302083272
161013930 0.458913225631 0.435992942448
161015685 0.459631558683 0.436157862339
161017440 0.459353822929 0.436350155497
161019195 0.459018154347 0.436207245843
161020950 0.459176175731 0.436043983844
161022705 0.459857762196 0.436200307634
161024460 0.459788092276 0.436405910766
161026215 0.459365535572 0.436182002144
161027970 0.459376485065 0.435917383844
161029725 0.460099786943 0.436064052308
161031480 0.460227025512 0.436271729629
161033235 0.459754055452 0.436200980576
161034990 0.459691099568 0.435975176217
161036745 0.460346801482 0.436059661619
161038500 0.460546216296 0.436247344333
161040255 0.460043630496 0.436346127743
161042010 0.460172686563 0.436522028095
161043765 0.459537430162 0.43635466075
161045520 0.459841882273 0.436182326666
161047275 0.460235137534 0.436329440918
161049030 0.460357517718 0.436345534185
161050785 0.459974226574 0.436382435314
161052540 0.459942537984 0.436124739868
161054295 0.460493421249 0.436252667159
161056050 0.46067990948 0.436448129603
161057805 0.460257054781 0.43635500502
161059560 0.460229546999 0.436200386576
161061315 0.460654382679 0.435973754273
161063070 0.461070516331 0.436268734287
161064825 0.460703204749 0.436316554524
161066580 0.460494010063 0.436149575788
161068335 0.460811591205 0.436027215404
161070090 0.461242691527 0.43619222761
161071845 0.461050828801 0.436252658293
161073600 0.460768288599 0.436094378508
161075355 0.461066543045 0.435915959319
161077110 0.461467553304 0.436073695927
161078865 0.461346627257 0.436161731946
161080620 0.460928848806 0.43607876395
161082375 0.461201058552 0.435992193406
161084130 0.461677596325 0.436075224929
161085885 0.461591688947 0.436120719298
161087640 0.4610404942 0.436041541501
161089395 0.461310513364 0.435863870739
161091150 0.461658751124 0.43595000931
161092905 0.461789774411 0.436064172577
161094660 0.461340239312 0.436043918389
161096415 0.461356214037 0.435849001392
161098170 0.461893688094 0.435894572339
161099925 0.462180985845 0.436168924456
161101680 0.461621739436 0.43609402487
161103435 0.461629674612 0.435850540761
161105190 0.461931594099 0.435769399581
161106945 0.462416984488 0.435959425458
161108700 0.46200247707 0.435990723077
161110455 0.461832357818 0.435928717833
161112210 0.46223943491 0.435744298253
161113965 0.462733975571 0.435900464652
161115720 0.462323587932 0.436082922094
161117475 0.462096946654 0.435895037545
161119230 0.462466419309 0.435669386397
161120985 0.462904994397 0.435860902334
161122740 0.462813158319 0.435972046615
161124495 0.462462950235 0.435845463265
161126250 0.462686236402 0.435686430946
161128005 0.463157708452 0.435823389733
161129760 0.46309388991 0.435960495629
161131515 0.46264113075 0.435903448396
161133270 0.462809536262 0.435665972077
161135025 0.463257673139 0.435740066386
161136780 0.46343338373 0.435873630835
161138535 0.462921159473 0.435864285489
161140290 0.462928657882 0.435758570252
161142045 0.46343542705 0.435676862998
161143800 0.463662402399 0.435890458505
161145555 0.463216861977 0.435817308865
161147310 0.463102588822 0.435698794518
161149065 0.46343835624 0.435522375514
161150820 0.463798420656 0.435700514086
161152575 0.463445396505 0.435832095716
161154330 0.463301213515 0.43566200766
161156085 0.4636372489 0.435572939232
161157840 0.46404582292 0.435703828482
161159595 0.463855697412 0.435819853272
161161350 0.46344201769 0.43562652934
161163105 0.463778428041 0.43549628066
161164860 0.46430991022 0.435613623582
161166615 0.464273561995 0.435742339269
161168370 0.463887546761 0.435622444778
161170125 0.464108470566 0.435495955071
161171880 0.464576845065 0.435564145913
161173635 0.464698487907 0.435699155698
161175390 0.464137487719 0.435679233241
161177145 0.464343730705 0.435493894059
161178900 0.464761402191 0.43546371658
161180655 0.464932385324 0.435705236471
161182410 0.464487328485 0.435677206653
161184165 0.464548835876 0.435450123617
161185920 0.464984511448 0.435544964881
161187675 0.465256575694 0.435595638569
161189430 0.464769263995 0.435604837273
161191185 0.464674869599 0.435427041153
161192940 0.465166628924 0.435308632214
161194695 0.465513477954 0.435520863612
161196450 0.465159635765 0.435643720083
161198205 0.464957400626 0.43529791
161199960 0.465362594356 0.435306257794
161201715 0.465835934106 0.435504608917
161203470 0.465543705998 0.435548188296
161205225 0.465231066286 0.435420696585
161206980 0.465460110272 0.435177391503
161208735 0.465804483103 0.435281450866
161210490 0.465790287693 0.435474286715
161212245 0.465375792565 0.435384820122
161214000 0.465569644955 0.435145510166
161215755 0.46545717204 0.435272989448
161217510 0.465868028889 0.435175021563
161219265 0.466061176441 0.435383395452
161221020 0.465865597599 0.435402192068
161222775 0.465584329763 0.435249357535
161224530 0.466135260667 0.435039142362
161226285 0.466167832127 0.435255924766
161228040 0.466177471514 0.435251907732
161229795 0.465653702484 0.4350947053
161231550 0.466190797842 0.435042356714
161233305 0.466509184916 0.435204762522
161235060 0.466503811594 0.435305817308
161236815 0.46586483713 0.43505933696
161238570 0.466467730591 0.434993528911
161240325 0.466681575124 0.435066292782
161242080 0.466845427589 0.435187256693
161243835 0.466297409707 0.43519179569
161245590 0.466662758594 0.43503244049
161247345 0.466963596381 0.435013560506
161249100 0.467065307592 0.435256978165
161250855 0.466665056471 0.435136808343
161252610 0.466780206739 0.435025721298
161254365 0.467080637478 0.434883775204
161256120 0.467293479275 0.435179213792
161257875 0.466908939335 0.43523991537
161259630 0.466895545614 0.435019315404
161261385 0.467315381919 0.434941581195
161263140 0.467680855337 0.435176439231
161264895 0.467364388741 0.43523595781
161266650 0.467052878283 0.435055791668
161268405 0.467737721359 0.434859626303
161270160 0.467842144979 0.43516037459
161271915 0.467807880715 0.435127340052
161273670 0.467169191908 0.434950337933
161275425 0.467895578238 0.434897732049
161277180 0.468182511565 0.435096507856
161278935 0.4680711546 0.435056591409
161280690 0.467566800855 0.435028596022
161282445 0.468059589638 0.434828530755
161284200 0.468364470407 0.434961524107
161285955 0.468409807409 0.43501117561
161287710 0.467789801039 0.43498824678
161289465 0.46829353887 0.434875307721
161291220 0.468632304867 0.434877542086
161292975 0.468705831214 0.435065326841
161294730 0.468264776151 0.435015777911
161296485 0.468445441894 0.434786733158
161298240 0.468684524879 0.434704237803
161299995 0.46897901457 0.434917952634
161301750 0.468637790004 0.434971066357
161303505 0.468457414913 0.43478713202
161305260 0.468960731621 0.434658563766
161307015 0.469086017968 0.434891297832
161308770 0.468948322346 0.434885000075
161310525 0.468598295494 0.434708975704
161312280 0.469020923314 0.43455282129
161314035 0.46933047864 0.434823170159
161315790 0.46917769398 0.434770874217
161317545 0.468734689445 0.434683818232
161319300 0.469592036827 0.434573590006
161321055 0.469661881917 0.434756100591
161322810 0.469554538209 0.434737933081
161324565 0.469007536953 0.434635238728
161326320 0.469547965105 0.43444620389
161328075 0.469900890226 0.434602182349
161329830 0.46997674395 0.434705968185
161331585 0.46929245132 0.43463191035
161333340 0.469765921778 0.434473221916
161335095 0.470054938879 0.434430375348
161336850 0.470178117508 0.434664946665
161338605 0.469725992727 0.434702142209
161340360 0.46991719425 0.43440108473
161342115 0.470291687455 0.434250972688
161343870 0.470470757946 0.4345089711
161345625 0.470063766637 0.434645629702
161347380 0.470036917986 0.434402849599
161349135 0.470569310541 0.434311952997
161350890 0.470775797774 0.434498785916
161352645 0.470645260884 0.43459758027
161354400 0.470184348972 0.434382881102
161356155 0.470791794848 0.434221843824
161357910 0.471003986721 0.434441017754
161359665 0.470893687823 0.434506974765
161361420 0.470315379925 0.434352649884
161363175 0.47102852763 0.434257250634
161364930 0.471226856388 0.434386688502
161366685 0.471215582619 0.434495702258
161368440 0.470610828579 0.434303643469
161370195 0.471150272377 0.434253348709
161371950 0.471313601314 0.434274494419
161373705 0.471473756454 0.434353030572
161375460 0.470873814299 0.434307599116
161377215 0.471350675274 0.434208953651
161378970 0.471687398809 0.434164653076
161380725 0.471687558608 0.434390252289
161382480 0.471304071898 0.434333795235
161384235 0.471412349221 0.434168703972
161385990 0.471822304425 0.433984645832
161387745 0.471918784723 0.434251069855
161389500 0.471656629732 0.434254715973
161391255 0.471680586171 0.433946856048
161393010 0.471608293788 0.43381647265
161394765 0.471832520336 0.433714483185
161396520 0.472300726954 0.433848293076
161398275 0.472031725816 0.433933272752
161400030 0.472016523031 0.433804313254
161401785 0.472179414704 0.433700070362
161403540 0.472383943582 0.433677774263
161405295 0.472320722179 0.433807476593
161407050 0.472261958331 0.433716970791
161408805 0.472308907995 0.433666635552
161410560 0.472618061312 0.433624132617
161412315 0.472624761681 0.433716197779
161414070 0.472357901208 0.433814396412
161415825 0.47249860952 0.433598084251
161417580 0.472690559893 0.433596822611
161419335 0.472945211685 0.433657688105
161421090 0.472594127353 0.433750619215
161422845 0.472703221063 0.433577119865
161424600 0.472844799738 0.433514556654
161426355 0.473225588392 0.43369698516
161428110 0.472838348141 0.43375074025
161429865 0.472913519238 0.433554507681
161431620 0.473069371031 0.433566483677
161433375 0.473351956526 0.433593139246
161435130 0.473137080543 0.433650428329
161436885 0.473022746477 0.433495755138
161438640 0.473232902274 0.433448688975
161440395 0.473641546659 0.433512139969
161442150 0.473399967392 0.433696486937
161443905 0.473385119256 0.433574178322
161445660 0.47356415949 0.433463312748
161447415 0.473810440124 0.433464184627
161449170 0.473792213796 0.433565577228
161450925 0.473679626755 0.433604324885
161452680 0.473812803575 0.433449859566
161454435 0.474136580523 0.433450935847
161456190 0.474093967119 0.433591986004
161457945 0.473827354505 0.433629230413
161459700 0.474020907775 0.433473024041
161461455 0.474343017759 0.433475134538
161463210 0.474443906619 0.433542716469
161464965 0.474169978133 0.433623730597
161466720 0.47417888648 0.433417322816
161468475 0.474458314849 0.433409517987
161470230 0.474755956724 0.433519527856
161471985 0.474354307136 0.43353525967
161473740 0.474428027478 0.433369184411
161475495 0.474626873741 0.433312983235
161477250 0.47483038242 0.433342469455
161479005 0.474638808131 0.433400892869
161480760 0.474541554369 0.433317268572
161482515 0.47471042297 0.433169257143
161484270 0.475180488279 0.433246388325
161486025 0.474988239467 0.433294077572
161487780 0.474834819521 0.433231918484
161489535 0.474979026888 0.433164695598
161491290 0.475335986425 0.433052417281
161493045 0.475311747596 0.433168658507
161494800 0.475047251976 0.433287710759
161496555 0.475317304776 0.433025124323
161498310 0.47560943032 0.433009118553
161500065 0.475474039885 0.433166507844
161501820 0.475241646912 0.433178126651
161503575 0.475522194145 0.43305659986
161505330 0.475586867722 0.433020084108
161507085 0.475922995171 0.433087641678
161508840 0.475562664519 0.433216903899
161510595 0.475613569714 0.432984983914
161512350 0.47581948371 0.432968406707
161514105 0.476208654484 0.433098524264
161515860 0.475765287615 0.433193793465
161517615 0.475874191171 0.432986128878
161519370 0.476104527122 0.432980902034
161521125 0.476500811952 0.433065120643
161522880 0.476141721929 0.433100668797
161524635 0.476164367245 0.432974401944
161526390 0.47628347158 0.432929870558
161528145 0.476751647934 0.432885760756
161529900 0.476503934779 0.432998700008
161531655 0.476375325081 0.432897472022
161533410 0.476572323191 0.432767501445
161535165 0.476918355205 0.432748917588
161536920 0.476829075853 0.432883842982
161538675 0.476697965466 0.432887043894
161540430 0.476760936276 0.432595556694
161542185 0.477052974626 0.432708482377
161543940 0.477053550361 0.432945760175
161545695 0.476807677185 0.432818281806
161547450 0.476982356758 0.432685143193
161549205 0.477151354375 0.43263005351
161550960 0.477344000571 0.432694265426
161552715 0.477075059163 0.432799667948
161554470 0.477127422489 0.432622799626
161556225 0.477277969967 0.432640156809
161557980 0.477621430212 0.432761489491
161559735 0.47733103768 0.432834915077
161561490 0.477329126668 0.432638696387
161563245 0.477422758128 0.432640935799
161565000 0.47782456566 0.432558998229
