! Calibrated averaged scanner-service zoom
# Hz S RI R 50
470000000 0.634134723024 -0.444608094419
470010500 0.634259492114 -0.444543130483
470021000 0.634480489017 -0.444349053413
470031500 0.634291059299 -0.444213086254
470042000 0.634457464624 -0.44518899037
470052500 0.63424889029 -0.445381543972
470063000 0.633979448722 -0.444498408091
470073500 0.634276198389 -0.445317128575
470084000 0.634193456202 -0.444903994845
470094500 0.633745567361 -0.445151245525
470105000 0.633228569905 -0.444538824954
470115500 0.632915767167 -0.444836332015
470126000 0.633162810594 -0.444382130986
470136500 0.632533439067 -0.444389378949
470147000 0.63245233708 -0.445004379416
470157500 0.633261551053 -0.443261985652
470168000 0.634128749064 -0.443454131876
470178500 0.632656968342 -0.444959909796
470189000 0.632947776092 -0.444519041863
470199500 0.634113867497 -0.444956028876
470210000 0.633429214174 -0.444799456846
470220500 0.633955977785 -0.445107972934
470231000 0.633452597497 -0.446490204379
470241500 0.63447509371 -0.444156098499
470252000 0.634115888177 -0.444703838794
470262500 0.635630812597 -0.444989920718
470273000 0.633746982942 -0.445869783045
470283500 0.636163035508 -0.445403311475
470294000 0.633111080297 -0.44568718239
470304500 0.631520919291 -0.444861270715
470315000 0.632793665618 -0.445055251426
470325500 0.631758372536 -0.44572788063
470336000 0.632611864709 -0.446324933611
470346500 0.632092548609 -0.445939329086
470357000 0.631044002852 -0.445344067464
470367500 0.633378117575 -0.445547291982
470378000 0.632224492032 -0.446546521697
470388500 0.631991257884 -0.444691008003
470399000 0.630685892847 -0.443109681862
470409500 0.632647080059 -0.444962892826
470420000 0.632781971237 -0.444237381118
470430500 0.631973174396 -0.447603915379
470441000 0.631698425028 -0.446318945518
470451500 0.631920848081 -0.444941654266
470462000 0.63088436753 -0.446954554806
470472500 0.632596579745 -0.446655729582
470483000 0.631522891312 -0.444709686181
470493500 0.630968537019 -0.445572908344
470504000 0.630779336267 -0.444622118859
470514500 0.63129750984 -0.444840565788
470525000 0.632748600405 -0.445345081199
470535500 0.630425380716 -0.444383983749
470546000 0.631319658111 -0.445993421297
470556500 0.631170408164 -0.444907075347
470567000 0.63140340697 -0.446011956087
470577500 0.632024459131 -0.445019459485
470588000 0.630138543659 -0.44468614585
470598500 0.631172159214 -0.445833917836
470609000 0.63131743017 -0.445202131282
470619500 0.63083059002 -0.445859753745
470630000 0.63036789199 -0.4449121402
470640500 0.630569746646 -0.444309142138
470651000 0.630346356112 -0.445125209229
470661500 0.630635082763 -0.44533405136
470672000 0.630511340694 -0.444433206082
470682500 0.630284030518 -0.444784207388
470693000 0.629912874151 -0.445254583479
470703500 0.629611750701 -0.445412862983
470714000 0.630218074932 -0.444855320333
470724500 0.629543680558 -0.44462996731
470735000 0.629533334584 -0.444950672949
470745500 0.628732410917 -0.444818041024
470756000 0.629696148079 -0.444138819167
470766500 0.629426702358 -0.444711966675
470777000 0.629265323126 -0.444721093037
470787500 0.62963212843 -0.44533161478
470798000 0.630445993016 -0.445186942319
470808500 0.629987029436 -0.445652876635
470819000 0.629834241078 -0.444744241437
470829500 0.629028250823 -0.44537119522
470840000 0.628296335821 -0.445215502433
470850500 0.628683450327 -0.445136931508
470861000 0.629558128353 -0.445190856471
470871500 0.629910578363 -0.445233031928
470882000 0.629279900897 -0.445636131455
470892500 0.628771652167 -0.444764183229
470903000 0.628252254505 -0.445240522276
470913500 0.629084040727 -0.445417986842
470924000 0.628887947378 -0.446503760862
470934500 0.629036924024 -0.445167771194
470945000 0.628949341743 -0.444921971033
470955500 0.629028171549 -0.444641290125
470966000 0.62878881055 -0.444777728742
470976500 0.628611932576 -0.445398808855
470987000 0.628723911106 -0.445598286652
470997500 0.628474294155 -0.445984505359
471008000 0.628343589034 -0.445747789674
471018500 0.628495325288 -0.446066920943
471029000 0.627993660522 -0.445254612647
471039500 0.628016327244 -0.445078714944
471050000 0.627925423606 -0.445544640625
471060500 0.627765577421 -0.445392894537
471071000 0.627646607167 -0.445541987446
471081500 0.627815681519 -0.445666937292
471092000 0.627654981189 -0.445098506914
471102500 0.627894002432 -0.445523593761
471113000 0.627855024392 -0.446078263588
471123500 0.628165680848 -0.445955965533
471134000 0.628186455083 -0.44627533592
471144500 0.627744012593 -0.446499084836
471155000 0.627475443189 -0.446558331539
471165500 0.627457757944 -0.44693281335
471176000 0.626972881017 -0.446497633872
471186500 0.626703495988 -0.44669157088
471197000 0.627302398763 -0.446868235322
471207500 0.626640635364 -0.446911281976
471218000 0.626896486399 -0.446274442593
471228500 0.627379019845 -0.44643691577
471239000 0.62937707602 -0.451498597175
471249500 0.627509947577 -0.446064899774
471260000 0.627328984347 -0.445738165752
471270500 0.626851752325 -0.445886431757
471281000 0.626749867732 -0.445621977478
471291500 0.626828387773 -0.445831382912
471302000 0.626307495548 -0.447001257592
471312500 0.62619229247 -0.446497301305
471323000 0.62579847744 -0.445532844962
471333500 0.625601467134 -0.445721548713
471344000 0.626229435293 -0.445528573236
471354500 0.626338708873 -0.445487182622
471365000 0.626645217634 -0.445398559909
471375500 0.626862446534 -0.445874003446
471386000 0.626489027017 -0.445899404031
471396500 0.625629943309 -0.445592431618
471407000 0.625090631361 -0.445546918968
471417500 0.625309982037 -0.445991261119
471428000 0.62508355521 -0.44649429202
471438500 0.625089773895 -0.446402614857
471449000 0.624425027589 -0.446797508139
471459500 0.625006716242 -0.446474188006
471470000 0.625453001407 -0.446103352543
471480500 0.625232442865 -0.445548238165
471491000 0.625023216675 -0.445901446147
471501500 0.625578116333 -0.446052905112
471512000 0.625391600045 -0.44673834838
471522500 0.625039304645 -0.446951276846
471533000 0.624908866767 -0.446944093709
471543500 0.624727187733 -0.44693314283
471554000 0.624848836699 -0.4469581497
471564500 0.624295046657 -0.446715209719
471575000 0.624037979106 -0.446876788782
471585500 0.623784497636 -0.446305802639
471596000 0.623830410151 -0.446211081813
471606500 0.625161231582 -0.446460887678
471617000 0.625296492337 -0.446586940781
471627500 0.625344438166 -0.446334752184
471638000 0.624600211874 -0.446321770519
471648500 0.624651285576 -0.445453652054
471659000 0.623848666196 -0.446014027612
471669500 0.624405415713 -0.445591752197
471680000 0.624476225687 -0.44569634251
471690500 0.624535403842 -0.446070105132
471701000 0.623434593062 -0.446447776197
471711500 0.623994283445 -0.446447778177
471722000 0.623866574469 -0.446611380952
471732500 0.623817983422 -0.446143330299
471743000 0.623890346118 -0.445891290886
471753500 0.624081672698 -0.445750421791
471764000 0.624169872447 -0.444953720362
471774500 0.62440768701 -0.445247915375
471785000 0.62388642196 -0.445505556464
471795500 0.622832692773 -0.446447470788
471806000 0.623645172075 -0.446453015022
471816500 0.623188077793 -0.446462465558
471827000 0.623041376951 -0.446586280559
471837500 0.623715633469 -0.443341125189
471848000 0.623325861243 -0.446972511708
471858500 0.622697210177 -0.445882060649
471869000 0.623140058483 -0.445882035066
471879500 0.62336275986 -0.446234324322
471890000 0.622789922396 -0.446152460657
471900500 0.622461707026 -0.446054194712
471911000 0.62220653772 -0.447218891563
471921500 0.623001070343 -0.446939202273
471932000 0.624231484507 -0.447715986095
471942500 0.623838099452 -0.447925127029
471953000 0.622819843789 -0.447215168297
471963500 0.622250133291 -0.447497830947
471974000 0.621870102148 -0.446408486727
471984500 0.621442123667 -0.447132022351
471995000 0.621000096049 -0.446627964327
472005500 0.62161063288 -0.446785053717
472016000 0.621127064648 -0.446771713703
472026500 0.621630580307 -0.446355342354
472037000 0.621960050417 -0.446244258013
472047500 0.621648053916 -0.446695762309
472058000 0.622075557113 -0.446968083484
472068500 0.621542965185 -0.447143420788
472079000 0.62135452816 -0.447290356669
472089500 0.620652293649 -0.445155736076
472100000 0.6224337417 -0.447545623193
472110500 0.62237545426 -0.446422032253
472121000 0.621765008556 -0.446509838385
472131500 0.621611559043 -0.446828601958
472142000 0.621141103642 -0.445839450988
472152500 0.621220628319 -0.445137603037
472163000 0.621104880041 -0.444643531194
472173500 0.621256051266 -0.44510754136
472184000 0.621338426584 -0.446051543268
472194500 0.620929674701 -0.44705809789
472205000 0.620833956973 -0.446389021926
472215500 0.61959946691 -0.446075931018
472226000 0.619812652404 -0.445517611651
472236500 0.620183491244 -0.446087000185
472247000 0.620240536149 -0.445307024406
472257500 0.620426719013 -0.445776798848
472268000 0.620874106209 -0.446112805871
472278500 0.620270446922 -0.44641734086
472289000 0.620553751678 -0.445942700635
472299500 0.620746299844 -0.445976283981
472310000 0.620809670595 -0.446108613481
472320500 0.620657753615 -0.446376302655
472331000 0.620676567136 -0.446123447478
472341500 0.620048625219 -0.446208175024
472352000 0.619896075612 -0.446291122241
472362500 0.619942714165 -0.446108233396
472373000 0.619638601484 -0.446567094659
472383500 0.619151200149 -0.446724520424
472394000 0.619539835568 -0.446919656864
472404500 0.619274363573 -0.445672181666
472415000 0.619448599047 -0.446155104407
472425500 0.619442472557 -0.445967219525
472436000 0.620275593066 -0.446231293493
472446500 0.619420626952 -0.446058085574
472457000 0.619910036907 -0.446524623156
472467500 0.618682556843 -0.446279725681
472478000 0.618578633385 -0.446172675289
472488500 0.619424111717 -0.447031827067
472499000 0.618977029435 -0.446774130595
472509500 0.619275220318 -0.447155130094
472520000 0.618930258816 -0.4463657506
472530500 0.619034206071 -0.446877743608
472541000 0.618954891599 -0.446301351177
472551500 0.619298480904 -0.445720383103
472562000 0.61924772777 -0.445749767591
472572500 0.619403244854 -0.44561177728
472583000 0.618710233135 -0.445164217486
472593500 0.617508913401 -0.445606982469
472604000 0.618636292185 -0.446353582331
472614500 0.617952910223 -0.446213866992
472625000 0.6180232626 -0.446860688547
472635500 0.618579624485 -0.446760927727
472646000 0.618617740783 -0.446770113893
472656500 0.618260055787 -0.446240424147
472667000 0.618368692157 -0.446066343683
472677500 0.617984750134 -0.447012396222
472688000 0.618195849561 -0.447224912138
472698500 0.618226009221 -0.446429548359
472709000 0.617454600002 -0.446390172343
472719500 0.617644771681 -0.44707056646
472730000 0.617757671671 -0.447178869795
472740500 0.617970101741 -0.446964098264
472751000 0.617645622931 -0.44650534629
472761500 0.617371008642 -0.44688044729
472772000 0.617107573999 -0.446304114785
472782500 0.616939477685 -0.446510125531
472793000 0.616968854255 -0.446737294657
472803500 0.617069679194 -0.44679710381
472814000 0.6171033176 -0.446405858823
472824500 0.617137233544 -0.446546183115
472835000 0.616552420574 -0.446756023568
472845500 0.61691194184 -0.446573778691
472856000 0.616478500485 -0.446332924673
472866500 0.616597927375 -0.44622525037
472877000 0.616683302358 -0.446604315598
472887500 0.616739809708 -0.447059993891
472898000 0.616733032168 -0.446604657003
472908500 0.616331791959 -0.446364796155
472919000 0.616328544995 -0.447001058066
472929500 0.615917159932 -0.446943906974
472940000 0.615355173771 -0.447121775217
472950500 0.615809056327 -0.446693206146
472961000 0.615752190076 -0.446751289227
472971500 0.615704114388 -0.446423381437
472982000 0.615707979305 -0.446045175713
472992500 0.615109107437 -0.446613914375
473003000 0.615348982391 -0.446742679829
473013500 0.615372553677 -0.44659910586
473024000 0.615387693071 -0.445911745527
473034500 0.615533362845 -0.445775267135
473045000 0.615500720666 -0.445642038802
473055500 0.615334753876 -0.446017186825
473066000 0.615645333989 -0.445871417354
473076500 0.615523672844 -0.445229068359
473087000 0.615338594946 -0.44569330911
473097500 0.614927092074 -0.446142412123
473108000 0.615522382241 -0.446440533545
473118500 0.615285536414 -0.446450459641
473129000 0.615397915103 -0.446667382856
473139500 0.615226404853 -0.447232629232
473150000 0.614788959437 -0.44664918348
473160500 0.614296106789 -0.446426240097
473171000 0.613864233285 -0.445978505171
473181500 0.613556049728 -0.445953559464
473192000 0.614343739388 -0.446814899305
473202500 0.614113914218 -0.446693524064
473213000 0.614039040815 -0.446802851411
473223500 0.614259702966 -0.446360199299
473234000 0.614332176641 -0.446322633745
473244500 0.614321467984 -0.44592377381
473255000 0.61425495797 -0.445752191977
473265500 0.614014386088 -0.445598386352
473276000 0.614001809535 -0.446113794255
473286500 0.614106319575 -0.445988539161
473297000 0.614017421789 -0.445973889388
473307500 0.614504929736 -0.445949966996
473318000 0.61479722666 -0.446220882762
473328500 0.614111617926 -0.446191310734
473339000 0.614071138742 -0.44606529118
473349500 0.613782383926 -0.446065568032
473360000 0.613604694198 -0.445613174361
473370500 0.613999565104 -0.444893602516
473381000 0.613783024238 -0.445561841793
473391500 0.613470047198 -0.446553522516
473402000 0.613419827614 -0.446851738713
473412500 0.613730133346 -0.446886363025
473423000 0.613701657086 -0.447020176408
473433500 0.613885737719 -0.446361524574
473444000 0.614467242894 -0.44676436197
473454500 0.613817537836 -0.446500505257
473465000 0.614785053608 -0.446477527034
473475500 0.613317263149 -0.446400556813
473486000 0.612896090432 -0.446177962091
473496500 0.613477909504 -0.447071333468
473507000 0.612964015539 -0.446832311379
473517500 0.613345779542 -0.447290053485
473528000 0.613183024846 -0.447024972301
473538500 0.612595737946 -0.446386649115
473549000 0.612885037736 -0.446832530436
473559500 0.612148780035 -0.446563128087
473570000 0.612785642065 -0.447860623026
473580500 0.612298102636 -0.447195089015
473591000 0.613528830713 -0.447007672567
473601500 0.61281092502 -0.446207131925
473612000 0.6122387033 -0.447323804812
473622500 0.61209209461 -0.447356406363
473633000 0.611990759533 -0.447221792532
473643500 0.611594668216 -0.447061262193
473654000 0.611862797846 -0.446696354868
473664500 0.611316855043 -0.446777706933
473675000 0.611686148873 -0.446469247884
473685500 0.611963980708 -0.445871171246
473696000 0.611166120083 -0.446959674069
473706500 0.611497535371 -0.446515711614
473717000 0.61130200238 -0.446643398575
473727500 0.611665069959 -0.447294260109
473738000 0.611639081332 -0.44683927081
473748500 0.611916503426 -0.446296059315
473759000 0.611507190105 -0.446659043274
473769500 0.611231567407 -0.446239793112
473780000 0.610987000389 -0.446040658171
473790500 0.611476450692 -0.446082317732
473801000 0.611591597016 -0.446044535871
473811500 0.611209035482 -0.447100298208
473822000 0.610039845283 -0.446577816838
473832500 0.610869040674 -0.446715946419
473843000 0.61126891489 -0.446412882932
473853500 0.610105563431 -0.446190668167
473864000 0.609853034441 -0.446437877947
473874500 0.610428272028 -0.446484756185
473885000 0.610453096198 -0.446638837732
473895500 0.610467272931 -0.446186979509
473906000 0.610675306593 -0.446734796333
473916500 0.61067689992 -0.44741266637
473927000 0.611195405128 -0.447045232901
473937500 0.611604453509 -0.447040871644
473948000 0.612432767702 -0.446757079125
473958500 0.611114663162 -0.446507726981
473969000 0.610988266976 -0.44655134429
473979500 0.609794445715 -0.446304625141
473990000 0.609638107498 -0.446504170813
474000500 0.610610671329 -0.445742467366
474011000 0.609850221161 -0.44629104511
474021500 0.609867510666 -0.447052325917
474032000 0.609974958591 -0.447140346339
474042500 0.61030674311 -0.446831178393
474053000 0.609808823137 -0.4462889162
474063500 0.609392933973 -0.445774752442
474074000 0.609480200505 -0.446539043149
474084500 0.609564763453 -0.446838781546
474095000 0.609479503715 -0.447394090401
474105500 0.609512251095 -0.446702507966
474116000 0.610348766186 -0.446809134333
474126500 0.60999612888 -0.447157961319
474137000 0.60952435532 -0.446701164513
474147500 0.609262080064 -0.446164367845
474158000 0.609685643887 -0.446689810246
474168500 0.609267788263 -0.446805879318
474179000 0.609148043603 -0.447077698516
474189500 0.609414176151 -0.446842468558
474200000 0.609733474616 -0.445804450651
474210500 0.609315716838 -0.445552498792
474221000 0.608971973694 -0.446092023092
474231500 0.608821966866 -0.446842993198
474242000 0.60874241393 -0.446677365025
474252500 0.608155129018 -0.446839354842
474263000 0.608313819083 -0.446366231275
474273500 0.607991153968 -0.446859526543
474284000 0.609372504223 -0.447043948168
474294500 0.60760116179 -0.4466267073
474305000 0.608480799473 -0.445953332153
474315500 0.610544451855 -0.451252125438
474326000 0.607996769354 -0.447346558322
474336500 0.608138642702 -0.44783580529
474347000 0.607278792442 -0.447166458878
474357500 0.607586835577 -0.445969377232
474368000 0.607036729299 -0.446822460108
474378500 0.608927989236 -0.447718617183
474389000 0.609348840543 -0.445982194095
474399500 0.610358672906 -0.449403682843
474410000 0.606706999339 -0.447242434145
474420500 0.606052410925 -0.446356362436
474431000 0.609382615785 -0.443031052014
474441500 0.607180138188 -0.445946529383
474452000 0.606311601333 -0.444580132271
474462500 0.607434368765 -0.444657716314
474473000 0.60635704413 -0.446082687355
474483500 0.604376689834 -0.444518042197
474494000 0.606980677867 -0.445034919637
474504500 0.6083055735 -0.446950565159
474515000 0.608282093901 -0.447984011577
474525500 0.607714228857 -0.447346214683
474536000 0.60492948238 -0.44724509469
474546500 0.601859283141 -0.447047754542
474557000 0.607318718108 -0.448218492814
474567500 0.605315835666 -0.444725075391
474578000 0.607729895607 -0.446929438091
474588500 0.607111090765 -0.448068665452
474599000 0.606378200021 -0.446269324858
474609500 0.607013660985 -0.447023249589
474620000 0.605231167604 -0.447448255273
474630500 0.606753117762 -0.446610436197
474641000 0.606490189933 -0.446969167958
474651500 0.606714003553 -0.445518162066
474662000 0.606620232531 -0.446078682998
474672500 0.606182453394 -0.447316899292
474683000 0.606303480183 -0.445859172707
474693500 0.607265885849 -0.446200179636
474704000 0.606774633177 -0.44695418724
474714500 0.606652469073 -0.446252346899
474725000 0.605758484662 -0.446772242398
474735500 0.605736409904 -0.446327955129
474746000 0.605899396805 -0.446548537631
474756500 0.605619941386 -0.446569059998
474767000 0.60567215092 -0.446563652769
474777500 0.605790640731 -0.446295259843
474788000 0.60576198033 -0.446779987627
474798500 0.605876602114 -0.446682744976
474809000 0.605565996414 -0.446749042569
474819500 0.605104517178 -0.446822160689
474830000 0.604579415446 -0.446879295848
474840500 0.604687621704 -0.447075010381
474851000 0.60465899082 -0.446885842959
474861500 0.604766136847 -0.446909353449
474872000 0.604765150567 -0.446905804818
474882500 0.604437397222 -0.44680466049
474893000 0.604687122447 -0.446401877563
474903500 0.604654129117 -0.44647536444
474914000 0.604297315097 -0.446421435613
474924500 0.604468443245 -0.446703580116
474935000 0.604848045474 -0.446532248352
474945500 0.604323650059 -0.446727725392
474956000 0.603702097312 -0.446205266631
474966500 0.604183398837 -0.446514793236
474977000 0.603790951865 -0.446355821576
474987500 0.604492472387 -0.446363373274
474998000 0.604434822024 -0.446657010385
475008500 0.604690608187 -0.446556049843
475019000 0.604608280665 -0.446211627704
475029500 0.603791309647 -0.445756548177
475040000 0.604191348663 -0.446113327459
475050500 0.604223482791 -0.445448723345
475061000 0.604604668364 -0.445944270628
475071500 0.604064372978 -0.446134217635
475082000 0.603960024716 -0.446251734543
475092500 0.603346625425 -0.446003924745
475103000 0.603287845943 -0.44653436202
475113500 0.603064581154 -0.445946282687
475124000 0.602959019578 -0.44649639693
475134500 0.603185151213 -0.446310901062
475145000 0.602589013222 -0.44644357572
475155500 0.603100397856 -0.445839381741
475166000 0.602566172022 -0.446798724491
475176500 0.60253311472 -0.446230900279
475187000 0.602649434684 -0.445339266349
475197500 0.602331473546 -0.446022664921
475208000 0.60255066188 -0.445558619565
475218500 0.60278764552 -0.445761748828
475229000 0.602831635469 -0.446258239042
475239500 0.602512960093 -0.44645598075
475250000 0.602633483577 -0.446363635111
475260500 0.602240359599 -0.446253245063
475271000 0.602717828556 -0.446196168526
475281500 0.602066687797 -0.445751100978
475292000 0.601700278635 -0.445543021011
475302500 0.601992449669 -0.445828671859
475313000 0.602018534236 -0.445618985987
475323500 0.602196041942 -0.446138785803
475334000 0.601966776195 -0.446536239709
475344500 0.602035805433 -0.446203769502
475355000 0.602221284278 -0.446339806483
475365500 0.602230026164 -0.446580873825
475376000 0.602129006527 -0.44564020041
475386500 0.601690758361 -0.446103218417
475397000 0.601646803546 -0.447196917555
475407500 0.602454856437 -0.44686992956
475418000 0.601888724619 -0.447157199079
475428500 0.601990125688 -0.445942394295
475439000 0.601709277007 -0.445831603078
475449500 0.600678626887 -0.44563665008
475460000 0.601168330522 -0.446048495996
475470500 0.601547579837 -0.446370245982
475481000 0.601022304409 -0.445762430055
475491500 0.601093069326 -0.446140417114
475502000 0.601055015875 -0.44647587657
475512500 0.600840828446 -0.446345508373
475523000 0.600408205518 -0.447108771339
475533500 0.600388634632 -0.446705559939
475544000 0.600642351032 -0.446687625254
475554500 0.600335927987 -0.446565829929
475565000 0.6004105389 -0.446524973885
475575500 0.600791476008 -0.446629528714
475586000 0.600600038989 -0.446156837238
475596500 0.600443682099 -0.446403874077
475607000 0.600732459962 -0.446193545029
475617500 0.601101699597 -0.446575577567
475628000 0.600921500795 -0.446456470683
475638500 0.60054257924 -0.446125533171
475649000 0.599876657386 -0.446748520399
475659500 0.600770387745 -0.445890385302
475670000 0.601925171389 -0.445975702944
475680500 0.600758441659 -0.446401081723
475691000 0.600583954422 -0.446655106174
475701500 0.600190522779 -0.446823094794
475712000 0.599849643733 -0.446516977096
475722500 0.599995349069 -0.446261096583
475733000 0.599885141796 -0.445733263714
475743500 0.599133119735 -0.446403290756
475754000 0.599158197184 -0.446115837745
475764500 0.598428412718 -0.446132653901
475775000 0.598790111337 -0.445797925201
475785500 0.599245343921 -0.444851395263
475796000 0.599605018753 -0.445970581876
475806500 0.599364999107 -0.446118400775
475817000 0.599805424945 -0.446032805236
475827500 0.599235524541 -0.446257653708
475838000 0.598847092097 -0.446265751272
475848500 0.59937418766 -0.446145431005
475859000 0.599088923531 -0.445319215044
475869500 0.59919612022 -0.445566654946
475880000 0.598923672023 -0.446410727548
475890500 0.599023074534 -0.445706745512
475901000 0.598686860933 -0.446598304552
475911500 0.598978752843 -0.446198097578
475922000 0.598939242541 -0.446434860063
475932500 0.599036310483 -0.446325218145
475943000 0.598803703524 -0.446488834878
475953500 0.59831929328 -0.446277468298
475964000 0.597381342707 -0.446111911352
475974500 0.598120939266 -0.446316126602
475985000 0.598003206333 -0.446464168378
475995500 0.598453536056 -0.446513170453
476006000 0.597686758316 -0.445957620553
476016500 0.59794498187 -0.445946934577
476027000 0.597969705355 -0.445784326167
476037500 0.598179010669 -0.445901576674
476048000 0.597826299299 -0.445645652452
476058500 0.598145664259 -0.445703468249
476069000 0.597837671037 -0.445691314041
476079500 0.597753805742 -0.445546762659
476090000 0.597956513393 -0.445318495071
476100500 0.598090559311 -0.445682375599
476111000 0.597648895638 -0.445220410284
476121500 0.597429246316 -0.444148745739
476132000 0.598040119154 -0.445199106484
476142500 0.59877196317 -0.445716267697
476153000 0.598511371865 -0.445940232177
476163500 0.597766900574 -0.445187332496
476174000 0.598611167374 -0.445559852298
476184500 0.59808879976 -0.445435092168
476195000 0.597907562431 -0.445519556323
476205500 0.598005237423 -0.4455437463
476216000 0.597608757041 -0.445553144525
476226500 0.598429594803 -0.445985731499
476237000 0.598076142603 -0.445617635636
476247500 0.59746006785 -0.445644191786
476258000 0.596910072937 -0.44631400728
476268500 0.596287074538 -0.446118017492
476279000 0.596210162096 -0.445956591075
476289500 0.596733446968 -0.445976769733
476300000 0.596120173534 -0.446898801601
476310500 0.596630706222 -0.446909523583
476321000 0.596668780536 -0.446044377882
476331500 0.595438527711 -0.44548072946
476342000 0.595705373748 -0.446717351614
476352500 0.596570348381 -0.445641925387
476363000 0.596610874216 -0.446190180575
476373500 0.59616276288 -0.446076208541
476384000 0.595641214637 -0.44623177368
476394500 0.59553719204 -0.446009105912
476405000 0.595411195438 -0.44632466751
476415500 0.595557996708 -0.445877639058
476426000 0.596148621979 -0.445747251444
476436500 0.596424975427 -0.445589536891
476447000 0.596399915457 -0.445333360682
476457500 0.595899204058 -0.445996487294
476468000 0.596063579728 -0.445989399281
476478500 0.596235010482 -0.44600864423
476489000 0.595754598363 -0.445417487878
476499500 0.595530484693 -0.445591895175
476510000 0.594978737763 -0.445287392078
476520500 0.594772668425 -0.445396489755
476531000 0.594958546813 -0.44522736791
476541500 0.594479707443 -0.445606979157
476552000 0.594540505762 -0.445105109332
476562500 0.595272565481 -0.44598428989
476573000 0.594333442466 -0.445350499221
476583500 0.594875274598 -0.445696778004
476594000 0.594926461458 -0.445053237978
476604500 0.595033244763 -0.446177092967
476615000 0.595594527955 -0.446334843806
476625500 0.592448369578 -0.445666156079
476636000 0.596076591052 -0.452200833002
476646500 0.582180024328 -0.444612286129
476657000 0.580132714411 -0.443593718672
476667500 0.590071173169 -0.447734391729
476678000 0.595279744039 -0.447050021311
476688500 0.594449440768 -0.445002066043
476699000 0.595796973 -0.446213783622
476709500 0.5945774636 -0.444852984194
476720000 0.594909460728 -0.445188397962
476730500 0.595302493012 -0.445011969383
476741000 0.594703051426 -0.44489878759
476751500 0.594135842669 -0.44514282309
476762000 0.593763659212 -0.445616951891
476772500 0.593426078672 -0.44629073231
476783000 0.593823816056 -0.446360581391
476793500 0.594197167166 -0.446532927313
476804000 0.593904647199 -0.446396578756
476814500 0.594412588509 -0.446108077382
476825000 0.593761818232 -0.445910235363
476835500 0.59422160889 -0.445476240302
476846000 0.593993666052 -0.445739856066
476856500 0.593869449358 -0.445747377056
476867000 0.59415668331 -0.445587550116
476877500 0.594187237183 -0.445414419264
476888000 0.5937849442 -0.445762777025
476898500 0.594279373636 -0.445806789431
476909000 0.594657076634 -0.44543268418
476919500 0.593476586759 -0.445775777136
476930000 0.593175986197 -0.445595622019
476940500 0.593462231138 -0.445724327407
476951000 0.593353797733 -0.445427190983
476961500 0.59291623274 -0.445817982038
476972000 0.593258525385 -0.446114535799
476982500 0.592908334922 -0.445913460332
476993000 0.592623067588 -0.44598911604
477003500 0.59264704416 -0.445747843072
477014000 0.592454495724 -0.445304354848
477024500 0.592697108893 -0.445417050123
477035000 0.592482589084 -0.445735692944
477045500 0.592159126577 -0.445406020788
477056000 0.5920311695 -0.445446025933
477066500 0.592121469326 -0.445685382496
477077000 0.592692569033 -0.445163939432
477087500 0.592682085499 -0.445296315923
477098000 0.592055441627 -0.445265869124
477108500 0.592771232299 -0.44620084257
477119000 0.592174720124 -0.445437178429
477129500 0.592455492428 -0.446461216227
477140000 0.59175209981 -0.445349461602
477150500 0.592104095706 -0.445785502895
477161000 0.592557007242 -0.445367213748
477171500 0.591052043065 -0.445797947975
477182000 0.591259464451 -0.446545909196
477192500 0.590893986703 -0.446389942691
477203000 0.590492136816 -0.446563088377
477213500 0.59128730196 -0.446140486353
477224000 0.590821407488 -0.445051715506
477234500 0.590430158084 -0.445180951598
477245000 0.591374299471 -0.446044688777
477255500 0.591215304749 -0.445668853954
477266000 0.591519062989 -0.445657674386
477276500 0.591081936945 -0.445833237172
477287000 0.591692768568 -0.445179592095
477297500 0.591762321869 -0.445476590244
477308000 0.590688070751 -0.445706757762
477318500 0.591271431154 -0.44571736492
477329000 0.590446383332 -0.445460610462
477339500 0.590353055554 -0.445092744489
477350000 0.590532770042 -0.446142847344
477360500 0.591129005698 -0.446001898278
477371000 0.591563268084 -0.445108262971
477381500 0.590997490345 -0.445280322309
477392000 0.59150499406 -0.445632474059
477402500 0.588839582868 -0.44728990313
477413000 0.590499365372 -0.445367357987
477423500 0.590247977818 -0.445884803102
477434000 0.589725524146 -0.445013379112
477444500 0.589915838045 -0.443726922121
477455000 0.59086025006 -0.445914526962
477465500 0.591168233362 -0.444693806589
477476000 0.590782125104 -0.446169120259
477486500 0.589518635308 -0.445937033691
477497000 0.589064422182 -0.44488119359
477507500 0.588285918025 -0.445267550565
477518000 0.588836864021 -0.444581831667
477528500 0.590279775472 -0.44531381779
477539000 0.589070938375 -0.445563908593
477549500 0.588877863289 -0.446341603537
477560000 0.59060000417 -0.446227893164
477570500 0.589528754336 -0.443668363825
477581000 0.590802235786 -0.443682639132
477591500 0.588321142529 -0.44466340953
477602000 0.592449054132 -0.445018548925
477612500 0.59001982419 -0.44669843318
477623000 0.590738165737 -0.444733422509
477633500 0.591648686794 -0.444950778523
477644000 0.589275527525 -0.446245729793
477654500 0.589554953959 -0.443692018779
477665000 0.589873899594 -0.445230816918
477675500 0.58861880896 -0.444284627045
477686000 0.590985825829 -0.444478931946
477696500 0.586209108606 -0.445392234708
477707000 0.590503858458 -0.445098574614
477717500 0.589622531053 -0.445028681641
477728000 0.589333618211 -0.446004182097
477738500 0.587196228206 -0.444285135353
477749000 0.589294010052 -0.444133431983
477759500 0.58873832888 -0.444108120503
477770000 0.587302052366 -0.443746899214
477780500 0.589187238424 -0.445941259129
477791000 0.588007210523 -0.446273771565
477801500 0.587498156489 -0.445595959788
477812000 0.588623220902 -0.446887515461
477822500 0.5885246431 -0.445757267202
477833000 0.587231751073 -0.446123587443
477843500 0.587966085922 -0.446493934279
477854000 0.587949862788 -0.445058664826
477864500 0.58650851872 -0.445079498994
477875000 0.587439487552 -0.446260816564
477885500 0.585950015303 -0.444957391361
477896000 0.586597104583 -0.445713663062
477906500 0.587375231854 -0.446023124389
477917000 0.588544016118 -0.445568190519
477927500 0.58702656876 -0.444924503616
477938000 0.58714500004 -0.445115540171
477948500 0.588570258348 -0.445078631514
477959000 0.587913881267 -0.446974917044
477969500 0.587029041126 -0.446131980274
477980000 0.587642500829 -0.443705725797
477990500 0.584977613543 -0.446762999941
478001000 0.586035612148 -0.44555056852
478011500 0.586218830562 -0.444732499063
478022000 0.588506618392 -0.446298545876
478032500 0.593976657376 -0.44673952519
478043000 0.584316770694 -0.443033062584
478053500 0.588243882951 -0.442580128192
478064000 0.58681612315 -0.445356242423
478074500 0.588299559237 -0.442089415587
478085000 0.586848144106 -0.439613071139
478095500 0.587236063563 -0.447712899297
478106000 0.586828183045 -0.448917733893
478116500 0.583586544902 -0.440185247308
478127000 0.588714466427 -0.442392717852
478137500 0.594635308301 -0.452230254997
478148000 0.57907204622 -0.452402565674
478158500 0.584877960244 -0.442467592846
478169000 0.584719367874 -0.443878872356
478179500 0.585642286797 -0.446450276991
478190000 0.571830915396 -0.43963406933
478200500 0.600041487678 -0.447799549065
478211000 0.583792586026 -0.446404171576
478221500 0.577351513798 -0.446174719958
478232000 0.58816691067 -0.452904590369
478242500 0.579503431512 -0.436626378679
478253000 0.58285687548 -0.444459805715
478263500 0.581175004068 -0.448440576237
478274000 0.586225481327 -0.45749294473
478284500 0.574989059594 -0.449028726468
478295000 0.584336585645 -0.444023575486
478305500 0.574079768884 -0.439692676886
478316000 0.580731381219 -0.440175897964
478326500 0.587741350353 -0.447297522807
478337000 0.585385686622 -0.453665436571
478347500 0.560410379765 -0.438765728532
478358000 0.57897719695 -0.448202084848
478368500 0.586677259047 -0.457915991786
478379000 0.579156458391 -0.447529013966
478389500 0.588771738655 -0.439720946377
478400000 0.581667906079 -0.446432365057
478410500 0.581025962576 -0.441862572215
478421000 0.582207528994 -0.456285899479
478431500 0.591256265071 -0.451566757114
478442000 0.583270727559 -0.453081744071
478452500 0.585890909563 -0.455521912127
478463000 0.592712187008 -0.434419037875
478473500 0.587308488486 -0.44300108516
478484000 0.580022255903 -0.433919776528
478494500 0.577174868498 -0.443534709403
478505000 0.589152914917 -0.443098648888
478515500 0.600338990315 -0.439100560168
478526000 0.576957975903 -0.447909585408
478536500 0.595567994543 -0.427816419275
478547000 0.580731741276 -0.433923831247
478557500 0.585783097343 -0.447505068179
478568000 0.586706930145 -0.45026618255
478578500 0.567577126783 -0.455039501095
478589000 0.583274574558 -0.443032012043
478599500 0.570821567245 -0.447126451422
478610000 0.576569938043 -0.453453568829
478620500 0.578022282662 -0.446530588932
478631000 0.588020409076 -0.442271834519
478641500 0.588391465681 -0.446686376909
478652000 0.583511376355 -0.437031475509
478662500 0.568075323992 -0.436818438885
478673000 0.584058433453 -0.447501256154
478683500 0.585190902755 -0.443827084164
478694000 0.57702445539 -0.439555279571
478704500 0.584351503719 -0.447765800956
478715000 0.585187372957 -0.44525541644
478725500 0.578121772535 -0.441684615718
478736000 0.587091139658 -0.443301167545
478746500 0.594922729635 -0.439031322201
478757000 0.576685271089 -0.448084918515
478767500 0.582023624097 -0.445784296915
478778000 0.583913942662 -0.447392301795
478788500 0.581783157709 -0.437983625988
478799000 0.578771642786 -0.445500380071
478809500 0.586643964793 -0.45219991817
478820000 0.583269832866 -0.444489699697
478830500 0.585819736963 -0.44495885611
478841000 0.581032296795 -0.450224414706
478851500 0.582110178272 -0.443506066768
478862000 0.577404054223 -0.443550214143
478872500 0.580273584453 -0.445036499534
478883000 0.57560044296 -0.457345381422
478893500 0.581243982991 -0.444326536826
478904000 0.581033470392 -0.443238928978
478914500 0.582556044302 -0.444303821073
478925000 0.578383837045 -0.453603942725
478935500 0.584336140592 -0.441902107506
478946000 0.582250996206 -0.444479623432
478956500 0.581531612784 -0.446144309862
478967000 0.581633329825 -0.444287830685
478977500 0.580697334105 -0.443142479423
478988000 0.580414594045 -0.443628170227
478998500 0.579947589511 -0.443532637358
479009000 0.581691000573 -0.444155764883
479019500 0.582385295305 -0.443649615387
479030000 0.581131109746 -0.444336852425
479040500 0.58126654316 -0.443884252714
479051000 0.581658641217 -0.442653317427
479061500 0.580879548088 -0.443364476229
479072000 0.580674898059 -0.443485855755
479082500 0.581089007995 -0.445278736156
479093000 0.581267720434 -0.445162056574
479103500 0.582204442507 -0.444747678408
479114000 0.580535906396 -0.444321144729
479124500 0.580115183741 -0.445097488783
479135000 0.579852097914 -0.444957899355
479145500 0.581517405413 -0.443978630517
479156000 0.580746932163 -0.443818163189
479166500 0.581265632817 -0.444048543218
479177000 0.580139299954 -0.444415484177
479187500 0.581006056716 -0.444106659511
479198000 0.582149850598 -0.442933899396
479208500 0.579939545158 -0.44445668103
479219000 0.580273515675 -0.444074738888
479229500 0.580432420004 -0.443030068267
479240000 0.581181283433 -0.443461912739
479250500 0.583105982288 -0.444427326154
479261000 0.580080098604 -0.444245248313
479271500 0.579784564176 -0.445852107775
479282000 0.581191557085 -0.44544354554
479292500 0.577813098527 -0.446087356708
479303000 0.578258926749 -0.444524829542
479313500 0.576873489529 -0.443500776433
479324000 0.578193615834 -0.44487321993
479334500 0.579451038921 -0.442763865923
479345000 0.580186089707 -0.444550694662
479355500 0.57971419918 -0.444972279203
479366000 0.579417965771 -0.443246134657
479376500 0.580350911439 -0.444344409921
479387000 0.579824414828 -0.444126625209
479397500 0.578957700947 -0.442753564917
479408000 0.578126651099 -0.445230718013
479418500 0.578536373665 -0.443034760722
479429000 0.578045889512 -0.444455183691
479439500 0.5789124715 -0.443991930642
479450000 0.579251711723 -0.442840308563
479460500 0.578239042318 -0.444795932759
479471000 0.578092284445 -0.443096469786
479481500 0.579588241873 -0.444810854727
479492000 0.578216223782 -0.444030818267
479502500 0.57860971435 -0.444408855885
479513000 0.578518935798 -0.443185569707
479523500 0.57749000161 -0.443468347624
479534000 0.577821220033 -0.44504287508
479544500 0.578448106728 -0.443786125027
479555000 0.578790380375 -0.443911297582
479565500 0.578437768157 -0.444088420795
479576000 0.577730889191 -0.442911286773
479586500 0.578003034259 -0.443058344027
479597000 0.578356540932 -0.443786685565
479607500 0.577079836826 -0.443722616966
479618000 0.577415848539 -0.443929551996
479628500 0.578033505455 -0.443862388382
479639000 0.577772746694 -0.443841096172
479649500 0.577405911222 -0.443733033919
479660000 0.578188959723 -0.444010643543
479670500 0.577245726021 -0.44427774124
479681000 0.577351263418 -0.443993577855
479691500 0.576884407341 -0.443877893815
479702000 0.577674586442 -0.444372981565
479712500 0.577468352052 -0.444247021105
479723000 0.577473030679 -0.444228809753
479733500 0.57715491566 -0.44444404495
479744000 0.577564271899 -0.443585900486
479754500 0.57765052958 -0.443797325389
479765000 0.577680136463 -0.443721336193
479775500 0.577361156203 -0.444024573325
479786000 0.577811602451 -0.443879872144
479796500 0.577655421607 -0.443802319758
479807000 0.577234962851 -0.443606805177
479817500 0.577420375923 -0.443637426746
479828000 0.577115205414 -0.444632587824
479838500 0.577343751855 -0.445610264308
479849000 0.576627290884 -0.443878260701
479859500 0.577600624595 -0.443927173586
479870000 0.576894919548 -0.44354085639
479880500 0.576726477701 -0.443319398071
479891000 0.576369354455 -0.443552959887
479901500 0.57742933684 -0.443518434322
479912000 0.576906852539 -0.443813097682
479922500 0.575538259407 -0.44364372118
479933000 0.575485499065 -0.444121152875
479943500 0.576969893157 -0.442931564839
479954000 0.57767805678 -0.444318017594
479964500 0.576436365 -0.443625533162
479975000 0.575302151138 -0.442795294753
479985500 0.575515306274 -0.442030321616
479996000 0.57514422202 -0.444291841598
480006500 0.575388336329 -0.442654530358
480017000 0.575617384493 -0.44451652967
480027500 0.575372487603 -0.444088054068
480038000 0.57539827128 -0.443784671549
480048500 0.574826797029 -0.443805525389
480059000 0.575694665723 -0.443334557577
480069500 0.575444911687 -0.443203823255
480080000 0.575023364762 -0.442376270849
480090500 0.575719673611 -0.443229731233
480101000 0.575321575757 -0.443116397306
480111500 0.575653562253 -0.443550276378
480122000 0.575882358157 -0.443792595982
480132500 0.575648073119 -0.444365753905
480143000 0.575490700236 -0.444358117223
480153500 0.575805334753 -0.444837540622
480164000 0.575833796538 -0.444249076733
480174500 0.575421904386 -0.443355355284
480185000 0.574130567979 -0.44335601083
480195500 0.574436925861 -0.443259236712
480206000 0.574162798662 -0.443117676428
480216500 0.574312623795 -0.442592703798
480227000 0.574400524875 -0.443776338338
480237500 0.573417335924 -0.443478336528
480248000 0.574136770382 -0.442793981806
480258500 0.573503506774 -0.443848404115
480269000 0.569215161326 -0.444516991288
480279500 0.573485174605 -0.442821168209
480290000 0.573982127339 -0.442847205649
480300500 0.573868721855 -0.443295537498
480311000 0.573937270182 -0.443477969356
480321500 0.573818287025 -0.442717328875
480332000 0.573430928248 -0.442799506233
480342500 0.573796144402 -0.442779061743
480353000 0.573117953333 -0.443753737437
480363500 0.573599478128 -0.443094648281
480374000 0.57327932633 -0.442989339078
480384500 0.573491781317 -0.44160840328
480395000 0.572542575101 -0.442201519652
480405500 0.573213249051 -0.442450039649
480416000 0.573406816634 -0.443005630204
480426500 0.572900824216 -0.442941109408
480437000 0.574268708825 -0.442795681591
480447500 0.573393329713 -0.444123403744
480458000 0.573079257297 -0.441616139562
480468500 0.572936647948 -0.442753914005
480479000 0.572316567113 -0.442871116471
480489500 0.572463025853 -0.443338772262
480500000 0.573792657107 -0.441672929088
480510500 0.57356793568 -0.443581906642
480521000 0.574597353017 -0.44245031032
480531500 0.573733865658 -0.443620690043
480542000 0.572434068626 -0.44338592028
480552500 0.57271529468 -0.443019627216
480563000 0.572826211387 -0.442750032903
480573500 0.572279628566 -0.44269543605
480584000 0.572320272624 -0.441714459682
480594500 0.571889523246 -0.442803038256
480605000 0.572349167623 -0.442500853413
480615500 0.573101894597 -0.443290881097
480626000 0.572319357964 -0.442793624182
480636500 0.572694478476 -0.442130701821
480647000 0.571593283282 -0.442278745115
480657500 0.571716097609 -0.441690547262
480668000 0.572315183312 -0.442453541637
480678500 0.572667247518 -0.44156172232
480689000 0.571934790498 -0.443226766428
480699500 0.571355471957 -0.442564771988
480710000 0.571359218022 -0.442832781342
480720500 0.571772747457 -0.442812631797
480731000 0.571524087593 -0.442589510571
480741500 0.571438320909 -0.443116874935
480752000 0.571895915817 -0.443439128903
480762500 0.571087973749 -0.443926264677
480773000 0.571388496635 -0.44267487144
480783500 0.57110733274 -0.442832907928
480794000 0.570679474322 -0.442463481001
480804500 0.572065942216 -0.442725325676
480815000 0.571482883545 -0.442960273333
480825500 0.57142497098 -0.442459518709
480836000 0.571934514706 -0.442324160849
480846500 0.571366444524 -0.441995205147
480857000 0.571371091413 -0.442304288367
480867500 0.571115030544 -0.442908913824
480878000 0.57028133077 -0.442636410963
480888500 0.570402762619 -0.442992157574
480899000 0.572012399503 -0.443117535839
480909500 0.568845089719 -0.441893792622
480920000 0.570739528103 -0.442212645997
480930500 0.570660056019 -0.441640962641
480941000 0.570190317382 -0.44337974158
480951500 0.571339559924 -0.441804806689
480962000 0.569876011013 -0.441788578733
480972500 0.569723687567 -0.441080572035
480983000 0.569473089082 -0.442188728178
480993500 0.569109949804 -0.440624199065
481004000 0.569855872321 -0.442290524568
481014500 0.570043313155 -0.441961558076
481025000 0.571261701066 -0.441331808533
481035500 0.57098588411 -0.442181447666
481046000 0.569562990784 -0.441465906397
481056500 0.568893900841 -0.441725744066
481067000 0.570590103526 -0.441210262163
481077500 0.568832481529 -0.442183672451
481088000 0.569675788884 -0.441259088885
481098500 0.56920578707 -0.441784172504
481109000 0.56996325416 -0.441654541514
481119500 0.568799314547 -0.441120928023
481130000 0.568110678848 -0.441719963174
481140500 0.56931682995 -0.441158828504
481151000 0.5686422229 -0.441731529325
481161500 0.569535189795 -0.442600414512
481172000 0.569439378425 -0.441577354697
481182500 0.569473076305 -0.441964598724
481193000 0.569241248595 -0.440578851076
481203500 0.569041019611 -0.441561691952
481214000 0.568836505785 -0.440372935933
481224500 0.56864493748 -0.441966121296
481235000 0.568168897492 -0.443070485275
481245500 0.567765561123 -0.443134079634
481256000 0.567872869448 -0.442768614367
481266500 0.568143803439 -0.441884585675
481277000 0.568858890969 -0.44175924638
481287500 0.568844652244 -0.441261197798
481298000 0.569016864745 -0.444025015467
481308500 0.568857730765 -0.442169392398
481319000 0.56832023041 -0.441666265312
481329500 0.568361782277 -0.441777149488
481340000 0.567784437509 -0.441844365935
481350500 0.567566898559 -0.441919989835
481361000 0.567743415416 -0.441454681999
481371500 0.567503280484 -0.441585875601
481382000 0.568127740686 -0.440869411085
481392500 0.568862145786 -0.441836529989
481403000 0.567920659604 -0.441347132035
481413500 0.56858523176 -0.441646035008
481424000 0.568513326462 -0.440419082767
481434500 0.568576500421 -0.442819288618
481445000 0.567901112306 -0.440766912317
481455500 0.568148238419 -0.441440907784
481466000 0.568769021839 -0.441027448746
481476500 0.56836587368 -0.440162743447
481487000 0.569005348943 -0.440969512791
481497500 0.56585086153 -0.443115501488
481508000 0.56864060446 -0.442092828371
481518500 0.568846507225 -0.443869349342
481529000 0.56710019857 -0.442598276351
481539500 0.568377616203 -0.442348464452
481550000 0.567573532449 -0.442112800031
481560500 0.566457601046 -0.441541905644
481571000 0.567397952123 -0.442086244067
481581500 0.56799630759 -0.441464333943
481592000 0.568237789524 -0.441031695246
481602500 0.56592866887 -0.441498434614
481613000 0.566535137242 -0.442513684017
481623500 0.567697758022 -0.441404968254
481634000 0.568709658134 -0.440332097041
481644500 0.566806172056 -0.44149374603
481655000 0.565423871538 -0.443769846238
481665500 0.567250328933 -0.440488806356
481676000 0.566123373051 -0.441210637515
481686500 0.566759637023 -0.442264728405
481697000 0.565916997767 -0.442842246113
481707500 0.564853528526 -0.442658443013
481718000 0.56406334534 -0.443155983435
481728500 0.565758371251 -0.442797691542
481739000 0.56578432653 -0.440366935238
481749500 0.566364200409 -0.441989455295
481760000 0.56518350085 -0.442183924287
481770500 0.565740477332 -0.441744042039
481781000 0.567544025185 -0.439090400424
481791500 0.567984078469 -0.438752633511
481802000 0.567173170939 -0.43988533087
481812500 0.566698200121 -0.439883631124
481823000 0.566279770334 -0.442263990594
481833500 0.566320035894 -0.442445515691
481844000 0.566821824107 -0.440385230415
481854500 0.566473648247 -0.440563017284
481865000 0.566206529619 -0.441308960531
481875500 0.566941933334 -0.441165597775
481886000 0.565149600751 -0.440254686681
481896500 0.565462337921 -0.439783015689
481907000 0.564359259051 -0.441958715772
481917500 0.565664546132 -0.440885020011
481928000 0.565073138787 -0.441752557544
481938500 0.564710389853 -0.439078483244
481949000 0.564079520667 -0.442396906159
481959500 0.564563785392 -0.444939061338
481970000 0.564211928895 -0.444638783117
481980500 0.565352666449 -0.442418342616
481991000 0.563842852241 -0.44230255954
482001500 0.565636184306 -0.440129283282
482012000 0.565423639457 -0.439686738144
482022500 0.565274568208 -0.441518237147
482033000 0.564133252856 -0.440787091392
482043500 0.565507982021 -0.444035363456
482054000 0.562238535904 -0.439740750844
482064500 0.566654308246 -0.438838931535
482075000 0.566984898368 -0.440798151749
482085500 0.567662814949 -0.436652544482
482096000 0.565505200632 -0.441561743763
482106500 0.561321815013 -0.439925922307
482117000 0.562520679482 -0.442872810806
482127500 0.564283344935 -0.442460959864
482138000 0.565263215078 -0.435086533751
482148500 0.56558483858 -0.441606610138
482159000 0.561712985017 -0.433543622661
482169500 0.569457919393 -0.446965387697
482180000 0.566266828357 -0.444912214175
482190500 0.562900541861 -0.437930981684
482201000 0.557429981306 -0.447414910803
482211500 0.566595533504 -0.437373643564
482222000 0.566965023514 -0.439888820383
482232500 0.561432834732 -0.447005669056
482243000 0.557010153403 -0.432776532361
482253500 0.569005687835 -0.443797071999
482264000 0.575326087989 -0.443084811084
482274500 0.567876895966 -0.448163514745
482285000 0.562872581251 -0.434049049037
482295500 0.566275586155 -0.432810563869
482306000 0.564856593984 -0.439648897099
482316500 0.562034256351 -0.434157728332
482327000 0.565586784434 -0.453444974978
482337500 0.566911307434 -0.432229063246
482348000 0.563524769118 -0.444574704336
482358500 0.564104466938 -0.436189676052
482369000 0.565137831109 -0.436482050993
482379500 0.564582474889 -0.437437848908
482390000 0.554472364074 -0.436267967279
482400500 0.577528263022 -0.438718910447
482411000 0.568197063889 -0.447967606659
482421500 0.563744536273 -0.444284036327
482432000 0.566771795213 -0.453448953894
482442500 0.568375388543 -0.428546444817
482453000 0.562087533245 -0.440606857378
482463500 0.560074011141 -0.442733929025
482474000 0.56737740827 -0.430753032283
482484500 0.559410777983 -0.437216798881
482495000 0.558848104804 -0.434867522383
482505500 0.573861776223 -0.446893246911
482516000 0.56422376734 -0.437195194904
482526500 0.560262336883 -0.441011211682
482537000 0.55831499171 -0.444611098854
482547500 0.549483410913 -0.446589716835
482558000 0.564315593253 -0.451017431137
482568500 0.554150423553 -0.441716560245
482579000 0.55384905787 -0.451407682051
482589500 0.560161811596 -0.429063625025
482600000 0.556273041375 -0.441708173059
482610500 0.560944037628 -0.437278109751
482621000 0.56107622433 -0.442682476835
482631500 0.565117584058 -0.448241396741
482642000 0.557270501123 -0.440686468286
482652500 0.563697125899 -0.443415570189
482663000 0.56143923449 -0.441844839944
482673500 0.57338634235 -0.447346993481
482684000 0.553068869395 -0.433424858303
482694500 0.561921409969 -0.435659176331
482705000 0.564586626819 -0.438861914825
482715500 0.563396613523 -0.439728763203
482726000 0.564432875745 -0.43902357261
482736500 0.565572710535 -0.439838474158
482747000 0.563116715923 -0.436325691131
482757500 0.564358122878 -0.442690287843
482768000 0.566685815465 -0.452201845226
482778500 0.568336906764 -0.441811282942
482789000 0.56851033434 -0.443540069485
482799500 0.563926544474 -0.445154685999
482810000 0.554853512768 -0.438129713655
482820500 0.56047852951 -0.440069924703
482831000 0.559581504797 -0.435252923845
482841500 0.561314763093 -0.437240341988
482852000 0.558797028133 -0.443800898394
482862500 0.557797399412 -0.434727434818
482873000 0.56228682343 -0.435651145711
482883500 0.55712823897 -0.448436508568
482894000 0.55120566693 -0.449238247564
482904500 0.559219892662 -0.438584937451
482915000 0.560593131538 -0.438874962922
482925500 0.560115442586 -0.439304148514
482936000 0.559884254361 -0.436835399965
482946500 0.562616272571 -0.437030408503
482957000 0.561141942888 -0.437768816592
482967500 0.560529556269 -0.43761724216
482978000 0.559847758716 -0.438736012612
482988500 0.559799693366 -0.438267367407
482999000 0.56093678504 -0.437037690877
483009500 0.557793965166 -0.440705748984
483020000 0.559344881491 -0.437721479104
483030500 0.562057582335 -0.438693979591
483041000 0.559885008743 -0.438951612852
483051500 0.558253448631 -0.437069366429
483062000 0.559823865793 -0.437835662916
483072500 0.558906633537 -0.437703377694
483083000 0.561534406419 -0.437919077925
483093500 0.559283412664 -0.440516585987
483104000 0.558958858922 -0.437618554558
483114500 0.559693265264 -0.439471611057
483125000 0.559834400888 -0.440200928471
483135500 0.560194062972 -0.440351383567
483146000 0.557138297683 -0.438369012874
483156500 0.557263531117 -0.439263902315
483167000 0.558048586999 -0.440306651973
483177500 0.560530586847 -0.437285947801
483188000 0.559362902305 -0.439391360708
483198500 0.558978185391 -0.439540416761
483209000 0.560684312294 -0.440968232886
483219500 0.55776939926 -0.440661121382
483230000 0.555334440308 -0.439449843076
483240500 0.557566619868 -0.439725382971
483251000 0.556261242073 -0.439118091166
483261500 0.557464391253 -0.440291047603
483272000 0.558112365581 -0.438761115413
483282500 0.55675697457 -0.440175459189
483293000 0.557484275075 -0.43709037651
483303500 0.558911464356 -0.438461506011
483314000 0.558174515507 -0.437078219712
483324500 0.559247484528 -0.436692252678
483335000 0.558973848976 -0.435371654519
483345500 0.558598005699 -0.44113939519
483356000 0.555081045172 -0.438678071156
483366500 0.556488847776 -0.439383021877
483377000 0.556897804421 -0.439618826597
483387500 0.558013324905 -0.438229171539
483398000 0.556763791495 -0.435074826352
483408500 0.557468422116 -0.439870620323
483419000 0.557872744232 -0.438141411138
483429500 0.557668606461 -0.436833669344
483440000 0.557956991762 -0.439479503458
483450500 0.556184391303 -0.437939377181
483461000 0.557521072982 -0.437597149907
483471500 0.558257147214 -0.43859678176
483482000 0.558635013062 -0.438511420209
483492500 0.556860565145 -0.438878543041
483503000 0.556667704044 -0.438615979056
483513500 0.557776280591 -0.436737175992
483524000 0.557012008916 -0.438041634713
483534500 0.558367217885 -0.440076235171
483545000 0.557686796248 -0.438141974676
483555500 0.557032943428 -0.438626562121
483566000 0.557289638497 -0.438661735183
483576500 0.55647611987 -0.438145238484
483587000 0.556065631132 -0.438248945189
483597500 0.556970606302 -0.438173192666
483608000 0.555655982655 -0.438369995398
483618500 0.556531022989 -0.438197213959
483629000 0.556741600134 -0.438605729168
483639500 0.55653886879 -0.438823430551
483650000 0.557457678009 -0.438813835969
483660500 0.556892866285 -0.439324552278
483671000 0.557094382821 -0.438350607771
483681500 0.556662983392 -0.438060449237
483692000 0.556607085529 -0.437552135428
483702500 0.556951864141 -0.437688869156
483713000 0.556121727665 -0.438236826064
483723500 0.555778806388 -0.437996648785
483734000 0.556011784252 -0.437525409758
483744500 0.556296770283 -0.438118666985
483755000 0.55532328104 -0.438487642813
483765500 0.554640889691 -0.437898392575
483776000 0.555926575258 -0.437949993302
483786500 0.555577755197 -0.437488484568
483797000 0.554976987016 -0.438013614181
483807500 0.555705171658 -0.438242935901
483818000 0.555354729329 -0.437503973875
483828500 0.555051091157 -0.437404664419
483839000 0.555722270916 -0.438231364025
483849500 0.556860504318 -0.437895155809
483860000 0.555950163514 -0.437400673711
483870500 0.555921478548 -0.437510258533
483881000 0.556173768258 -0.437757835316
483891500 0.554790052129 -0.437407487228
483902000 0.554666803036 -0.436520898214
483912500 0.554903556464 -0.437623547329
483923000 0.554758223295 -0.437514664159
483933500 0.554830661229 -0.437800295658
483944000 0.554688931061 -0.437989404337
483954500 0.554111624406 -0.437868507379
483965000 0.553910884665 -0.437997227683
483975500 0.554787940377 -0.438718562871
483986000 0.553893322627 -0.438260115464
483996500 0.554239810522 -0.438151884003
484007000 0.5542695432 -0.437855697325
484017500 0.553691989369 -0.436771342209
484028000 0.554244756416 -0.437046455868
484038500 0.554136241986 -0.436828496115
484049000 0.55348940689 -0.437121092267
484059500 0.553138194439 -0.436995486616
484070000 0.553490588742 -0.437061934119
484080500 0.553773209936 -0.436881876685
484091000 0.554463060501 -0.437391046649
484101500 0.554162480039 -0.437103060654
484112000 0.553684687355 -0.436976023179
484122500 0.553250276735 -0.436660182712
484133000 0.553714619652 -0.436492243106
484143500 0.553040546286 -0.43635746068
484154000 0.55398940811 -0.436472646489
484164500 0.552953509376 -0.436889032663
484175000 0.553091298336 -0.437801749351
484185500 0.553967454701 -0.437038202834
484196000 0.553540679303 -0.436623717012
484206500 0.55410576409 -0.436062118533
484217000 0.553638736856 -0.437000855648
484227500 0.553437555282 -0.436976856513
484238000 0.553494736061 -0.436478139131
484248500 0.551858818442 -0.437857001699
484259000 0.55308661896 -0.43647679561
484269500 0.55283284177 -0.436543798451
484280000 0.553591139607 -0.435547690472
484290500 0.552546575015 -0.436296763847
484301000 0.554337610403 -0.437036263765
484311500 0.552730495649 -0.4372547286
484322000 0.552449241879 -0.437019516967
484332500 0.553828020888 -0.43680939581
484343000 0.552612530907 -0.43714107593
484353500 0.553373667557 -0.437058853456
484364000 0.553198299631 -0.436733253303
484374500 0.553331395599 -0.436249370633
484385000 0.552458417766 -0.436269403438
484395500 0.552890868437 -0.436518520541
484406000 0.552878232181 -0.43676253755
484416500 0.552353290115 -0.436513343632
484427000 0.552323358794 -0.436125751109
484437500 0.55243789417 -0.436583472454
484448000 0.551962066809 -0.436692721093
484458500 0.552232615198 -0.436256112846
484469000 0.552033462557 -0.436401931578
484479500 0.552248241753 -0.436404743258
484490000 0.5524962661 -0.436229635575
484500500 0.552141953363 -0.435979994847
484511000 0.552237995114 -0.43579159927
484521500 0.551704904943 -0.436039448841
484532000 0.551981937352 -0.436285805672
484542500 0.552042775838 -0.436175218368
484553000 0.551378219208 -0.436703588278
484563500 0.551874459351 -0.437098174088
484574000 0.551306820247 -0.436425115449
484584500 0.551028143074 -0.436212995862
484595000 0.550636649343 -0.436321889514
484605500 0.550825163972 -0.43640174219
484616000 0.550776802669 -0.436780662655
484626500 0.550893112688 -0.43665262566
484637000 0.55144558712 -0.436264473725
484647500 0.551211793897 -0.435620690782
484658000 0.551067999277 -0.435797081744
484668500 0.550857520392 -0.435150837452
484679000 0.551342589966 -0.435439547159
484689500 0.551202872011 -0.43577920728
484700000 0.551586297097 -0.436648760481
484710500 0.551781683856 -0.435820059657
484721000 0.551103465237 -0.435848163356
484731500 0.55155214382 -0.435756576208
484742000 0.55103749773 -0.436239408393
484752500 0.550631880191 -0.435867202952
484763000 0.549877574108 -0.435770015443
484773500 0.550130748902 -0.436266374665
484784000 0.55075132656 -0.435840139456
484794500 0.550599776586 -0.435856538512
484805000 0.550658577792 -0.435173370652
484815500 0.551106339081 -0.435084747427
484826000 0.550939442243 -0.435381657195
484836500 0.551448518512 -0.435778872219
484847000 0.551024683379 -0.436311590742
484857500 0.550403938045 -0.435653038564
484868000 0.54969359503 -0.435360928794
484878500 0.549372704998 -0.435157068292
484889000 0.549390741423 -0.435294474491
484899500 0.549501111238 -0.435865888559
484910000 0.549942214737 -0.435717124036
484920500 0.550092170915 -0.435130158904
484931000 0.55006242606 -0.435235114804
484941500 0.54981236908 -0.435106982632
484952000 0.54901607878 -0.435625575872
484962500 0.54997296818 -0.43553534118
484973000 0.549987212393 -0.434492762825
484983500 0.549653302196 -0.434181802028
484994000 0.549821120452 -0.434266236652
485004500 0.5495799477 -0.434876933889
485015000 0.549457392335 -0.435213751404
485025500 0.549450875367 -0.435126193853
485036000 0.549667354852 -0.434932569796
485046500 0.549433638349 -0.435463538198
485057000 0.549803746496 -0.435308883732
485067500 0.549323154492 -0.435187246344
485078000 0.549565789808 -0.435391125779
485088500 0.54869840248 -0.435289339935
485099000 0.54820455439 -0.435314624072
485109500 0.548189762332 -0.435428283903
485120000 0.548726337942 -0.435367433054
485130500 0.549291832107 -0.435770649032
485141000 0.548971035903 -0.43532271764
485151500 0.548787622957 -0.435161942936
485162000 0.548748227473 -0.434459551366
485172500 0.548771678382 -0.43461632984
485183000 0.548670448332 -0.434505828862
485193500 0.548408899313 -0.434333141482
485204000 0.548222949058 -0.43466652287
485214500 0.548739524432 -0.434792775884
485225000 0.548539717946 -0.43488312606
485235500 0.548040146932 -0.434829549858
485246000 0.54838214613 -0.43542983451
485256500 0.548217589934 -0.4355352955
485267000 0.548134885512 -0.435659083069
485277500 0.547369004649 -0.435977275128
485288000 0.54820356267 -0.435311768342
485298500 0.548409804635 -0.435155040293
485309000 0.548714668651 -0.435911973132
485319500 0.548567117683 -0.435798396629
485330000 0.547763118365 -0.435248930253
485340500 0.547736423921 -0.435310444449
485351000 0.547684188654 -0.435398390662
485361500 0.546948255153 -0.435076501856
485372000 0.547254033091 -0.434376883691
485382500 0.547227470431 -0.43476783573
485393000 0.546899587379 -0.434578965981
485403500 0.546895378332 -0.434952136522
485414000 0.54691098092 -0.434136549265
485424500 0.547136131505 -0.434623831503
485435000 0.547985015466 -0.435022052175
485445500 0.547254856516 -0.434114077841
485456000 0.545739887644 -0.433800194687
485466500 0.546683861829 -0.434400185467
485477000 0.547044941171 -0.435138965403
485487500 0.5471631986 -0.435457811403
485498000 0.545740772293 -0.433876696079
485508500 0.547559008435 -0.436235213371
485519000 0.547800741318 -0.436824104083
485529500 0.548298867769 -0.436290599741
485540000 0.547658637524 -0.435504455515
485550500 0.548978547916 -0.432745629957
485561000 0.544345246775 -0.433560836343
485571500 0.546966175315 -0.433259352905
485582000 0.545195751812 -0.431961783973
485592500 0.548748523962 -0.43406645026
485603000 0.550536430304 -0.431137257107
485613500 0.547933404646 -0.436267677769
485624000 0.542893153668 -0.432406293086
485634500 0.54991272421 -0.431147339512
485645000 0.548022107107 -0.435782970147
485655500 0.551212037184 -0.433770521148
485666000 0.544023553605 -0.433065488002
485676500 0.544689219104 -0.437347922708
485687000 0.543503608645 -0.434876881668
485697500 0.542617453897 -0.434632668589
485708000 0.55043573653 -0.433246839479
485718500 0.542832377752 -0.429894674949
485729000 0.545318309202 -0.432182385325
485739500 0.543049846653 -0.435308441343
485750000 0.545012500417 -0.430341506831
485760500 0.546543678275 -0.434573381775
485771000 0.546724620193 -0.432549420017
485781500 0.547312681862 -0.433951764603
485792000 0.548380916816 -0.433498917107
485802500 0.544375568307 -0.4330577844
485813000 0.545205417482 -0.43350073337
485823500 0.548162012529 -0.43481439089
485834000 0.545594991754 -0.434457681743
485844500 0.547222376366 -0.433621782948
485855000 0.547654374361 -0.436677391091
485865500 0.546723791377 -0.431384592917
485876000 0.544871173947 -0.430877059827
485886500 0.54832165304 -0.431874296867
485897000 0.546273803985 -0.433380217436
485907500 0.545908992121 -0.433325145659
485918000 0.545389606073 -0.433517460984
485928500 0.545260885472 -0.43353331082
485939000 0.545433865033 -0.434357163403
485949500 0.545143496073 -0.433656457251
485960000 0.545836360226 -0.434852603711
485970500 0.545169825899 -0.433754608061
485981000 0.545035009233 -0.433935224062
485991500 0.546014015112 -0.433746088644
486002000 0.548085570833 -0.433389423715
486012500 0.545461259547 -0.433598011459
486023000 0.546106199684 -0.435566341713
486033500 0.548676907548 -0.431334670564
486044000 0.545705586449 -0.438345868346
486054500 0.544768179228 -0.433781829167
486065000 0.542509169061 -0.431895255896
486075500 0.546264513587 -0.437513494395
486086000 0.544385018402 -0.429013283172
486096500 0.537311721836 -0.432427529181
486107000 0.544961689131 -0.433024320878
486117500 0.544226782992 -0.444845777133
486128000 0.545314935258 -0.434540140025
486138500 0.544387988799 -0.432679342476
486149000 0.542582916132 -0.432040314126
486159500 0.544021130564 -0.433509615643
486170000 0.544499144391 -0.43273164064
486180500 0.541588704278 -0.431333521029
486191000 0.54645364906 -0.436555586893
486201500 0.540596498963 -0.436298819619
486212000 0.544256671491 -0.435114366393
486222500 0.536030555345 -0.434847323176
486233000 0.549729702408 -0.434576883333
486243500 0.548815862584 -0.434387460087
486254000 0.534425339956 -0.443189882478
486264500 0.54405964375 -0.43292851504
486275000 0.536569555419 -0.436223373378
486285500 0.542362102774 -0.432807818523
486296000 0.540811393562 -0.431778936087
486306500 0.537070439783 -0.41293652272
486317000 0.536134471817 -0.433929693052
486327500 0.534315499702 -0.419895764326
486338000 0.53752432829 -0.435439833146
486348500 0.545640597119 -0.423831404014
486359000 0.564410749831 -0.414635912829
486369500 0.544493171664 -0.433057740382
486380000 0.521819348945 -0.440401014463
486390500 0.539462329545 -0.421336796618
486401000 0.534274593999 -0.434326569864
486411500 0.540706759139 -0.43867538869
486422000 0.541391371378 -0.430941706577
486432500 0.539496996025 -0.424930622629
486443000 0.545730985006 -0.432103739557
486453500 0.553213390933 -0.429943503626
486464000 0.536256676615 -0.416823214565
486474500 0.528424453089 -0.413651624168
486485000 0.554403512889 -0.418380649696
486495500 0.548605869495 -0.447048737558
486506000 0.531990680768 -0.434464756456
486516500 0.536658894787 -0.435144995038
486527000 0.539464865318 -0.432769311099
486537500 0.555852616992 -0.417809167244
486548000 0.486844111823 -0.386481594801
486558500 0.546809124169 -0.436858848042
486569000 0.547044998445 -0.435699989055
486579500 0.534566716161 -0.446737443045
486590000 0.540584526825 -0.42736654732
486600500 0.539380177584 -0.437902021461
486611000 0.553329034797 -0.435262315853
486621500 0.542084283608 -0.430434340332
486632000 0.537248597492 -0.423857397013
486642500 0.540038101431 -0.439427178698
486653000 0.539574182755 -0.437787702292
486663500 0.541323223588 -0.443884001656
486674000 0.546591652746 -0.424924788722
486684500 0.546626178811 -0.432104513233
486695000 0.541080409296 -0.421821292422
486705500 0.544760596301 -0.431437240638
486716000 0.547139901897 -0.432790296948
486726500 0.522113195396 -0.429883611662
486737000 0.543166239169 -0.437448472125
486747500 0.539287533564 -0.436850358497
486758000 0.534610022879 -0.435994402653
486768500 0.547112228012 -0.429967390428
486779000 0.543174978653 -0.430164348704
486789500 0.535406871769 -0.433289430102
486800000 0.546144797624 -0.440034318289
486810500 0.540740007102 -0.43153332596
486821000 0.535950183637 -0.428040526277
486831500 0.541317675257 -0.428979701789
486842000 0.540452474225 -0.435906030996
486852500 0.537907299338 -0.431560659809
486863000 0.543982787303 -0.437487342184
486873500 0.545642774454 -0.428764908342
486884000 0.540852658064 -0.433345337654
486894500 0.54062281492 -0.424945392294
486905000 0.540626022559 -0.432297672254
486915500 0.54791478776 -0.432680102401
486926000 0.539976378365 -0.437197166472
486936500 0.541018418074 -0.431576216492
486947000 0.540060761949 -0.432626094934
486957500 0.540663972922 -0.431521150717
486968000 0.542203112472 -0.432080489966
486978500 0.540588798121 -0.430941809098
486989000 0.54068811019 -0.430947801804
486999500 0.539845944468 -0.43219180851
487010000 0.539796255235 -0.431651640784
487020500 0.539323447193 -0.431051263295
487031000 0.538890273633 -0.431204015808
487041500 0.539882337734 -0.432107394626
487052000 0.53919972974 -0.430813370554
487062500 0.539783282094 -0.432056691211
487073000 0.540133737572 -0.431283557609
487083500 0.540290383237 -0.430088809635
487094000 0.539869449176 -0.432068056924
487104500 0.54015346429 -0.43038420544
487115000 0.538734790244 -0.430900254902
487125500 0.540223753449 -0.431274604158
487136000 0.538542422967 -0.430066895636
487146500 0.540857234182 -0.430322699334
487157000 0.538992899734 -0.430642634607
487167500 0.53878200543 -0.429954883119
487178000 0.53917474563 -0.429515092355
487188500 0.537258948867 -0.430074461496
487199000 0.538451353394 -0.429912108962
487209500 0.540050339681 -0.431243281376
487220000 0.537869280349 -0.428995417575
487230500 0.53925708663 -0.43128336331
487241000 0.538666056454 -0.431588832453
487251500 0.539236520098 -0.429125957754
487262000 0.540138422958 -0.431518549527
487272500 0.538680647411 -0.429758072749
487283000 0.540146102523 -0.428825926282
487293500 0.540585614623 -0.430289128495
487304000 0.538274526805 -0.430874535961
487314500 0.538711494781 -0.429614541215
487325000 0.537376612399 -0.429758003329
487335500 0.537718307907 -0.43249512566
487346000 0.537376809952 -0.429501569349
487356500 0.538329891577 -0.431165069802
487367000 0.539293287369 -0.431750281517
487377500 0.537196755587 -0.430850151032
487388000 0.537157704767 -0.43138276651
487398500 0.538899302961 -0.432233889512
487409000 0.537732905054 -0.430117830105
487419500 0.536419861594 -0.431629146268
487430000 0.54114877894 -0.427007991259
487440500 0.538965377282 -0.430590403451
487451000 0.538382106958 -0.430504166314
487461500 0.536421870645 -0.431068202925
487472000 0.53441085858 -0.429634278046
487482500 0.536147857492 -0.429634493995
487493000 0.524789628126 -0.45072546874
487503500 0.533908657348 -0.430322729738
487514000 0.536520897106 -0.427552204943
487524500 0.537620868278 -0.428116993702
487535000 0.535603140788 -0.429097656753
487545500 0.538389943661 -0.42901616654
487556000 0.537732101299 -0.429769838264
487566500 0.53815498544 -0.429798705423
487577000 0.537946190151 -0.429895208865
487587500 0.536983442643 -0.430189356273
487598000 0.537239794622 -0.430462574839
487608500 0.537848329837 -0.430115453074
487619000 0.537716594616 -0.429808680234
487629500 0.537482525909 -0.429684549232
487640000 0.536544236031 -0.429605116789
487650500 0.536861200945 -0.429907516902
487661000 0.537233287405 -0.429842979149
487671500 0.536983204026 -0.429570295201
487682000 0.536854628751 -0.430534741584
487692500 0.537027708447 -0.430205684726
487703000 0.537108359511 -0.43003288395
487713500 0.537050331696 -0.429642064112
487724000 0.537066984676 -0.429824796963
487734500 0.53710222447 -0.429508237704
487745000 0.537460232267 -0.429558016576
487755500 0.537164847126 -0.429676262983
487766000 0.536967873771 -0.430271797566
487776500 0.537241406442 -0.430263013125
487787000 0.537074746884 -0.430350967616
487797500 0.537083725874 -0.429683082287
487808000 0.536639388444 -0.430128178313
487818500 0.536378761216 -0.430003543872
487829000 0.536083910948 -0.429669251907
487839500 0.535851326563 -0.430163957729
487850000 0.535879859116 -0.429957661383
487860500 0.536221097504 -0.429989931287
487871000 0.536004718332 -0.429301096789
487881500 0.536328980808 -0.429291739073
487892000 0.536099385033 -0.42862878431
487902500 0.53579515069 -0.428763209468
487913000 0.535545750304 -0.428728863807
487923500 0.53557523977 -0.428937427576
487934000 0.536580810844 -0.428868335126
487944500 0.536703474878 -0.429217185674
487955000 0.536374455324 -0.42893437362
487965500 0.536184683178 -0.428603045364
487976000 0.535912322827 -0.428937999126
487986500 0.535233556355 -0.428550827992
487997000 0.536012283119 -0.429099926833
488007500 0.536513766313 -0.428218060401
488018000 0.536291799996 -0.429289818467
488028500 0.535818155637 -0.428520589569
488039000 0.535654175573 -0.429004369728
488049500 0.536150025223 -0.429325480618
488060000 0.53575593972 -0.428283096331
488070500 0.535969449016 -0.429102824809
488081000 0.53576856641 -0.429099113211
488091500 0.53562540376 -0.42992481944
488102000 0.535502682917 -0.42967980464
488112500 0.535696320685 -0.429677611645
488123000 0.535735656805 -0.429114498816
488133500 0.535281391213 -0.429137470059
488144000 0.534989719587 -0.429108667181
488154500 0.535064130666 -0.428562600931
488165000 0.535375219187 -0.428755048227
488175500 0.535921637999 -0.428234324405
488186000 0.535764068979 -0.429068981942
488196500 0.535104337292 -0.428152993187
488207000 0.535246546023 -0.428792606857
488217500 0.535232215731 -0.428910763909
488228000 0.534613010246 -0.429224333519
488238500 0.53435038627 -0.429108100276
488249000 0.534134490196 -0.428989585698
488259500 0.534274830489 -0.428340291704
488270000 0.53448836188 -0.428932972857
488280500 0.533735027565 -0.428934985954
488291000 0.533885583132 -0.428463116399
488301500 0.534076673859 -0.42877649984
488312000 0.534879600306 -0.429142820427
488322500 0.534718150115 -0.429618950886
488333000 0.534482205322 -0.429154981912
488343500 0.534594208948 -0.428322314526
488354000 0.534467608202 -0.428433677118
488364500 0.534196903865 -0.428474359695
488375000 0.534074104845 -0.428898711597
488385500 0.534573728054 -0.428828313898
488396000 0.533751792185 -0.42864169416
488406500 0.533533996207 -0.427839520818
488417000 0.533133821003 -0.428076304734
488427500 0.533305771559 -0.428287326207
488438000 0.53387722278 -0.427947768449
488448500 0.533733681557 -0.428472082306
488459000 0.533409878603 -0.428481833058
488469500 0.533171358522 -0.428601870858
488480000 0.533096852161 -0.427851368312
488490500 0.532964177796 -0.428413138833
488501000 0.532882837133 -0.428317787535
488511500 0.533241347654 -0.428338515656
488522000 0.53254449522 -0.42809367881
488532500 0.532999848374 -0.428430488313
488543000 0.533440697236 -0.428465556682
488553500 0.532844954119 -0.4280011507
488564000 0.532684883402 -0.427989617499
488574500 0.533037320675 -0.428263966386
488585000 0.532940961008 -0.428304673644
488595500 0.532877069902 -0.428161925094
488606000 0.533195893285 -0.427893521383
488616500 0.532595990792 -0.427665670584
488627000 0.532949388928 -0.428258238144
488637500 0.532518319045 -0.427598381558
488648000 0.53276597541 -0.427677773386
488658500 0.533065824854 -0.427465315471
488669000 0.533308241267 -0.428602624599
488679500 0.53328025758 -0.428044578993
488690000 0.532743446201 -0.427380902399
488700500 0.532561671925 -0.427115523823
488711000 0.532215480723 -0.42738091346
488721500 0.532534064181 -0.427711483261
488732000 0.532519087686 -0.427822561468
488742500 0.532081380506 -0.42725152248
488753000 0.532378157206 -0.428184733602
488763500 0.532214740656 -0.427881886147
488774000 0.532402651427 -0.427417168489
488784500 0.532233227877 -0.42734549841
488795000 0.53228302664 -0.427338481023
488805500 0.531621675152 -0.427787294504
488816000 0.531998985478 -0.427220070887
488826500 0.531759086443 -0.426916664497
488837000 0.531879150087 -0.427488402716
488847500 0.531769725851 -0.427316286193
488858000 0.53157145485 -0.42771438357
488868500 0.531562694265 -0.42758483602
488879000 0.531717819207 -0.427702776708
488889500 0.531777574527 -0.427878357324
488900000 0.531783643746 -0.427750453075
488910500 0.53220311099 -0.427474586812
488921000 0.531348316543 -0.427494357814
488931500 0.53127711622 -0.427088380576
488942000 0.53123974997 -0.427764982313
488952500 0.531208540779 -0.426890844453
488963000 0.531123866019 -0.427410606491
488973500 0.53144998138 -0.427494522748
488984000 0.531240789433 -0.427367477056
488994500 0.53120431715 -0.42726614308
489005000 0.530878301278 -0.427265826857
489015500 0.531074753039 -0.426966204981
489026000 0.531067382253 -0.427120917703
489036500 0.531160159637 -0.426748552692
489047000 0.531043761491 -0.427047913169
489057500 0.530826255035 -0.427361098766
489068000 0.530550899981 -0.427238367628
489078500 0.530975524527 -0.427501079313
489089000 0.530937129341 -0.427194128618
489099500 0.530971778945 -0.426819195262
489110000 0.530866584941 -0.426841412773
489120500 0.530419719141 -0.427143348651
489131000 0.530366253671 -0.426560734034
489141500 0.530081686067 -0.427305319892
489152000 0.530042933202 -0.426460404371
489162500 0.530403812727 -0.427497232086
489173000 0.529956783521 -0.426681096255
489183500 0.530322490237 -0.426659452947
489194000 0.530627970055 -0.426862327791
489204500 0.530344293917 -0.427238103251
489215000 0.529764638262 -0.426961568036
489225500 0.52986400702 -0.427365448418
489236000 0.529923799646 -0.427615528432
489246500 0.529706141498 -0.427218118987
489257000 0.529756492614 -0.426917221013
489267500 0.530144321769 -0.426773616502
489278000 0.53015241631 -0.426806447215
489288500 0.530565794934 -0.426169702161
489299000 0.530524737884 -0.42608329521
489309500 0.530191050572 -0.425720353365
489320000 0.5304202813 -0.425976632985
489330500 0.530624220199 -0.42624946706
489341000 0.530368228324 -0.425966839659
489351500 0.529599942068 -0.426319701786
489362000 0.529132143268 -0.426202368311
489372500 0.529742433087 -0.426498318764
489383000 0.529268463771 -0.425760297583
489393500 0.529408764384 -0.425677691256
489404000 0.528642668035 -0.426355036801
489414500 0.529072480568 -0.426224066085
489425000 0.528662704733 -0.4262124016
489435500 0.529102801408 -0.425397544665
489446000 0.528827850323 -0.425828575086
489456500 0.52954860965 -0.42446095896
489467000 0.529448658488 -0.425637537914
489477500 0.529220505024 -0.42578567065
489488000 0.528649080789 -0.427401211076
489498500 0.529987583098 -0.425686669822
489509000 0.528933688276 -0.425148763794
489519500 0.529749881763 -0.426782736051
489530000 0.528260383195 -0.424754423844
489540500 0.527711089271 -0.424891074336
489551000 0.52821943867 -0.424666264413
489561500 0.528822579575 -0.423206897154
489572000 0.528805535204 -0.426027352573
489582500 0.528371059695 -0.426017032685
489593000 0.529962998321 -0.424607689475
489603500 0.528517469527 -0.423103126988
489614000 0.52864022505 -0.426611285276
489624500 0.527824805204 -0.425905563517
489635000 0.52880878731 -0.425598652839
489645500 0.529134125076 -0.424318284098
489656000 0.529824144061 -0.431339576797
489666500 0.529067503119 -0.42405152886
489677000 0.530287753196 -0.425634473325
489687500 0.529516273336 -0.426260056077
489698000 0.528695183523 -0.427393634699
489708500 0.52776471065 -0.426671764934
489719000 0.527445952806 -0.426823451047
489729500 0.530198018036 -0.426110595144
489740000 0.527868160946 -0.425564474792
489750500 0.529211993797 -0.425586520379
489761000 0.526750610708 -0.425482098338
489771500 0.528868994073 -0.426694832875
489782000 0.52863452681 -0.425242705594
489792500 0.528850064752 -0.426466037762
489803000 0.527122522518 -0.426565013977
489813500 0.527559663478 -0.425223769868
489824000 0.526996124892 -0.423660160938
489834500 0.527544845011 -0.424691687975
489845000 0.526940012071 -0.426486131675
489855500 0.527686136475 -0.42547819789
489866000 0.526812693311 -0.424921580818
489876500 0.527464934795 -0.4248500638
489887000 0.527142470845 -0.425594278028
489897500 0.527126656146 -0.424131498999
489908000 0.526497995331 -0.424981296928
489918500 0.528073106354 -0.42498044534
489929000 0.52570467827 -0.425903788665
489939500 0.528073076106 -0.427353469256
489950000 0.528860284534 -0.424561766505
489960500 0.527690511421 -0.42419890631
489971000 0.527154036196 -0.423847464327
489981500 0.526814244133 -0.42482837553
489992000 0.52670000681 -0.424392745471
490002500 0.527037959076 -0.424784888046
490013000 0.527074715859 -0.425201027895
490023500 0.526531382822 -0.425188814993
490034000 0.52649180774 -0.42523419157
490044500 0.526701571023 -0.424468298584
490055000 0.526173485721 -0.424564755168
490065500 0.526213603494 -0.424421398959
490076000 0.526720750196 -0.423987678102
490086500 0.526286437356 -0.424581600186
490097000 0.526437860364 -0.42443438177
490107500 0.525961404958 -0.424643372994
490118000 0.526232914371 -0.424278540609
490128500 0.526209879739 -0.424125152191
490139000 0.527001194943 -0.423826325534
490149500 0.525889824242 -0.424099980396
490160000 0.526598253395 -0.425265912471
490170500 0.526178793185 -0.423989458259
490181000 0.526438242949 -0.424874536434
490191500 0.526615669243 -0.423896248398
490202000 0.525910268538 -0.4246756572
490212500 0.52639969107 -0.423949002801
490223000 0.526190979558 -0.424574460629
490233500 0.527235914244 -0.425405150756
490244000 0.525665439551 -0.423288072142
490254500 0.525620126374 -0.424119578237
490265000 0.528251049851 -0.426969831948
490275500 0.528922144806 -0.424148692731
490286000 0.525787662661 -0.4239634231
490296500 0.525495153151 -0.424264454802
490307000 0.523308611931 -0.431218693827
490317500 0.52976156977 -0.419550189475
490328000 0.526161374609 -0.423221463751
490338500 0.519271445453 -0.426040576103
490349000 0.525247454207 -0.41997451513
490359500 0.525182120293 -0.423079190224
490370000 0.526386539934 -0.426069643411
490380500 0.523449044295 -0.426711682635
490391000 0.523145936497 -0.422215282642
490401500 0.517338856832 -0.418866519741
490412000 0.52474148416 -0.429155639166
490422500 0.511472907723 -0.409936405831
490433000 0.52464166773 -0.424730955084
490443500 0.533740166785 -0.428782647011
490454000 0.527079593165 -0.425307400367
490464500 0.531422091915 -0.428469048235
490475000 0.536906648425 -0.429811891302
490485500 0.525292424842 -0.421695320642
490496000 0.527708002155 -0.425000664228
490506500 0.526884465181 -0.427552343271
490517000 0.527994788859 -0.424379081747
490527500 0.526336969524 -0.431597978614
490538000 0.530448487565 -0.419797372249
490548500 0.524151937042 -0.424571504996
490559000 0.521208151783 -0.422065480345
490569500 0.532931231877 -0.419839209527
490580000 0.522905642333 -0.412639377835
490590500 0.528939412263 -0.424594721954
490601000 0.510787535387 -0.428184479469
490611500 0.520711860918 -0.423398770352
490622000 0.523578081589 -0.422620282401
490632500 0.521741676336 -0.423377354889
490643000 0.522358393937 -0.425121210655
490653500 0.521352435794 -0.42405147725
490664000 0.524606647873 -0.423774131241
490674500 0.521238810774 -0.42658437371
490685000 0.525815871117 -0.417759727221
490695500 0.523050419845 -0.423710656242
490706000 0.523704807817 -0.422532311013
490716500 0.524530333372 -0.423602717213
490727000 0.527507207778 -0.422696956345
490737500 0.530194999555 -0.422837641705
490748000 0.52814893132 -0.422866866337
490758500 0.525350572353 -0.423415846577
490769000 0.522634040585 -0.42319038077
490779500 0.523724378912 -0.423471077206
490790000 0.522508596829 -0.422177131307
490800500 0.523404041651 -0.421032195485
490811000 0.523058617142 -0.422117432094
490821500 0.52298400512 -0.42252744858
490832000 0.52339929631 -0.422082446594
490842500 0.521694792006 -0.422724740736
490853000 0.522851396614 -0.423037050042
490863500 0.523484338553 -0.422641882823
490874000 0.5226043144 -0.422511660169
490884500 0.523357502507 -0.421994318051
490895000 0.523631172017 -0.422178926028
490905500 0.5229181334 -0.42257622859
490916000 0.522998681096 -0.422985007989
490926500 0.523462468548 -0.422980277921
490937000 0.524074232233 -0.422258025857
490947500 0.523411640811 -0.421990535336
490958000 0.522583842961 -0.421563916955
490968500 0.523489182582 -0.421739623442
490979000 0.52299771182 -0.421421553214
490989500 0.523095040098 -0.421578032294
491000000 0.523250271671 -0.42203970249
491010500 0.523004262357 -0.422814448386
491021000 0.523430143748 -0.421740357156
491031500 0.522786189667 -0.422494659952
491042000 0.523185673194 -0.421952704616
491052500 0.522111051528 -0.421576825082
491063000 0.522631150372 -0.421726542349
491073500 0.523461790802 -0.4225101384
491084000 0.523034763783 -0.421501019923
491094500 0.524920521602 -0.42317708995
491105000 0.523641203382 -0.423655682634
491115500 0.523380424639 -0.423474576641
491126000 0.521127536857 -0.422785723783
491136500 0.522834144362 -0.421985099869
491147000 0.523631631573 -0.421973555441
491157500 0.522817094769 -0.421834507778
491168000 0.521844042384 -0.421424725767
491178500 0.522749481639 -0.420867854095
491189000 0.520271431775 -0.421185986165
491199500 0.521624171918 -0.420560866614
491210000 0.521302291579 -0.421157189333
491220500 0.522120863585 -0.421474611038
491231000 0.521308474087 -0.421882303868
491241500 0.521711028819 -0.420938215805
491252000 0.52161539788 -0.420724889001
491262500 0.521964783755 -0.420858699985
491273000 0.521378746251 -0.421791323339
491283500 0.522524585465 -0.4210163604
491294000 0.521974798689 -0.421975859952
491304500 0.521646065225 -0.420615512382
491315000 0.521754066136 -0.421297240251
491325500 0.522594915914 -0.421208210278
491336000 0.521471405761 -0.421120883349
491346500 0.521310050931 -0.421828686167
491357000 0.521793356571 -0.421481988908
491367500 0.52132010859 -0.420608707982
491378000 0.521455197672 -0.421114526376
491388500 0.520578984611 -0.421549048893
491399000 0.520343747052 -0.421109754946
491409500 0.521026693796 -0.421959280549
491420000 0.520858719079 -0.421272988479
491430500 0.521733304834 -0.421396097067
491441000 0.520980370959 -0.421588076687
491451500 0.520651463117 -0.421291688039
491462000 0.521247246854 -0.420729064281
491472500 0.519979991868 -0.420529883946
491483000 0.520511044542 -0.420860586025
491493500 0.520868135505 -0.42090718553
491504000 0.520193641027 -0.421427954439
491514500 0.519427209954 -0.421375954979
491525000 0.520923597139 -0.420483075819
491535500 0.520725761682 -0.421438544019
491546000 0.520815637062 -0.421206354864
491556500 0.520433873966 -0.420785089355
491567000 0.519252952378 -0.421861059594
491577500 0.519176797816 -0.420867884502
491588000 0.519669240012 -0.421131508724
491598500 0.520171085768 -0.420305760454
491609000 0.520114791917 -0.420110298307
491619500 0.519935184225 -0.419861077784
491630000 0.520665031584 -0.420158604416
491640500 0.520640783351 -0.419901229752
491651000 0.520435012247 -0.420642597246
491661500 0.520062446007 -0.420313966237
491672000 0.520173033543 -0.420087266177
491682500 0.520286950802 -0.419921520416
491693000 0.520402406162 -0.420119000966
491703500 0.519887930711 -0.420066810097
491714000 0.519565594692 -0.420935303678
491724500 0.519672530264 -0.419873666031
491735000 0.519268573506 -0.419287303235
491745500 0.51906394373 -0.4188764062
491756000 0.519429119688 -0.419678013735
491766500 0.520064245905 -0.419451519691
491777000 0.520049451146 -0.420431052254
491787500 0.519736974185 -0.419615180365
491798000 0.519803499112 -0.418937578696
491808500 0.519549750416 -0.419166277068
491819000 0.519252703698 -0.419711361097
491829500 0.518994358316 -0.419948063943
491840000 0.519393696954 -0.419877339821
491850500 0.519738366388 -0.419170506699
491861000 0.519562572477 -0.41924856473
491871500 0.519592889684 -0.419046321791
491882000 0.519048928458 -0.41867279341
491892500 0.519366715073 -0.419239000704
491903000 0.519560808759 -0.419556078949
491913500 0.518674296394 -0.419744131027
491924000 0.518874159593 -0.419818672283
491934500 0.519104092695 -0.419776019439
491945000 0.519081887913 -0.419809511223
491955500 0.518819346853 -0.419824244222
491966000 0.519580897868 -0.419550001203
491976500 0.519623814449 -0.419614839958
491987000 0.51941424996 -0.418874551591
491997500 0.519593358042 -0.418868681112
492008000 0.51919415089 -0.41831307109
492018500 0.518509671378 -0.419220668402
492029000 0.518218998056 -0.419795652262
492039500 0.517928705082 -0.419658607911
492050000 0.518321356697 -0.419408577873
492060500 0.518580992231 -0.41983340067
492071000 0.518719299427 -0.418871345935
492081500 0.517751888622 -0.4196224386
492092000 0.518078459733 -0.419472403624
492102500 0.518321944688 -0.41917481761
492113000 0.517941381228 -0.418752394655
492123500 0.518731740256 -0.419603301367
492134000 0.518586569966 -0.419149608746
492144500 0.518162611909 -0.419772673396
492155000 0.518890267754 -0.41975262951
492165500 0.518078047235 -0.419315394063
492176000 0.518207571028 -0.41980512477
492186500 0.517829024338 -0.419513604202
492197000 0.518273251221 -0.419228750237
492207500 0.517725462514 -0.418990287319
492218000 0.517168475855 -0.41873112841
492228500 0.516798223187 -0.418818645484
492239000 0.516918465655 -0.418685687776
492249500 0.516931188233 -0.418967254575
492260000 0.516883452568 -0.418881541534
492270500 0.516502922056 -0.418895205875
492281000 0.517313551262 -0.418743357852
492291500 0.517188677418 -0.418026615985
492302000 0.517475417148 -0.418596860356
492312500 0.517210577689 -0.4182306216
492323000 0.517459552925 -0.41881457427
492333500 0.517259810515 -0.418519004557
492344000 0.517363491863 -0.418836805437
492354500 0.517277915958 -0.418888122531
492365000 0.516902426994 -0.418430351132
492375500 0.516900319117 -0.41837351395
492386000 0.51681966627 -0.418594399353
492396500 0.517779885366 -0.41845428443
492407000 0.517931826042 -0.41829403634
492417500 0.518043844234 -0.418678779023
492428000 0.517544277272 -0.418414042614
492438500 0.516726379492 -0.418896540236
492449000 0.516831606286 -0.417873973762
492459500 0.517030433838 -0.418008839056
492470000 0.517058035225 -0.418269389975
492480500 0.517162351497 -0.418126784624
492491000 0.51747117689 -0.418333270525
492501500 0.516949183837 -0.418270666261
492512000 0.516938156487 -0.417760398589
492522500 0.516767662381 -0.417896100208
492533000 0.516538367082 -0.417672866765
492543500 0.516787924163 -0.417443680321
492554000 0.516071935348 -0.417897915809
492564500 0.51716893796 -0.418358257247
492575000 0.51717906017 -0.41795431523
492585500 0.516871069532 -0.418099620831
492596000 0.51730648719 -0.41824085959
492606500 0.514487041162 -0.419612340373
492617000 0.517467800889 -0.418644021474
492627500 0.517529784563 -0.418043587222
492638000 0.5166341577 -0.417919290067
492648500 0.517212440902 -0.418191806368
492659000 0.516497583627 -0.418172681099
492669500 0.516091545145 -0.418138781465
492680000 0.515890671747 -0.417420584548
492690500 0.515790921798 -0.417543195309
492701000 0.515247808328 -0.418065278824
492711500 0.515409891315 -0.417655156882
492722000 0.514994298134 -0.417458494914
492732500 0.51581105007 -0.417429674136
492743000 0.516655173328 -0.417394153392
492753500 0.516722805498 -0.416757509635
492764000 0.51716427097 -0.417642206054
492774500 0.516475772367 -0.417625363987
492785000 0.515875184993 -0.417669840267
492795500 0.515884776612 -0.417868251574
492806000 0.517060106693 -0.418145119674
492816500 0.516101340712 -0.417657141523
492827000 0.516295281457 -0.418218072015
492837500 0.517314746215 -0.418117467826
492848000 0.516306300738 -0.418511290387
492858500 0.515772905752 -0.417146267578
492869000 0.515260307461 -0.416854049963
492879500 0.514808900022 -0.417696130979
492890000 0.515329564293 -0.416520635012
492900500 0.51511251714 -0.417632350027
492911000 0.514721948661 -0.417443276815
492921500 0.515638974847 -0.41719923614
492932000 0.516209958538 -0.416970716074
492942500 0.515736722957 -0.416217113406
492953000 0.516393851875 -0.416202416728
492963500 0.515195439146 -0.41736215931
492974000 0.514885935389 -0.416694573039
492984500 0.514268705184 -0.417531782434
492995000 0.515467292154 -0.41777695642
493005500 0.514705273087 -0.417852267703
493016000 0.514725260177 -0.418184532002
493026500 0.514697696053 -0.418104698456
493037000 0.514391761969 -0.417638729184
493047500 0.514404172526 -0.417570415263
493058000 0.514167318731 -0.417924238161
493068500 0.514565925014 -0.416378349544
493079000 0.514299113334 -0.417311128653
493089500 0.51449057865 -0.417834257015
493100000 0.513991619701 -0.41736075073
493110500 0.515036856823 -0.416442825913
493121000 0.514694188017 -0.416696505392
493131500 0.514749314954 -0.41715466959
493142000 0.514465371557 -0.416704374347
493152500 0.514828648349 -0.416828289951
493163000 0.514650151775 -0.416786089923
493173500 0.514550596504 -0.416061245966
493184000 0.514598068349 -0.416381196126
493194500 0.514058023858 -0.416112503706
493205000 0.513917393274 -0.416519632785
493215500 0.514561604403 -0.417568554764
493226000 0.513521800135 -0.416313057371
493236500 0.513140574343 -0.416399153068
493247000 0.513200658387 -0.416043783385
493257500 0.513770955939 -0.416444004186
493268000 0.513887133534 -0.417009204059
493278500 0.513241254225 -0.415994052526
493289000 0.513106493586 -0.416513277341
493299500 0.513596579568 -0.415825099411
493310000 0.514118265856 -0.41599851006
493320500 0.51393937972 -0.416855822991
493331000 0.514176973094 -0.416089762138
493341500 0.514485784823 -0.415917582299
493352000 0.513528050135 -0.415938548093
493362500 0.514547059333 -0.416383981586
493373000 0.514249789534 -0.416514026488
493383500 0.513027596592 -0.417296989672
493394000 0.514162357157 -0.415816116505
493404500 0.513314939394 -0.416625640682
493415000 0.513815450482 -0.416326202291
493425500 0.513382043229 -0.415049634253
493436000 0.513476868635 -0.41563097865
493446500 0.514530855106 -0.415998179599
493457000 0.51435287004 -0.416426801946
493467500 0.513610560659 -0.415479806344
493478000 0.514603508557 -0.416815113939
493488500 0.513752773684 -0.415218655451
493499000 0.513258027719 -0.415502715833
493509500 0.51318638911 -0.415973572237
493520000 0.513657975914 -0.415772584506
493530500 0.514203172185 -0.41511807379
493541000 0.51337203548 -0.416016735772
493551500 0.512436595387 -0.416529065912
493562000 0.514522511544 -0.414593380202
493572500 0.513230384225 -0.416625313261
493583000 0.512441284864 -0.415028045505
493593500 0.511866109747 -0.415128316432
493604000 0.513628282258 -0.416711490373
493614500 0.514658166182 -0.415595374537
493625000 0.51390282911 -0.414794211848
493635500 0.511477515843 -0.415492013389
493646000 0.512818700517 -0.415619948451
493656500 0.511539882293 -0.416252168067
493667000 0.514096961806 -0.414384737704
493677500 0.513180215974 -0.415605169942
493688000 0.51171266878 -0.415218406911
493698500 0.510914113726 -0.414902633633
493709000 0.511507440248 -0.414459802226
493719500 0.509873427502 -0.414999522106
493730000 0.511754349312 -0.414310535181
493740500 0.511587611712 -0.415704107771
493751000 0.512873366214 -0.416084024743
493761500 0.512416549825 -0.415337101083
493772000 0.511735471565 -0.415033079237
493782500 0.514225835302 -0.415143313749
493793000 0.510655294708 -0.41541133753
493803500 0.512587768861 -0.415461635539
493814000 0.513495953941 -0.416471544878
493824500 0.511525825294 -0.416203236627
493835000 0.511814494828 -0.414927882968
493845500 0.511919074422 -0.414287210395
493856000 0.510623840476 -0.415816487977
493866500 0.510624706072 -0.415932882595
493877000 0.51181391631 -0.416404081184
493887500 0.509984283037 -0.413547999154
493898000 0.512497102573 -0.415977508499
493908500 0.511528417712 -0.414059057666
493919000 0.512678421944 -0.415284164166
493929500 0.5110509969 -0.414216074998
493940000 0.511520805422 -0.414345269043
493950500 0.510708865439 -0.41547639071
493961000 0.511885130349 -0.414598466234
493971500 0.511575358428 -0.414454117891
493982000 0.512527790716 -0.41510959002
493992500 0.511742499736 -0.414386817643
494003000 0.511935153985 -0.416074193383
494013500 0.510354762311 -0.415426473881
494024000 0.510948551586 -0.413590785738
494034500 0.511034125254 -0.413641628938
494045000 0.514043683786 -0.411750658447
494055500 0.512171647376 -0.413409400917
494066000 0.511028980663 -0.414141863627
494076500 0.511261917146 -0.415462272374
494087000 0.508781197076 -0.409460090072
494097500 0.510659784017 -0.414174955946
494108000 0.510688414673 -0.413607982494
494118500 0.5155613573 -0.414460216151
494129000 0.507406120689 -0.408796707222
494139500 0.510008528447 -0.416061722465
494150000 0.513306276492 -0.414152834888
494160500 0.512973029892 -0.417133090629
494171000 0.508540329259 -0.411742661763
494181500 0.509881642367 -0.41056107756
494192000 0.511214226605 -0.414411890658
494202500 0.510481977699 -0.412797284854
494213000 0.509918029355 -0.417065706413
494223500 0.508142559661 -0.410270420587
494234000 0.512389193943 -0.408847309369
494244500 0.510075631091 -0.407524239601
494255000 0.503329271813 -0.409481257792
494265500 0.504231964807 -0.399023170799
494276000 0.505077319492 -0.413908645187
494286500 0.505841377413 -0.41600402135
494297000 0.504769530465 -0.41503611552
494307500 0.512071642444 -0.41263810136
494318000 0.506568643705 -0.416679223308
494328500 0.507211559027 -0.413023452537
494339000 0.510322023626 -0.410302471909
494349500 0.51020407368 -0.41746922701
494360000 0.507197567284 -0.404711825643
494370500 0.508753939034 -0.406007103132
494381000 0.515324628684 -0.4048085543
494391500 0.519774152003 -0.404324226917
494402000 0.510299822855 -0.420424909573
494412500 0.505505296111 -0.396099499148
494423000 0.5045844932 -0.429460792942
494433500 0.502317468137 -0.412810253756
494444000 0.506065736764 -0.423008901631
494454500 0.505513566894 -0.406338506899
494465000 0.508617009847 -0.412543354097
494475500 0.51761724326 -0.40866350513
494486000 0.525164759335 -0.410996267245
494496500 0.508226334335 -0.43246169278
494507000 0.509580824473 -0.404136661798
494517500 0.515086761384 -0.421251349024
494528000 0.513473081853 -0.416201024299
494538500 0.529772443233 -0.393285399752
494549000 0.521048179333 -0.421048310837
494559500 0.506923045368 -0.420277364818
494570000 0.514707246705 -0.414193780159
494580500 0.506025157973 -0.414186908407
494591000 0.515352583809 -0.422395673105
494601500 0.525710409284 -0.418040951406
494612000 0.507296590369 -0.418573692625
494622500 0.504857171083 -0.421863441409
494633000 0.513463347421 -0.408709778049
494643500 0.512841716452 -0.404116145237
494654000 0.507739351139 -0.4049933881
494664500 0.503792022558 -0.406194010912
494675000 0.502351424053 -0.41405269217
494685500 0.499214701501 -0.418067286902
494696000 0.519695908914 -0.412946602284
494706500 0.509175525557 -0.405307052614
494717000 0.511412900018 -0.412972323579
494727500 0.507772133508 -0.411127560917
494738000 0.512970989831 -0.422853307414
494748500 0.509074940941 -0.405389862902
494759000 0.512908850789 -0.403283757446
494769500 0.512381631571 -0.409895666919
494780000 0.501952002341 -0.411617325839
494790500 0.513131437282 -0.41450850531
494801000 0.505647241844 -0.414049275451
494811500 0.507336647381 -0.41352965065
494822000 0.511768716802 -0.416727209321
494832500 0.511269863631 -0.419575373034
494843000 0.509387058403 -0.411481598703
494853500 0.509637249372 -0.405617913171
494864000 0.507622596399 -0.411716422882
494874500 0.509641202491 -0.415039369737
494885000 0.505958572599 -0.412405378403
494895500 0.505641633796 -0.414130308213
494906000 0.507330556022 -0.412429400357
494916500 0.50835464038 -0.411344972952
494927000 0.507430382357 -0.414651391393
494937500 0.508352829528 -0.412047137636
494948000 0.507702687557 -0.412861008835
494958500 0.507336471594 -0.411646937841
494969000 0.50772328717 -0.41151985338
494979500 0.507605026908 -0.411885345365
494990000 0.507600910787 -0.41243119981
495000500 0.506798676752 -0.41268751481
495011000 0.507259861926 -0.411910476474
495021500 0.508303389386 -0.411077957212
495032000 0.507441918359 -0.411261163757
495042500 0.506898582196 -0.413095593406
495053000 0.506420414496 -0.413454274561
495063500 0.506403951263 -0.41133221624
495074000 0.5058700119 -0.412435785453
495084500 0.508599591994 -0.412593304953
495095000 0.506329519338 -0.412461609146
495105500 0.505505282003 -0.412509157173
495116000 0.507177082368 -0.41212176774
495126500 0.507018743203 -0.411667396902
495137000 0.506186353965 -0.41101187549
495147500 0.507368957943 -0.412150129913
495158000 0.506156897665 -0.41158797728
495168500 0.507376340119 -0.410894643839
495179000 0.507161239098 -0.41093392648
495189500 0.506946112675 -0.410840723665
495200000 0.507029615261 -0.41081009606
495210500 0.507073152987 -0.411342280904
495221000 0.50476417929 -0.411030876083
495231500 0.506437237162 -0.41057340261
495242000 0.506782029093 -0.413532707629
495252500 0.510112881394 -0.411804634846
495263000 0.506654436189 -0.410912019051
495273500 0.506620295464 -0.411244504543
495284000 0.505376386231 -0.41123738424
495294500 0.506299966079 -0.409691815707
495305000 0.505164613839 -0.411434429494
495315500 0.505599169746 -0.412150693037
495326000 0.50571689979 -0.411555981527
495336500 0.506734007325 -0.410897659157
495347000 0.504955596896 -0.412812715772
495357500 0.504498183585 -0.411575778273
495368000 0.505298005552 -0.409992064323
495378500 0.507567970314 -0.410966371742
495389000 0.506636526923 -0.411271505294
495399500 0.507429937035 -0.411523451501
495410000 0.505578626162 -0.411792396029
495420500 0.505145456087 -0.410056742335
495431000 0.505463703897 -0.410828513562
495441500 0.507962685427 -0.412384920759
495452000 0.505583688592 -0.41107896654
495462500 0.505718305103 -0.411128480342
495473000 0.506259993446 -0.41141227578
495483500 0.506435327196 -0.410594312111
495494000 0.504573558936 -0.412061274462
495504500 0.505418807483 -0.410607456574
495515000 0.50453278331 -0.409489331924
495525500 0.50420759357 -0.411221251375
495536000 0.504315688179 -0.411352026348
495546500 0.505060517837 -0.410654129422
495557000 0.504806783347 -0.410392180776
495567500 0.506161049262 -0.410707906846
495578000 0.505963108115 -0.410646927066
495588500 0.505438654381 -0.410393927403
495599000 0.504846534835 -0.410210133856
495609500 0.505558655216 -0.410257721592
495620000 0.50532035439 -0.410572265862
495630500 0.505563166408 -0.410350154589
495641000 0.505125070727 -0.409678739902
495651500 0.50473907598 -0.410323034533
495662000 0.505625647278 -0.41067758921
495672500 0.505228697583 -0.409842311756
495683000 0.504841014056 -0.410280950451
495693500 0.504992302126 -0.410613210795
495704000 0.505357806891 -0.409924426179
495714500 0.505276638546 -0.41019218253
495725000 0.504844037093 -0.409728699616
495735500 0.505134313633 -0.409940464357
495746000 0.505265712774 -0.410000391845
495756500 0.504818975809 -0.409859187484
495767000 0.504415220055 -0.409985086482
495777500 0.504839053984 -0.4103119835
495788000 0.504809563979 -0.409660843037
495798500 0.504976244987 -0.409830051809
495809000 0.504632542073 -0.410098874232
495819500 0.504792518638 -0.409639182955
495830000 0.504770199612 -0.409641400226
495840500 0.505297935429 -0.409501296455
495851000 0.505334474477 -0.409523541145
495861500 0.505063687753 -0.409758448139
495872000 0.504262674314 -0.41030560111
495882500 0.503982617266 -0.410157961401
495893000 0.503540097021 -0.410231835486
495903500 0.503204852814 -0.410359645446
495914000 0.503760968372 -0.410208320371
495924500 0.503641002588 -0.410033931785
495935000 0.504077787246 -0.410111588696
495945500 0.503579262254 -0.409757421021
495956000 0.503828402141 -0.410099168817
495966500 0.504875949134 -0.409429335891
495977000 0.504579003287 -0.409100726793
495987500 0.504347424237 -0.409435728777
495998000 0.503820059661 -0.409550932532
496008500 0.504203921808 -0.409300277651
496019000 0.503946233964 -0.409270193042
496029500 0.50320900157 -0.409434385566
496040000 0.503586193649 -0.409636203551
496050500 0.503431076353 -0.408975072725
496061000 0.503332908416 -0.409278922006
496071500 0.502866903128 -0.409295492068
496082000 0.502658669474 -0.409733213591
496092500 0.502960719341 -0.409202937617
496103000 0.50284442175 -0.40958027941
496113500 0.503028915982 -0.409264276789
496124000 0.50329467464 -0.409210664781
496134500 0.502804538226 -0.40928773522
496145000 0.502936742315 -0.409344732431
496155500 0.503171629727 -0.40913279771
496166000 0.502354615304 -0.409344807047
496176500 0.503186566058 -0.409301477985
496187000 0.503574822938 -0.409748959914
496197500 0.503273749636 -0.409355127639
496208000 0.503509362195 -0.408522540281
496218500 0.502826863539 -0.40903714327
496229000 0.503816457017 -0.408962859512
496239500 0.502974118375 -0.408857761532
496250000 0.503281248191 -0.408947226595
496260500 0.502780861794 -0.408581303428
496271000 0.5025091249 -0.408703971675
496281500 0.502574733799 -0.40888885979
496292000 0.502191249611 -0.408838500655
496302500 0.50315582465 -0.408814930051
496313000 0.503197110514 -0.408733931943
496323500 0.502671406838 -0.40870263826
496334000 0.502416936125 -0.408461583833
496344500 0.502543543727 -0.408534240381
496355000 0.502235390225 -0.408641215159
496365500 0.502176064607 -0.408115432657
496376000 0.502390905251 -0.408789896489
496386500 0.501891879491 -0.409014038425
496397000 0.502147158731 -0.409779961149
496407500 0.502018912709 -0.409680586725
496418000 0.502645776587 -0.408877434776
496428500 0.502277208279 -0.408567835123
496439000 0.501930856561 -0.408202306617
496449500 0.502077013349 -0.407971618012
496460000 0.501739374002 -0.408068931338
496470500 0.501976228555 -0.407943591003
496481000 0.501978327717 -0.40819247986
496491500 0.50251537292 -0.408356173275
496502000 0.502256225858 -0.408371263562
496512500 0.502343094944 -0.408623808986
496523000 0.502337134489 -0.408435261142
496533500 0.501991471852 -0.408003319071
496544000 0.502405385719 -0.40784164505
496554500 0.501792848463 -0.408374270521
496565000 0.501777592505 -0.408285931551
496575500 0.500966246081 -0.408372257985
496586000 0.501258279474 -0.408192006075
496596500 0.501178241841 -0.407878646804
496607000 0.501749957711 -0.408460997045
496617500 0.501733477125 -0.407598947067
496628000 0.501793240719 -0.407973461718
496638500 0.50121502034 -0.407466121706
496649000 0.501381149611 -0.407390724942
496659500 0.501327283209 -0.40779814093
496670000 0.501398436934 -0.40805833091
496680500 0.501409504649 -0.407924993241
496691000 0.501385897821 -0.408137020152
496701500 0.501183706772 -0.407604324853
496712000 0.501493526719 -0.407851372869
496722500 0.5013254855 -0.407651230982
496733000 0.50140725927 -0.407515657691
496743500 0.500736290364 -0.40757404735
496754000 0.500185489583 -0.408102445185
496764500 0.499659524979 -0.408137482414
496775000 0.499517897807 -0.408270734056
496785500 0.499721087869 -0.408074411797
496796000 0.499834758072 -0.407391601674
496806500 0.500926131015 -0.407905159043
496817000 0.500529349483 -0.408067082532
496827500 0.501020650691 -0.40749402708
496838000 0.501095692589 -0.407255638049
496848500 0.50055193086 -0.406866371146
496859000 0.500715446527 -0.406789005408
496869500 0.500354978221 -0.407338869172
496880000 0.499906250444 -0.407719134434
496890500 0.500505115508 -0.407486473321
496901000 0.500415702565 -0.407394619216
496911500 0.500017142706 -0.407519907032
496922000 0.500689441084 -0.407403211462
496932500 0.500332573493 -0.407554182856
496943000 0.500608127449 -0.407097123189
496953500 0.500499095009 -0.407397876746
496964000 0.500302820634 -0.407276664809
496974500 0.499874969741 -0.407166595319
496985000 0.499457286433 -0.407100937571
496995500 0.499896739474 -0.406818451342
497006000 0.499690088484 -0.406773847515
497016500 0.500051886298 -0.40697177195
497027000 0.500185006014 -0.407288149166
497037500 0.499966029657 -0.407118903716
497048000 0.499470783439 -0.403940038241
497058500 0.499812312646 -0.406769821333
497069000 0.499613341411 -0.406618391697
497079500 0.499410520489 -0.406600033221
497090000 0.499302413062 -0.406943873678
497100500 0.499481931574 -0.406947436868
497111000 0.499410659463 -0.406310792334
497121500 0.49958152661 -0.406605208856
497132000 0.499694484789 -0.406319739354
497142500 0.499289533995 -0.406508863645
497153000 0.499012515191 -0.406108692337
497163500 0.499708647638 -0.406500292597
497174000 0.499810794546 -0.406541036034
497184500 0.499199015065 -0.406355266334
497195000 0.498903559823 -0.406954365193
497205500 0.499038962058 -0.406327072704
497216000 0.498982433036 -0.406300913098
497226500 0.499037685768 -0.405876601988
497237000 0.495802681483 -0.406464700263
497247500 0.499056526622 -0.405901594176
497258000 0.498637831356 -0.40649180935
497268500 0.499401089523 -0.406233094565
497279000 0.499496658603 -0.406711611037
497289500 0.498891677737 -0.405538852467
497300000 0.498967171696 -0.406012958743
497310500 0.499551105835 -0.406110569972
497321000 0.499387211595 -0.406482409897
497331500 0.499062971187 -0.406140081812
497342000 0.498746369823 -0.406112544868
497352500 0.498813791904 -0.405435948385
497363000 0.498671478844 -0.40496846055
497373500 0.499447871109 -0.405785148382
497384000 0.499416449897 -0.406294406421
497394500 0.499174978354 -0.405865424974
497405000 0.497986021904 -0.405958266556
497415500 0.498465821838 -0.405942538935
497426000 0.498793035472 -0.405907291029
497436500 0.499105078498 -0.405856261569
497447000 0.49817219038 -0.405471060715
497457500 0.498247287009 -0.405823197937
497468000 0.497991244403 -0.406035792208
497478500 0.498052666525 -0.405451996255
497489000 0.498519244068 -0.405717303365
497499500 0.498457849158 -0.405886596155
497510000 0.498025832083 -0.405467573995
497520500 0.49844189781 -0.40605581282
497531000 0.497667223694 -0.405516629578
497541500 0.498329172163 -0.405396792541
497552000 0.497848045542 -0.405283370925
497562500 0.498068476215 -0.40608176505
497573000 0.498012410369 -0.405174288656
497583500 0.497819057434 -0.405401426895
497594000 0.498218521065 -0.404999321351
497604500 0.498041197238 -0.404790427603
497615000 0.498151409939 -0.404512127657
497625500 0.497489898596 -0.404688941761
497636000 0.497351955546 -0.404963602451
497646500 0.497277579718 -0.405353673582
497657000 0.497964751196 -0.405235005057
497667500 0.49789147025 -0.404982259036
497678000 0.497183844173 -0.405039966793
497688500 0.497295068446 -0.405462333723
497699000 0.497131265555 -0.405685314779
497709500 0.497588093702 -0.405206318916
497720000 0.497674351047 -0.40466580141
497730500 0.497226771557 -0.404088834001
497741000 0.496299298734 -0.404520759233
497751500 0.497199247753 -0.404316704086
497762000 0.496184918514 -0.404698744101
497772500 0.497580610853 -0.404748120358
497783000 0.497320715377 -0.404260605827
497793500 0.49747861349 -0.404103958611
497804000 0.497132730708 -0.404694159929
497814500 0.497168478278 -0.404856104964
497825000 0.497156011519 -0.405267675263
497835500 0.497224751571 -0.405097419762
497846000 0.496583756782 -0.404811226802
497856500 0.496672338765 -0.404460394677
497867000 0.496763747785 -0.404256350448
497877500 0.496543023976 -0.404367950481
497888000 0.496766406755 -0.404215021903
497898500 0.497068113926 -0.403681774437
497909000 0.496554534191 -0.403995255505
497919500 0.496922060587 -0.404068926997
497930000 0.496335652529 -0.403660501649
497940500 0.496531211941 -0.403857745075
497951000 0.495811182943 -0.403605318037
497961500 0.495486854451 -0.403502300115
497972000 0.496068629707 -0.404390787887
497982500 0.496169939565 -0.404689190765
497993000 0.4959899279 -0.404456587929
498003500 0.496507509201 -0.403594027418
498014000 0.496373485289 -0.403540466042
498024500 0.496698037001 -0.403447051136
498035000 0.495951527844 -0.403871700178
498045500 0.495732726533 -0.404540385163
498056000 0.495565935675 -0.404099772215
498066500 0.495900677859 -0.403764423871
498077000 0.495402988586 -0.403618444115
498087500 0.496051164457 -0.403837664912
498098000 0.496151688913 -0.403651378791
498108500 0.496377056646 -0.404090472646
498119000 0.49590537687 -0.403351035845
498129500 0.49640102434 -0.403755500027
498140000 0.496489718173 -0.403970287784
498150500 0.496273842901 -0.404024928158
498161000 0.496014355095 -0.404329324785
498171500 0.495788039239 -0.403803260836
498182000 0.495162296701 -0.403652831019
498192500 0.494759939268 -0.403626891989
498203000 0.495125841539 -0.403631763613
498213500 0.495377997343 -0.403224858169
498224000 0.495745206516 -0.403635418303
498234500 0.495257625759 -0.4038862335
498245000 0.496362154217 -0.403926871289
498255500 0.495548128841 -0.403245897365
498266000 0.495174720427 -0.403392539098
498276500 0.49581208346 -0.4026379746
498287000 0.496586898254 -0.401126910087
498297500 0.499163526178 -0.402504393207
498308000 0.496776306593 -0.401372225664
498318500 0.500921972889 -0.399586929498
498329000 0.494886507488 -0.405952185998
498339500 0.49319895508 -0.405635486991
498350000 0.494360450548 -0.403625433263
498360500 0.494475759975 -0.402631672578
498371000 0.494630173542 -0.402938025264
498381500 0.495428762328 -0.402220712613
498392000 0.494787310301 -0.403225654081
498402500 0.495084027982 -0.402448348301
498413000 0.495316538606 -0.402107859361
498423500 0.494210607553 -0.402187872856
498434000 0.494238828694 -0.402870810507
498444500 0.49530438665 -0.401343379499
498455000 0.49433933009 -0.402992626531
498465500 0.49515988093 -0.401364778831
498476000 0.49296417872 -0.402138473336
498486500 0.497244336128 -0.402478048043
498497000 0.493851012429 -0.40113249871
498507500 0.494981957213 -0.403698571748
498518000 0.495854095613 -0.405131984282
498528500 0.494972320144 -0.40051413608
498539000 0.495138842018 -0.404304918264
498549500 0.494561274422 -0.40464610269
498560000 0.494597650672 -0.400613909428
498570500 0.495489018581 -0.403605799358
498581000 0.497026700463 -0.403182650299
498591500 0.494066120703 -0.404268148237
498602000 0.49319501039 -0.398390372438
498612500 0.493858502805 -0.397069497365
498623000 0.493506743703 -0.400871564038
498633500 0.494456768312 -0.404274087714
498644000 0.493185140637 -0.401469928202
498654500 0.493924033974 -0.404438971662
498665000 0.495027117588 -0.401626547563
498675500 0.492993051517 -0.401391879088
498686000 0.489295058602 -0.399413888708
498696500 0.493316653607 -0.401169714843
498707000 0.494291601917 -0.396884957096
498717500 0.492583267593 -0.401025537565
498728000 0.495028582321 -0.40016849481
498738500 0.491923541926 -0.402417621118
498749000 0.490595175988 -0.400337165974
498759500 0.495977648918 -0.40009184157
498770000 0.49259594998 -0.397705576504
498780500 0.492961811584 -0.402298228161
498791000 0.493648711625 -0.400573598338
498801500 0.494554808355 -0.401062027792
498812000 0.493739446907 -0.40112839011
498822500 0.493670783256 -0.40184659792
498833000 0.49391961997 -0.401144092571
498843500 0.491705128383 -0.403648839398
498854000 0.493432024701 -0.401677992354
498864500 0.494025449706 -0.401852872345
498875000 0.492214524114 -0.400877664302
498885500 0.492644115513 -0.403017214851
498896000 0.494737004238 -0.403248576748
498906500 0.492310521959 -0.401077283615
498917000 0.493930755716 -0.400844388417
498927500 0.49449291686 -0.401172425946
498938000 0.491583825745 -0.401268712098
498948500 0.492243168156 -0.400667542813
498959000 0.492628195061 -0.400447186829
498969500 0.492885971011 -0.40155202387
498980000 0.49343007567 -0.400598111763
498990500 0.49394406772 -0.400113635645
499001000 0.493206524365 -0.401086059982
499011500 0.49340608384 -0.400135125072
499022000 0.491922608683 -0.401505832469
499032500 0.492858489557 -0.400919211604
499043000 0.492889878125 -0.401216859524
499053500 0.490453814477 -0.400432046975
499064000 0.489976225561 -0.398850637741
499074500 0.491991243779 -0.401609093763
499085000 0.492788069405 -0.398130129481
499095500 0.490590590737 -0.400889208715
499106000 0.490889716773 -0.39806171072
499116500 0.493314274548 -0.398758840129
499127000 0.490952189515 -0.399914239932
499137500 0.49172735508 -0.401287747003
499148000 0.491507740528 -0.401154620291
499158500 0.488828278332 -0.400080313541
499169000 0.481640088069 -0.402477230943
499179500 0.496315570715 -0.402781452775
499190000 0.495660221347 -0.402404503693
499200500 0.491891468494 -0.399417015391
499211000 0.488593796145 -0.397430355583
499221500 0.501845380306 -0.402250464214
499232000 0.489115003207 -0.397982242951
499242500 0.495089601732 -0.401106773923
499253000 0.491355923527 -0.401008503993
499263500 0.495967913789 -0.401185585739
499274000 0.480504286697 -0.396194186898
499284500 0.497528471188 -0.398315410072
499295000 0.486150761226 -0.390729128346
499305500 0.488506944389 -0.397176025324
499316000 0.488893446912 -0.402275787361
499326500 0.49643413737 -0.412097750761
499337000 0.496385738578 -0.395626906132
499347500 0.487551213301 -0.409509889906
499358000 0.481295478316 -0.400967507007
499368500 0.485357809641 -0.393470622751
499379000 0.493922290226 -0.399527119075
499389500 0.500916452537 -0.394504576478
499400000 0.488753855346 -0.407797155991
499410500 0.493304673042 -0.391674881707
499421000 0.49640061923 -0.403652678701
499431500 0.473780477114 -0.406636365008
499442000 0.477529194862 -0.394483331115
499452500 0.493001580143 -0.411000698377
499463000 0.492784296407 -0.3914027036
499473500 0.481973877104 -0.402603814849
499484000 0.489121693693 -0.399890924613
499494500 0.477477235729 -0.39794292286
499505000 0.494200849064 -0.382268514007
499515500 0.474971528911 -0.39102369017
499526000 0.494939868488 -0.3800278402
499536500 0.481309676616 -0.411721294969
499547000 0.500166759394 -0.408436450506
499557500 0.480782152968 -0.403495160044
499568000 0.490056151375 -0.400622845104
499578500 0.490682599738 -0.404068096304
499589000 0.491716551573 -0.404429076484
499599500 0.480518641305 -0.38652707913
499610000 0.486046543907 -0.39680125208
499620500 0.494232579367 -0.392423785184
499631000 0.479470753186 -0.394215777215
499641500 0.493034950541 -0.403304479477
499652000 0.492215076496 -0.400840125658
499662500 0.482727730772 -0.398384749648
499673000 0.491012725127 -0.396580809557
499683500 0.489806228335 -0.39861612156
499694000 0.488195032482 -0.403631663654
499704500 0.493871601513 -0.401672103226
499715000 0.48619463657 -0.395799215196
499725500 0.490950193365 -0.400666675926
499736000 0.495389701683 -0.404345254307
499746500 0.485696465174 -0.39658405003
499757000 0.482671762503 -0.399537459371
499767500 0.490162960846 -0.400462405561
499778000 0.490066654382 -0.398354974116
499788500 0.48859806449 -0.39973394079
499799000 0.489968148532 -0.40488337574
499809500 0.485364888819 -0.401458962135
499820000 0.49273824224 -0.400463567219
499830500 0.490379003416 -0.3991705553
499841000 0.489252512663 -0.399635375351
499851500 0.491617959843 -0.397912193527
499862000 0.489948859807 -0.395370181255
499872500 0.489051505363 -0.397764700329
499883000 0.488600314104 -0.398752541165
499893500 0.490411347719 -0.398870978793
499904000 0.487676136313 -0.398678713164
499914500 0.489703032338 -0.398405712695
499925000 0.490168156484 -0.398608589809
499935500 0.489564817741 -0.399348589952
499946000 0.490483757245 -0.398571784314
499956500 0.488763817819 -0.398337214487
499967000 0.487226149549 -0.398896562727
499977500 0.489020407002 -0.399192236273
499988000 0.488327185508 -0.397869044764
499998500 0.487764994198 -0.397909645236
500009000 0.488462053387 -0.397804468518
500019500 0.488425774736 -0.398412745505
500030000 0.489429614867 -0.398528872637
500040500 0.487848952667 -0.397657591257
500051000 0.48863686373 -0.397808689844
500061500 0.488155695715 -0.398807158384
500072000 0.488762907513 -0.398501908054
500082500 0.48838865688 -0.397219965226
500093000 0.48940264066 -0.398455887888
500103500 0.489723010174 -0.397885716914
500114000 0.487408462183 -0.399048975307
500124500 0.487828931157 -0.399046148534
500135000 0.486306992182 -0.398261191759
500145500 0.488295378078 -0.398135103459
500156000 0.487750417563 -0.396363313873
500166500 0.487578459623 -0.398275081626
500177000 0.486874199409 -0.397895316686
500187500 0.48888455277 -0.398717494995
500198000 0.488969506233 -0.396916032461
500208500 0.487066379372 -0.397736002773
500219000 0.488170928022 -0.397868126141
500229500 0.487797164976 -0.39776551316
500240000 0.486986814241 -0.39924232
500250500 0.486901640876 -0.39755827979
500261000 0.486909842798 -0.398080492813
500271500 0.484981024368 -0.396637601566
500282000 0.488207674479 -0.397019256182
500292500 0.487337997363 -0.39602533703
500303000 0.487519921191 -0.397712602098
500313500 0.490737789271 -0.395700047759
500324000 0.487374515486 -0.398201000454
500334500 0.487881683089 -0.39605272039
500345000 0.488280004869 -0.39606694321
500355500 0.488403415495 -0.39600209793
500366000 0.486338449615 -0.397489365312
500376500 0.488455461927 -0.399417473808
500387000 0.486857085823 -0.396183609072
500397500 0.486844653919 -0.397142318151
500408000 0.48797573349 -0.399518368567
500418500 0.486607101065 -0.397090680817
500429000 0.487309630638 -0.396289727278
500439500 0.488029526803 -0.395848342706
500450000 0.487743570736 -0.399702701012
500460500 0.487800890831 -0.395889893249
500471000 0.485707926608 -0.395865406187
500481500 0.486384602939 -0.396116746947
500492000 0.487855500501 -0.396095560873
500502500 0.486677112877 -0.397214221392
500513000 0.485427791348 -0.395818643603
500523500 0.486821273004 -0.396925086465
500534000 0.487491989886 -0.396983872527
500544500 0.487133813001 -0.396625594995
500555000 0.4869780532 -0.396487724883
500565500 0.486926954231 -0.396340367678
500576000 0.486831968855 -0.395528006657
500586500 0.486723005192 -0.395899055617
500597000 0.487131489618 -0.395304513693
500607500 0.48641867169 -0.394737907605
500618000 0.485931116243 -0.394732822699
500628500 0.485756492824 -0.396001818467
500639000 0.486481685545 -0.395212041597
500649500 0.486507433206 -0.395423167485
500660000 0.486584224855 -0.395159336148
500670500 0.486466106168 -0.395789104783
500681000 0.486166284937 -0.395394258621
500691500 0.486512670172 -0.395577395557
500702000 0.486722064975 -0.395510162976
500712500 0.486114840076 -0.396100617861
500723000 0.486473766552 -0.395587800008
500733500 0.486082071681 -0.396118682122
500744000 0.485822501597 -0.395750063597
500754500 0.486289943512 -0.395765502976
500765000 0.486414529045 -0.395449238979
500775500 0.486306066922 -0.395178870666
500786000 0.48603383357 -0.395209563965
500796500 0.485521323898 -0.395250391975
500807000 0.486111727412 -0.395175019699
500817500 0.486016750043 -0.395344884884
500828000 0.485979435149 -0.395464240391
500838500 0.485808961839 -0.394926365231
500849000 0.485735647958 -0.395171603035
500859500 0.485786206459 -0.394373135894
500870000 0.485583355781 -0.395376769283
500880500 0.485621042482 -0.395797007507
500891000 0.485682476774 -0.39610415408
500901500 0.485229964744 -0.395568856584
500912000 0.485501096842 -0.39464007485
500922500 0.485636677023 -0.395002180949
500933000 0.485209477632 -0.395277539766
500943500 0.485090170605 -0.394850432705
500954000 0.485941998798 -0.394839331563
500964500 0.486289779242 -0.394611283489
500975000 0.485623945689 -0.394417134566
500985500 0.484867699797 -0.394758147542
500996000 0.484654436791 -0.39429598509
501006500 0.485170205515 -0.393977580528
501017000 0.484449515226 -0.394575868809
501027500 0.484262315008 -0.394175751436
501038000 0.484446450059 -0.393610498441
501048500 0.484815455632 -0.394263317015
501059000 0.485178608967 -0.394012474479
501069500 0.484722978696 -0.394489595138
501080000 0.484169921522 -0.395580563428
501090500 0.485067615993 -0.395164736801
501101000 0.484956701833 -0.394646608328
501111500 0.484953490054 -0.394236662304
501122000 0.484565452662 -0.394123386466
501132500 0.484829755542 -0.394104245526
501143000 0.484850955056 -0.394258134502
501153500 0.484718832133 -0.393905775837
501164000 0.484778948621 -0.393794183809
501174500 0.484502303605 -0.393499056701
501185000 0.484510929762 -0.394573229759
501195500 0.484613839485 -0.393105071192
501206000 0.484397438901 -0.393717850936
501216500 0.484868042349 -0.393545983262
501227000 0.484875355177 -0.393159676758
501237500 0.48470775114 -0.392999604641
501248000 0.484026111006 -0.393499413285
501258500 0.484158276691 -0.393785573681
501269000 0.484300473578 -0.393528092883
501279500 0.483783098215 -0.393176256234
501290000 0.483525534635 -0.393193532958
501300500 0.484023530794 -0.393521629291
501311000 0.483130015816 -0.393703942228
501321500 0.484002322331 -0.394020352466
501332000 0.483617150738 -0.393197417246
501342500 0.48423612639 -0.393570161379
501353000 0.483675222174 -0.393254707468
501363500 0.483075591321 -0.392990278844
501374000 0.482921401255 -0.393245558521
501384500 0.483128747407 -0.393632137523
501395000 0.484532440048 -0.393040824596
501405500 0.483569051765 -0.392471728576
501416000 0.485135655165 -0.393637793768
501426500 0.483979624708 -0.393143069031
501437000 0.483606406337 -0.392992765256
501447500 0.48323806499 -0.392792397791
501458000 0.48262725217 -0.393841071024
501468500 0.483517774316 -0.393525484135
501479000 0.483307658458 -0.3934108282
501489500 0.483732044693 -0.391962727461
501500000 0.483406028258 -0.3921998705
501510500 0.482972007314 -0.393015255852
501521000 0.483090563383 -0.392672297621
501531500 0.482993453762 -0.392781088712
501542000 0.482722049398 -0.392715057369
501552500 0.482677451423 -0.392741374416
501563000 0.482900047973 -0.392575988201
501573500 0.48269097871 -0.393282525641
501584000 0.482424943269 -0.3929107954
501594500 0.48279637871 -0.392427748267
501605000 0.483114735083 -0.392536069845
501615500 0.482901451979 -0.392725600443
501626000 0.48277536738 -0.393142173631
501636500 0.482270623202 -0.392940800628
501647000 0.482191470639 -0.39279384424
501657500 0.482014320413 -0.392369990801
501668000 0.482356387275 -0.392655500508
501678500 0.482271378224 -0.393738340307
501689000 0.482164317802 -0.394256373035
501699500 0.482732074111 -0.393848722461
501710000 0.482932525064 -0.393286490231
501720500 0.483203114288 -0.392443315854
501731000 0.482988500941 -0.392240211686
501741500 0.482304650305 -0.391602314776
501752000 0.482037898484 -0.391602083424
501762500 0.482699129851 -0.392139932439
501773000 0.482181659675 -0.391768790819
501783500 0.482139686443 -0.392055028519
501794000 0.481962581339 -0.391867684478
501804500 0.482846244025 -0.391348283256
501815000 0.482422345759 -0.391580732074
501825500 0.482272949621 -0.391875511971
501836000 0.482132581195 -0.392031280853
501846500 0.481768428146 -0.391620603076
501857000 0.481672457881 -0.391466395258
501867500 0.481404901087 -0.391066391787
501878000 0.481840599538 -0.391557163201
501888500 0.482503335675 -0.391334101314
501899000 0.482871277838 -0.391312564369
501909500 0.482486349265 -0.391139672424
501920000 0.48230063347 -0.391458512772
501930500 0.482028750518 -0.391037505861
501941000 0.482038335934 -0.391501356573
501951500 0.481779491356 -0.391499977549
501962000 0.481503757473 -0.390839444851
501972500 0.482074030468 -0.390854981121
501983000 0.482191715418 -0.391395339473
501993500 0.482035725273 -0.390925811328
502004000 0.481591113881 -0.390171306008
502014500 0.482028028704 -0.390481121513
502025000 0.481859562598 -0.390539855452
502035500 0.482151989517 -0.390414427031
502046000 0.481765411887 -0.390805301312
502056500 0.481589154167 -0.390751172145
502067000 0.48162477232 -0.390522973578
502077500 0.481814013911 -0.39006575638
502088000 0.481903135733 -0.389848558231
502098500 0.481083247395 -0.390714634559
502109000 0.481342432817 -0.390286314364
502119500 0.480647620409 -0.390294025591
502130000 0.481316086846 -0.390012030116
502140500 0.481038254152 -0.39030522792
502151000 0.480712228459 -0.389791005606
502161500 0.48101791332 -0.389828680381
502172000 0.481333210006 -0.389848516523
502182500 0.481043418792 -0.389589591016
502193000 0.481381410517 -0.38958430882
502203500 0.481289829056 -0.390015906621
502214000 0.480922693642 -0.39014083011
502224500 0.480854770615 -0.389965551355
502235000 0.481262670646 -0.390107947545
502245500 0.481073974513 -0.389484406222
502256000 0.480952870872 -0.389727928338
502266500 0.480260599089 -0.388757208581
502277000 0.480337023605 -0.389063432597
502287500 0.481002456883 -0.38936140791
502298000 0.481331081477 -0.389394401194
502308500 0.480567139999 -0.388544937887
502319000 0.480705921751 -0.389612980332
502329500 0.480556979233 -0.389510780996
502340000 0.480496289107 -0.390090766444
502350500 0.480901134439 -0.390308084348
502361000 0.480497707392 -0.389558084847
502371500 0.481096411294 -0.390002069744
502382000 0.480946066875 -0.389674378401
502392500 0.480590273795 -0.389204518055
502403000 0.480723032195 -0.389393013068
502413500 0.480944112837 -0.389040056044
502424000 0.480312882949 -0.38928213915
502434500 0.480514878994 -0.388497484209
502445000 0.480536946713 -0.388847517455
502455500 0.480160981744 -0.389011444514
502466000 0.479644518099 -0.38902548723
502476500 0.479743363699 -0.389295289956
502487000 0.480011124295 -0.388853497982
502497500 0.48004043703 -0.388959499958
502508000 0.479893846617 -0.388521736715
502518500 0.479941195793 -0.388624491959
502529000 0.479489017748 -0.387934972205
502539500 0.479481672274 -0.388566324157
502550000 0.479927600151 -0.388264438066
502560500 0.479233977063 -0.388053072154
502571000 0.480164791684 -0.388086383291
502581500 0.480513631298 -0.387766507441
502592000 0.480045805563 -0.388515091592
502602500 0.479934492477 -0.387846957408
502613000 0.479738180931 -0.387678938382
502623500 0.479544382746 -0.388251330011
502634000 0.478968890928 -0.38764041077
502644500 0.478850615821 -0.387682243314
502655000 0.479209217481 -0.388053393769
502665500 0.479669584013 -0.387459651205
502676000 0.479340741245 -0.38783929961
502686500 0.47882422842 -0.388215583117
502697000 0.479540371706 -0.388276412721
502707500 0.479584177089 -0.387841212568
502718000 0.479358208213 -0.387369934209
502728500 0.479284519116 -0.387083627248
502739000 0.480165913511 -0.386871231569
502749500 0.479161354141 -0.387429259429
502760000 0.479046542183 -0.387835543214
502770500 0.479242307878 -0.387183417915
502781000 0.479228447858 -0.387099856792
502791500 0.479480838657 -0.387294594796
502802000 0.479035960914 -0.386944912571
502812500 0.479403813449 -0.387792928757
502823000 0.478896896536 -0.387448944115
502833500 0.479466728936 -0.387325451174
502844000 0.479418563888 -0.387284863172
502854500 0.479291728148 -0.387297251195
502865000 0.479454522629 -0.387100847556
502875500 0.479545237019 -0.387167627142
502886000 0.480005597673 -0.38689467548
502896500 0.478726722299 -0.386364506656
502907000 0.479109500169 -0.386595695683
502917500 0.479308937602 -0.38703752974
502928000 0.479102574317 -0.386263594029
502938500 0.478589052699 -0.386829968033
502949000 0.478768183622 -0.386294010318
502959500 0.478847421366 -0.386343848106
502970000 0.47965180341 -0.386418130142
502980500 0.479030936621 -0.386728422762
502991000 0.479879418646 -0.38580859514
503001500 0.478795079012 -0.386762616177
503012000 0.479214304936 -0.386081572569
503022500 0.478705506379 -0.385781271861
503033000 0.478779034013 -0.38555783756
503043500 0.479031818279 -0.386299223832
503054000 0.479440654794 -0.386154302616
503064500 0.477710793465 -0.386087488984
503075000 0.478110964071 -0.385563685423
503085500 0.478320572162 -0.387005881736
503096000 0.478807591425 -0.385769628158
503106500 0.47937395479 -0.386149084063
503117000 0.478700915759 -0.384022429864
503127500 0.47872773124 -0.383013799625
503138000 0.476654770191 -0.385952199398
503148500 0.479289669515 -0.384501428102
503159000 0.477841065549 -0.38592567675
503169500 0.480592557424 -0.381719134521
503180000 0.477026346596 -0.389432520748
503190500 0.479879085101 -0.386230819388
503201000 0.477984872401 -0.384508371726
503211500 0.482773977282 -0.383917209707
503222000 0.478610381495 -0.379520488939
503232500 0.478535693181 -0.385079654599
503243000 0.479315791784 -0.387602711286
503253500 0.475857419345 -0.385577466248
503264000 0.47811891108 -0.385270662876
503274500 0.482928648092 -0.386285237378
503285000 0.479787894004 -0.378282734385
503295500 0.483007641136 -0.388313214632
503306000 0.479665368309 -0.386453332193
503316500 0.478042181979 -0.384179263809
503327000 0.473364913154 -0.385315615056
503337500 0.477499911179 -0.388413103936
503348000 0.471639012393 -0.388786362855
503358500 0.475370517599 -0.3867699169
503369000 0.470641072121 -0.387289734097
503379500 0.475459976238 -0.383306239415
503390000 0.478944531117 -0.386364219814
503400500 0.476903583142 -0.386613391053
503411000 0.48609322046 -0.388005135778
503421500 0.471480868162 -0.377223357468
503432000 0.473142850995 -0.388002768489
503442500 0.471659607869 -0.38311001283
503453000 0.476741346612 -0.388763366589
503463500 0.47608627172 -0.384774879434
503474000 0.47577729484 -0.386185442862
503484500 0.477493161815 -0.38720282397
503495000 0.478261722315 -0.39123436632
503505500 0.473352899001 -0.388120811965
503516000 0.479844595231 -0.384100980399
503526500 0.481502594536 -0.38653914905
503537000 0.472011812871 -0.3795548385
503547500 0.478806331593 -0.386334616676
503558000 0.480278821102 -0.386015074656
503568500 0.482815802106 -0.388266688856
503579000 0.479347623185 -0.392177698153
503589500 0.475243467273 -0.381714620248
503600000 0.476243335345 -0.382278817895
503610500 0.476097769783 -0.379594338034
503621000 0.478076511312 -0.383247047983
503631500 0.479168805104 -0.373555734097
503642000 0.482148173834 -0.3851046633
503652500 0.474262364514 -0.377152312624
503663000 0.473874287674 -0.387908225146
503673500 0.473617706606 -0.381630096331
503684000 0.474836446909 -0.383300850185
503694500 0.479463447266 -0.381704008003
503705000 0.472182113839 -0.386105146909
503715500 0.484294743706 -0.377098869781
503726000 0.478972718053 -0.375214244574
503736500 0.476820064871 -0.381551109289
503747000 0.476447493366 -0.379168784689
503757500 0.477486544657 -0.383003663114
503768000 0.474726547225 -0.378392487356
503778500 0.478507025507 -0.382157117159
503789000 0.475437524988 -0.382548991453
503799500 0.478375196541 -0.381476850619
503810000 0.478112394778 -0.382556235297
503820500 0.480997544207 -0.381931656294
503831000 0.476132883505 -0.383657700193
503841500 0.477340068865 -0.382578823519
503852000 0.477265256144 -0.380727363639
503862500 0.477060059825 -0.380280583815
503873000 0.475279370187 -0.382903832448
503883500 0.478425087136 -0.383779734217
503894000 0.477554014063 -0.38251100789
503904500 0.477178804824 -0.382950610444
503915000 0.476644276195 -0.382444812039
503925500 0.476970710343 -0.381656016637
503936000 0.478197647515 -0.381160594138
503946500 0.47648308237 -0.381380153748
503957000 0.476044646229 -0.381085052046
503967500 0.4766205255 -0.381772833753
503978000 0.476443709152 -0.380909254621
503988500 0.476722559196 -0.381374802071
503999000 0.477193009427 -0.381161573528
504009500 0.477004791215 -0.381340952237
504020000 0.476559366749 -0.381224128591
504030500 0.476419505732 -0.381140036033
504041000 0.47607235649 -0.380249064084
504051500 0.47669208353 -0.380642749093
504062000 0.476242572996 -0.380567020348
504072500 0.476303155168 -0.38010461625
504083000 0.476543686969 -0.380780202213
504093500 0.475806169478 -0.38007944902
504104000 0.476125816801 -0.380580646024
504114500 0.476885461731 -0.380914403366
504125000 0.476728341207 -0.379753372661
504135500 0.475676383821 -0.380166873179
504146000 0.476501284138 -0.380061604162
504156500 0.476535404253 -0.379965252832
504167000 0.476054927415 -0.379911809713
504177500 0.475206885485 -0.37980312809
504188000 0.475148369762 -0.379294916267
504198500 0.476133323015 -0.379954053798
504209000 0.47512753389 -0.379548776282
504219500 0.475242527748 -0.379448135467
504230000 0.474962281454 -0.379394304003
504240500 0.475453913758 -0.379417342453
504251000 0.475217622162 -0.379239095669
504261500 0.475299850474 -0.37888492986
504272000 0.474643093483 -0.379113317554
504282500 0.474796484406 -0.378949496707
504293000 0.47428541924 -0.378624592156
504303500 0.474828314796 -0.378182045173
504314000 0.474006478674 -0.378424193488
504324500 0.474259870011 -0.378937787842
504335000 0.474142822754 -0.378026894481
504345500 0.474135744713 -0.378293756879
504356000 0.474801258159 -0.378548389328
504366500 0.474593714638 -0.378532671694
504377000 0.474434527136 -0.37819067191
504387500 0.474540297538 -0.378250432871
504398000 0.473712859966 -0.378416148564
504408500 0.474190087793 -0.37870325938
504419000 0.474080595184 -0.378521212219
504429500 0.474047463667 -0.378587174121
504440000 0.473965951729 -0.378710875923
504450500 0.473988902706 -0.378489612109
504461000 0.474134278727 -0.378145112133
504471500 0.474119311133 -0.378286127355
504482000 0.474124650756 -0.377966348691
504492500 0.473114284741 -0.37779950557
504503000 0.472283218418 -0.37792259909
504513500 0.471409878138 -0.377692629935
504524000 0.472527526074 -0.378431114531
504534500 0.47329089975 -0.378591679585
504545000 0.473585137316 -0.378454396355
504555500 0.473221179296 -0.378977625613
504566000 0.473435187388 -0.378849046212
504576500 0.473412807132 -0.37879654727
504587000 0.47274876722 -0.378148395428
504597500 0.472857205936 -0.377934723866
504608000 0.473054477527 -0.378390194375
504618500 0.47339799504 -0.378457116031
504629000 0.473353431129 -0.378411843721
504639500 0.473360170735 -0.378395324774
504650000 0.472562392069 -0.379288298349
504660500 0.474349736937 -0.377847881502
504671000 0.474834632906 -0.377952290283
504681500 0.475618698416 -0.376855764452
504692000 0.474614240865 -0.377065479921
504702500 0.473835756446 -0.377073682009
504713000 0.473655336817 -0.376943811088
504723500 0.473869639835 -0.377321694305
504734000 0.474117445591 -0.377315107822
504744500 0.473485018082 -0.376998083773
504755000 0.474064250194 -0.37787982758
504765500 0.473824189092 -0.377463964478
504776000 0.473481502205 -0.377932768527
504786500 0.473503579302 -0.377434014598
504797000 0.473103380658 -0.377463726278
504807500 0.473530745237 -0.376863055702
504818000 0.473790688806 -0.376682268902
504828500 0.47462694761 -0.376836382748
504839000 0.47350271371 -0.376404448795
504849500 0.472507488493 -0.3767350415
504860000 0.47287737672 -0.376662675932
504870500 0.473621287522 -0.376928953778
504881000 0.473192340235 -0.377028601657
504891500 0.473424642572 -0.377073604964
504902000 0.473759531888 -0.376789439702
504912500 0.473417755313 -0.376631942617
504923000 0.473683623114 -0.377040155222
504933500 0.473520996159 -0.377270543108
504944000 0.473137297709 -0.377433631764
504954500 0.473025266636 -0.37659807652
504965000 0.472462193988 -0.376492959485
504975500 0.472666766069 -0.377087916278
504986000 0.47238384978 -0.376398109018
504996500 0.472408018154 -0.376979150845
505007000 0.472461430665 -0.376580208484
505017500 0.472311718941 -0.376819876008
505028000 0.472164319972 -0.376514854218
505038500 0.472611310233 -0.37648645878
505049000 0.472815994069 -0.376407736872
505059500 0.472656385373 -0.375924923939
505070000 0.473071182471 -0.375814698067
505080500 0.472765826281 -0.375661781258
505091000 0.472786620398 -0.375032349025
505101500 0.472508673062 -0.376178428439
505112000 0.472552008386 -0.376803678324
505122500 0.471965131129 -0.376484369907
505133000 0.471744246577 -0.376899810816
505143500 0.471523143475 -0.377012986502
505154000 0.471278259446 -0.37647749519
505164500 0.472541755938 -0.376276775818
505175000 0.471853991389 -0.376339571849
505185500 0.471701525202 -0.376406430319
505196000 0.471987785875 -0.376189229203
505206500 0.472156835288 -0.376122458527
505217000 0.471688352339 -0.376138321376
505227500 0.472084097854 -0.376627535441
505238000 0.471340169803 -0.376706673611
505248500 0.471214996651 -0.376706069416
505259000 0.471489744145 -0.376452134892
505269500 0.471314558001 -0.376575869295
505280000 0.471606354915 -0.376171460288
505290500 0.471415681808 -0.375935490805
505301000 0.471713263344 -0.376166689537
505311500 0.471795050229 -0.376232946822
505322000 0.47132329322 -0.37640204613
505332500 0.471715512013 -0.375893290089
505343000 0.471824007572 -0.376391037269
505353500 0.472406429975 -0.375854864318
505364000 0.471704138464 -0.376849548962
505374500 0.471418750723 -0.376245728898
505385000 0.471409683251 -0.376376037272
505395500 0.47148428219 -0.377452269077
505406000 0.471925968581 -0.377242517436
505416500 0.471674287513 -0.377252857982
505427000 0.471712087026 -0.376944479377
505437500 0.471277068511 -0.376310034166
505448000 0.471772516014 -0.377079575082
505458500 0.471849125649 -0.377019924142
505469000 0.472180933214 -0.37706106492
505479500 0.471757646302 -0.37667121778
505490000 0.471416684698 -0.376399760184
505500500 0.471663197401 -0.376877472762
505511000 0.471448751907 -0.376651008167
505521500 0.471424021706 -0.376874680497
505532000 0.470674677548 -0.377039718342
505542500 0.469797070315 -0.375773541901
505553000 0.470151118346 -0.376329468947
505563500 0.471376828823 -0.376772891676
505574000 0.471543446674 -0.376648887659
505584500 0.470997124526 -0.376992643634
505595000 0.471470477386 -0.376960020009
505605500 0.471152944508 -0.376858780912
505616000 0.471958215859 -0.376912584412
505626500 0.47262312132 -0.376920134939
505637000 0.472381341533 -0.376913284417
505647500 0.472293119975 -0.376999586207
505658000 0.472017089491 -0.377652766944
505668500 0.471785014798 -0.376876649594
505679000 0.472521418193 -0.376339770237
505689500 0.472938484774 -0.376952376933
505700000 0.472872453292 -0.376691542464
505710500 0.469330372742 -0.372986347351
505721000 0.469048436722 -0.372650955677
505731500 0.469067643041 -0.373142821564
505742000 0.469105184018 -0.372968749634
505752500 0.46875991706 -0.372864291089
505763000 0.468522284849 -0.373099921429
505773500 0.467727961321 -0.373743762818
505784000 0.467866894874 -0.373536205336
505794500 0.467720657196 -0.374219678401
505805000 0.468089797286 -0.374350298609
505815500 0.468098053963 -0.374226130103
505826000 0.46819843656 -0.37368442758
505836500 0.468152118659 -0.374211740292
505847000 0.468556307058 -0.373993122036
505857500 0.468802212243 -0.374419570903
505868000 0.468530850928 -0.374767850765
505878500 0.468232493116 -0.374283185142
505889000 0.468175524457 -0.374212388366
505899500 0.468063014004 -0.374992236079
505910000 0.468237435731 -0.374554958181
505920500 0.468464364044 -0.375206764604
505931000 0.468514328591 -0.374606683914
505941500 0.468396683584 -0.374433628138
505952000 0.468174714346 -0.37401315774
505962500 0.468896870772 -0.374589621318
505973000 0.4685695208 -0.374651155977
505983500 0.468441269726 -0.374647473761
505994000 0.468237550907 -0.375112120482
506004500 0.468035761887 -0.37592880118
506015000 0.467829114434 -0.37547445665
506025500 0.468485238272 -0.375653640603
506036000 0.468623902395 -0.376402728415
506046500 0.469093898855 -0.376060881073
506057000 0.468862868323 -0.376073041399
506067500 0.469043599049 -0.375865599995
506078000 0.469398328932 -0.375512254415
506088500 0.469600863639 -0.375657012577
506099000 0.469164145035 -0.375785664495
506109500 0.469223141731 -0.376399574331
506120000 0.468818284026 -0.376488552723
506130500 0.46901225472 -0.37638945469
506141000 0.469709697494 -0.376496744379
506151500 0.469663870454 -0.376611264354
506162000 0.469780957303 -0.376425602616
506172500 0.469474658986 -0.376482346825
506183000 0.469883480261 -0.376404122855
506193500 0.469521340713 -0.376426520176
506204000 0.469779688469 -0.37649903118
506214500 0.470393108856 -0.376151673456
506225000 0.47015965814 -0.376678397621
506235500 0.470282159437 -0.377018594215
506246000 0.470072583909 -0.376630416764
506256500 0.470969485977 -0.377002155464
506267000 0.470303247666 -0.376820313659
506277500 0.470629696786 -0.376344225433
506288000 0.470176313181 -0.376170195188
506298500 0.470382555726 -0.376697143671
506309000 0.470618804 -0.376903894375
506319500 0.470746221539 -0.377218461222
506330000 0.471106243144 -0.377430670595
506340500 0.471959024106 -0.376789507775
506351000 0.471947202064 -0.377070466388
506361500 0.472002874071 -0.377146919483
506372000 0.471917802123 -0.377445985734
506382500 0.471996271205 -0.377458924587
506393000 0.472453864135 -0.377196936328
506403500 0.472189979791 -0.376215908124
506414000 0.47223189989 -0.376450267427
506424500 0.472611451244 -0.376519050607
506435000 0.472755271168 -0.376275716944
506445500 0.470867512476 -0.375598211755
506456000 0.473421527909 -0.376028970198
506466500 0.473631482001 -0.375930138208
506477000 0.473749012 -0.375790326604
506487500 0.47342590127 -0.376085144342
506498000 0.473693706112 -0.375710733123
506508500 0.474142490673 -0.376017096545
506519000 0.474304610496 -0.375266112488
506529500 0.474371151691 -0.375873341162
506540000 0.474371563757 -0.375850932681
506550500 0.474720437814 -0.376079939505
506561000 0.474584910196 -0.376262193819
506571500 0.475021402809 -0.375669615944
506582000 0.475314016226 -0.375153121706
506592500 0.474777099712 -0.375527810576
506603000 0.474752414264 -0.374912598331
506613500 0.47538307367 -0.375569453629
506624000 0.475309743938 -0.375798401851
506634500 0.475977556683 -0.374337556665
506645000 0.474953777636 -0.374567448363
506655500 0.475900351196 -0.374662119095
506666000 0.475471694263 -0.374277018814
506676500 0.475511083667 -0.373950871253
506687000 0.475991393883 -0.374460478901
506697500 0.476147482448 -0.373381983494
506708000 0.476700815545 -0.373713804224
506718500 0.476880076383 -0.373716108971
506729000 0.477462880165 -0.372638150237
506739500 0.476825853484 -0.37258535661
506750000 0.477375779047 -0.372859511656
506760500 0.467617322055 -0.374805936785
506771000 0.468242615676 -0.374184090493
506781500 0.467921224541 -0.374443356656
506792000 0.467179212485 -0.374773076797
506802500 0.467816490649 -0.374646789724
506813000 0.468295295097 -0.37481270933
506823500 0.468487455457 -0.374374803727
506834000 0.467694688914 -0.374293724703
506844500 0.46755002307 -0.37463866536
506855000 0.468308741049 -0.375098562324
506865500 0.468596195805 -0.375726573208
506876000 0.468471447764 -0.375444593
506886500 0.468530195295 -0.375354015257
506897000 0.468979770365 -0.374954129708
506907500 0.468774763349 -0.375589264619
506918000 0.469208547817 -0.37516363054
506928500 0.468707417892 -0.37586397444
506939000 0.468959202046 -0.375611949233
506949500 0.469223409388 -0.375020293632
506960000 0.46952784968 -0.375571109671
506970500 0.469910897642 -0.375319887115
506981000 0.469221623168 -0.376478275206
506991500 0.469736479877 -0.375942011231
507002000 0.471076846283 -0.375650887729
507012500 0.47028872865 -0.375829640052
507023000 0.470571459401 -0.375519886119
507033500 0.470483928315 -0.375869921758
507044000 0.471069673554 -0.37574511352
507054500 0.470916676483 -0.375829769323
507065000 0.472196995159 -0.375478408324
507075500 0.470405305746 -0.375989333628
507086000 0.471515058431 -0.376263219572
507096500 0.472388418453 -0.376546598935
507107000 0.471933382868 -0.375897482698
507117500 0.472875299604 -0.375052120263
507128000 0.470826964715 -0.374381329916
507138500 0.471988648219 -0.37521021976
507149000 0.471979541626 -0.375158379252
507159500 0.472153451325 -0.376449884734
507170000 0.471740101851 -0.374348416279
507180500 0.471195091872 -0.374736224527
507191000 0.471892873668 -0.374639943223
507201500 0.47218858657 -0.376091485765
507212000 0.471833404975 -0.376224608041
507222500 0.473316147926 -0.376706632358
507233000 0.470857675091 -0.37438507684
507243500 0.470921475513 -0.374849786971
507254000 0.474354446497 -0.373261966117
507264500 0.471507140953 -0.375080749979
507275000 0.473350929542 -0.37482467653
507285500 0.473319099198 -0.375195360603
507296000 0.473311841854 -0.37517640861
507306500 0.475571845604 -0.376664117993
507317000 0.468185528193 -0.37297047708
507327500 0.474980025558 -0.375877347395
507338000 0.472460897206 -0.373952405149
507348500 0.473836736585 -0.374358949154
507359000 0.473583824973 -0.374754312582
507369500 0.475730943651 -0.376282833044
507380000 0.474157772433 -0.375631403491
507390500 0.473415637388 -0.373716191383
507401000 0.475680280865 -0.373439434156
507411500 0.474362804598 -0.375094470746
507422000 0.476528761172 -0.373770930055
507432500 0.479837471149 -0.374979110054
507443000 0.478012243168 -0.374488457552
507453500 0.474499823603 -0.375394372131
507464000 0.475444320603 -0.371277984129
507474500 0.479664453579 -0.373220947342
507485000 0.474527393676 -0.37200009482
507495500 0.477842026205 -0.372514501764
507506000 0.475111986662 -0.371495292389
507516500 0.472972518948 -0.37326952239
507527000 0.477445774943 -0.368393904204
507537500 0.473020564953 -0.369904571366
507548000 0.478522433919 -0.372974795819
507558500 0.477039462712 -0.370262794735
507569000 0.47759953117 -0.371555606559
507579500 0.477598853587 -0.372588633677
507590000 0.482366926761 -0.369859483498
507600500 0.481479046771 -0.372280134866
507611000 0.47596692144 -0.373114076352
507621500 0.477561088978 -0.371478352409
507632000 0.477035614904 -0.369985458272
507642500 0.478877436741 -0.373551977601
507653000 0.475997142345 -0.371778829811
507663500 0.476679446772 -0.370501191793
507674000 0.479827869014 -0.370201241477
507684500 0.479234557003 -0.37050874923
507695000 0.477120771178 -0.370043292853
507705500 0.481698957019 -0.369180725621
507716000 0.47759449146 -0.369855287943
507726500 0.477669814647 -0.370982550428
507737000 0.4779904551 -0.371782437005
507747500 0.48101570657 -0.368552605137
507758000 0.479340184076 -0.369220835026
507768500 0.478827691007 -0.371073016101
507779000 0.479812673988 -0.367830389513
507789500 0.478388846464 -0.369506544779
507800000 0.475870898869 -0.367752634514
507810500 0.466179644933 -0.366018186681
507821000 0.466615029936 -0.366560039215
507831500 0.466475870346 -0.367171961814
507842000 0.46673382095 -0.368084022981
507852500 0.468450712877 -0.364662905363
507863000 0.465974861921 -0.368855969084
507873500 0.464603378346 -0.365214831446
507884000 0.468351702443 -0.367714385212
507894500 0.467656319338 -0.366574123649
507905000 0.465895290212 -0.367047550555
507915500 0.465759856792 -0.367098195689
507926000 0.467415721294 -0.367481928823
507936500 0.467847696957 -0.367030350052
507947000 0.468094696113 -0.366995835568
507957500 0.467658416334 -0.366890742686
507968000 0.468071537194 -0.367836567285
507978500 0.466855538182 -0.366717270074
507989000 0.467191342095 -0.36781722569
507999500 0.467501024201 -0.367386837717
508010000 0.467357655687 -0.367587077221
508020500 0.467805910358 -0.367323481545
508031000 0.467116522409 -0.366335146354
508041500 0.468014131231 -0.366598400924
508052000 0.467896975436 -0.366614677136
508062500 0.468474284544 -0.36632804307
508073000 0.468296570208 -0.366314154852
508083500 0.468599952688 -0.366284382155
508094000 0.467382326501 -0.366495262068
508104500 0.467397052545 -0.366989601628
508115000 0.467504941615 -0.367148506196
508125500 0.467786558111 -0.367111420015
508136000 0.467694699841 -0.367316284461
508146500 0.467819332955 -0.366565968612
508157000 0.468106236804 -0.366323383559
508167500 0.467857363839 -0.366463308234
508178000 0.467290677693 -0.366733299386
508188500 0.467275140644 -0.367208904868
508199000 0.46753038706 -0.366990355872
508209500 0.46858580182 -0.367792895835
508220000 0.469355175443 -0.366875709513
508230500 0.468032765197 -0.366895623443
508241000 0.469187368979 -0.367360682554
508251500 0.46928786354 -0.36700050627
508262000 0.467673720621 -0.366696843893
508272500 0.46858766189 -0.367761350066
508283000 0.46817916245 -0.367139947093
508293500 0.467305212653 -0.366530100367
508304000 0.468676081983 -0.367790170875
508314500 0.467980989729 -0.367213834215
508325000 0.469072965781 -0.368362664425
508335500 0.467977699232 -0.367886410629
508346000 0.468771515691 -0.367652147322
508356500 0.470420257039 -0.368102704793
508367000 0.469925839853 -0.368402104168
508377500 0.467502696846 -0.367398326752
508388000 0.469662100001 -0.368421035184
508398500 0.468389072153 -0.366610900615
508409000 0.468238376927 -0.366712087153
508419500 0.468217561269 -0.366905089463
508430000 0.46955993176 -0.367041424819
508440500 0.468314105923 -0.367444976862
508451000 0.468894140619 -0.367289268548
508461500 0.468049528188 -0.366634798193
508472000 0.46928659971 -0.367134141055
508482500 0.468076985805 -0.366869957682
508493000 0.469376474318 -0.366856075327
508503500 0.468808836523 -0.366733465158
508514000 0.467805193732 -0.366359317672
508524500 0.46851403269 -0.367619942875
508535000 0.468563271562 -0.367181816201
508545500 0.468847760479 -0.367719885727
508556000 0.468420892636 -0.367345237152
508566500 0.468733417813 -0.36783926049
508577000 0.469083800017 -0.368041709105
508587500 0.468787750151 -0.367713060101
508598000 0.468761410377 -0.36783068288
508608500 0.468836152602 -0.368075705748
508619000 0.469619355756 -0.367257855582
508629500 0.468888135258 -0.367475139289
508640000 0.468763153406 -0.367764506937
508650500 0.468862635143 -0.367449826869
508661000 0.468633784512 -0.368017159507
508671500 0.467754221444 -0.367292825265
508682000 0.469286924577 -0.367530559461
508692500 0.468752292879 -0.367660815079
508703000 0.469250957651 -0.367896321935
508713500 0.469365021869 -0.367620372757
508724000 0.469163474075 -0.367366886953
508734500 0.469383411364 -0.367607905228
508745000 0.469173531755 -0.367833820322
508755500 0.469486092282 -0.367464271516
508766000 0.469687389093 -0.367580609896
508776500 0.469887330381 -0.36756454068
508787000 0.469778724366 -0.367795021185
508797500 0.469951698011 -0.367673379395
508808000 0.469638092428 -0.367587880677
508818500 0.469441245245 -0.367597104463
508829000 0.469722813999 -0.367492199569
508839500 0.470184664836 -0.366646311237
508850000 0.469532508989 -0.366334890248
508860500 0.477002770357 -0.360440820014
508871000 0.476321867362 -0.361006719441
508881500 0.477246996982 -0.36104217367
508892000 0.476479084469 -0.360788765032
508902500 0.476605129397 -0.361305088574
508913000 0.476425943085 -0.360862173927
508923500 0.476153405635 -0.360773416237
508934000 0.476275971646 -0.360199785264
508944500 0.476118084459 -0.36029671399
508955000 0.4759520493 -0.359966931574
508965500 0.476141017268 -0.360055531066
508976000 0.476182013591 -0.359893849516
508986500 0.47590213499 -0.359338481425
508997000 0.476033092978 -0.358835089291
509007500 0.475673522039 -0.359003792207
509018000 0.476531992378 -0.35927819537
509028500 0.475794458782 -0.359569593926
509039000 0.475812453688 -0.3591480968
509049500 0.475902594468 -0.359007651667
509060000 0.476186421145 -0.358540623461
509070500 0.476343038797 -0.358644563055
509081000 0.475981986891 -0.358839169633
509091500 0.475843229594 -0.35871242958
509102000 0.476063463518 -0.359010990016
509112500 0.476030725665 -0.358840949009
509123000 0.476087962382 -0.358791489202
509133500 0.475940903083 -0.358965597529
509144000 0.471635149151 -0.359776147096
509154500 0.474055572693 -0.357775904053
509165000 0.467412875803 -0.363015048536
509175500 0.47438967399 -0.359728606476
509186000 0.474735247145 -0.359064096613
509196500 0.475249434755 -0.358155476902
509207000 0.475521557031 -0.35891557074
509217500 0.476208284 -0.358757675668
509228000 0.475504991516 -0.358932728924
509238500 0.476083592579 -0.358049434528
509249000 0.475718630478 -0.358309234383
509259500 0.475342701452 -0.357878122193
509270000 0.475703512307 -0.358378429899
509280500 0.475741470506 -0.358527214216
509291000 0.475866946762 -0.358426709314
509301500 0.475845629763 -0.359086023628
509312000 0.475343020294 -0.358811320696
509322500 0.475506656402 -0.3580705444
509333000 0.475853259803 -0.358056506835
509343500 0.475789684734 -0.357919176792
509354000 0.475349487485 -0.358343204683
509364500 0.475565712874 -0.357594938609
509375000 0.475115421069 -0.358234401326
509385500 0.475451963602 -0.357451139437
509396000 0.475593945779 -0.357542517342
509406500 0.475083535506 -0.357586005845
509417000 0.47531257892 -0.35802319858
509427500 0.475148606767 -0.358175672958
509438000 0.475290462529 -0.358160804121
509448500 0.475495830806 -0.357267870887
509459000 0.475256413871 -0.357837415256
509469500 0.475656406501 -0.357754343799
509480000 0.475240153587 -0.357205959625
509490500 0.475237953972 -0.357464140901
509501000 0.475076263691 -0.357081979789
509511500 0.475350323 -0.357078902231
509522000 0.475506172289 -0.357736257665
509532500 0.475230542043 -0.356757761808
509543000 0.475293311159 -0.356814946028
509553500 0.475244315648 -0.356693503477
509564000 0.474512568919 -0.357251643319
509574500 0.475509998575 -0.3568580369
509585000 0.475134563356 -0.35627775319
509595500 0.474959737713 -0.355771589698
509606000 0.47560698047 -0.356372638606
509616500 0.475773681653 -0.356506298465
509627000 0.475072133132 -0.357236448208
509637500 0.475464293521 -0.356814024283
509648000 0.475348919534 -0.356734312136
509658500 0.475553445465 -0.35641460557
509669000 0.475733983732 -0.356508135611
509679500 0.475331524098 -0.356485274018
509690000 0.475229403794 -0.356965299383
509700500 0.475504526398 -0.356642775281
509711000 0.475458642202 -0.35622479355
509721500 0.475619311718 -0.35610329062
509732000 0.475636745449 -0.356581085771
509742500 0.474981100776 -0.357117147197
509753000 0.475422886648 -0.356291918064
509763500 0.475411836232 -0.356275985017
509774000 0.475593281607 -0.355732274331
509784500 0.475824843867 -0.356582013421
509795000 0.475746839665 -0.356293246997
509805500 0.47561952184 -0.356230607002
509816000 0.476005574071 -0.356450520272
509826500 0.475868831197 -0.355995751895
509837000 0.475866384097 -0.356060795264
509847500 0.476494746809 -0.356624552752
509858000 0.476515694464 -0.356622897304
509868500 0.476166920801 -0.356209314226
509879000 0.47507359518 -0.356185215331
509889500 0.475510736476 -0.355438360707
509900000 0.47541110581 -0.355946486289
509910500 0.477266346194 -0.353541559371
509921000 0.477062183167 -0.353289602583
509931500 0.477574026867 -0.35332461777
509942000 0.477594445988 -0.353045708823
509952500 0.477037683304 -0.353289564645
509963000 0.477040038104 -0.353115672664
509973500 0.476862983399 -0.352960275991
509984000 0.477405329986 -0.3530814439
509994500 0.477656041007 -0.354106281662
510005000 0.476886160193 -0.353413555556
510015500 0.476958288187 -0.353229181591
510026000 0.476559997579 -0.35284753349
510036500 0.477128458679 -0.352932812575
510047000 0.477139695447 -0.352710011885
510057500 0.477709216852 -0.352400526247
510068000 0.47724054711 -0.353142676987
510078500 0.477466079881 -0.352781518921
510089000 0.477084324367 -0.352785887345
510099500 0.476856790885 -0.352696875117
510110000 0.477302651935 -0.352626154993
510120500 0.477015929191 -0.35329303298
510131000 0.477206548612 -0.352774569564
510141500 0.477163922341 -0.352237265873
510152000 0.476486647372 -0.352621253202
510162500 0.47734287337 -0.353207649819
510173000 0.476563107437 -0.353214196274
510183500 0.477040597448 -0.353235243712
510194000 0.476936774405 -0.352772194782
510204500 0.477039431439 -0.352661006606
510215000 0.476549018946 -0.352459256749
510225500 0.476738270579 -0.353111895925
510236000 0.476618279972 -0.35307174622
510246500 0.47717358656 -0.352885379057
510257000 0.477245681561 -0.353488039559
510267500 0.477304374312 -0.353188709383
510278000 0.477967314836 -0.3526975966
510288500 0.478018611686 -0.352621739996
510299000 0.477536522253 -0.352550605484
510309500 0.477632115117 -0.352129436679
510320000 0.477151931923 -0.351810290724
510330500 0.477112327075 -0.351713028771
510341000 0.47668755435 -0.352149368204
510351500 0.477434987883 -0.351966391611
510362000 0.476421260247 -0.352320229773
510372500 0.47646255024 -0.352524833377
510383000 0.476852936939 -0.352580607406
510393500 0.4768949473 -0.353034856886
510404000 0.476804692946 -0.352556490502
510414500 0.476603146192 -0.352709178447
510425000 0.47656511812 -0.352589141612
510435500 0.475886813799 -0.3522753207
510446000 0.476346100479 -0.352259718271
510456500 0.476231458388 -0.351630846381
510467000 0.476617578092 -0.351986641674
510477500 0.477337947911 -0.352134935685
510488000 0.47731184648 -0.351725277376
510498500 0.476576888261 -0.352176282863
510509000 0.476227114281 -0.352440198596
510519500 0.476418725722 -0.352518345305
510530000 0.476228531169 -0.352395335848
510540500 0.475956800032 -0.352458724827
510551000 0.476166939355 -0.352578832792
510561500 0.476260946381 -0.352114902542
510572000 0.476244783044 -0.352187852525
510582500 0.476242261357 -0.351997676589
510593000 0.475736858351 -0.352550879548
510603500 0.475506557099 -0.352732792681
510614000 0.476500343304 -0.352607575567
510624500 0.476148725149 -0.352013790921
510635000 0.476674159274 -0.352645947694
510645500 0.476187261318 -0.352415755393
510656000 0.47602173007 -0.352182218868
510666500 0.476317113576 -0.352305112791
510677000 0.475967859634 -0.352444101154
510687500 0.476276464958 -0.352060476625
510698000 0.475887853746 -0.351982237605
510708500 0.475897285288 -0.352155757294
510719000 0.475753668151 -0.352081418368
510729500 0.476089602491 -0.351985603474
510740000 0.475843859386 -0.352227462691
510750500 0.475965776923 -0.352337606169
510761000 0.476080136737 -0.352381408986
510771500 0.476276857022 -0.352578537543
510782000 0.476371884324 -0.35240018876
510792500 0.476073060067 -0.352197487801
510803000 0.474578579495 -0.351770560281
510813500 0.475253288697 -0.351271324087
510824000 0.47577931641 -0.351445664187
510834500 0.475570903385 -0.351943803695
510845000 0.475368221201 -0.351870332681
510855500 0.474834681555 -0.352010412364
510866000 0.474615190459 -0.35142018959
510876500 0.47519661114 -0.35155938437
510887000 0.474595183479 -0.351730374168
510897500 0.47501439017 -0.351638584269
510908000 0.47491889219 -0.351333218761
510918500 0.474636931485 -0.350986218153
510929000 0.474777084811 -0.350462298966
510939500 0.47462851875 -0.351287740807
510950000 0.475140779595 -0.351752592755
510960500 0.470785058349 -0.36163702689
510971000 0.471852104514 -0.362378149186
510981500 0.471892171124 -0.362414965984
510992000 0.471571536296 -0.362272266606
511002500 0.471646390986 -0.362734161928
511013000 0.471720281018 -0.362364156872
511023500 0.47202041587 -0.362548520805
511034000 0.472743684083 -0.362414692075
511044500 0.473093633919 -0.362705547938
511055000 0.473426636095 -0.362776699055
511065500 0.473019760797 -0.362983874041
511076000 0.473021915631 -0.36324799813
511086500 0.472986601374 -0.363166785893
511097000 0.473359025451 -0.362992395705
511107500 0.473966891859 -0.363328852855
511118000 0.473846625736 -0.363155864519
511128500 0.473302213846 -0.362868050761
511139000 0.473655628971 -0.363032525232
511149500 0.474095236051 -0.363572154891
511160000 0.474160267779 -0.36368018168
511170500 0.474755964794 -0.363617232826
511181000 0.475103624542 -0.363590200567
511191500 0.47422533796 -0.364157102297
511202000 0.473030017804 -0.36366264038
511212500 0.473101531143 -0.363672398099
511223000 0.474828928992 -0.364169199996
511233500 0.474986583175 -0.363126184351
511244000 0.475392270157 -0.362676024727
511254500 0.476153441385 -0.362659156646
511265000 0.476459379516 -0.363240009961
511275500 0.476806732307 -0.363138137476
511286000 0.476942233721 -0.362818078437
511296500 0.476177894142 -0.362998068059
511307000 0.477455322791 -0.362531951487
511317500 0.477099045672 -0.362403153039
511328000 0.477973905048 -0.362165890872
511338500 0.478073251642 -0.362449937196
511349000 0.478556665697 -0.362800983798
511359500 0.477154766325 -0.36250691259
511370000 0.478106485382 -0.3631550903
511380500 0.477439100116 -0.363149377493
511391000 0.478908231893 -0.362895334474
511401500 0.478987773578 -0.362671567105
511412000 0.479191837509 -0.36282549645
511422500 0.479870609654 -0.36212210058
511433000 0.479964258601 -0.361992059499
511443500 0.480579246023 -0.361027454452
511454000 0.479961963643 -0.362864212094
511464500 0.480067754884 -0.363592631015
511475000 0.478710096513 -0.360118222262
511485500 0.481924050972 -0.362815335399
511496000 0.482156891168 -0.361197606698
511506500 0.481004487821 -0.360687544441
511517000 0.47929270434 -0.362939658281
511527500 0.479676041035 -0.361936719022
511538000 0.480051810405 -0.362214155848
511548500 0.480799309203 -0.362668207817
511559000 0.482028476839 -0.36162399643
511569500 0.484351926295 -0.361958631495
511580000 0.480482799031 -0.361694536969
511590500 0.482861613181 -0.358422097222
511601000 0.482331837877 -0.362271422683
511611500 0.482130243411 -0.361000015366
511622000 0.481186285953 -0.361307547461
511632500 0.481080271694 -0.363246195683
511643000 0.481316916887 -0.363772380213
511653500 0.479804859946 -0.359913839527
511664000 0.484748211087 -0.361759797594
511674500 0.483853736621 -0.36203763053
511685000 0.485234609294 -0.358397024898
511695500 0.485512820745 -0.35894587671
511706000 0.483875083575 -0.359701450289
511716500 0.484563494382 -0.358948918357
511727000 0.482993774735 -0.360934853432
511737500 0.483296423233 -0.359081298526
511748000 0.483937705111 -0.360638290846
511758500 0.481783576975 -0.361545862215
511769000 0.484711047496 -0.361815053364
511779500 0.483730155704 -0.357184059193
511790000 0.484079961837 -0.359772072001
511800500 0.485236143444 -0.359172327247
511811000 0.485008243424 -0.359599443213
511821500 0.484868085534 -0.359688446891
511832000 0.485121445599 -0.359027373673
511842500 0.486003047688 -0.357237039805
511853000 0.483669854022 -0.358445240814
511863500 0.488228183577 -0.35830931432
511874000 0.483522892312 -0.357048935217
511884500 0.485497765796 -0.358267230574
511895000 0.48515358382 -0.358776514577
511905500 0.485525340288 -0.357500132196
511916000 0.484864458537 -0.357631804114
511926500 0.484606833284 -0.357102758509
511937000 0.48591915582 -0.357210915312
511947500 0.486634154291 -0.358094723394
511958000 0.487128465737 -0.358156516887
511968500 0.486092441951 -0.358644341008
511979000 0.486203125224 -0.357972303401
511989500 0.486502059922 -0.35837350714
512000000 0.485733446287 -0.358208436849
