! Calibrated averaged scanner-service zoom
# Hz S RI R 50
144000000 0.460576977831 -0.402070676466
144004000 0.460182575991 -0.402008635671
144008000 0.460476809758 -0.402039397509
144012000 0.460693800397 -0.401834252852
144016000 0.460619594456 -0.401681957864
144020000 0.460443531494 -0.401577464035
144024000 0.460254523244 -0.401633833781
144028000 0.460208248123 -0.401387970016
144032000 0.460188031117 -0.401186652699
144036000 0.460351059642 -0.40135747366
144040000 0.460143180532 -0.40122339207
144044000 0.459934704529 -0.400954884611
144048000 0.460318672667 -0.400641350309
144052000 0.459766966702 -0.400764977776
144056000 0.459926065744 -0.400759908424
144060000 0.4595853895 -0.400415263203
144064000 0.459653687841 -0.400203842176
144068000 0.45942292601 -0.400228918667
144072000 0.460059381026 -0.400371615348
144076000 0.459418545525 -0.400055912408
144080000 0.45958509632 -0.399822271345
144084000 0.458674194206 -0.39956394716
144088000 0.459170855737 -0.399620829538
144092000 0.45896317428 -0.399653608017
144096000 0.459153628302 -0.3993932443
144100000 0.458720351462 -0.39912055014
144104000 0.458947923802 -0.399191318606
144108000 0.458745981935 -0.39907445585
144112000 0.458937596568 -0.398857045736
144116000 0.458774710469 -0.398611679251
144120000 0.458725459154 -0.398657772703
144124000 0.458685225965 -0.398577349594
144128000 0.458731739082 -0.398299885988
144132000 0.458431955849 -0.398040396264
144136000 0.458439536486 -0.398228055566
144140000 0.458513164718 -0.398273242279
144144000 0.458456255984 -0.398090418046
144148000 0.458412739833 -0.397775591323
144152000 0.458323235367 -0.397781555168
144156000 0.458289646356 -0.397712644569
144160000 0.457919198504 -0.397436986694
144164000 0.45813744696 -0.397264086285
144168000 0.457846639737 -0.3973205338
144172000 0.458085425284 -0.397264440644
144176000 0.457821092269 -0.396985466256
144180000 0.458207270395 -0.396879126533
144184000 0.458026284751 -0.397005715691
144188000 0.45803385367 -0.39673570363
144192000 0.45769062541 -0.39662620927
144196000 0.457702526597 -0.396291376859
144200000 0.457309585722 -0.396150221232
144204000 0.457594301973 -0.396022146774
144208000 0.457336257337 -0.396140674176
144212000 0.457678899872 -0.395913139637
144216000 0.457423191138 -0.39556239877
144220000 0.457401213164 -0.395687926657
144224000 0.45708537267 -0.395661517025
144228000 0.457154265442 -0.395280172429
144232000 0.456843676651 -0.395093944731
144236000 0.457089497603 -0.395244623679
144240000 0.456965953218 -0.395362203935
144244000 0.457039495668 -0.394910671797
144248000 0.456996055597 -0.394868113102
144252000 0.456849219524 -0.394802998157
144256000 0.456811993643 -0.394677917039
144260000 0.456526138254 -0.394362740032
144264000 0.456542655405 -0.393993677788
144268000 0.456238325155 -0.393892800867
144272000 0.456674568642 -0.394114308022
144276000 0.456431920732 -0.393969897679
144280000 0.456731052407 -0.393725160988
144284000 0.456197064329 -0.393567221789
144288000 0.456324943073 -0.393663405342
144292000 0.456017466193 -0.393564440103
144296000 0.456164856542 -0.393156651048
144300000 0.456194066763 -0.393364248534
144304000 0.45639641885 -0.393176541879
144308000 0.45608872221 -0.393207924869
144312000 0.456398564712 -0.392930698921
144316000 0.455901300778 -0.392622926293
144320000 0.456229102566 -0.392828273801
144324000 0.455901175026 -0.392778874024
144328000 0.455943503818 -0.392474041663
144332000 0.455618805827 -0.392004826929
144336000 0.45579491641 -0.392257498494
144340000 0.45556456537 -0.392162275332
144344000 0.455693530793 -0.391842295669
144348000 0.455497702231 -0.391592132366
144352000 0.455433454899 -0.391661768934
144356000 0.455260770178 -0.391701814138
144360000 0.455200162422 -0.391210304616
144364000 0.455215189104 -0.39119670498
144368000 0.455330286875 -0.391221185613
144372000 0.455183648473 -0.391176215819
144376000 0.455135216574 -0.390966430354
144380000 0.455330256991 -0.390368478597
144384000 0.455309903189 -0.390757655196
144388000 0.455062445587 -0.390615938008
144392000 0.454473359049 -0.390124192991
144396000 0.454957604384 -0.390164387888
144400000 0.454674057149 -0.390098508357
144404000 0.454888773988 -0.390255459041
144408000 0.454941742152 -0.389760977497
144412000 0.454927182994 -0.389817212257
144416000 0.454781974835 -0.389944355067
144420000 0.454898406566 -0.389695939389
144424000 0.454860886958 -0.389171373562
144428000 0.454713891286 -0.389272075845
144432000 0.454258267967 -0.388964643452
144436000 0.454353381649 -0.389130600758
144440000 0.454597586227 -0.388879476297
144444000 0.454301124736 -0.388300405948
144448000 0.454390819967 -0.388686470832
144452000 0.454255090049 -0.388696410699
144456000 0.454375717497 -0.388470137432
144460000 0.454286879382 -0.388013130654
144464000 0.454046216149 -0.38803820575
144468000 0.454061122604 -0.388408876918
144472000 0.453881372941 -0.38792460531
144476000 0.453971517989 -0.387583478307
144480000 0.453626556313 -0.387381238517
144484000 0.453937683743 -0.387881575976
144488000 0.453850408856 -0.387574550326
144492000 0.454053994236 -0.387215167609
144496000 0.453699172437 -0.387087563166
144500000 0.453552781478 -0.387208719627
144504000 0.453546934902 -0.386936456309
144508000 0.453529852966 -0.38646921203
144512000 0.45345447129 -0.386604599339
144516000 0.453560568353 -0.386840197768
144520000 0.453537671681 -0.38655423635
144524000 0.453591190419 -0.386082811252
144528000 0.453423647649 -0.386035280858
144532000 0.453288235463 -0.386240966839
144536000 0.453279133751 -0.386079738469
144540000 0.453353838304 -0.385866919544
144544000 0.453452422131 -0.38559969015
144548000 0.453345952915 -0.385708884013
144552000 0.453516268335 -0.385816338113
144556000 0.453319130672 -0.385487687693
144560000 0.453122162777 -0.38508155867
144564000 0.453203475231 -0.385049581408
144568000 0.453016784325 -0.385307393222
144572000 0.453055537631 -0.385090036957
144576000 0.452961314282 -0.384494081196
144580000 0.453179166615 -0.384545682799
144584000 0.453040047567 -0.384817936278
144588000 0.452906930362 -0.384544929879
144592000 0.452924276043 -0.384046759583
144596000 0.452888751571 -0.384121179673
144600000 0.452669200874 -0.384214030755
144604000 0.452701287416 -0.383990850642
144608000 0.452495732413 -0.383394659345
144612000 0.451985319097 -0.383401829777
144616000 0.447683570993 -0.379882731462
144620000 0.452542876331 -0.38359743738
144624000 0.452062102917 -0.38262374539
144628000 0.4484021534 -0.383133051934
144632000 0.452450241585 -0.383157735313
144636000 0.452268443463 -0.382904205767
144640000 0.452482328469 -0.382632096265
144644000 0.452290779747 -0.382405004867
144648000 0.452397468648 -0.382630259539
144652000 0.452139176773 -0.382525965752
144656000 0.452336345148 -0.3823172498
144660000 0.452327330996 -0.381805416272
144664000 0.452145778703 -0.381934342971
144668000 0.451910485736 -0.382108144682
144672000 0.452047516067 -0.381680318257
144676000 0.452034517243 -0.381407350799
144680000 0.452118957127 -0.38144647846
144684000 0.45208183933 -0.38178086903
144688000 0.452129151169 -0.381662781091
144692000 0.4522751234 -0.381049957072
144696000 0.452077212206 -0.38109877736
144700000 0.451974715934 -0.381283802418
144704000 0.452159373261 -0.380930144469
144708000 0.451872916792 -0.380398500393
144712000 0.451826270776 -0.380618316029
144716000 0.45192334138 -0.380707001397
144720000 0.451816469751 -0.380415972299
144724000 0.451931460411 -0.3800441203
144728000 0.451758101206 -0.38006106986
144732000 0.451668736767 -0.379994812946
144736000 0.451805311606 -0.379850962675
144740000 0.451645216054 -0.379600065993
144744000 0.451696881096 -0.379425964863
144748000 0.451693101293 -0.379615302787
144752000 0.451649051601 -0.379650403898
144756000 0.451641119959 -0.379367790886
144760000 0.451736556075 -0.379051141179
144764000 0.451675269753 -0.378983952769
144768000 0.451393736768 -0.379113375371
144772000 0.451628823967 -0.378924591606
144776000 0.451527353912 -0.378415910099
144780000 0.451410034157 -0.378412133971
144784000 0.451440422027 -0.378693241737
144788000 0.45131334902 -0.378298861241
144792000 0.45137610441 -0.377757776501
144796000 0.45130184631 -0.37799417346
144800000 0.451277642523 -0.378037249479
144804000 0.451212976664 -0.378253118841
144808000 0.451241133613 -0.377891218641
144812000 0.451203100694 -0.377423795487
144816000 0.451621568628 -0.377450655977
144820000 0.451149562235 -0.377706546686
144824000 0.451358494108 -0.377536121388
144828000 0.451034612171 -0.376918789598
144832000 0.451370420524 -0.376946083883
144836000 0.450961842053 -0.37714722499
144840000 0.451174318873 -0.37708704611
144844000 0.450758158152 -0.376255012047
144848000 0.450965128201 -0.376476956635
144852000 0.451053846807 -0.376813787489
144856000 0.451056883141 -0.37675051045
144860000 0.451116274564 -0.376026306741
144864000 0.451321120295 -0.376101592267
144868000 0.451102695346 -0.376440273922
144872000 0.451129730999 -0.376282401524
144876000 0.451079805106 -0.37573845898
144880000 0.451108414318 -0.375597495345
144884000 0.45093172959 -0.375686680821
144888000 0.450974486165 -0.375836175701
144892000 0.450956874072 -0.37554543805
144896000 0.451147344529 -0.375247553126
144900000 0.451243850835 -0.375467578231
144904000 0.450578067613 -0.37528637727
144908000 0.450752243244 -0.375140520992
144912000 0.450303738193 -0.374599224974
144916000 0.450769765684 -0.374541714391
144920000 0.450634128897 -0.374893232838
144924000 0.45077563869 -0.374774013337
144928000 0.450867767008 -0.374153778644
144932000 0.450702673402 -0.374118789752
144936000 0.450553422568 -0.374327860475
144940000 0.450692104695 -0.374399700962
144944000 0.450451176144 -0.373508116115
144948000 0.450664578285 -0.373747168805
144952000 0.450362876097 -0.37423570278
144956000 0.450643662116 -0.374235601608
144960000 0.450618808436 -0.373430360183
144964000 0.450674997492 -0.373313135223
144968000 0.450586192102 -0.373595387573
144972000 0.450440905993 -0.373404247632
144976000 0.45031949766 -0.372826029926
144980000 0.450560484747 -0.372702296007
144984000 0.450317332488 -0.372801546164
144988000 0.450364129967 -0.372972758389
144992000 0.450241668399 -0.372600774223
144996000 0.4505026007 -0.372349964663
145000000 0.450069698459 -0.371996348604
145004000 0.450343206978 -0.372404242317
145008000 0.450067006821 -0.371942361034
145012000 0.450154430587 -0.371712005263
145016000 0.450015182294 -0.371565412842
145020000 0.449868916711 -0.372216318666
145024000 0.450141847607 -0.371754621511
145028000 0.450228729095 -0.37123251294
145032000 0.450803581638 -0.371933647821
145036000 0.449976907855 -0.371584887938
145040000 0.448961655031 -0.370580888597
145044000 0.450284575785 -0.370525607818
145048000 0.450094019611 -0.370657691312
145052000 0.451056567641 -0.371806865452
145056000 0.44997872639 -0.370953774012
145060000 0.450205311453 -0.370338209729
145064000 0.450161918783 -0.370437128887
145068000 0.450125584176 -0.370578466869
145072000 0.450031838867 -0.370759231367
145076000 0.450009028077 -0.370059216735
145080000 0.450095901019 -0.370123796999
145084000 0.45017495602 -0.370135648098
145088000 0.450147826146 -0.370360207518
145092000 0.449952884426 -0.369955967786
145096000 0.450098660583 -0.369697257179
145100000 0.45011135243 -0.369688580304
145104000 0.450075323844 -0.370003264475
145108000 0.449797666048 -0.369482913872
145112000 0.449932481782 -0.369264871862
145116000 0.449496044924 -0.368927778687
145120000 0.449891432694 -0.369612525382
145124000 0.449768723488 -0.369213979827
145128000 0.449943615485 -0.368651324731
145132000 0.449679247883 -0.368539687099
145136000 0.449742964231 -0.368891019243
145140000 0.44955177596 -0.368571408956
145144000 0.449929821932 -0.368022199124
145148000 0.449667706539 -0.368019061337
145152000 0.449654085881 -0.368632875686
145156000 0.450094170419 -0.367908644863
145160000 0.449909281999 -0.367748086524
145164000 0.449463621607 -0.367411181506
145168000 0.45114910166 -0.367904277055
145172000 0.449360362635 -0.367743217741
145176000 0.449496751262 -0.367369034024
145180000 0.449420318201 -0.367113660364
145184000 0.449516810507 -0.367396859116
145188000 0.449289122529 -0.367275432911
145192000 0.44951335181 -0.367302478678
145196000 0.449561861106 -0.366880607898
145200000 0.449526404017 -0.366868211923
145204000 0.449632387797 -0.366942061261
145208000 0.449583639877 -0.36654970956
145212000 0.449426168967 -0.366866547692
145216000 0.449413250791 -0.366807898049
145220000 0.449403135884 -0.366532318091
145224000 0.449304362483 -0.365894380617
145228000 0.449167203141 -0.36619572577
145232000 0.449340245673 -0.366549521784
145236000 0.449498257053 -0.365986349003
145240000 0.449592172828 -0.36577311922
145244000 0.449377969005 -0.365937968735
145248000 0.449225253924 -0.366007589648
145252000 0.449194504709 -0.365629014597
145256000 0.449542254593 -0.365137238993
145260000 0.449138025736 -0.365279766256
145264000 0.44939647888 -0.365494548803
145268000 0.44923760506 -0.365218612508
145272000 0.44946253518 -0.365019789337
145276000 0.449249572053 -0.364670183713
145280000 0.449361899279 -0.364892308823
145284000 0.449196052122 -0.364765524162
145288000 0.449300323128 -0.364521231786
145292000 0.449160991903 -0.36404893604
145296000 0.449425354086 -0.364412594081
145300000 0.449106980477 -0.364691618152
145304000 0.449304056691 -0.364357421184
145308000 0.449408175825 -0.363810974244
145312000 0.449413211884 -0.364194368016
145316000 0.449002087498 -0.36417931584
145320000 0.449289716143 -0.363982858021
145324000 0.44915847005 -0.363307556885
145328000 0.449062300739 -0.363805176353
145332000 0.449055420948 -0.364008963924
145336000 0.448974610215 -0.363543010469
145340000 0.449207238896 -0.363136238269
145344000 0.44922489446 -0.363587891057
145348000 0.448959447633 -0.363544564996
145352000 0.448862378364 -0.362828474049
145356000 0.449135860569 -0.362621379811
145360000 0.448721640346 -0.362791809902
145364000 0.449196590968 -0.363174557912
145368000 0.448880912341 -0.362909006389
145372000 0.449189858688 -0.362698173144
145376000 0.449161358483 -0.362563552605
145380000 0.448976526686 -0.362659636047
145384000 0.448742423257 -0.362473625144
145388000 0.449039387715 -0.362148359332
145392000 0.448937005302 -0.361720281438
145396000 0.448897986059 -0.361947375957
145400000 0.448850499038 -0.36219165836
145404000 0.448956516432 -0.36191253098
145408000 0.449050752598 -0.361229269221
145412000 0.449122695219 -0.361650605546
145416000 0.448794310889 -0.361667284178
145420000 0.448922999475 -0.361330389044
145424000 0.448563316678 -0.360378018516
145428000 0.448864084187 -0.361203836134
145432000 0.448682916421 -0.361377034332
145436000 0.44866712825 -0.360249921008
145440000 0.449124832342 -0.360261471953
145444000 0.448842983573 -0.360818136234
145448000 0.448860019523 -0.360828762375
145452000 0.448834155672 -0.360547890999
145456000 0.449010775758 -0.360100929811
145460000 0.448656808314 -0.360165986797
145464000 0.448735330333 -0.360522052083
145468000 0.448769355937 -0.360296329413
145472000 0.449083255091 -0.360024258115
145476000 0.448972109637 -0.360022521989
145480000 0.448771781475 -0.360036363184
145484000 0.44863624431 -0.359993390895
145488000 0.448803724726 -0.359676011605
145492000 0.448678789225 -0.359348178765
145496000 0.448825834392 -0.359822562312
145500000 0.448496250623 -0.359969085794
145504000 0.449070124812 -0.359701611238
145508000 0.448695317095 -0.359067709947
145512000 0.448685857734 -0.359386382928
145516000 0.448188292339 -0.359299143647
145520000 0.44861992895 -0.359206138096
145524000 0.448643479789 -0.358465946137
145528000 0.448702988201 -0.359100914088
145532000 0.44830378062 -0.358789354902
145536000 0.448645030427 -0.358697113445
145540000 0.448759356329 -0.358055984445
145544000 0.449305777074 -0.359075462319
145548000 0.44840329344 -0.35849915457
145552000 0.448551677444 -0.358296397992
145556000 0.448750322845 -0.357556080382
145560000 0.448427177253 -0.358041782604
145564000 0.448287716804 -0.358128795872
145568000 0.44845796187 -0.358060501686
145572000 0.448708657758 -0.357644125817
145576000 0.448416275828 -0.357409706889
145580000 0.448598979076 -0.357525245807
145584000 0.448428207799 -0.357613947318
145588000 0.448381068542 -0.356969361182
145592000 0.448388775945 -0.356838238345
145596000 0.448477764608 -0.357252688827
145600000 0.448409437459 -0.357577454624
145604000 0.448521911899 -0.356351882367
145608000 0.448391384396 -0.357098562105
145612000 0.448166746978 -0.357277113314
145616000 0.448274524612 -0.356990876337
145620000 0.448666624731 -0.355901907737
145624000 0.448410086186 -0.35672938481
145628000 0.448211691973 -0.35680558033
145632000 0.448428214761 -0.356456614941
145636000 0.448614070519 -0.355500507818
145640000 0.448360268103 -0.356219146443
145644000 0.448117800214 -0.356748983539
145648000 0.448596681765 -0.356474978525
145652000 0.448654755182 -0.355580230239
145656000 0.448577411402 -0.356141202955
145660000 0.4480518312 -0.356240419761
145664000 0.448241848173 -0.35584074279
145668000 0.448435827964 -0.355367312342
145672000 0.448105540709 -0.355536952553
145676000 0.448123551952 -0.355920217048
145680000 0.44830278559 -0.355623791537
145684000 0.448495374306 -0.355165966635
145688000 0.448205574732 -0.354930622223
145692000 0.448195453624 -0.355270071347
145696000 0.447940810505 -0.355028155452
145700000 0.448262341763 -0.354812857542
145704000 0.448507580428 -0.354102599884
145708000 0.448171467857 -0.354760184201
145712000 0.448114623169 -0.355108706266
145716000 0.44829258323 -0.354722881006
145720000 0.448756205201 -0.353705343478
145724000 0.448234002109 -0.354432572684
145728000 0.447941763694 -0.354588989602
145732000 0.448056744538 -0.354304028609
145736000 0.448523201138 -0.353445662096
145740000 0.448096368886 -0.354201863993
145744000 0.447898089927 -0.354661507779
145748000 0.448247463997 -0.354276954376
145752000 0.448614246102 -0.353459948765
145756000 0.448059770772 -0.353978332579
145760000 0.447893141889 -0.354190880887
145764000 0.44798799734 -0.353730570096
145768000 0.44803275772 -0.353234195561
145772000 0.448551445128 -0.354259956695
145776000 0.447822468659 -0.353783978528
145780000 0.448099570905 -0.353648903543
145784000 0.447105365548 -0.352379328922
145788000 0.448052379334 -0.353054886411
145792000 0.447645371157 -0.3531264772
145796000 0.447853612576 -0.353206707827
145800000 0.447830418626 -0.352575415692
145804000 0.448233752709 -0.352072949368
145808000 0.447706446932 -0.352527636342
145812000 0.447520637239 -0.353169131686
145816000 0.448051573638 -0.352570526692
145820000 0.4484004103 -0.351713685606
145824000 0.447897781749 -0.352281643549
145828000 0.447758518678 -0.352681020071
145832000 0.447948775978 -0.352220322243
145836000 0.448257372777 -0.351226444982
145840000 0.447724128315 -0.351918758634
145844000 0.447654873559 -0.352484254551
145848000 0.447943249972 -0.351947464182
145852000 0.44832519772 -0.351263561661
145856000 0.447765070429 -0.351900789527
145860000 0.447514162388 -0.351979111764
145864000 0.447795133516 -0.351705259167
145868000 0.448361379639 -0.35131117809
145872000 0.447434065813 -0.351309206479
145876000 0.447438741177 -0.351593187174
145880000 0.447664133128 -0.351401389204
145884000 0.447894658744 -0.350891052413
145888000 0.447683850331 -0.350875464851
145892000 0.447529792108 -0.351103780473
145896000 0.447406039997 -0.350937684258
145900000 0.447760350945 -0.350410848218
145904000 0.447894640702 -0.350040387704
145908000 0.447606665695 -0.3503879942
145912000 0.447411045439 -0.350922443687
145916000 0.44762871087 -0.350337210796
145920000 0.44822049484 -0.349624906213
145924000 0.447543489971 -0.350047153604
145928000 0.447369672317 -0.350557697401
145932000 0.447454489878 -0.349940894266
145936000 0.447945345311 -0.349235779573
145940000 0.447443717659 -0.349923838344
145944000 0.447221130477 -0.350512384752
145948000 0.447453422459 -0.349875036777
145952000 0.447862526539 -0.349257666353
145956000 0.447180562241 -0.349508744474
145960000 0.446992260161 -0.349967764396
145964000 0.447277676988 -0.349438606777
145968000 0.447664405209 -0.349029213425
145972000 0.447096347742 -0.349001422368
145976000 0.447098287636 -0.34965128548
145980000 0.447124368663 -0.349157954065
145984000 0.447389905253 -0.348841996781
145988000 0.447491482153 -0.348586531002
145992000 0.447117435101 -0.349087520419
145996000 0.447199131331 -0.348786831467
146000000 0.447524045955 -0.348381753393
146004000 0.446977260111 -0.349138141526
146008000 0.447180845554 -0.348478110426
146012000 0.447316743333 -0.348111326688
146016000 0.447160263761 -0.347683658243
146020000 0.44684407309 -0.348734691623
146024000 0.446823422353 -0.348430525474
146028000 0.447276536538 -0.347892904047
146032000 0.447630709675 -0.347134945622
146036000 0.446655914285 -0.34840719688
146040000 0.446844816271 -0.347979569628
146044000 0.447198430019 -0.347501720022
146048000 0.447883964207 -0.346212820515
146052000 0.446584715213 -0.348056888859
146056000 0.446754026951 -0.348088461504
146060000 0.44736225411 -0.347378582462
146064000 0.447581229593 -0.346366489761
146068000 0.446594728723 -0.347764835065
146072000 0.446553729845 -0.347689344207
146076000 0.44677813211 -0.346850006266
146080000 0.447252153105 -0.346350119297
146084000 0.446236752405 -0.347075574192
146088000 0.446366965468 -0.347482521419
146092000 0.446858338355 -0.346677368957
146096000 0.447042986802 -0.346467213833
146100000 0.446461283912 -0.346604800599
146104000 0.44633979928 -0.347014434276
146108000 0.44675578253 -0.346395955897
146112000 0.446916296006 -0.346109933113
146116000 0.446583228713 -0.345704436209
146120000 0.4463418743 -0.346687210049
146124000 0.446600173453 -0.346283364503
146128000 0.446932136747 -0.345890679794
146132000 0.447162134276 -0.345143245989
146136000 0.446098377071 -0.346277364478
146140000 0.446609587009 -0.345942289449
146144000 0.446740227113 -0.345371374241
146148000 0.447346815601 -0.344386415396
146152000 0.446034345766 -0.345864385627
146156000 0.446337671624 -0.346081190098
146160000 0.446768963005 -0.345220651692
146164000 0.447209299232 -0.344429419599
146168000 0.446102947674 -0.345555199775
146172000 0.446124458221 -0.345545194265
146176000 0.446509584838 -0.344826325323
146180000 0.446977776252 -0.344291657182
146184000 0.445895712307 -0.345015124901
146188000 0.446252786861 -0.345564357571
146192000 0.44656661325 -0.34465957893
146196000 0.446724295958 -0.344316706357
146200000 0.445884501306 -0.344683128754
146204000 0.445733468083 -0.344879343141
146208000 0.446389955894 -0.344291890109
146212000 0.446404770486 -0.343918146876
146216000 0.446337704902 -0.343745693094
146220000 0.445899130152 -0.344923036485
146224000 0.446019794618 -0.344453038833
146228000 0.446487473421 -0.343794823353
146232000 0.44960150811 -0.346512431657
146236000 0.447005773211 -0.34616690478
146240000 0.446898149363 -0.344790082825
146244000 0.447844531852 -0.342442148904
146248000 0.447410588166 -0.342576565997
146252000 0.443162460577 -0.343936701994
146256000 0.446206514155 -0.344669251347
146260000 0.446315756121 -0.3430685393
146264000 0.446911171239 -0.342340635467
146268000 0.445449957058 -0.343484340684
146272000 0.445558454947 -0.34340898647
146276000 0.446107942542 -0.342682475958
146280000 0.446373889362 -0.342092369066
146284000 0.445342545918 -0.342903435738
146288000 0.445472437404 -0.343324341789
146292000 0.446013309769 -0.34244563537
146296000 0.446332882842 -0.342183626909
146300000 0.445598043497 -0.342335674455
146304000 0.445309110715 -0.342803667551
146308000 0.445972939954 -0.34209112233
146312000 0.446199000488 -0.341991400587
146316000 0.445996257793 -0.341461687262
146320000 0.44520691962 -0.342513468491
146324000 0.445558582248 -0.342202835343
146328000 0.446175104502 -0.341587475959
146332000 0.446319622758 -0.340903068114
146336000 0.445226952202 -0.342044420323
146340000 0.445532229752 -0.341781966721
146344000 0.445973176039 -0.341302545486
146348000 0.446543828544 -0.340214620821
146352000 0.445116932227 -0.341691178121
146356000 0.445169698995 -0.341853444904
146360000 0.445902789983 -0.341110170507
146364000 0.4465145819 -0.340423005019
146368000 0.445204388941 -0.341398090906
146372000 0.445256785833 -0.341324014796
146376000 0.445712997669 -0.34048982905
146380000 0.446067333327 -0.340194116638
146384000 0.445009836527 -0.340712838386
146388000 0.445141584916 -0.341332542358
146392000 0.445735841772 -0.340579071301
146396000 0.446069029749 -0.340342847415
146400000 0.445176607454 -0.340316953859
146404000 0.445729859424 -0.340252767413
146408000 0.446225810614 -0.339662990404
146412000 0.445318019696 -0.340269283381
146416000 0.444991814741 -0.340542866576
146420000 0.445695517645 -0.339952301299
146424000 0.446047775934 -0.339466527361
146428000 0.445344222255 -0.339544897066
146432000 0.444950322478 -0.340466975013
146436000 0.445517872773 -0.339811985066
146440000 0.445895774452 -0.339246913441
146444000 0.445814909552 -0.339051063572
146448000 0.444863843122 -0.33991241226
146452000 0.445514169064 -0.339343858937
146456000 0.445722236222 -0.338921755294
146460000 0.445693545691 -0.338310928404
146464000 0.444761118681 -0.339595633597
146468000 0.445217911312 -0.339468863142
146472000 0.445604479471 -0.338774667322
146476000 0.446104938099 -0.338213726517
146480000 0.444654207954 -0.33912619557
146484000 0.445112954051 -0.338995147297
146488000 0.445613519382 -0.338514574565
146492000 0.445991890764 -0.337854257973
146496000 0.44462710358 -0.338625045622
146500000 0.444798599816 -0.33906261753
146504000 0.445336667022 -0.338301837934
146508000 0.445781942831 -0.337544129249
146512000 0.444929077249 -0.338237950204
146516000 0.444658528658 -0.338396356682
146520000 0.445264817881 -0.337804742606
146524000 0.445614174996 -0.337341098388
146528000 0.444904595315 -0.337482428447
146532000 0.444421143448 -0.338277440269
146536000 0.445253165351 -0.337680136659
146540000 0.445451932215 -0.337282169198
146544000 0.445453577758 -0.337109434541
146548000 0.444592603559 -0.33793937262
146552000 0.445131108815 -0.337274685088
146556000 0.445427129442 -0.336841929715
146560000 0.44542085185 -0.336211479452
146564000 0.444288259006 -0.337463272254
146568000 0.444613929006 -0.337167565956
146572000 0.445274408292 -0.336628557658
146576000 0.445478299258 -0.336043851122
146580000 0.444273210618 -0.337156343203
146584000 0.444739502129 -0.336826320135
146588000 0.444942422617 -0.336213268241
146592000 0.445519781198 -0.335573837797
146596000 0.444167492201 -0.336587021073
146600000 0.444296533242 -0.336824269382
146604000 0.445033823474 -0.336083057021
146608000 0.445463382909 -0.335510640169
146612000 0.444333166398 -0.336250657208
146616000 0.443986731123 -0.336341174734
146620000 0.445168590499 -0.335775518508
146624000 0.445111793474 -0.335168964196
146628000 0.444309899747 -0.335356551102
146632000 0.443883086311 -0.33622364365
146636000 0.444546737442 -0.335565175984
146640000 0.444940520694 -0.335131397117
146644000 0.444519783518 -0.334795046325
146648000 0.44391304819 -0.335664077689
146652000 0.444441220576 -0.335088143068
146656000 0.444967410502 -0.334845203698
146660000 0.444971267959 -0.334051667872
146664000 0.443760315174 -0.33526743268
146668000 0.444218459118 -0.335140706078
146672000 0.444844819932 -0.334539739892
146676000 0.445204640398 -0.333831635754
146680000 0.443792050126 -0.33482221153
146684000 0.444059786642 -0.334547575542
146688000 0.444523797423 -0.334054654595
146692000 0.444959927635 -0.333289327808
146696000 0.443633876396 -0.334347617404
146700000 0.443876185861 -0.334562486074
146704000 0.443605559264 -0.333307305517
146708000 0.44512076296 -0.333374896771
146712000 0.443787712025 -0.333848224365
146716000 0.44516270238 -0.334567481367
146720000 0.444423793501 -0.333570456379
146724000 0.44481381707 -0.333029693307
146728000 0.444026930347 -0.333169709087
146732000 0.443683449189 -0.334005023342
146736000 0.444267826528 -0.333405267274
146740000 0.444909131838 -0.332849697017
146744000 0.444552554909 -0.332629087108
146748000 0.443601651144 -0.333506973305
146752000 0.44433993733 -0.332911547625
146756000 0.444598444092 -0.332507092249
146760000 0.444598270622 -0.331965434718
146764000 0.443293679291 -0.332983634719
146768000 0.444043186818 -0.332886302426
146772000 0.444450446383 -0.332423799736
146776000 0.444929934985 -0.331667875293
146780000 0.442837644945 -0.332408167432
146784000 0.443807231425 -0.332485975378
146788000 0.444156666119 -0.332028023751
146792000 0.444709105888 -0.33132897979
146796000 0.443239970897 -0.332161105346
146800000 0.443302721085 -0.332536187106
146804000 0.443716132535 -0.331922666435
146808000 0.443899900862 -0.331722287368
146812000 0.443871904118 -0.331770996378
146816000 0.444242231459 -0.331415608845
146820000 0.444084920546 -0.331565687416
146824000 0.444110474071 -0.331317883583
146828000 0.443985154793 -0.331431965419
146832000 0.444435942123 -0.330937302426
146836000 0.44396184604 -0.330963408713
146840000 0.443735036748 -0.331149845176
146844000 0.443690518496 -0.331185805793
146848000 0.444320549893 -0.330971287551
146852000 0.44415480474 -0.330705936218
146856000 0.443517680352 -0.330728889317
146860000 0.443513381781 -0.330837558307
146864000 0.443843529775 -0.330539804134
146868000 0.444043927437 -0.330191036193
146872000 0.443405110928 -0.330564151037
146876000 0.443458509409 -0.330539016786
146880000 0.443689556663 -0.330450985907
146884000 0.444118463447 -0.330265984491
146888000 0.44347063244 -0.330347312946
146892000 0.443622004369 -0.330186253002
146896000 0.443764362476 -0.329985491425
146900000 0.44401440681 -0.329623243014
146904000 0.443294994364 -0.329687764326
146908000 0.443689082309 -0.32970892295
146912000 0.443715278981 -0.329717033325
146916000 0.444030245621 -0.329293034188
146920000 0.443708039832 -0.329369720862
146924000 0.443861658941 -0.329229611659
146928000 0.443650517978 -0.329400165872
146932000 0.444142048493 -0.328678261375
146936000 0.443584200622 -0.328726768827
146940000 0.443529211333 -0.329012670203
146944000 0.443097591254 -0.328686843938
146948000 0.443936497256 -0.32867198103
146952000 0.443854982149 -0.328593299671
146956000 0.443421130372 -0.32882140228
146960000 0.443573736704 -0.328595739977
146964000 0.44361689499 -0.328482964549
146968000 0.443837335737 -0.327976197493
146972000 0.443009820756 -0.328287596823
146976000 0.443289056745 -0.328405457692
146980000 0.443368707083 -0.328311115389
146984000 0.443767810406 -0.327981645477
146988000 0.442929302768 -0.328262381404
146992000 0.443417823565 -0.327974142535
146996000 0.443337768655 -0.327933366482
147000000 0.443717243754 -0.327532862699
147004000 0.443058960027 -0.327651134138
147008000 0.443449548259 -0.327493029021
147012000 0.443546559187 -0.327778401267
147016000 0.443680372729 -0.32739293743
147020000 0.443365465415 -0.327435610842
147024000 0.443711717961 -0.32727762284
147028000 0.443295217752 -0.327390697277
147032000 0.443919773597 -0.326881657617
147036000 0.443517573542 -0.326809780216
147040000 0.443370847359 -0.327000589914
147044000 0.443182855685 -0.327157653874
147048000 0.443697530431 -0.32690798694
147052000 0.443889002042 -0.326307905147
147056000 0.443239512096 -0.326874395225
147060000 0.443250440836 -0.326799611499
147064000 0.444273105521 -0.326995912625
147068000 0.443699775647 -0.326232399513
147072000 0.442941675755 -0.326662925511
147076000 0.443208792223 -0.326492900392
147080000 0.443117547439 -0.326439255663
147084000 0.443629162642 -0.326128636046
147088000 0.443081109006 -0.326443497905
147092000 0.443254415743 -0.326110679866
147096000 0.443146391673 -0.326122875774
147100000 0.443454681694 -0.325763841658
147104000 0.442967179 -0.325849282089
147108000 0.443389286414 -0.3256925838
147112000 0.443230203916 -0.325618460524
147116000 0.443478608381 -0.325509619426
147120000 0.443091388268 -0.325566528048
147124000 0.443286430767 -0.325325287504
147128000 0.44315016621 -0.325534394517
147132000 0.443642659417 -0.324855542064
147136000 0.44359938888 -0.324942684834
147140000 0.443061734203 -0.325223470863
147144000 0.44275686771 -0.325353532924
147148000 0.443574559608 -0.325035634724
147152000 0.443451110019 -0.324883115012
147156000 0.44292771588 -0.324981309113
147160000 0.442987450738 -0.32500673349
147164000 0.443358733722 -0.324737241077
147168000 0.443522766108 -0.324390968391
147172000 0.442684974904 -0.324713089252
147176000 0.442952429076 -0.324651817491
147180000 0.442985121859 -0.324704064778
147184000 0.443365544601 -0.324273975523
147188000 0.442720263609 -0.324474696861
147192000 0.442930326676 -0.324268628233
147196000 0.442852674121 -0.324253550045
147200000 0.443463448217 -0.32396003054
147204000 0.442536112177 -0.324289134429
147208000 0.443413328854 -0.3237639851
147212000 0.442883816858 -0.323920672216
147216000 0.443093970373 -0.323848307082
147220000 0.442554049162 -0.324174615024
147224000 0.443171868647 -0.323859183414
147228000 0.442757405192 -0.323746692889
147232000 0.443271967911 -0.323451469752
147236000 0.442215405191 -0.323766258974
147240000 0.442857345004 -0.323696671072
147244000 0.442743319707 -0.323507267005
147248000 0.443102425661 -0.323166697733
147252000 0.442445725048 -0.323511106565
147256000 0.442409024165 -0.323596738786
147260000 0.442873562852 -0.323258260599
147264000 0.443341280722 -0.323127198674
147268000 0.442379392233 -0.323021903789
147272000 0.442313531809 -0.323194837659
147276000 0.443070045731 -0.322687072856
147280000 0.442708558515 -0.322780377212
147284000 0.442454125342 -0.322601242136
147288000 0.442040118409 -0.32308955494
147292000 0.443069358727 -0.322644014476
147296000 0.442172050141 -0.322428315818
147300000 0.442582257972 -0.322268989257
147304000 0.441963661628 -0.322800895304
147308000 0.443065334626 -0.321982637188
147312000 0.442301183125 -0.322275188338
147316000 0.442546945243 -0.321913392621
147320000 0.44356280999 -0.322475807042
147324000 0.442659153483 -0.322270243182
147328000 0.442341857294 -0.322200752162
147332000 0.442881879023 -0.322791489639
147336000 0.441822216083 -0.322194910325
147340000 0.442382278103 -0.321941595756
147344000 0.442175802004 -0.321767232644
147348000 0.442644165287 -0.321480549318
147352000 0.44190931578 -0.321750790932
147356000 0.44185291871 -0.321881508087
147360000 0.442338385096 -0.321574788343
147364000 0.442576424893 -0.3212059958
147368000 0.441962181031 -0.321452015085
147372000 0.441719713649 -0.3214206309
147376000 0.442338740007 -0.321162780759
147380000 0.442127632754 -0.321104700792
147384000 0.442266841006 -0.320839515911
147388000 0.441309533986 -0.321409605581
147392000 0.442366131344 -0.32094230057
147396000 0.442009716896 -0.321100006496
147400000 0.442237004302 -0.320663127112
147404000 0.44125786586 -0.321185036005
147408000 0.442360126743 -0.320473186258
147412000 0.441616424536 -0.32076075675
147416000 0.441934523809 -0.320497297238
147420000 0.44106559374 -0.320859729448
147424000 0.441980009437 -0.320535910119
147428000 0.441590442615 -0.320630604036
147432000 0.441951817095 -0.320166998943
147436000 0.441310780696 -0.320526076204
147440000 0.44154707586 -0.320131775075
147444000 0.441418387825 -0.320033401189
147448000 0.441184304897 -0.3195006795
147452000 0.44064514681 -0.320007826816
147456000 0.440751961738 -0.320212421144
147460000 0.441388576596 -0.320064189606
147464000 0.441804648188 -0.319743144224
147468000 0.441320510167 -0.319803221159
147472000 0.440851147431 -0.319802933123
147476000 0.441378833418 -0.319496258955
147480000 0.44122492974 -0.319363500929
147484000 0.441117838833 -0.319189554941
147488000 0.440435034516 -0.319575417399
147492000 0.441501180767 -0.319355460043
147496000 0.440993579105 -0.319272778697
147500000 0.441287294935 -0.319059263174
147504000 0.440048220148 -0.319454347919
147508000 0.441493355482 -0.318799463914
147512000 0.440539393793 -0.318972450406
147516000 0.441164458476 -0.318641172161
147520000 0.43979255249 -0.319200493947
147524000 0.44099426701 -0.318864613229
147528000 0.440468255795 -0.318896773921
147532000 0.44103889677 -0.31847814586
147536000 0.439893521132 -0.31884319553
147540000 0.44056932022 -0.318601208946
147544000 0.440193103938 -0.31852932897
147548000 0.440798679229 -0.318050188786
147552000 0.439850618963 -0.318423779414
147556000 0.439958989401 -0.318444061766
147560000 0.440315649984 -0.318359894452
147564000 0.440701393144 -0.317772889646
147568000 0.439933326985 -0.318125280234
147572000 0.439829691931 -0.318079688667
147576000 0.440271695212 -0.317599656893
147580000 0.440315471332 -0.317661268073
147584000 0.440175368057 -0.317483777548
147588000 0.439502519447 -0.317953595713
147592000 0.440267828034 -0.317375765503
147596000 0.440009648604 -0.317341491921
147600000 0.440180818403 -0.317062063325
147604000 0.438806980797 -0.317647852415
147608000 0.43961910918 -0.317441342458
147612000 0.440622583862 -0.316846424467
147616000 0.439244891993 -0.316977577228
147620000 0.438710487621 -0.317092326751
147624000 0.439297451224 -0.317216307479
147628000 0.44047247183 -0.316766275005
147632000 0.439303484708 -0.316602519789
147636000 0.438472946646 -0.316836312519
147640000 0.439191962979 -0.317037441045
147644000 0.439924416887 -0.316520286951
147648000 0.43958302064 -0.316098757187
147652000 0.438733836061 -0.316167531017
147656000 0.438624986143 -0.316568493157
147660000 0.439318969094 -0.316217608854
147664000 0.439730211042 -0.315662077707
147668000 0.438822001959 -0.315864756843
147672000 0.438556175586 -0.316250297355
147676000 0.439347454904 -0.315893091171
147680000 0.439484908428 -0.315312517811
147684000 0.438637023936 -0.315279067955
147688000 0.438162737732 -0.315843197407
147692000 0.438784252151 -0.315721932733
147696000 0.439755171595 -0.315053063593
147700000 0.438363874249 -0.314992459243
147704000 0.437784180609 -0.315461784536
147708000 0.438521524345 -0.315114504055
147712000 0.4396594564 -0.314684845374
147716000 0.438166234058 -0.314611107101
147720000 0.437660631218 -0.31489581765
147724000 0.438160129613 -0.314877719028
147728000 0.439378928762 -0.314364872948
147732000 0.438328193997 -0.314240043537
147736000 0.437339093895 -0.314620596979
147740000 0.437797786313 -0.314567624343
147744000 0.438815668215 -0.313967533209
147748000 0.438331056126 -0.313496680697
147752000 0.437557129989 -0.313989447229
147756000 0.437395010435 -0.314232807738
147760000 0.438243685894 -0.313948272136
147764000 0.438612863354 -0.313358238758
147768000 0.43749184897 -0.313336726831
147772000 0.437353164317 -0.313852793072
147776000 0.43822351635 -0.313510722835
147780000 0.438512393384 -0.312998855547
147784000 0.437805557073 -0.312862172128
147788000 0.436805398621 -0.313499084562
147792000 0.437473909453 -0.313270437055
147796000 0.438514030954 -0.312721271864
147800000 0.437369160498 -0.312647908074
147804000 0.436502366768 -0.313076472081
147808000 0.437456003781 -0.312830067928
147812000 0.438448988211 -0.312324486529
147816000 0.437113234725 -0.312146271819
147820000 0.436349382903 -0.312499053399
147824000 0.436920791523 -0.312534909571
147828000 0.438087459011 -0.312088822061
147832000 0.437017259894 -0.311837649918
147836000 0.43614654556 -0.31208580087
147840000 0.436710261755 -0.312106821681
147844000 0.437775283435 -0.311626334955
147848000 0.437353059366 -0.311412652345
147852000 0.436407557747 -0.311404373691
147856000 0.436148049844 -0.311686869146
147860000 0.432734307081 -0.310926922555
147864000 0.438025003255 -0.310629194975
147868000 0.436376480484 -0.310997954967
147872000 0.436006259591 -0.313465780659
147876000 0.437578883027 -0.311878149104
147880000 0.437379522087 -0.310496418413
147884000 0.436215122868 -0.31037655469
147888000 0.43576623672 -0.310894292968
147892000 0.436537721988 -0.310728000383
147896000 0.437567927482 -0.310214222054
147900000 0.435956775692 -0.310064756172
147904000 0.435323217276 -0.310415422493
147908000 0.436230690696 -0.310273778858
147912000 0.437215228887 -0.309728243436
147916000 0.435981339413 -0.309634068686
147920000 0.435224659372 -0.309845169726
147924000 0.4356893549 -0.30993189603
147928000 0.437160557012 -0.309555139495
147932000 0.436004907223 -0.309304333405
147936000 0.435092712213 -0.309402770985
147940000 0.435656151583 -0.30950882148
147944000 0.436649973427 -0.309101965834
147948000 0.43612991976 -0.308546101573
147952000 0.43500389509 -0.308561373927
147956000 0.435098812598 -0.308816824233
147960000 0.436017223224 -0.308801314765
147964000 0.436562775935 -0.308153089692
147968000 0.435340143111 -0.3080868936
147972000 0.435236268168 -0.308561557564
147976000 0.435822256342 -0.308381428467
147980000 0.436585925017 -0.307726305777
147984000 0.435426011244 -0.307507820235
147988000 0.434817480015 -0.308070067177
147992000 0.43535883076 -0.308080056987
147996000 0.436706825658 -0.307514231759
148000000 0.435159898162 -0.307254717134
