! Calibrated averaged scanner-service zoom
# Hz S RI R 50
406100000 0.27164061427 -0.175071090987
406106950 0.271338605602 -0.175558239082
406113900 0.271097405093 -0.175418480757
406120850 0.271250220772 -0.175707813291
406127800 0.2715867619 -0.175330405941
406134750 0.271009805822 -0.175727592272
406141700 0.271059598998 -0.175639964804
406148650 0.271436762127 -0.175456989116
406155600 0.271684146361 -0.17534499581
406162550 0.270860757437 -0.175828041363
406169500 0.271103112544 -0.175410391909
406176450 0.271361857735 -0.175418515247
406183400 0.271949173772 -0.175076470651
406190350 0.271445057923 -0.175106598279
406197300 0.272017352865 -0.175456168798
406204250 0.271078856063 -0.175529970829
406211200 0.272624327901 -0.175444880352
406218150 0.27106881495 -0.175156019415
406225100 0.272362671729 -0.174389105387
406232050 0.270458849149 -0.17345375961
406239000 0.274113305207 -0.172248088703
406245950 0.271219751394 -0.173969634416
406252900 0.272477805267 -0.174369403461
406259850 0.271260853798 -0.174841584313
406266800 0.271716126392 -0.175093938569
406273750 0.271547833527 -0.175182568666
406280700 0.272013065977 -0.17492633356
406287650 0.271885304672 -0.174668339396
406294600 0.272590099953 -0.174858212941
406301550 0.272601287848 -0.174768109702
406308500 0.271911945468 -0.174974268054
406315450 0.271768792833 -0.175106135235
406322400 0.2719553448 -0.175207434122
406329350 0.272157223425 -0.175450731095
406336300 0.271332796187 -0.174912887899
406343250 0.271918330618 -0.175059875161
406350200 0.271594247537 -0.174932133739
406357150 0.272304638587 -0.174658293355
406364100 0.271218335225 -0.174718389703
406371050 0.272122137913 -0.174685924108
406378000 0.271657804367 -0.175055925382
406384950 0.273191384542 -0.173143251563
406391900 0.271444221656 -0.174333406097
406398850 0.271940293534 -0.174597272441
406405800 0.271382072497 -0.174397101924
406412750 0.2723244883 -0.174297372788
406419700 0.271425302564 -0.174374818069
406426650 0.27192354186 -0.174725319917
406433600 0.271345381627 -0.174353850207
406440550 0.272081023548 -0.174420306373
406447500 0.271691027016 -0.174156958623
406454450 0.271873361182 -0.17406349691
406461400 0.271312765802 -0.173990700337
406468350 0.272064264705 -0.174062266979
406475300 0.271548120283 -0.17378621082
406482250 0.271404551536 -0.174075932604
406489200 0.271707078408 -0.174318554385
406496150 0.271412806023 -0.174857097417
406503100 0.272395931424 -0.174402697193
406510050 0.271936368321 -0.174360951994
406517000 0.272083148229 -0.174778562
406523950 0.271660166152 -0.174419002398
406530900 0.272536751885 -0.174436217184
406537850 0.271763105714 -0.174420595442
406544800 0.272396401145 -0.174115161232
406551750 0.271833786586 -0.174346365282
406558700 0.272632907433 -0.173919295231
406565650 0.271849375801 -0.174087544655
406572600 0.272923877058 -0.174024786474
406579550 0.272249244369 -0.173917131034
406586500 0.27248204357 -0.174069197308
406593450 0.271974899263 -0.173884010676
406600400 0.272451679495 -0.173920717556
406607350 0.272160818276 -0.174143462685
406614300 0.272890921502 -0.173785192831
406621250 0.272074976107 -0.173876408293
406628200 0.272317669522 -0.173750540371
406635150 0.272267648478 -0.173434129188
406642100 0.272740451393 -0.173047494341
406649050 0.272762833314 -0.173353051695
406656000 0.272555611133 -0.173552769323
406662950 0.272514575755 -0.173834277922
406669900 0.272485784676 -0.174097302683
406676850 0.272713767851 -0.173798510129
406683800 0.271897080318 -0.173899876992
406690750 0.272576694101 -0.173519507953
406697700 0.272254818172 -0.173723780251
406704650 0.273135988471 -0.173715794253
406711600 0.272305901082 -0.173476823619
406718550 0.272998252029 -0.173377322046
406725500 0.272337839768 -0.173483111176
406732450 0.273644462434 -0.173139080689
406739400 0.272629287799 -0.173043533293
406746350 0.273207901246 -0.173113083889
406753300 0.272278631278 -0.172953465132
406760250 0.272788013481 -0.172882944344
406767200 0.272347941013 -0.173283240426
406774150 0.27297839456 -0.173679281944
406781100 0.272623169595 -0.173601722232
406788050 0.273189734733 -0.173660904708
406795000 0.272275036065 -0.173689565133
406801950 0.272563368993 -0.173594038405
406808900 0.273425524803 -0.17354891844
406815850 0.273003062211 -0.173109967331
406822800 0.272703231667 -0.172990626356
406829750 0.272633967804 -0.173324288774
406836700 0.272602251666 -0.17336381113
406843650 0.272951253525 -0.173199146068
406850600 0.272973871426 -0.173071537333
406857550 0.272768074184 -0.173439777238
406864500 0.272931069981 -0.173477847475
406871450 0.273734218949 -0.173204018228
406878400 0.273005736244 -0.173148540693
406885350 0.27299091283 -0.173118279398
406892300 0.273237578416 -0.173100885533
406899250 0.273558189155 -0.173088249602
406906200 0.273093613468 -0.172992927546
406913150 0.272995597213 -0.172890639332
406920100 0.273226982872 -0.172971373707
406927050 0.274184781158 -0.172631467839
406934000 0.27303074887 -0.172664576645
406940950 0.27289155777 -0.172938689255
406947900 0.272900134874 -0.172747023786
406954850 0.2733457761 -0.172736789862
406961800 0.27291034489 -0.172683284127
406968750 0.272427387249 -0.172737003799
406975700 0.273150488073 -0.172876045934
406982650 0.273765899971 -0.172586986968
406989600 0.273197845336 -0.172512230455
406996550 0.27302048438 -0.172590064637
407003500 0.272886120503 -0.172495839214
407010450 0.27341605197 -0.17214141609
407017400 0.273317387429 -0.172763245273
407024350 0.27303177643 -0.172423523207
407031300 0.27302559085 -0.172398787736
407038250 0.273697079883 -0.172570790431
407045200 0.274010166503 -0.172855137418
407052150 0.273359991634 -0.172468629101
407059100 0.273181937618 -0.172466926254
407066050 0.273500850846 -0.172585736673
407073000 0.274061633989 -0.172426994004
407079950 0.273235318535 -0.172385628109
407086900 0.273527964229 -0.172345772003
407093850 0.273162757217 -0.172032683963
407100800 0.274081800803 -0.172250786754
407107750 0.273478592434 -0.172075960937
407114700 0.272751018495 -0.171819180003
407121650 0.273160265751 -0.17187406191
407128600 0.274261552715 -0.17206398356
407135550 0.273266111625 -0.172354443862
407142500 0.273399936283 -0.172472461661
407149450 0.273493705241 -0.172465297145
407156400 0.273659567353 -0.172499596512
407163350 0.273486701535 -0.172580894887
407170300 0.273375760238 -0.172305557991
407177250 0.273114653393 -0.172392698991
407184200 0.273780270174 -0.171945094054
407191150 0.273536470119 -0.171979362242
407198100 0.273565346535 -0.17199633755
407205050 0.273743109655 -0.172079027764
407212000 0.273739564815 -0.172183287611
407218950 0.274283791425 -0.172341827653
407225900 0.273516100445 -0.172015643375
407232850 0.273295508591 -0.171787618476
407239800 0.273632320708 -0.171753762463
407246750 0.273959640382 -0.171740819529
407253700 0.27348243619 -0.171905953655
407260650 0.273437036448 -0.172030001672
407267600 0.273439339651 -0.171437389223
407274550 0.274335078046 -0.171481419304
407281500 0.27363309971 -0.171132610524
407288450 0.273580434355 -0.171032216033
407295400 0.27359802549 -0.171158642576
407302350 0.274132862777 -0.171152967322
407309300 0.273730585106 -0.170943045643
407316250 0.273549380803 -0.171460536989
407323200 0.27544506888 -0.168888775047
407330150 0.274540368104 -0.171103182841
407337100 0.273918293105 -0.170928535409
407344050 0.273683333762 -0.171190691557
407351000 0.273656003786 -0.17109968294
407357950 0.274152369876 -0.171240407677
407364900 0.273840523319 -0.171434655051
407371850 0.273847935838 -0.171421148178
407378800 0.273700087379 -0.171435690718
407385750 0.274459082303 -0.171362144871
407392700 0.275699232362 -0.17227979593
407399650 0.274355047561 -0.171108736806
407406600 0.27382305299 -0.170936972305
407413550 0.274472771747 -0.170799061161
407420500 0.275344594685 -0.170734581151
407427450 0.274164370915 -0.170309992833
407434400 0.273822716234 -0.170596610752
407441350 0.273833049917 -0.17085482149
407448300 0.274600432017 -0.170960357511
407455250 0.273750815129 -0.170322319367
407462200 0.273751696697 -0.170653247616
407469150 0.273920773416 -0.171026849017
407476100 0.274745491096 -0.171203068329
407483050 0.274361836052 -0.170792065547
407490000 0.273877421832 -0.170934162034
407496950 0.273821464804 -0.170498539802
407503900 0.274658888057 -0.170803272676
407510850 0.27422731673 -0.170824377622
407517800 0.274890278858 -0.170745835109
407524750 0.273963341434 -0.170435830621
407531700 0.274143884213 -0.170453631437
407538650 0.275078565889 -0.170479869178
407545600 0.275217731356 -0.170482776537
407552550 0.27458740104 -0.170126021769
407559500 0.274735757605 -0.170206005317
407566450 0.275183095428 -0.170205627509
407573400 0.274789150479 -0.170597381865
407580350 0.274945278813 -0.170204845645
407587300 0.274684628359 -0.170448294487
407594250 0.27504437734 -0.170624155786
407601200 0.274387945663 -0.170446404652
407608150 0.274814840287 -0.170291920483
407615100 0.274415460124 -0.170160080703
407622050 0.27506569301 -0.170243703943
407629000 0.274314508713 -0.17011439131
407635950 0.275087156438 -0.170452644524
407642900 0.274143662888 -0.170107930712
407649850 0.275036657432 -0.17061922078
407656800 0.274696945418 -0.170262395012
407663750 0.275742203392 -0.170188308724
407670700 0.274182367034 -0.169539537019
407677650 0.274903271848 -0.169641770948
407684600 0.27481546072 -0.169579813573
407691550 0.275214952244 -0.1694434521
407698500 0.274943944573 -0.169619820747
407705450 0.275267985527 -0.170172598552
407712400 0.275124387861 -0.170187546484
407719350 0.275519513352 -0.169791952382
407726300 0.274713178801 -0.169789135402
407733250 0.274897761284 -0.169723649268
407740200 0.275341089626 -0.169841987607
407747150 0.274890510169 -0.169848208233
407754100 0.274409983959 -0.169762203892
407761050 0.274243845694 -0.169822430105
407768000 0.275024145502 -0.169884651892
407774950 0.274931632225 -0.169955683083
407781900 0.275431482784 -0.17000765488
407788850 0.274703874611 -0.169575874824
407795800 0.275443873379 -0.169786888718
407802750 0.274903669004 -0.169938608522
407809700 0.276180143897 -0.169704347707
407816650 0.274861844353 -0.169288557856
407823600 0.275632315129 -0.169440855379
407830550 0.274060228905 -0.165513246411
407837500 0.275831831357 -0.16991813394
407844450 0.274856872119 -0.169371907648
407851400 0.275388457015 -0.169687537976
407858350 0.274926286388 -0.169543274392
407865300 0.275631275701 -0.169626032833
407872250 0.274744080769 -0.168928438522
407879200 0.274559534113 -0.169017242985
407886150 0.275264801899 -0.168970897303
407893100 0.275296660515 -0.169198929036
407900050 0.274964803243 -0.16885599128
407907000 0.275106916287 -0.169298001864
407913950 0.275379496901 -0.169352827289
407920900 0.275262867821 -0.168893846451
407927850 0.275744827299 -0.168585048923
407934800 0.275479264074 -0.168724963339
407941750 0.276118175438 -0.169091474464
407948700 0.276241101576 -0.168705993315
407955650 0.27592640152 -0.169167576622
407962600 0.275543876374 -0.168935016436
407969550 0.276123067954 -0.169207297947
407976500 0.275299204166 -0.169199828
407983450 0.276223094564 -0.16944003598
407990400 0.275775564407 -0.168965291372
407997350 0.276297804301 -0.169420715463
408004300 0.27565748731 -0.169403671511
408011250 0.27626899568 -0.169147986084
408018200 0.275168793938 -0.168376682595
408025150 0.275668473564 -0.168354146212
408032100 0.275383132216 -0.168584966834
408039050 0.276389014548 -0.168707654799
408046000 0.275266458066 -0.168055646795
408052950 0.275932834381 -0.168691042354
408059900 0.275742645518 -0.168534057576
408066850 0.27576520332 -0.168463626302
408073800 0.275226654191 -0.16820549873
408080750 0.275522838091 -0.168650945678
408087700 0.275763992054 -0.168839391151
408094650 0.275664148358 -0.168419852469
408101600 0.275718266481 -0.168397162498
408108550 0.275561503972 -0.168179650236
408115500 0.276078002044 -0.168614996446
408122450 0.275543429122 -0.168367448316
408129400 0.276226468443 -0.16823404016
408136350 0.275616143524 -0.16798021815
408143300 0.276264650881 -0.168222584785
408150250 0.275753823635 -0.168434385044
408157200 0.276276468354 -0.168378728192
408164150 0.275456606834 -0.167907666705
408171100 0.276176067384 -0.167995652273
408178050 0.275848361873 -0.167728126576
408185000 0.276569914533 -0.168018098796
408191950 0.275987881144 -0.167763427774
408198900 0.276439855101 -0.167774835409
408205850 0.276130339408 -0.167573263992
408212800 0.275450780328 -0.167763302909
408219750 0.276215330218 -0.16767646368
408226700 0.276052587417 -0.167633054472
408233650 0.276556371786 -0.167610903594
408240600 0.27621493106 -0.167878626015
408247550 0.27660118865 -0.168298312304
408254500 0.276546117366 -0.167947216032
408261450 0.276400989713 -0.168266918377
408268400 0.275654653848 -0.167959228574
408275350 0.276361619415 -0.168097417235
408282300 0.275836772925 -0.167733298368
408289250 0.276217837322 -0.167816531759
408296200 0.275836228271 -0.167591260029
408303150 0.276179661114 -0.167587390553
408310100 0.2761961215 -0.167702818985
408317050 0.276875060519 -0.168175049532
408324000 0.276413351371 -0.167535327453
408330950 0.277094495046 -0.167730896306
408337900 0.276652737606 -0.167433476883
408344850 0.277298210152 -0.167622341228
408351800 0.276485872136 -0.166917006159
408358750 0.276546634665 -0.167461521034
408365700 0.276735047091 -0.167302529544
408372650 0.277011956886 -0.167416573754
408379600 0.276652717454 -0.167078105396
408386550 0.276659136384 -0.167168636091
408393500 0.277116043375 -0.167123075952
408400450 0.27655368448 -0.167187732774
408407400 0.276692683722 -0.167185630935
408414350 0.276692750385 -0.167189499317
408421300 0.277093918745 -0.167544914008
408428250 0.276760145461 -0.166926669869
408435200 0.277080784191 -0.167162685505
408442150 0.276890022468 -0.166867869739
408449100 0.277687795148 -0.166720038855
408456050 0.277235263731 -0.166591908334
408463000 0.2774492982 -0.166756093847
408469950 0.276792304513 -0.166382684159
408476900 0.277177674464 -0.166953053979
408483850 0.276766060098 -0.166771978384
408490800 0.277226253724 -0.167464234803
408497750 0.277014841446 -0.166925574474
408504700 0.277397185625 -0.166731760196
408511650 0.276865298236 -0.166779536321
408518600 0.277522573026 -0.167224500022
408525550 0.276906453172 -0.16652385298
408532500 0.276998418117 -0.166575822185
408539450 0.277107485349 -0.166693337574
408546400 0.277352822325 -0.166613598986
408553350 0.276962197648 -0.166489534737
408560300 0.27706870826 -0.166472058669
408567250 0.277531587825 -0.166837772498
408574200 0.277089759795 -0.166564003978
408581150 0.277304025862 -0.166344720663
408588100 0.2769330472 -0.166157907776
408595050 0.277193571231 -0.166373359093
408602000 0.277431490106 -0.166217922529
408608950 0.277386094675 -0.16634707412
408615900 0.276977791711 -0.165679339794
408622850 0.277925098614 -0.166083542554
408629800 0.277129964695 -0.165620131441
408636750 0.277955652702 -0.166494316877
408643700 0.27709285922 -0.165457790377
408650650 0.277695165212 -0.166158894327
408657600 0.276994316605 -0.165808507304
408664550 0.277688731742 -0.166356631228
408671500 0.27715607162 -0.165641632548
408678450 0.27736917385 -0.166100923207
408685400 0.277220016338 -0.166434761661
408692350 0.277059903972 -0.164848397408
408699300 0.27715616651 -0.165664911924
408706250 0.277453135163 -0.165993868331
408713200 0.277865517432 -0.165918625639
408720150 0.27792636814 -0.165953908394
408727100 0.277715012934 -0.165619126162
408734050 0.277682943104 -0.165254091558
408741000 0.277851834561 -0.165467153451
408747950 0.277966090759 -0.165474479138
408754900 0.277744967744 -0.165763908924
408761850 0.277535813614 -0.165778051398
408768800 0.278425226258 -0.166384001167
408775750 0.277997990643 -0.166049780207
408782700 0.278283589219 -0.166143045929
408789650 0.27783241086 -0.165611106464
408796600 0.278099977321 -0.166125740195
408803550 0.277461282751 -0.165452897857
408810500 0.278158505048 -0.16560634137
408817450 0.277472408614 -0.165118028998
408824400 0.277874679216 -0.164867981265
408831350 0.277760031978 -0.16466641189
408838300 0.278029155528 -0.164983527341
408845250 0.27787976792 -0.164655756168
408852200 0.278134379244 -0.164989932157
408859150 0.278046495527 -0.164776040872
408866100 0.278545667937 -0.165722887441
408873050 0.27811677502 -0.165297166176
408880000 0.278045790146 -0.165584421184
408886950 0.27809853721 -0.165628170222
408893900 0.27774798631 -0.165380947645
408900850 0.278151352871 -0.165754365788
408907800 0.277709960163 -0.164969679635
408914750 0.27800868046 -0.165288091803
408921700 0.278441577662 -0.165668823917
408928650 0.279509829401 -0.166572143406
408935600 0.279447812813 -0.166072282183
408942550 0.280203821956 -0.167299475213
408949500 0.279922120983 -0.166125004806
408956450 0.279772059132 -0.166286679192
408963400 0.278640389007 -0.165132713331
408970350 0.278429548965 -0.165018209797
408977300 0.277699182568 -0.164833424829
408984250 0.278342816966 -0.16512080494
408991200 0.278050091317 -0.164173806772
408998150 0.278033110317 -0.164743715949
409005100 0.277976323859 -0.164405155384
409012050 0.278031659198 -0.164774098732
409019000 0.27806398037 -0.164277246295
409025950 0.27851096808 -0.164245818325
409032900 0.278473854937 -0.16414865533
409039850 0.278363604599 -0.164272958667
409046800 0.278519993771 -0.1645098932
409053750 0.277626720357 -0.164078090778
409060700 0.278271081219 -0.164530551616
409067650 0.278399140856 -0.164424221863
409074600 0.278555328361 -0.164783072632
409081550 0.277968442132 -0.16364110726
409088500 0.2786791112 -0.164379933168
409095450 0.278244292312 -0.164058061319
409102400 0.278998097599 -0.16435335702
409109350 0.278354212283 -0.163943120978
409116300 0.278715295723 -0.164302860046
409123250 0.278100366573 -0.164066706789
409130200 0.27953116713 -0.164170736099
409137150 0.279022434293 -0.164097650497
409144100 0.279206395472 -0.164488236447
409151050 0.27852683135 -0.163853817267
409158000 0.278876468455 -0.164484249094
409164950 0.278737707462 -0.163734370869
409171900 0.278959603036 -0.164353794823
409178850 0.278775582924 -0.163875472926
409185800 0.279064788423 -0.164168336301
409192750 0.279017192889 -0.163945680644
409199700 0.279285814703 -0.163882171886
409206650 0.279041031485 -0.163768258931
409213600 0.278904546064 -0.163879142133
409220550 0.279276498435 -0.163735029709
409227500 0.278806922478 -0.163472382953
409234450 0.278814556852 -0.16387512718
409241400 0.279039264198 -0.163745285097
409248350 0.277462013483 -0.164815340252
409255300 0.278820505796 -0.163264837144
409262250 0.278958027691 -0.163628947429
409269200 0.278729389241 -0.16344036274
409276150 0.279202417733 -0.163722013673
409283100 0.278910772044 -0.162881628447
409290050 0.279506065531 -0.16351584823
409297000 0.279023015652 -0.163499584865
409303950 0.279854461099 -0.163497091607
409310900 0.27912707107 -0.163257554546
409317850 0.279556107979 -0.163215812165
409324800 0.27910534838 -0.163050935999
409331750 0.27934297161 -0.163592683073
409338700 0.278897111975 -0.16306227936
409345650 0.279569547505 -0.163266105176
409352600 0.280281620007 -0.1628414658
409359550 0.281222178343 -0.163122402628
409366500 0.282733651998 -0.162833700047
409373450 0.28281597552 -0.160686771561
409380400 0.28307721634 -0.162937711046
409387350 0.282198929253 -0.163131510044
409394300 0.280866185672 -0.163652048719
409401250 0.280048374437 -0.16362257473
409408200 0.279298729421 -0.163929508763
409415150 0.279523795417 -0.163282775623
409422100 0.279729233963 -0.163469987503
409429050 0.279356333433 -0.162538586514
409436000 0.279566487668 -0.162966702975
409442950 0.279403422594 -0.162558975219
409449900 0.279848409843 -0.163266116342
409456850 0.27894153526 -0.162593114158
409463800 0.278840366159 -0.162280968699
409470750 0.275494614233 -0.161197339681
409477700 0.273625481397 -0.160997906406
409484650 0.270645441241 -0.15965407375
409491600 0.269534098074 -0.159741774509
409498550 0.272015942324 -0.159453615511
409505500 0.274832407295 -0.161353131402
409512450 0.277122121578 -0.161402450695
409519400 0.280288114692 -0.162786903661
409526350 0.279608485699 -0.16236652858
409533300 0.279815764652 -0.163061730544
409540250 0.279587060196 -0.162471399361
409547200 0.279678952856 -0.162539364465
409554150 0.279460738999 -0.162709868169
409561100 0.280094727615 -0.16268811866
409568050 0.280034098766 -0.162167906182
409575000 0.280189126885 -0.162321533511
409581950 0.280227317177 -0.162047233312
409588900 0.280117185234 -0.162560844629
409595850 0.280069212794 -0.16219178686
409602800 0.280140128507 -0.16219254998
409609750 0.279832176358 -0.161996634719
409616700 0.279113357568 -0.161787960433
409623650 0.279755395731 -0.16166639423
409630600 0.280059947813 -0.161744548458
409637550 0.280063138223 -0.161373202767
409644500 0.280012799406 -0.161373175676
409651450 0.279805147951 -0.161866592123
409658400 0.279912306672 -0.162266927096
409665350 0.280026998786 -0.162047261974
409672300 0.280029581427 -0.161818078804
409679250 0.280251953311 -0.161945970079
409686200 0.280001555313 -0.161551694261
409693150 0.280145505431 -0.16148466641
409700100 0.279962046651 -0.16169901306
409707050 0.280690469894 -0.161958959303
409714000 0.280332593855 -0.161608333697
409720950 0.280360300276 -0.161772491378
409727900 0.280323914991 -0.161276875239
409734850 0.280638603474 -0.161607508879
409741800 0.279875933608 -0.161651213794
409748750 0.280034184334 -0.161958529651
409755700 0.280365516454 -0.161602315241
409762650 0.280274512337 -0.16161334277
409769600 0.280284191622 -0.161271908407
409776550 0.280626578388 -0.16149271323
409783500 0.280351609184 -0.161154615495
409790450 0.280183151803 -0.16086255401
409797400 0.280366721036 -0.161162078295
409804350 0.280515630196 -0.161543598161
409811300 0.280436293522 -0.161092449321
409818250 0.28026633695 -0.16117527126
409825200 0.28024606903 -0.161491186475
409832150 0.280198012922 -0.161180862548
409839100 0.280201468172 -0.161094348881
409846050 0.280093650418 -0.160841015367
409853000 0.280383907792 -0.161176311634
409859950 0.280611693813 -0.160744438335
409866900 0.280479037893 -0.160841157267
409873850 0.280636551165 -0.160835654969
409880800 0.280950689688 -0.161164274672
409887750 0.280536633528 -0.160760957931
409894700 0.28086544027 -0.161036594449
409901650 0.280896734584 -0.160826301127
409908600 0.28112372768 -0.160709367444
409915550 0.280893389393 -0.16050602952
409922500 0.281014704395 -0.160565420131
409929450 0.280928473725 -0.160804761965
409936400 0.281050199702 -0.160550771897
409943350 0.280824091437 -0.160459221934
409950300 0.281131372296 -0.16012959425
409957250 0.2807350603 -0.160625374058
409964200 0.280349184743 -0.160518328756
409971150 0.280483279003 -0.160573345647
409978100 0.280513875657 -0.160838441284
409985050 0.280707946492 -0.160666800344
409992000 0.280647317728 -0.160294321497
409998950 0.280436634881 -0.160822746914
410005900 0.28036651334 -0.160776990651
410012850 0.280843925001 -0.16026599795
410019800 0.28065251058 -0.160498242654
410026750 0.28107648597 -0.160821027181
410033700 0.281222705816 -0.160077393057
410040650 0.281079961253 -0.160003134096
410047600 0.280990396818 -0.159673416995
410054550 0.280606613332 -0.160542293935
410061500 0.280327243355 -0.159763259745
410068450 0.280869525987 -0.160569428642
410075400 0.281169044339 -0.16026792177
410082350 0.281087263391 -0.160346115053
410089300 0.281685892112 -0.160293941183
410096250 0.281187892932 -0.160470081877
410103200 0.281408161022 -0.16035659025
410110150 0.281390640392 -0.160140286227
410117100 0.281263646749 -0.159839872796
410124050 0.281381678685 -0.160064562385
410131000 0.281425339028 -0.159958538438
410137950 0.281612272946 -0.159686686955
410144900 0.281720442283 -0.159507400689
410151850 0.281959958922 -0.159817863073
410158800 0.281617062676 -0.159856308798
410165750 0.281440355974 -0.159563087143
410172700 0.281207632258 -0.159589087969
410179650 0.281683202904 -0.159882558964
410186600 0.281409054396 -0.159277725724
410193550 0.281148994195 -0.158794863725
410200500 0.281344333062 -0.159129789372
410207450 0.281751256365 -0.158674252364
410214400 0.281989849598 -0.159035655156
410221350 0.281529797868 -0.159070119041
410228300 0.281828060574 -0.159975794485
410235250 0.281785749569 -0.15977978922
410242200 0.281418471339 -0.159751427125
410249150 0.281473233546 -0.159609261107
410256100 0.281521736464 -0.159801611428
410263050 0.281783848684 -0.159491152576
410270000 0.281998552663 -0.159404063696
410276950 0.282161718968 -0.159154419742
410283900 0.281894642122 -0.159690964746
410290850 0.282217334991 -0.159527430189
410297800 0.282077654359 -0.159754339101
410304750 0.282090722142 -0.159089792557
410311700 0.282147483036 -0.159441796414
410318650 0.281493889231 -0.159044746297
410325600 0.282434456991 -0.159650092245
410332550 0.281639641298 -0.158595820181
410339500 0.281901442961 -0.158983273066
410346450 0.281761629729 -0.158957378789
410353400 0.281907157504 -0.159169248064
410360350 0.281694399147 -0.158309680626
410367300 0.281941089422 -0.158000637437
410374250 0.281274956706 -0.157716937593
410381200 0.281496121412 -0.157022658016
410388150 0.281620990282 -0.157907223266
410395100 0.282162468399 -0.157545081928
410402050 0.281970847748 -0.158231163953
410409000 0.282347640871 -0.158753456307
410415950 0.28261198639 -0.158910166243
410422900 0.281950171557 -0.158281690989
410429850 0.282425470024 -0.15852574815
410436800 0.282172922747 -0.158533787972
410443750 0.28242951333 -0.159163879299
410450700 0.282118562495 -0.158168535106
410457650 0.28241045649 -0.158474970696
410464600 0.28192422041 -0.158451366055
410471550 0.282313019887 -0.15903336296
410478500 0.282434334436 -0.157957719917
410485450 0.282656957187 -0.158303102949
410492400 0.281400079034 -0.158047273614
410499350 0.282664066003 -0.159114547254
410506300 0.282620038295 -0.157902917734
410513250 0.284697294293 -0.154141554493
410520200 0.281517533242 -0.157380388232
410527150 0.282683994776 -0.158093778421
410534100 0.282640128446 -0.158054229522
410541050 0.282584487116 -0.157886249219
410548000 0.282476133853 -0.157989581525
410554950 0.282687385861 -0.158209832477
410561900 0.28278158578 -0.157655171226
410568850 0.282351143263 -0.157696258856
410575800 0.282601069682 -0.157734134222
410582750 0.282303046762 -0.157823140621
410589700 0.2825146362 -0.158091914526
410596650 0.282453359033 -0.157062131984
410603600 0.282377980384 -0.157398123924
410610550 0.282749222832 -0.157512154924
410617500 0.28306186196 -0.157857862751
410624450 0.282787890529 -0.156701754864
410631400 0.28272012796 -0.157122937275
410638350 0.282497910797 -0.157247481251
410645300 0.282987586153 -0.158130417477
410652250 0.282902199566 -0.156934031095
410659200 0.282850176985 -0.156908763411
410666150 0.282775438508 -0.157080900618
410673100 0.283041960268 -0.157525546511
410680050 0.28303641828 -0.15690305895
410687000 0.283383358096 -0.156719674897
410693950 0.282783314629 -0.15663121989
410700900 0.283135843042 -0.157348033808
410707850 0.283529649558 -0.156856391813
410714800 0.283263483438 -0.156834261839
410721750 0.283171815972 -0.157360503177
410728700 0.283120970465 -0.157253584228
410735650 0.283334927787 -0.157310616353
410742600 0.282869747987 -0.156309004521
410749550 0.283252855025 -0.156654251776
410756500 0.282929718151 -0.156951480111
410763450 0.283060362417 -0.157468924176
410770400 0.282896800727 -0.156214510343
410777350 0.282788114591 -0.15665656235
410784300 0.282828988942 -0.156782131918
410791250 0.283251235134 -0.157286175092
410798200 0.28310186938 -0.156129953949
410805150 0.282479184153 -0.156915852246
410812100 0.282835844918 -0.156894454668
410819050 0.283242411967 -0.15715246142
410826000 0.283598394251 -0.155793510807
410832950 0.283254973434 -0.156071319229
410839900 0.283282471107 -0.156157046206
410846850 0.283252892736 -0.156812629808
410853800 0.283580768533 -0.155876829673
410860750 0.28341034152 -0.155872094105
410867700 0.283212451862 -0.156138818589
410874650 0.283491061524 -0.156530473573
410881600 0.283535587017 -0.15582385087
410888550 0.283312477857 -0.155521769056
410895500 0.283279415397 -0.155870595527
410902450 0.283512487073 -0.156093721867
410909400 0.28343514602 -0.156247660398
410916350 0.283344613934 -0.155975593159
410923300 0.283351235412 -0.156021943609
410930250 0.283717785842 -0.156210328325
410937200 0.283828676628 -0.156505333952
410944150 0.283541384392 -0.155717667506
410951100 0.283451275245 -0.155757617441
410958050 0.283856384082 -0.155651917036
410965000 0.284130438638 -0.156509333562
410971950 0.283982593413 -0.156108365099
410978900 0.284033130646 -0.155453673209
410985850 0.283837589823 -0.156026691558
410992800 0.284057096506 -0.155638336632
410999750 0.284189111164 -0.155981688335
411006700 0.283925835756 -0.155568441519
411013650 0.284347119942 -0.156312125979
411020600 0.284189381522 -0.155848216676
411027550 0.284315858383 -0.155577515714
411034500 0.284264285633 -0.155512596803
411041450 0.284377003945 -0.155490986928
411048400 0.284212398922 -0.155767067322
411055350 0.283986038946 -0.155801896488
411062300 0.284190818439 -0.155697687014
411069250 0.283415007328 -0.156189977654
411076200 0.283748378002 -0.155385332467
411083150 0.284148201398 -0.155324444059
411090100 0.283943686643 -0.155223989762
411097050 0.283919719046 -0.155603793864
411104000 0.284106810838 -0.155348744128
411110950 0.283766185002 -0.154968395043
411117900 0.284001524408 -0.15506283494
411124850 0.2838784492 -0.155231662648
411131800 0.283805522257 -0.155161838327
411138750 0.28420138364 -0.154855038549
411145700 0.28393481681 -0.154849647285
411152650 0.284273778075 -0.154801496963
411159600 0.28427601276 -0.154818771837
411166550 0.283934430091 -0.154555199165
411173500 0.284559261047 -0.15490164148
411180450 0.284503657991 -0.154307344915
411187400 0.284354543105 -0.154362213749
411194350 0.284361058215 -0.154493553414
411201300 0.284222646071 -0.155006979821
411208250 0.283946919273 -0.155016209871
411215200 0.284017647023 -0.155747321368
411222150 0.284330751557 -0.15545747233
411229100 0.284299329363 -0.154964340625
411236050 0.284132138439 -0.154752198374
411243000 0.284170181273 -0.154567532549
411249950 0.284280856703 -0.154558660205
411256900 0.284638378142 -0.154503819029
411263850 0.284512362295 -0.15448661402
411270800 0.284566375126 -0.154702890237
411277750 0.284339485709 -0.154421413863
411284700 0.28452699697 -0.154357519885
411291650 0.284633472191 -0.154081725003
411298600 0.284596256762 -0.154389046227
411305550 0.284494888656 -0.154168768407
411312500 0.28479431076 -0.154242977756
411319450 0.284717122525 -0.153876304976
411326400 0.284635336326 -0.154050035513
411333350 0.284826815329 -0.154336564777
411340300 0.284729217321 -0.154335154198
411347250 0.28489267676 -0.154366894285
411354200 0.284771135271 -0.153888530549
411361150 0.284642963677 -0.154330732497
411368100 0.284947392001 -0.153822698243
411375050 0.284967913228 -0.154175774467
411382000 0.285515628898 -0.153901776767
411388950 0.285047349306 -0.154335370007
411395900 0.285084946009 -0.154124017756
411402850 0.284861038877 -0.153868298173
411409800 0.284608857129 -0.153329474864
411416750 0.284542678363 -0.153355678173
411423700 0.284923518312 -0.153698714795
411430650 0.285115647045 -0.153792025906
411437600 0.284965213344 -0.15362858191
411444550 0.285027125546 -0.154103052042
411451500 0.285432352345 -0.153996935608
411458450 0.285601581298 -0.153708859026
411465400 0.285103001472 -0.153569757495
411472350 0.285042650229 -0.153573574535
411479300 0.284697319223 -0.153317975054
411486250 0.285175230647 -0.153332889049
411493200 0.28518478615 -0.153612273697
411500150 0.28525326598 -0.153072834318
411507100 0.285222658903 -0.153285165901
411514050 0.285566520802 -0.153329199352
411521000 0.28543354491 -0.153172630562
411527950 0.285104630594 -0.152739339242
411534900 0.284715063768 -0.153546206506
411541850 0.285181315441 -0.153192507289
411548800 0.28505951454 -0.153291787082
411555750 0.284713684657 -0.153134943497
411562700 0.284741850805 -0.153304921546
411569650 0.28468446167 -0.153093550603
411576600 0.284707020605 -0.152720673734
411583550 0.285061716699 -0.152571869223
411590500 0.285068773909 -0.153212393084
411597450 0.284801858995 -0.153031727939
411604400 0.284548246205 -0.154001584322
411611350 0.285091926697 -0.153598586204
411618300 0.284996508706 -0.153445282452
411625250 0.284395294784 -0.153653290346
411632200 0.282850714924 -0.154590332785
411639150 0.280646571001 -0.156055631439
411646100 0.283902910808 -0.157705367976
411653050 0.301532741407 -0.149939374603
411660000 0.335926124618 -0.15304693198
411666950 0.364655079136 -0.156967346274
411673900 0.392436988616 -0.131837861705
411680850 0.377363233861 -0.139598759548
411687800 0.344818982271 -0.150045198479
411694750 0.314405812038 -0.15238583524
411701700 0.291665912586 -0.152630921215
411708650 0.285397166124 -0.151634360664
411715600 0.285477846595 -0.152442400494
411722550 0.285523193235 -0.152844202647
411729500 0.28534825485 -0.152631827201
411736450 0.285377533131 -0.152328400281
411743400 0.285701386125 -0.151821917664
411750350 0.285541328742 -0.152093875573
411757300 0.28584469163 -0.152057526453
411764250 0.285765792051 -0.15178932341
411771200 0.28600167479 -0.151727828421
411778150 0.285674644261 -0.151834403226
411785100 0.285805701603 -0.151805890469
411792050 0.28557057141 -0.15227648449
411799000 0.286142973926 -0.15155119123
411805950 0.286120310293 -0.151823114948
411812900 0.286034705443 -0.151554646214
411819850 0.286144917269 -0.151724841085
411826800 0.286291430667 -0.150764082416
411833750 0.285861045953 -0.151419359788
411840700 0.286112893343 -0.151429728733
411847650 0.286052902106 -0.151822183253
411854600 0.285883233192 -0.15119138323
411861550 0.285991159079 -0.151471556935
411868500 0.286259294985 -0.151307426734
411875450 0.286370672312 -0.151757410203
411882400 0.286020768498 -0.151140713815
411889350 0.285968612808 -0.15153222355
411896300 0.285849427055 -0.151548337605
411903250 0.286145404803 -0.151271850784
411910200 0.285806273312 -0.151333684143
411917150 0.286313980621 -0.151018779161
411924100 0.286429912603 -0.151304836161
411931050 0.286622705299 -0.151306679933
411938000 0.286861729518 -0.151152134203
411944950 0.286442394558 -0.150896201015
411951900 0.286290282305 -0.151036123473
411958850 0.286067158367 -0.150881493441
411965800 0.28650009798 -0.151478099103
411972750 0.286528471157 -0.150763965377
411979700 0.286569850364 -0.151216191505
411986650 0.286949045097 -0.151506281179
411993600 0.286774080843 -0.15126145062
412000550 0.286828919116 -0.150854564424
412007500 0.286396030835 -0.150429624805
412014450 0.286300762311 -0.150984995175
412021400 0.286139943972 -0.151061031898
412028350 0.286304082367 -0.150014307464
412035300 0.286043761405 -0.150444935712
412042250 0.286228756111 -0.150338167122
412049200 0.286680965424 -0.150512902564
412056150 0.286280562614 -0.150278982404
412063100 0.286050895432 -0.150267347604
412070050 0.285989457025 -0.150572609939
412077000 0.286111845749 -0.150421108734
412083950 0.286227695528 -0.150535286428
412090900 0.286181879581 -0.150378662875
412097850 0.286899384903 -0.150329536749
412104800 0.287216786291 -0.150514910956
412111750 0.286837834227 -0.150396111404
412118700 0.28669690175 -0.150291412488
412125650 0.286494704863 -0.150493228841
412132600 0.286353895032 -0.149831430373
412139550 0.286907879921 -0.149954198119
412146500 0.286807430339 -0.149802065605
412153450 0.286664761806 -0.150092449309
412160400 0.286789424758 -0.150034127011
412167350 0.2868892885 -0.150043924288
412174300 0.287007652842 -0.149421112239
412181250 0.286619969292 -0.149722708675
412188200 0.286566065977 -0.150020567614
412195150 0.287124265554 -0.150068054174
412202100 0.28703739384 -0.149141570868
412209050 0.286944616094 -0.149430307453
412216000 0.287010110172 -0.149596941708
412222950 0.287250502563 -0.149713301443
412229900 0.287520396568 -0.14943835543
412236850 0.287144751632 -0.149549665794
412243800 0.287299563609 -0.149387017569
412250750 0.287224381699 -0.149371744622
412257700 0.287372213597 -0.149297985205
412264650 0.287555678289 -0.148959724938
412271600 0.286839793405 -0.149450059687
412278550 0.287353758872 -0.149073277389
412285500 0.287490370715 -0.149473070765
412292450 0.287432029976 -0.148862974763
412299400 0.287510122058 -0.149119739733
412306350 0.287396974143 -0.149088588438
412313300 0.287527887511 -0.148954989127
412320250 0.287202698148 -0.148554846982
412327200 0.287145767859 -0.149124244612
412334150 0.287483183155 -0.149380322216
412341100 0.287355639167 -0.149471082868
412348050 0.287364815512 -0.148764117961
412355000 0.286982811358 -0.148460621664
412361950 0.287109518071 -0.148407462232
412368900 0.287207259519 -0.148413645751
412375850 0.287502210832 -0.148470883555
412382800 0.287489885349 -0.148526633396
412389750 0.288302839708 -0.148662738575
412396700 0.287886203671 -0.148528673842
412403650 0.288237953774 -0.148860700515
412410600 0.287709806386 -0.148360429734
412417550 0.287700865965 -0.148243345536
412424500 0.287713602425 -0.14837689179
412431450 0.287791714504 -0.148653611061
412438400 0.287696300318 -0.148476916082
412445350 0.288252498641 -0.148500936249
412452300 0.287725739338 -0.148870325731
412459250 0.28776560985 -0.148276170531
412466200 0.287612441525 -0.148673395203
412473150 0.287635074006 -0.148311608639
412480100 0.287403125986 -0.148480431799
412487050 0.287448313579 -0.148037293543
412494000 0.288023123698 -0.148300793715
412500950 0.287618558989 -0.147790941712
412507900 0.287601751368 -0.147928944168
412514850 0.287740677819 -0.147898381154
412521800 0.288138131256 -0.147895553938
412528750 0.288166363651 -0.147498820318
412535700 0.288186526112 -0.147512473502
412542650 0.288177450717 -0.147709225021
412549600 0.288084854457 -0.147978138495
412556550 0.288574021544 -0.147768553841
412563500 0.288492406357 -0.147940656159
412570450 0.288278352941 -0.147604777759
412577400 0.288109217972 -0.147560940194
412584350 0.288114295186 -0.147302933588
412591300 0.287952567272 -0.147139210825
412598250 0.288312582649 -0.147516461923
412605200 0.288036259646 -0.147429718027
412612150 0.287950864632 -0.14731692219
412619100 0.288175545634 -0.147160013999
412626050 0.288030918859 -0.147412224934
412633000 0.287975668166 -0.147184143513
412639950 0.288331971721 -0.147583902904
412646900 0.288042435608 -0.146880974973
412653850 0.288061169341 -0.147286521962
412660800 0.288345463974 -0.146912283255
412667750 0.288446383966 -0.147267408031
412674700 0.288498237432 -0.146681359882
412681650 0.288618306088 -0.147062265137
412688600 0.288518723068 -0.146800150474
412695550 0.288566489025 -0.146829173904
412702500 0.288407595693 -0.146535563109
412709450 0.288382688159 -0.146688946117
412716400 0.288671938114 -0.146600861876
412723350 0.288538394572 -0.147060149638
412730300 0.288447541599 -0.146471022983
412737250 0.288624116633 -0.146939092405
412744200 0.288387515029 -0.146736881726
412751150 0.288483997063 -0.146643711012
412758100 0.288516009619 -0.146647815575
412765050 0.28833474825 -0.14617312539
412772000 0.288476635432 -0.145979003081
412778950 0.288550138306 -0.146254176092
412785900 0.288364481426 -0.146178430008
412792850 0.288257207509 -0.146428625692
412799800 0.288049624531 -0.146382385129
412806750 0.288532129477 -0.146141176351
412813700 0.288714275743 -0.14646975676
412820650 0.288702942017 -0.145954335278
412827600 0.289054445381 -0.145988573202
412834550 0.289245795877 -0.14587364324
412841500 0.28922264203 -0.145741126194
412848450 0.28948038485 -0.145213436415
412855400 0.289413001736 -0.145876495825
412862350 0.288943745592 -0.145586003461
412869300 0.289369986441 -0.145849686851
412876250 0.289551571374 -0.145635519545
412883200 0.289063143535 -0.145805289818
412890150 0.289341443221 -0.145851060604
412897100 0.289150951265 -0.146141162684
412904050 0.289198171747 -0.145865460662
412911000 0.288270771466 -0.146407952687
412917950 0.289156162255 -0.146243144211
412924900 0.289436573425 -0.146224980565
412931850 0.289646483759 -0.145449126027
412938800 0.289614561316 -0.145425341908
412945750 0.289969751764 -0.145631836251
412952700 0.289391235678 -0.145739424654
412959650 0.290549693528 -0.145501139309
412966600 0.289312137534 -0.145112641515
412973550 0.289362618351 -0.145508972822
412980500 0.289313001332 -0.14549137459
412987450 0.289663134339 -0.14521980206
412994400 0.28987473479 -0.144791765872
413001350 0.289447060592 -0.144814753532
413008300 0.289820497076 -0.144725960227
413015250 0.289423444426 -0.145024953081
413022200 0.289026965186 -0.144774250439
413029150 0.289330156157 -0.145229870582
413036100 0.289505899843 -0.144555069211
413043050 0.28942586174 -0.144844488441
413050000 0.289745869266 -0.144542056618
413056950 0.289702179769 -0.144851826563
413063900 0.289859431856 -0.144549955056
413070850 0.289339356504 -0.144606106348
413077800 0.289751530484 -0.144692919257
413084750 0.28954980816 -0.144813438934
413091700 0.289851498952 -0.144326097178
413098650 0.289634956644 -0.144282233237
413105600 0.28941038405 -0.144466176748
413112550 0.289358532211 -0.144714527469
413119500 0.289769127971 -0.144169309043
413126450 0.289488316999 -0.144046008444
413133400 0.289724910123 -0.144183052349
413140350 0.289787030362 -0.144729157232
413147300 0.290068008706 -0.144190688629
413154250 0.289763551864 -0.144312725144
413161200 0.289816042203 -0.144340424803
413168150 0.289607506052 -0.14436421075
413175100 0.290044206668 -0.14461840176
413182050 0.289951651146 -0.14420579639
413189000 0.290068120552 -0.144273609195
413195950 0.290005771785 -0.14423036473
413202900 0.290242715437 -0.144654765874
413209850 0.290127018643 -0.144106856472
413216800 0.289934568401 -0.144013591183
413223750 0.290222345593 -0.144299444395
413230700 0.289826102193 -0.143963136614
413237650 0.290369441471 -0.14365105908
413244600 0.289877791449 -0.143851658736
413251550 0.289991959877 -0.143633889357
413258500 0.289783800872 -0.143718330691
413265450 0.290523248379 -0.143465812439
413272400 0.290423001955 -0.143347309544
413279350 0.290299517658 -0.143530002885
413286300 0.290436914041 -0.143193078864
413293250 0.290168722045 -0.143039274018
413300200 0.290063615952 -0.143300865278
413307150 0.290136540547 -0.142924473159
413314100 0.290187481568 -0.143111830774
413321050 0.290676603356 -0.142797209768
413328000 0.290014206943 -0.143142036206
413334950 0.290587101473 -0.143138536234
413341900 0.290601145233 -0.143182926241
413348850 0.290654339774 -0.143030479001
413355800 0.290334393252 -0.143043865279
413362750 0.290622822415 -0.142449028042
413369700 0.290562703985 -0.143048064331
413376650 0.291304352723 -0.142840844331
413383600 0.290965255625 -0.142787557411
413390550 0.290554270002 -0.14267259999
413397500 0.290435918125 -0.142845773767
413404450 0.29091741116 -0.142709085423
413411400 0.290917259893 -0.142285284466
413418350 0.290697096736 -0.142692148756
413425300 0.290816698042 -0.1424358736
413432250 0.290827806977 -0.142698735476
413439200 0.291050113701 -0.142686006579
413446150 0.290660370685 -0.142289829655
413453100 0.29102778408 -0.142724788428
413460050 0.291120042158 -0.143034421725
413467000 0.290788251726 -0.142195192176
413473950 0.290831102373 -0.142004413528
413480900 0.290552955032 -0.142556603897
413487850 0.290451621662 -0.141960108337
413494800 0.290999378958 -0.142093745555
413501750 0.290651278488 -0.142076443454
413508700 0.290521509529 -0.142034028351
413515650 0.291076867143 -0.142467177581
413522600 0.291565605672 -0.14232364234
413529550 0.291216267581 -0.141939702802
413536500 0.291287251039 -0.141560669508
413543450 0.291288537528 -0.141724908501
413550400 0.291555041072 -0.141696675406
413557350 0.291576940307 -0.141518650837
413564300 0.291514523701 -0.141332757966
413571250 0.291799091189 -0.141613809688
413578200 0.291527385833 -0.141736803955
413585150 0.291638307715 -0.141362960371
413592100 0.291759822476 -0.141533936665
413599050 0.291379793321 -0.142184483448
413606000 0.291417444794 -0.142307661834
413612950 0.291384880394 -0.141540805134
413619900 0.291040632019 -0.141242804186
413626850 0.290994382533 -0.141485595703
413633800 0.290917984446 -0.141887315726
413640750 0.291152249031 -0.141563015053
413647700 0.29125974692 -0.141480108896
413654650 0.291493195718 -0.14121652068
413661600 0.291704691037 -0.141501400408
413668550 0.29162899175 -0.141257191411
413675500 0.291676130996 -0.140801839408
413682450 0.291730396038 -0.140834243576
413689400 0.291576798842 -0.141293363878
413696350 0.291574347175 -0.140814648985
413703300 0.291606036699 -0.140835783305
413710250 0.291545728389 -0.140992277012
413717200 0.292786260278 -0.141750854091
413724150 0.291587262056 -0.140879713345
413731100 0.291687270263 -0.140596844336
413738050 0.291833446687 -0.140487570578
413745000 0.291731966112 -0.14086102736
413751950 0.292067828102 -0.140561103495
413758900 0.292056107988 -0.140661299376
413765850 0.292081087047 -0.140380561767
413772800 0.291820427647 -0.140674671505
413779750 0.291861590918 -0.140338745596
413786700 0.291936164332 -0.140478191155
413793650 0.291969597578 -0.140103829478
413800600 0.292040672619 -0.140428945966
413807550 0.291836216021 -0.139889880094
413814500 0.291964036647 -0.140506363
413821450 0.292225826257 -0.139463481253
413828400 0.292215243411 -0.140030563841
413835350 0.292660196206 -0.139433305397
413842300 0.292024214614 -0.140044006673
413849250 0.292469235942 -0.139821616656
413856200 0.292066699534 -0.139368856983
413863150 0.292502399267 -0.139913342904
413870100 0.292330929011 -0.140191489178
413877050 0.292265222936 -0.140017029105
413884000 0.292620839539 -0.139800384975
413890950 0.292593794589 -0.139804333062
413897900 0.292605885439 -0.139680412195
413904850 0.292782496989 -0.139899349045
413911800 0.292512715984 -0.139770310795
413918750 0.292466346864 -0.140053455149
413925700 0.292467106435 -0.139755538148
413932650 0.292331104916 -0.139389629641
413939600 0.292223241183 -0.139274753055
413946550 0.292143926235 -0.139108705815
413953500 0.292195864269 -0.139120398963
413960450 0.292552177125 -0.139117178417
413967400 0.292814408058 -0.138691554115
413974350 0.292534157882 -0.138827982922
413981300 0.292480762499 -0.138823857328
413988250 0.292544325256 -0.139532571976
413995200 0.292819298204 -0.139301376016
414002150 0.292519103377 -0.139517096188
414009100 0.292895553281 -0.139112590557
414016050 0.292641729996 -0.139526437528
414023000 0.2928704419 -0.13893198361
414029950 0.293045192394 -0.13890868045
414036900 0.292667090317 -0.138777481851
414043850 0.292566357001 -0.139058686263
414050800 0.292433821702 -0.138945808432
414057750 0.292479090163 -0.139051402821
414064700 0.292820971581 -0.139085376407
414071650 0.292516142901 -0.138891469389
414078600 0.292610780346 -0.138475997197
414085550 0.293064808914 -0.138158965631
414092500 0.292762166609 -0.138470690445
414099450 0.292731947117 -0.138509303117
414106400 0.292591303443 -0.138607381369
414113350 0.292671100419 -0.138157197179
414120300 0.292499259744 -0.138259891253
414127250 0.292826278024 -0.138368496762
414134200 0.292852167032 -0.13806040058
414141150 0.292844959873 -0.138087416161
414148100 0.292836736282 -0.138190975835
414155050 0.295005878604 -0.137796913414
414162000 0.292991515612 -0.138157666537
414168950 0.293146489169 -0.137734524424
414175900 0.292919313763 -0.13778746288
414182850 0.292848877352 -0.137588060069
414189800 0.292805319855 -0.137669605016
414196750 0.292898946005 -0.137542860341
414203700 0.293401983138 -0.137463449203
414210650 0.2928624139 -0.137426228352
414217600 0.292709879897 -0.137748287557
414224550 0.292926935449 -0.137421228527
414231500 0.293013645813 -0.137327926789
414238450 0.293153245562 -0.137385006948
414245400 0.293252646594 -0.137380544537
414252350 0.293194898557 -0.137546479133
414259300 0.293129927615 -0.137251731808
414266250 0.293223321968 -0.137222542864
414273200 0.29335284075 -0.137402563754
414280150 0.293414372955 -0.137374881792
414287100 0.293424024192 -0.137300306724
414294050 0.292764531423 -0.137149722402
414301000 0.293576021087 -0.136768003429
414307950 0.293520842468 -0.137006206041
414314900 0.29369662012 -0.137096817423
414321850 0.293226829476 -0.137032111932
414328800 0.293337480841 -0.136553544257
414335750 0.293171112005 -0.136587301076
414342700 0.293104654944 -0.136461089197
414349650 0.294133990053 -0.135629942117
414356600 0.293336488294 -0.135879040038
414363550 0.292778228759 -0.136095960487
414370500 0.29682302855 -0.139571424947
414377450 0.293599343435 -0.137204107902
414384400 0.293864264674 -0.136277027396
414391350 0.294049287367 -0.13635192173
414398300 0.29396157608 -0.136202736903
414405250 0.29405095733 -0.135896024868
414412200 0.29397705036 -0.135960430023
414419150 0.293868391714 -0.136207905593
414426100 0.293888575563 -0.136048783018
414433050 0.293962857665 -0.136052200894
414440000 0.293589646736 -0.136139184509
414446950 0.293840164085 -0.136033896354
414453900 0.293957873595 -0.135593544061
414460850 0.294085893485 -0.135861482254
414467800 0.294072379102 -0.136203293878
414474750 0.294009690336 -0.13608621229
414481700 0.29392513876 -0.135956270821
414488650 0.294049454062 -0.135306527945
414495600 0.294035316243 -0.135561015326
414502550 0.29408638472 -0.135843161052
414509500 0.293920341107 -0.135884650941
414516450 0.294151389277 -0.135570947549
414523400 0.294235635219 -0.135489676745
414530350 0.29398785317 -0.135485367462
414537300 0.293990857802 -0.135754666155
414544250 0.294105824402 -0.135619828048
414551200 0.294281148588 -0.135285361
414558150 0.294615917911 -0.135304494702
414565100 0.294106808546 -0.135385286962
414572050 0.294508319185 -0.134737616999
414579000 0.294555597453 -0.134945212428
414585950 0.294628342828 -0.134958474734
414592900 0.294370633221 -0.135170400972
414599850 0.294351425158 -0.134696443794
414606800 0.294380078742 -0.134984452921
414613750 0.294408729671 -0.135245427203
414620700 0.29438470662 -0.134990103129
414627650 0.294837003529 -0.134846111044
414634600 0.294323781839 -0.134781703675
414641550 0.294660439387 -0.13453279948
414648500 0.29432142626 -0.134477192066
414655450 0.294022296515 -0.134565700078
414662400 0.294685802246 -0.133977364222
414669350 0.294416622534 -0.134015906935
414676300 0.294802296329 -0.134542920306
414683250 0.294708053066 -0.134601683308
414690200 0.294949641109 -0.134134683788
414697150 0.294958745824 -0.134454471541
414704100 0.295120015033 -0.134290264556
414711050 0.294586051356 -0.134487506287
414718000 0.295043148524 -0.13432084464
414724950 0.29484956634 -0.134174785822
414731900 0.295396924836 -0.134351152255
414738850 0.296484549516 -0.134424476394
414745800 0.296392186603 -0.133698339679
414752750 0.284231104542 -0.131163351876
414759700 0.296156915469 -0.133749154266
414766650 0.296104981146 -0.133693816795
414773600 0.29580961336 -0.133475984149
414780550 0.295564359689 -0.133379412688
414787500 0.295333343804 -0.133760047901
414794450 0.295092934684 -0.133834566953
414801400 0.295346595681 -0.133794605305
414808350 0.296652911385 -0.134064148116
414815300 0.295468052599 -0.133409377701
414822250 0.295178624384 -0.133531881626
414829200 0.295342803539 -0.133165723605
414836150 0.295651784139 -0.132896055009
414843100 0.295395447524 -0.133223795824
414850050 0.29552403895 -0.133416693052
414857000 0.295174864905 -0.133531312293
414863950 0.295284573492 -0.132953641917
414870900 0.295660288139 -0.1332971327
414877850 0.29547656478 -0.132753403207
414884800 0.295669543988 -0.133093088533
414891750 0.295783330915 -0.132784350908
414898700 0.295876946928 -0.132252655752
414905650 0.294430445025 -0.132881668601
414912600 0.295598915826 -0.132810729017
414919550 0.295963322962 -0.132320714181
414926500 0.295736250287 -0.131900320283
414933450 0.29571791213 -0.131990424142
414940400 0.295414640036 -0.132321869551
414947350 0.29574318842 -0.131989599305
414954300 0.295667770051 -0.131987414567
414961250 0.295525562818 -0.132160036399
414968200 0.296092023678 -0.132381124297
414975150 0.297015482505 -0.132262058784
414982100 0.296595805041 -0.132534636272
414989050 0.296528993637 -0.132205111135
414996000 0.296431947802 -0.132170074853
415002950 0.295886882788 -0.131855879475
415009900 0.295957750138 -0.131569120287
415016850 0.295807782595 -0.132218425643
415023800 0.296416953398 -0.131620518322
415030750 0.296092674801 -0.132154624644
415037700 0.296045608871 -0.132124644225
415044650 0.296417453496 -0.131885299487
415051600 0.296390937466 -0.131835199663
415058550 0.296241138329 -0.131739610832
415065500 0.296339961248 -0.131284620252
415072450 0.296278910407 -0.131101065307
415079400 0.296109596393 -0.131392178386
415086350 0.296150018159 -0.131698806421
415093300 0.296556393859 -0.131672026588
415100250 0.296514546652 -0.131568734591
415107200 0.296164517756 -0.13127557485
415114150 0.296644271327 -0.131368030097
415121100 0.297164565406 -0.13092488222
415128050 0.296841960074 -0.13045788082
415135000 0.296506731317 -0.130835782038
415141950 0.296776991779 -0.130796166179
415148900 0.296768960978 -0.130879643149
415155850 0.296950464511 -0.13075443451
415162800 0.297172658614 -0.130796422814
415169750 0.297135240386 -0.13087341924
415176700 0.29727254465 -0.130819671762
415183650 0.297466986877 -0.130465317001
415190600 0.297446244879 -0.130895466527
415197550 0.29718042023 -0.130444225203
415204500 0.297028513526 -0.130385153665
415211450 0.297003568524 -0.130043898877
415218400 0.296779580826 -0.130374204389
415225350 0.297205335085 -0.130218712848
415232300 0.297215458785 -0.130142444161
415239250 0.297097990554 -0.130320337271
415246200 0.296805585881 -0.130489224866
415253150 0.296847178383 -0.130371844732
415260100 0.296857471199 -0.130716591769
415267050 0.29634245866 -0.131248390475
415274000 0.296353168017 -0.130866175528
415280950 0.297001751072 -0.130094322872
415287900 0.297372960405 -0.129783629564
415294850 0.297173061455 -0.129610783622
415301800 0.297536719864 -0.129762913112
415308750 0.297606037609 -0.129894789332
415315700 0.297887341171 -0.129787010022
415322650 0.297434787354 -0.129869848204
415329600 0.297947670184 -0.129838435759
415336550 0.297800758272 -0.129618550221
415343500 0.297781591445 -0.12944837867
415350450 0.297736692013 -0.129128659556
415357400 0.297707679789 -0.128948429142
415364350 0.297564432808 -0.129287847516
415371300 0.297832701688 -0.129147511506
415378250 0.297511361947 -0.129549285768
415385200 0.297508848878 -0.129509030937
415392150 0.29779452505 -0.12973004595
415399100 0.297668878301 -0.129097154286
415406050 0.297671014112 -0.129171768176
415413000 0.297826262136 -0.128778048093
415419950 0.297584954941 -0.129019284406
415426900 0.297816547353 -0.128678032266
415433850 0.298538988118 -0.128937971283
415440800 0.298182967836 -0.128626869246
415447750 0.298256285884 -0.128963106989
415454700 0.298337252628 -0.129041951439
415461650 0.298679780227 -0.128542913101
415468600 0.298445762303 -0.128755687044
415475550 0.29845632037 -0.128717922756
415482500 0.298656471254 -0.12836665745
415489450 0.298207135431 -0.12844566987
415496400 0.298274793223 -0.128557955595
415503350 0.298455280008 -0.128259096745
415510300 0.298091997456 -0.128208788449
415517250 0.298755530717 -0.128007836588
415524200 0.298338214293 -0.127645183571
415531150 0.298799602517 -0.127517504175
415538100 0.298457002828 -0.127970607776
415545050 0.298625857493 -0.127302803618
415552000 0.298240383233 -0.128018673252
415558950 0.298313866288 -0.127513492434
415565900 0.298106088801 -0.128396337371
415572850 0.298187611019 -0.12772109808
415579800 0.298233884586 -0.127886580857
415586750 0.298194952969 -0.127696360833
415593700 0.297242351595 -0.127938946248
415600650 0.298773289733 -0.127214232936
415607600 0.299023215087 -0.127493463917
415614550 0.299068472098 -0.127290695598
415621500 0.298862561828 -0.127276509446
415628450 0.298980052809 -0.127252346669
415635400 0.299062753937 -0.126954352617
415642350 0.298642416461 -0.126997249451
415649300 0.29872084972 -0.12723341085
415656250 0.298762328015 -0.127239012088
415663200 0.299492302614 -0.127077890207
415670150 0.299537819306 -0.127066095602
415677100 0.29922004197 -0.127062282265
415684050 0.299456905181 -0.127157241641
415691000 0.299451020923 -0.12674805527
415697950 0.299384126734 -0.127128542401
415704900 0.299321420639 -0.126639522919
415711850 0.29871943637 -0.126932531034
415718800 0.299858325277 -0.126268705302
415725750 0.299731728793 -0.126577238698
415732700 0.299927866726 -0.12640991608
415739650 0.299643782276 -0.126664210699
415746600 0.299719653081 -0.126378347671
415753550 0.299732828306 -0.126665348316
415760500 0.299851623244 -0.12651924625
415767450 0.299600788725 -0.126695781814
415774400 0.299775544998 -0.126132916105
415781350 0.299863501941 -0.126013234506
415788300 0.299908098243 -0.125969476513
415795250 0.299805091686 -0.125829329723
415802200 0.299889831234 -0.125669216243
415809150 0.299785597834 -0.125819183065
415816100 0.300005036554 -0.125777784324
415823050 0.299720711176 -0.12601005496
415830000 0.299714002288 -0.1261319918
415836950 0.300014374935 -0.126205897564
415843900 0.29997862066 -0.126316001515
415850850 0.300266240079 -0.126154723729
415857800 0.300160064599 -0.125798193005
415864750 0.300350257052 -0.125624823186
415871700 0.300494532561 -0.12535366502
415878650 0.300580186664 -0.125475739167
415885600 0.300402903196 -0.125102154526
415892550 0.300761522872 -0.125155669545
415899500 0.300481597736 -0.125355713447
415906450 0.300576379255 -0.124926199879
415913400 0.30025729264 -0.125137583274
415920350 0.300381024174 -0.124791892463
415927300 0.300410747509 -0.124656478557
415934250 0.300864310457 -0.124564979132
415941200 0.300478279814 -0.1253250953
415948150 0.301023124418 -0.124965953506
415955100 0.300895697574 -0.125016908064
415962050 0.301047737489 -0.124892910196
415969000 0.300867487829 -0.125347923602
415975950 0.302218078054 -0.124648967063
415982900 0.301783363591 -0.124628089434
415989850 0.301070746907 -0.124031686543
415996800 0.301297627305 -0.125269678082
416003750 0.301690875904 -0.124296977827
416010700 0.301622078559 -0.123636526235
416017650 0.301339813911 -0.124416699761
416024600 0.300985036477 -0.124478361161
416031550 0.30095085805 -0.12422523217
416038500 0.301327618419 -0.124053439429
416045450 0.300875626645 -0.124149403944
416052400 0.300852458612 -0.124642656563
416059350 0.300962427673 -0.124656337378
416066300 0.301482833987 -0.124283671992
416073250 0.301433677251 -0.123842048638
416080200 0.301271364876 -0.123871839591
416087150 0.300951936221 -0.123869136505
416094100 0.301630817404 -0.123677573691
416101050 0.301203900151 -0.123660881249
416108000 0.301250076015 -0.123409454756
416114950 0.301277688485 -0.123464522941
416121900 0.301200017097 -0.123471868769
416128850 0.301839415549 -0.123466682136
416135800 0.301584804057 -0.123536995819
416142750 0.301435578781 -0.123506264226
416149700 0.30189727559 -0.123568562222
416156650 0.301993804069 -0.123116472646
416163600 0.301751114928 -0.123388800831
416170550 0.301714328506 -0.123497669972
416177500 0.30169643093 -0.123243758619
416184450 0.301889334194 -0.123102795622
416191400 0.301936388687 -0.123185923221
416198350 0.301428200609 -0.123060527324
416205300 0.301968121524 -0.122787970137
416212250 0.302155022308 -0.1228557046
416219200 0.30197611124 -0.122578382053
416226150 0.301851371569 -0.122513004362
416233100 0.302342629951 -0.122309365934
416240050 0.302008241265 -0.122392388753
416247000 0.302280817749 -0.12255139488
416253950 0.302305091081 -0.122642822215
416260900 0.301929761531 -0.12305358877
416267850 0.302202731279 -0.122320161645
416274800 0.301848912815 -0.122361507018
416281750 0.301947643863 -0.122360885979
416288700 0.301850642965 -0.122815529993
416295650 0.302816774071 -0.122451006948
416302600 0.302455000393 -0.122072204395
416309550 0.302575837268 -0.121763289056
416316500 0.302354265125 -0.122230294057
416323450 0.302668897932 -0.122004683391
416330400 0.302433288395 -0.121789118027
416337350 0.302619247493 -0.121244911124
416344300 0.302342833096 -0.121923763875
416351250 0.302337476568 -0.121699089123
416358200 0.302612656346 -0.121608058658
416365150 0.303070486457 -0.12157325242
416372100 0.302331268726 -0.121660390645
416379050 0.302707353446 -0.121353992518
416386000 0.302909070534 -0.121320010253
416392950 0.302848977093 -0.12155228549
416399900 0.302802564816 -0.121663130571
416406850 0.302478964358 -0.12161676489
416413800 0.303107690362 -0.121683158146
416420750 0.303242501582 -0.121485473805
416427700 0.303001415494 -0.121432183332
416434650 0.302624004375 -0.121466288531
416441600 0.303060154244 -0.121307743012
416448550 0.303192574147 -0.121027477521
416455500 0.302971794419 -0.121326546441
416462450 0.302473583478 -0.121465343739
416469400 0.30276120094 -0.121003961121
416476350 0.303037923488 -0.12053385699
416483300 0.303074243505 -0.120713127934
416490250 0.302763166815 -0.121014158151
416497200 0.303525060615 -0.120693465215
416504150 0.303473034121 -0.120752086567
416511100 0.303426922435 -0.12077212526
416518050 0.30348693768 -0.120876377752
416525000 0.303905332283 -0.120418399869
416531950 0.30355646686 -0.120658197544
416538900 0.303704627727 -0.120395932329
416545850 0.303810534906 -0.12010586302
416552800 0.303709259871 -0.120250222582
416559750 0.303854632987 -0.120452836663
416566700 0.303738954549 -0.120227895231
416573650 0.304193015504 -0.120133242483
416580600 0.304279536037 -0.120604600786
416587550 0.304236614738 -0.120725197825
416594500 0.304350175259 -0.120569994696
416601450 0.304247591762 -0.120310869054
416608400 0.304359794188 -0.120373757341
416615350 0.304072472752 -0.119883607763
416622300 0.304102708147 -0.119743499386
416629250 0.304393383866 -0.119936785569
416636200 0.30406299018 -0.119577696748
416643150 0.304038896796 -0.119145469529
416650100 0.304052711738 -0.119319718332
416657050 0.303920864763 -0.118851675202
416664000 0.303991875788 -0.119179136667
416670950 0.30415885024 -0.119246523588
416677900 0.303866630703 -0.119260048528
416684850 0.304369944833 -0.119410590034
416691800 0.304342748273 -0.119300582578
416698750 0.304423003003 -0.1191788573
416705700 0.304638357531 -0.118831032574
416712650 0.304577128241 -0.119245382164
416719600 0.3047090372 -0.118895730292
416726550 0.304285881187 -0.119162439259
416733500 0.304815072018 -0.118852322721
416740450 0.304675175245 -0.118623496164
416747400 0.304504816003 -0.118600397991
416754350 0.304322146065 -0.118323411154
416761300 0.304398357209 -0.117940155164
416768250 0.304596599174 -0.118330219243
416775200 0.304901578109 -0.118307786181
416782150 0.304984160436 -0.118154417887
416789100 0.305341931021 -0.118159824093
416796050 0.305299104662 -0.118045543694
416803000 0.305360703562 -0.118508853301
416809950 0.305236405145 -0.118439400626
416816900 0.305129442322 -0.118330379175
416823850 0.305285799165 -0.118468487095
416830800 0.30493648799 -0.118093128343
416837750 0.305468852019 -0.118178797361
416844700 0.304906008231 -0.118056648748
416851650 0.305484825955 -0.117836454582
416858600 0.305068985169 -0.117754108164
416865550 0.305650461665 -0.117679386015
416872500 0.305386153993 -0.117840395577
416879450 0.305381368637 -0.11791690017
416886400 0.306101107082 -0.117371642954
416893350 0.306293278804 -0.117152028255
416900300 0.306640337651 -0.117156196189
416907250 0.307142603466 -0.116530295833
416914200 0.306843297837 -0.116772040222
416921150 0.306158832532 -0.116874230281
416928100 0.305744915416 -0.116893820537
416935050 0.305705220548 -0.116765451546
416942000 0.305659923554 -0.116900271584
416948950 0.305736334596 -0.117065548766
416955900 0.305678004296 -0.116866105131
416962850 0.305548974209 -0.116791861912
416969800 0.305729998791 -0.116504257461
416976750 0.306138406849 -0.116645878352
416983700 0.306646735373 -0.11641952717
416990650 0.306539382096 -0.116468091665
416997600 0.306509763553 -0.116410067719
417004550 0.306663456332 -0.116208360217
417011500 0.306902721571 -0.116614684878
417018450 0.30653767088 -0.116122694596
417025400 0.306548585517 -0.116170815504
417032350 0.306231512308 -0.115941406947
417039300 0.306382099573 -0.116146891066
417046250 0.306415592927 -0.116406386119
417053200 0.306419625143 -0.11615890432
417060150 0.306377531453 -0.116241849401
417067100 0.307356678136 -0.117435071856
417074050 0.306259549248 -0.11556990794
417081000 0.306346207981 -0.116031173024
417087950 0.306717522902 -0.11566819248
417094900 0.306661265925 -0.115531192166
417101850 0.306771907888 -0.1157346505
417108800 0.306674283051 -0.11563634749
417115750 0.306891927523 -0.115386679888
417122700 0.307033740399 -0.115767644034
417129650 0.307021814384 -0.115854728713
417136600 0.306757912844 -0.115431338851
417143550 0.306941617551 -0.115613450013
417150500 0.307148935191 -0.115520548884
417157450 0.307016217573 -0.115331678582
417164400 0.306831923649 -0.115254384995
417171350 0.307055669667 -0.115337721676
417178300 0.307110432178 -0.115349149564
417185250 0.30753059099 -0.115214596951
417192200 0.307524026277 -0.115178621911
417199150 0.307625359789 -0.115091588303
417206100 0.307359104893 -0.114863033764
417213050 0.308081456998 -0.115268994088
417220000 0.308083285484 -0.115022513157
417226950 0.308070160998 -0.114361327901
417233900 0.307950460319 -0.114860393474
417240850 0.307977371229 -0.114524411657
417247800 0.307453374506 -0.115047984837
417254750 0.307915755917 -0.114523867859
417261700 0.30813216933 -0.114687935027
417268650 0.308457053931 -0.114306411786
417275600 0.308234449027 -0.114426812586
417282550 0.308926395585 -0.114212955336
417289500 0.308825472471 -0.114248786931
417296450 0.308301491032 -0.114352736451
417303400 0.308395760947 -0.114380285143
417310350 0.30822267272 -0.114701197403
417317300 0.308488283261 -0.11423182452
417324250 0.308532626349 -0.114023580354
417331200 0.308329263095 -0.114084169728
417338150 0.30831154148 -0.113799711503
417345100 0.308616561721 -0.113499978722
417352050 0.308326704302 -0.113755077112
417359000 0.308371459892 -0.113512469073
417365950 0.308343630119 -0.113771140331
417372900 0.308868222767 -0.113541267776
417379850 0.30857633865 -0.113270828229
417386800 0.308559900617 -0.113287848194
417393750 0.308753948877 -0.113708364978
417400700 0.308856907719 -0.113221823203
417407650 0.3089338396 -0.113317932698
417414600 0.309148694209 -0.113481843148
417421550 0.309049154354 -0.113570900661
417428500 0.30940768123 -0.11319536988
417435450 0.309279115329 -0.113184386178
417442400 0.309315923568 -0.113112862356
417449350 0.308957989405 -0.113552491352
417456300 0.309917194214 -0.113062415129
417463250 0.309148665231 -0.113074839939
417470200 0.309470493444 -0.113345142184
417477150 0.30934893819 -0.113155024562
417484100 0.309390331489 -0.112872197855
417491050 0.309999445711 -0.113070026654
417498000 0.310025930447 -0.113101675519
417504950 0.30960537628 -0.11300404446
417511900 0.309591911102 -0.112808954294
417518850 0.309738086086 -0.112631353632
417525800 0.309736493796 -0.112620304981
417532750 0.30968187966 -0.112572496322
417539700 0.309470811262 -0.112651654425
417546650 0.309256431907 -0.112706438197
417553600 0.309899914092 -0.112364960898
417560550 0.310268510059 -0.112143316994
417567500 0.309711473495 -0.11248370555
417574450 0.31021199437 -0.112190779133
417581400 0.309905424727 -0.112160749742
417588350 0.310185912142 -0.112217333876
417595300 0.309833218877 -0.112426506658
417602250 0.310049462969 -0.112021196789
417609200 0.310045321306 -0.111964980068
417616150 0.310335822502 -0.111747370045
417623100 0.310216215093 -0.11206232347
417630050 0.310415782069 -0.111699833945
417637000 0.310733557701 -0.111754775487
417643950 0.311119737327 -0.111705530305
417650900 0.310717003891 -0.112265765202
417657850 0.310874989411 -0.111584001073
417664800 0.310822517244 -0.11169858321
417671750 0.311058520002 -0.11135447096
417678700 0.310971042982 -0.111761930947
417685650 0.310821008556 -0.11144004465
417692600 0.311024873045 -0.111817205593
417699550 0.311060446774 -0.11090988792
417706500 0.31087138423 -0.110853704657
417713450 0.311101527095 -0.11098786035
417720400 0.311617008608 -0.110838412721
417727350 0.311317196399 -0.110984465092
417734300 0.311418339619 -0.110793074308
417741250 0.31115510676 -0.110641170407
417748200 0.311168450708 -0.110903635998
417755150 0.3112843776 -0.110541715615
417762100 0.311464272239 -0.110551601502
417769050 0.310900833035 -0.110560778933
417776000 0.311666850258 -0.110311767647
417782950 0.311711010231 -0.110147492308
417789900 0.31159038357 -0.11007154918
417796850 0.31162493101 -0.110099391507
417803800 0.311834298163 -0.109660302825
417810750 0.311529008134 -0.109814514019
417817700 0.312047301825 -0.109558620295
417824650 0.31194430467 -0.109915941951
417831600 0.31182487985 -0.109635028485
417838550 0.312068873064 -0.109638908196
417845500 0.312035997265 -0.10895224671
417852450 0.311650421538 -0.110085775692
417859400 0.311733232955 -0.109694077794
417866350 0.312135798151 -0.109749399136
417873300 0.312276657339 -0.109601093087
417880250 0.312215699672 -0.109616932642
417887200 0.312140959047 -0.109644398773
417894150 0.312291636275 -0.109521172385
417901100 0.312830473161 -0.109228864364
417908050 0.312806699481 -0.109247981756
417915000 0.312658006107 -0.109301354128
417921950 0.313052098674 -0.109251758924
417928900 0.312429952878 -0.109293990328
417935850 0.312799037638 -0.109256668087
417942800 0.312594964694 -0.109102349065
417949750 0.31301012436 -0.10939290879
417956700 0.312608620074 -0.10900893048
417963650 0.3130679019 -0.109070701752
417970600 0.313375275033 -0.108885943796
417977550 0.312873449133 -0.108614597651
417984500 0.313499995809 -0.108282171968
417991450 0.313355757133 -0.108573369449
417998400 0.313569471057 -0.108430402995
418005350 0.313664955447 -0.108517171946
418012300 0.313361853467 -0.108384989959
418019250 0.313184281875 -0.108639215911
418026200 0.313504249441 -0.108950649306
418033150 0.313101332173 -0.108509712704
418040100 0.313550137045 -0.108191852981
418047050 0.313263974204 -0.10791953981
418054000 0.313438339236 -0.107940735541
418060950 0.31357790791 -0.108401074255
418067900 0.313557509736 -0.108132826784
418074850 0.313566843777 -0.108079986135
418081800 0.31335576754 -0.108618173111
418088750 0.313926742353 -0.108513527408
418095700 0.313825714633 -0.108546663105
418102650 0.314038284271 -0.10822581846
418109600 0.313866285391 -0.108248194419
418116550 0.313939155989 -0.107830952627
418123500 0.313934736668 -0.107810845997
418130450 0.313930058472 -0.107983590487
418137400 0.31405330269 -0.107778225976
418144350 0.314295225003 -0.107585121414
418151300 0.314405157323 -0.107667322423
418158250 0.314706282585 -0.10722751813
418165200 0.313986069503 -0.107005476278
418172150 0.314302900146 -0.106738347598
418179100 0.314385544432 -0.106739902961
418186050 0.314698865212 -0.10729785485
418193000 0.314364853229 -0.10728778502
418199950 0.314841571633 -0.107490557813
418206900 0.314505808654 -0.107450909388
418213850 0.315096271649 -0.107301654202
418220800 0.314941495652 -0.106744467668
418227750 0.314380920461 -0.107154667726
418234700 0.314658829487 -0.106702593619
418241650 0.314726034484 -0.106730079194
418248600 0.314864198066 -0.106916199941
418255550 0.315189764613 -0.107091411928
418262500 0.314963797322 -0.106531116724
418269450 0.315196541023 -0.10664154564
418276400 0.315202854064 -0.106498331716
418283350 0.315361183131 -0.106572590624
418290300 0.315242810102 -0.106927816078
418297250 0.315555112408 -0.10627006933
418304200 0.315305028695 -0.106255835657
418311150 0.315194303593 -0.106004005069
418318100 0.315760715582 -0.106023767866
418325050 0.31579413783 -0.106254342201
418332000 0.316084774897 -0.106039392508
418338950 0.31596884922 -0.106272753932
418345900 0.316251119168 -0.106203326139
418352850 0.316140172084 -0.106192080408
418359800 0.316198737999 -0.106035283831
418366750 0.316106764625 -0.106139534979
418373700 0.31599895634 -0.106039418711
418380650 0.316436885343 -0.10580265209
418387600 0.316271926703 -0.105751401564
418394550 0.31578891669 -0.106212119044
418401500 0.315604546294 -0.106050997686
418408450 0.315926178442 -0.105760975642
418415400 0.316037039336 -0.105704937141
418422350 0.316044219826 -0.105610357618
418429300 0.316169922342 -0.105013616943
418436250 0.316343834166 -0.105500681572
418443200 0.316625509359 -0.105535943675
418450150 0.316305679145 -0.105505877428
418457100 0.316536034082 -0.105388605362
418464050 0.316960537001 -0.105129616716
418471000 0.316756357613 -0.104977587648
418477950 0.31676827799 -0.105100331815
418484900 0.316425556419 -0.105157422991
418491850 0.316966289352 -0.104735686439
418498800 0.317034002182 -0.105334338026
418505750 0.3170186525 -0.104676542737
418512700 0.317035528243 -0.104943667172
418519650 0.317363937192 -0.104403644406
418526600 0.317351023603 -0.104430150676
418533550 0.317323758492 -0.10465383955
418540500 0.317235418326 -0.104531335921
418547450 0.317487482249 -0.104344250408
418554400 0.31747330895 -0.104480672494
418561350 0.317627376447 -0.104421122829
418568300 0.317332402349 -0.104502677849
418575250 0.317571551832 -0.104823784445
418582200 0.31729335893 -0.104233305936
418589150 0.317773663865 -0.104476998085
418596100 0.317426465243 -0.10447343564
418603050 0.316994090385 -0.104538279443
418610000 0.317459489658 -0.104523771192
418616950 0.317900472418 -0.103829577335
418623900 0.317692538062 -0.10350658716
418630850 0.318037441445 -0.103720546832
418637800 0.318104537903 -0.103851930723
418644750 0.318548920732 -0.104070499559
418651700 0.318323484749 -0.103684628766
418658650 0.318672517134 -0.10441908113
418665600 0.31839282748 -0.103924988744
418672550 0.31892926692 -0.103424863237
418679500 0.318733370311 -0.103571387209
418686450 0.318736904203 -0.103317474161
418693400 0.318500832165 -0.103516221155
418700350 0.318632447186 -0.103829748842
418707300 0.318464058161 -0.103549810633
418714250 0.318929022151 -0.103523280995
418721200 0.31871159638 -0.103551575071
418728150 0.318990985752 -0.103175497221
418735100 0.319252716015 -0.103392580811
418742050 0.319418511579 -0.103032025575
418749000 0.319314820782 -0.102861740192
418755950 0.319783925578 -0.102837852663
418762900 0.319551540643 -0.102844222061
418769850 0.319513719976 -0.102905929388
418776800 0.319432769983 -0.102592007255
418783750 0.319607212977 -0.102739045376
418790700 0.319541459163 -0.102777839933
418797650 0.319600565786 -0.102495997565
418804600 0.320063496305 -0.102595710938
418811550 0.319648463198 -0.102383720768
418818500 0.320059297565 -0.102096832162
418825450 0.320197358706 -0.102329329614
418832400 0.320309615357 -0.101820922869
418839350 0.31950892341 -0.102181437984
418846300 0.320350872459 -0.102097061408
418853250 0.319975222915 -0.102051453707
418860200 0.320556031919 -0.102875056042
418867150 0.320121676888 -0.10221338858
418874100 0.320258947652 -0.102855469512
418881050 0.320424241876 -0.102559355923
418888000 0.320425888376 -0.102428417453
418894950 0.32053713336 -0.102518387474
418901900 0.320309545025 -0.102406105237
418908850 0.320834215237 -0.102158334267
418915800 0.320517720792 -0.101742843876
418922750 0.320308165809 -0.101907925819
418929700 0.320456556407 -0.101660782677
418936650 0.32073359272 -0.101819766458
418943600 0.320760917821 -0.101913165962
418950550 0.320955181749 -0.101606008393
418957500 0.321070331668 -0.101543413153
418964450 0.321044597446 -0.101892240823
418971400 0.321644484996 -0.101694676444
418978350 0.321549429159 -0.101913324522
418985300 0.321388062367 -0.101819524032
418992250 0.321358312205 -0.101480944006
418999200 0.321323384569 -0.101363723437
419006150 0.321364570342 -0.101322859281
419013100 0.320958519648 -0.101328060734
419020050 0.320813219325 -0.101539012766
419027000 0.321150288111 -0.101373700231
419033950 0.321236166602 -0.101241064609
419040900 0.32137497332 -0.101395511445
419047850 0.321593270193 -0.101177669321
419054800 0.321664229484 -0.100711035749
419061750 0.321971119013 -0.101072754852
419068700 0.321526519071 -0.100972415109
419075650 0.321702078078 -0.100962750707
419082600 0.321524500886 -0.101149552479
419089550 0.321701978878 -0.101205660914
419096500 0.321666134814 -0.100967185148
419103450 0.321632744168 -0.100593255806
419110400 0.322162306186 -0.100689005037
419117350 0.322408430889 -0.100539897288
419124300 0.322133857894 -0.100211903506
419131250 0.322105137647 -0.100648788546
419138200 0.322307494835 -0.100290717778
419145150 0.322246771095 -0.100208316248
419152100 0.322561906399 -0.100173435075
419159050 0.322173273638 -0.10039817522
419166000 0.322968681125 -0.100043536495
419172950 0.322717752736 -0.1004017298
419179900 0.322967488343 -0.100026304194
419186850 0.3223877219 -0.100463424313
419193800 0.32257479464 -0.0999198734785
419200750 0.322767804087 -0.100124063343
419207700 0.322602310041 -0.100032388315
419214650 0.322742551438 -0.0999127662896
419221600 0.32314338819 -0.0997370535746
419228550 0.322892606037 -0.0998362862249
419235500 0.323532588285 -0.0997190760999
419242450 0.322963775732 -0.0996678654018
419249400 0.323548541819 -0.0993090030972
419256350 0.32281348353 -0.099629669585
419263300 0.323694254318 -0.099304604208
419270250 0.32365937812 -0.0995344509403
419277200 0.32351988096 -0.0997159311277
419284150 0.323393766888 -0.0995691263966
419291100 0.323839607553 -0.0996895810318
419298050 0.323499600991 -0.0994941618251
419305000 0.323390027204 -0.0992308342311
419311950 0.323599246499 -0.0992861876946
419318900 0.323397386808 -0.0989589222021
419325850 0.323381586548 -0.098610906452
419332800 0.323726743744 -0.0990370263384
419339750 0.323765249897 -0.0986153024098
419346700 0.323845393334 -0.0985762075675
419353650 0.323792428102 -0.0989774034979
419360600 0.323950864015 -0.0987554074657
419367550 0.324010245448 -0.0987579416203
419374500 0.324589627433 -0.0991115911742
419381450 0.324252128462 -0.0991547161615
419388400 0.32446744179 -0.0990029723168
419395350 0.324292328159 -0.0987266459222
419402300 0.324154915284 -0.0984297519607
419409250 0.324142471874 -0.0980110939841
419416200 0.324898859281 -0.0980053108651
419423150 0.324934346843 -0.0983823603366
419430100 0.32456617403 -0.0985576962973
419437050 0.325026803278 -0.0983640678654
419444000 0.325080275954 -0.0981760843836
419450950 0.325219740578 -0.0982360910241
419457900 0.324791174159 -0.0981844313166
419464850 0.325084992834 -0.0982062368689
419471800 0.325130447678 -0.098061181382
419478750 0.325165389188 -0.0980267147345
419485700 0.325001100106 -0.0982116848709
419492650 0.325575023121 -0.0978754578494
419499600 0.325143401875 -0.0978635172703
419506550 0.325375986815 -0.0975556701382
419513500 0.325611756918 -0.0972454130255
419520450 0.325591194032 -0.0978581334874
419527400 0.326198455783 -0.0978600926093
419534350 0.320865734832 -0.0963585839295
419541300 0.325817384556 -0.097318817046
419548250 0.325834575801 -0.0975256596182
419555200 0.325997685896 -0.0974951647881
419562150 0.32563881399 -0.097380182111
419569100 0.324930620745 -0.0968163332713
419576050 0.324892797446 -0.0970436184296
419583000 0.324657595005 -0.0970099225568
419589950 0.325066733786 -0.0966981017059
419596900 0.325346755429 -0.0971386717891
419603850 0.325697711075 -0.0970969258664
419610800 0.32616662276 -0.0970974266135
419617750 0.326222262326 -0.0971083726907
419624700 0.326369340651 -0.0972564191523
419631650 0.326324480675 -0.0969435849984
419638600 0.326504140716 -0.0968889494589
419645550 0.326257646904 -0.0969878939694
419652500 0.326835470026 -0.0968453414001
419659450 0.327020806963 -0.0971969563096
419666400 0.326903859946 -0.0967886759526
419673350 0.326779959289 -0.0968883467951
419680300 0.326742320268 -0.0964863866633
419687250 0.327174763859 -0.096959915
419694200 0.326842694199 -0.0967041051195
419701150 0.326749401561 -0.0967658449213
419708100 0.327378408512 -0.0966339747417
419715050 0.326882779098 -0.0964916887989
419722000 0.327068928181 -0.0965927555979
419728950 0.32733089849 -0.0964052461666
419735900 0.327726019342 -0.0965779879787
419742850 0.327536994797 -0.0960516710734
419749800 0.32822699694 -0.0959423326406
419756750 0.327922602382 -0.0963174595436
419763700 0.327926618189 -0.0963131562381
419770650 0.327850295928 -0.0961236755685
419777600 0.327563810872 -0.0965500967755
419784550 0.328030212612 -0.0963214780437
419791500 0.327690167455 -0.0962689451474
419798450 0.327896750988 -0.0960102036639
419805400 0.327803398599 -0.0959604287938
419812350 0.328019231435 -0.0958503530011
419819300 0.328148114178 -0.0964419911091
419826250 0.328322917655 -0.0962105000815
419833200 0.328056515378 -0.096275403041
419840150 0.328734474989 -0.0963774565492
419847100 0.328493068422 -0.096377477449
419854050 0.327996121362 -0.0962107730801
419861000 0.328305227859 -0.0961779439626
419867950 0.328091868082 -0.0957366571624
419874900 0.328150735456 -0.0956421751027
419881850 0.328310944699 -0.0953094770176
419888800 0.328275263702 -0.095352148337
419895750 0.328061324957 -0.0954799398271
419902700 0.328199045254 -0.0951552667781
419909650 0.328265933518 -0.0944307666487
419916600 0.328661487578 -0.0950449210456
419923550 0.328921787455 -0.0952111696696
419930500 0.328472236999 -0.0949992151237
419937450 0.328959887079 -0.0948310614214
419944400 0.329199311917 -0.0950051887934
419951350 0.328989986721 -0.0952328533706
419958300 0.329541954841 -0.0951519000712
419965250 0.329702615494 -0.0949126838338
419972200 0.329371813136 -0.0949053192424
419979150 0.329947049832 -0.094783664962
419986100 0.329842926638 -0.0940916880647
419993050 0.329457929155 -0.0945709897623
420000000 0.329761900991 -0.0949244646653
