! Calibrated averaged scanner-service zoom
# Hz S RI R 50
88000000 0.933203310974 -0.33891785733
88010000 0.933122068649 -0.338922032221
88020000 0.933103426856 -0.338976443363
88030000 0.933088489569 -0.339001274081
88040000 0.933099939758 -0.339114260104
88050000 0.933134126131 -0.339177302174
88060000 0.933085071995 -0.339244661069
88070000 0.933049024582 -0.339274139938
88080000 0.932981256504 -0.339300074955
88090000 0.932973746013 -0.339352813419
88100000 0.93298798745 -0.339416854173
88110000 0.932972633569 -0.339520416301
88120000 0.932959386788 -0.3396224873
88130000 0.932956594822 -0.339691169591
88140000 0.932991539771 -0.339770250347
88150000 0.932949690696 -0.339836611111
88160000 0.932948744649 -0.339861810476
88170000 0.932878374204 -0.339928588566
88180000 0.932849035386 -0.339943461168
88190000 0.932867371225 -0.339947394542
88200000 0.932839686451 -0.340029154688
88210000 0.932820697929 -0.340090821549
88220000 0.932722096838 -0.340152012173
88230000 0.932679731644 -0.340202050768
88240000 0.932635878756 -0.340260446581
88250000 0.932662668216 -0.340366128254
88260000 0.932686560969 -0.34046084138
88270000 0.932638500615 -0.340495615588
88280000 0.932650407184 -0.340580441305
88290000 0.932593076687 -0.340610201232
88300000 0.932659072404 -0.340647083861
88310000 0.93268374315 -0.340673026384
88320000 0.932589759771 -0.340741013026
88330000 0.932571553986 -0.340781422056
88340000 0.932514522308 -0.340839257589
88350000 0.932459230227 -0.340862638488
88360000 0.932443186225 -0.340884816433
88370000 0.93248462618 -0.340968646823
88380000 0.932433925968 -0.341052175268
88390000 0.932400848288 -0.341122807092
88400000 0.932373147824 -0.341177780602
88410000 0.932351081471 -0.341225534233
88420000 0.932395243092 -0.341355110886
88430000 0.932371865359 -0.341425006248
88440000 0.932386838321 -0.341523489623
88450000 0.932386848065 -0.341526675056
88460000 0.932320076829 -0.341538678303
88470000 0.93234270498 -0.341584906717
88480000 0.93231964773 -0.341619306035
88490000 0.932249647331 -0.341709270797
88500000 0.932196610895 -0.341719736317
88510000 0.932170150654 -0.341796979057
88520000 0.932178541706 -0.341837500471
88530000 0.932157275523 -0.341906504472
88540000 0.932163755983 -0.342010911449
88550000 0.932089545175 -0.342087088309
88560000 0.932107572179 -0.342152256264
88570000 0.932070602386 -0.342223804223
88580000 0.932056588719 -0.342291438012
88590000 0.932047629657 -0.342353429582
88600000 0.931978914305 -0.342428548694
88610000 0.931952734782 -0.342487849551
88620000 0.931922953247 -0.342477289375
88630000 0.931892395401 -0.342482642206
88640000 0.931943050863 -0.34253110226
88650000 0.931921409449 -0.342640357269
88660000 0.931842374281 -0.342733748161
88670000 0.931804444499 -0.342839409327
88680000 0.931786876882 -0.342865942098
88690000 0.931777485576 -0.342932780869
88700000 0.931788539814 -0.34301309099
88710000 0.93184601837 -0.343079575644
88720000 0.931815973562 -0.343140710187
88730000 0.931779829426 -0.343209034665
88740000 0.931772637171 -0.343174264638
88750000 0.931740786586 -0.343192517557
88760000 0.931731994934 -0.343232696999
88770000 0.931716913858 -0.343326285415
88780000 0.931651825931 -0.343442057429
88790000 0.931585702269 -0.3434858565
88800000 0.931530504685 -0.343519945943
88810000 0.931485953663 -0.343522683222
88820000 0.931559719644 -0.343631039081
88830000 0.931526603067 -0.343689780942
88840000 0.931522727745 -0.343813672469
88850000 0.931541756585 -0.343894127196
88860000 0.931514116984 -0.343927741087
88870000 0.931488668271 -0.343991862721
88880000 0.931493952261 -0.344058647932
88890000 0.931496304486 -0.344082211418
88900000 0.93144129172 -0.344160565418
88910000 0.931444274354 -0.344221474617
88920000 0.931394070311 -0.344284332282
88930000 0.931356644483 -0.344354145847
88940000 0.931365733905 -0.34437766984
88950000 0.931357965476 -0.344447467346
88960000 0.931344212376 -0.344488702528
88970000 0.931361916545 -0.344537554357
88980000 0.931370082739 -0.344613168535
88990000 0.931373478486 -0.344637727363
89000000 0.931367273133 -0.34473650807
89010000 0.93135541924 -0.344797215706
89020000 0.931281523596 -0.344829263543
89030000 0.931179419366 -0.344848564984
89040000 0.931183660725 -0.34483955334
89050000 0.931103173882 -0.344965620993
89060000 0.931116615607 -0.345072354869
89070000 0.931050166194 -0.345137007259
89080000 0.930952165891 -0.345239631186
89090000 0.930954636065 -0.345278720476
89100000 0.930933122988 -0.345355715766
89110000 0.930946766481 -0.345386293642
89120000 0.93105180273 -0.345494238501
89130000 0.931064293515 -0.345592042642
89140000 0.931001230124 -0.345629635271
89150000 0.930953216623 -0.345626613435
89160000 0.9308748501 -0.345700283902
89170000 0.930878826356 -0.345702778341
89180000 0.930859560729 -0.34577209284
89190000 0.930826277143 -0.345826606729
89200000 0.930778901461 -0.345918656516
89210000 0.930774548734 -0.346006241933
89220000 0.930754985676 -0.346019368301
89230000 0.930727306559 -0.346129522799
89240000 0.930727780543 -0.346165768533
89250000 0.930749000762 -0.346232368661
89260000 0.930733661066 -0.346300134994
89270000 0.930725591999 -0.346329972749
89280000 0.930692512432 -0.346380109106
89290000 0.930653845436 -0.346443241489
89300000 0.93058299907 -0.346531182409
89310000 0.930533561465 -0.346594852657
89320000 0.930493536893 -0.346648104973
89330000 0.930489386106 -0.346726310833
89340000 0.930494032127 -0.346804946902
89350000 0.930482795995 -0.346876592648
89360000 0.93046728088 -0.34693864792
89370000 0.930459016397 -0.346992584976
89380000 0.930396071478 -0.346988870404
89390000 0.930436194677 -0.347014725962
89400000 0.930430571717 -0.347106883057
89410000 0.930401993549 -0.347170466215
89420000 0.930396699917 -0.34725906013
89430000 0.930309672001 -0.347308556935
89440000 0.93026487525 -0.347315538162
89450000 0.930239205069 -0.347390884493
89460000 0.930263269208 -0.347480224064
89470000 0.930271202214 -0.347585659411
89480000 0.93026068643 -0.347641773824
89490000 0.93025638079 -0.347686039913
89500000 0.930223351803 -0.347717653869
89510000 0.930172489995 -0.347730646307
89520000 0.930141935925 -0.347765990265
89530000 0.93018240959 -0.347825279084
89540000 0.930103008878 -0.347913391529
89550000 0.930060365172 -0.347956952434
89560000 0.929980174271 -0.34800972296
89570000 0.929979448124 -0.348073821136
89580000 0.929957138763 -0.348138474373
89590000 0.929980867398 -0.348267113426
89600000 0.929973927823 -0.348335597166
89610000 0.929973675572 -0.348433657826
89620000 0.929920260526 -0.348490701044
89630000 0.929911004494 -0.348475888075
89640000 0.929906884525 -0.348549756381
89650000 0.929869116024 -0.348566326927
89660000 0.929871155028 -0.348649090153
89670000 0.929874848271 -0.348721196771
89680000 0.929896453031 -0.348755786439
89690000 0.929755204987 -0.348788555463
89700000 0.929727612834 -0.34887361666
89710000 0.929675601825 -0.348925406402
89720000 0.929607454369 -0.349000272353
89730000 0.92960613583 -0.349069773886
89740000 0.929647085222 -0.349140890157
89750000 0.929648265755 -0.349262002686
89760000 0.929634573825 -0.349373149029
89770000 0.929633886711 -0.349433961077
89780000 0.929586924437 -0.349472394355
89790000 0.929615407495 -0.349547366941
89800000 0.929608489296 -0.349609677888
89810000 0.929542900287 -0.349642405531
89820000 0.929455050459 -0.349705048385
89830000 0.929480353195 -0.349728090957
89840000 0.929399953762 -0.349732047413
89850000 0.929421944824 -0.349790148531
89860000 0.929424370732 -0.349891614392
89870000 0.929401094749 -0.350063185665
89880000 0.929387609909 -0.350150212036
89890000 0.929341528107 -0.350148186148
89900000 0.929292788584 -0.350156286301
89910000 0.929263882148 -0.350180975244
89920000 0.92928307424 -0.35031968088
89930000 0.929283531915 -0.350410614455
89940000 0.929238041539 -0.350445382916
89950000 0.92916830965 -0.350461054505
89960000 0.929182935486 -0.350469240636
89970000 0.929131378115 -0.350530122367
89980000 0.929110694226 -0.350573061885
89990000 0.929088894477 -0.350639416132
90000000 0.929001867208 -0.350663527268
90010000 0.929017130796 -0.350772470839
90020000 0.928984679971 -0.350814495887
90030000 0.928981288358 -0.350919267758
90040000 0.928944265086 -0.351018058049
90050000 0.928935469287 -0.351096445612
90060000 0.928918886532 -0.351147806958
90070000 0.92893147059 -0.351206009285
90080000 0.928941114487 -0.351297968811
90090000 0.928873007119 -0.35132961615
90100000 0.92883021584 -0.351381416443
90110000 0.928791274254 -0.35143656499
90120000 0.928759551488 -0.351464978605
90130000 0.928737861216 -0.351537647302
90140000 0.928699663898 -0.351584509951
90150000 0.928668878031 -0.351727728437
90160000 0.928639079715 -0.351801074399
90170000 0.928672044442 -0.351838160098
90180000 0.928638601704 -0.351842604906
90190000 0.928685776657 -0.351932200561
90200000 0.928681387991 -0.351981681256
90210000 0.928674376151 -0.352030336518
90220000 0.928628766863 -0.352038734879
90230000 0.92861817121 -0.352110203614
90240000 0.928625501497 -0.352173994228
90250000 0.928611596239 -0.352286591438
90260000 0.928559587697 -0.352351808702
90270000 0.928505416843 -0.352335018601
90280000 0.928482652289 -0.352380425226
90290000 0.928382074451 -0.352429856294
90300000 0.92835257781 -0.35249898724
90310000 0.928350458907 -0.352616887533
90320000 0.928327755337 -0.352689348293
90330000 0.928297266947 -0.352780845045
90340000 0.928293550973 -0.352842579251
90350000 0.928285841747 -0.35288914554
90360000 0.928252259301 -0.35297538935
90370000 0.928251367699 -0.353028672536
90380000 0.928240022871 -0.353093274438
90390000 0.928237096154 -0.353146930577
90400000 0.928234154143 -0.353207734572
90410000 0.928199187679 -0.353286466458
90420000 0.928170417957 -0.353357655291
90430000 0.928127542298 -0.353411195194
90440000 0.928048844577 -0.353424983995
90450000 0.928001829179 -0.353445527866
90460000 0.927989078369 -0.353499365386
90470000 0.927960284724 -0.353646226404
90480000 0.927910281694 -0.35376792687
90490000 0.927914912396 -0.353812888032
90500000 0.927842295362 -0.353813363558
90510000 0.927832213392 -0.353855559277
90520000 0.927820117583 -0.353859826635
90530000 0.927809473126 -0.353929288897
90540000 0.927826055434 -0.35395021607
90550000 0.927764813387 -0.35405377781
90560000 0.92775569961 -0.354204905923
90570000 0.927721103998 -0.354296097344
90580000 0.927652701358 -0.354312119343
90590000 0.92767084534 -0.354359183936
90600000 0.927654581636 -0.354471868899
90610000 0.927646223593 -0.354498475246
90620000 0.927561392845 -0.354555108849
90630000 0.927510427523 -0.354605204967
90640000 0.927506246777 -0.35465819993
90650000 0.927503308205 -0.354727610448
90660000 0.927467275767 -0.354796317854
90670000 0.927461442443 -0.354899660673
90680000 0.927466483698 -0.354990181376
90690000 0.927431251924 -0.355042261791
90700000 0.927431074081 -0.355110447708
90710000 0.927402902222 -0.355185881053
90720000 0.927411413887 -0.355217046288
90730000 0.927413567854 -0.355244529557
90740000 0.927405233753 -0.35530917134
90750000 0.927356528292 -0.355348235266
90760000 0.927259477792 -0.355434801571
90770000 0.927206130454 -0.355492476069
90780000 0.927195060599 -0.355511650426
90790000 0.927165941595 -0.355587672714
90800000 0.927146994105 -0.355693427141
90810000 0.92714628334 -0.355765488135
90820000 0.927130498629 -0.355862482021
90830000 0.927059577588 -0.355884816745
90840000 0.927040891531 -0.355864940586
90850000 0.927010753972 -0.355895885585
90860000 0.926994937275 -0.355934042891
90870000 0.92694985102 -0.356020903338
90880000 0.926892993707 -0.356085301371
90890000 0.926851347689 -0.356143354012
90900000 0.926847870471 -0.356208215027
90910000 0.926815987023 -0.356276006959
90920000 0.926750932534 -0.356370329139
90930000 0.926741208028 -0.356497704476
90940000 0.926707355373 -0.356559980615
90950000 0.926718251711 -0.356600666555
90960000 0.926769793776 -0.356686115891
90970000 0.92679839667 -0.356729089458
90980000 0.926725814841 -0.356782150196
90990000 0.926665731118 -0.356814847687
91000000 0.92661480505 -0.356875461155
91010000 0.926563435379 -0.356913240497
91020000 0.926572568901 -0.356993685325
91030000 0.926500761719 -0.357041748967
91040000 0.926531578765 -0.357151257427
91050000 0.926546499018 -0.35720240701
91060000 0.926523534535 -0.357248908121
91070000 0.926520187709 -0.357328899597
91080000 0.926491893597 -0.357355632133
91090000 0.926444506091 -0.357445393184
91100000 0.926375078354 -0.357502075847
91110000 0.92633028971 -0.357552283618
91120000 0.926316219249 -0.357614577547
91130000 0.926292430198 -0.357696316849
91140000 0.926257499321 -0.357745179887
91150000 0.926188855563 -0.357813481963
91160000 0.926138594124 -0.357844304318
91170000 0.926134639164 -0.357898814296
91180000 0.926156591555 -0.357962148243
91190000 0.92615879997 -0.358050407275
91200000 0.926185396854 -0.35815028839
91210000 0.926153783399 -0.35820728618
91220000 0.926097472306 -0.358240542346
91230000 0.926053433648 -0.358302588558
91240000 0.926070803203 -0.358284550235
91250000 0.926014416245 -0.3583353251
91260000 0.925996883955 -0.358404646145
91270000 0.925911814971 -0.358481038534
91280000 0.925876178435 -0.358564765925
91290000 0.925803630576 -0.358619580377
91300000 0.92583603806 -0.358695618106
91310000 0.925820006536 -0.358733310082
91320000 0.925831141702 -0.358853372852
91330000 0.925791505261 -0.358871012328
91340000 0.925802700313 -0.358928296102
91350000 0.925744619327 -0.35898859332
91360000 0.925746237345 -0.359066505615
91370000 0.92566514799 -0.359153293289
91380000 0.925622931279 -0.359210628486
91390000 0.925572646885 -0.35927299462
91400000 0.925547066849 -0.359342953809
91410000 0.925544521244 -0.35940390108
91420000 0.925567291924 -0.359476937206
91430000 0.925515775186 -0.359533811717
91440000 0.925545257839 -0.359598206235
91450000 0.925533507564 -0.359627021754
91460000 0.925449019644 -0.35968026394
91470000 0.925440891998 -0.359775729319
91480000 0.925426035199 -0.359765447537
91490000 0.925350590018 -0.359807269428
91500000 0.925379433599 -0.359853661214
91510000 0.925313840151 -0.359886931936
91520000 0.925252982376 -0.360011463126
91530000 0.925269073776 -0.360106273271
91540000 0.925178170946 -0.360182052321
91550000 0.925144445612 -0.360278741988
91560000 0.925142764655 -0.360305360121
91570000 0.92508207831 -0.360380147405
91580000 0.925124686727 -0.36048592194
91590000 0.925122874136 -0.360514638989
91600000 0.925056348683 -0.360600128396
91610000 0.925067915989 -0.360720614139
91620000 0.925047199903 -0.360704166676
91630000 0.925009926921 -0.360767275988
91640000 0.925028682307 -0.360763672127
91650000 0.925004774633 -0.360837982426
91660000 0.924953860861 -0.360835293441
91670000 0.924940591952 -0.36091706859
91680000 0.924935727294 -0.36094015326
91690000 0.924911205635 -0.360994215719
91700000 0.924845408676 -0.361125354988
91710000 0.924795856872 -0.361177311671
91720000 0.924735458414 -0.361202776336
91730000 0.924661112167 -0.361306939558
91740000 0.924630455825 -0.361322293001
91750000 0.924591466281 -0.361450723699
91760000 0.924603664419 -0.361529550725
91770000 0.924595713103 -0.361588462383
91780000 0.9246000121 -0.361671870216
91790000 0.924614827989 -0.361716240994
91800000 0.924581724471 -0.361823588868
91810000 0.924573476746 -0.361883288754
91820000 0.924519738183 -0.361902711416
91830000 0.924462688511 -0.361914322583
91840000 0.924525487681 -0.362003374677
91850000 0.924513697044 -0.362045202113
91860000 0.924467633377 -0.362134190912
91870000 0.924434574996 -0.362155445445
91880000 0.924404066232 -0.362203428354
91890000 0.924299098156 -0.362291170804
91900000 0.924307782483 -0.362324940196
91910000 0.924225785257 -0.362336614609
91920000 0.924229531854 -0.362431378468
91930000 0.924215711299 -0.362491174909
91940000 0.924180119538 -0.362553885705
91950000 0.924158056753 -0.362660735942
91960000 0.924145676574 -0.36273786725
91970000 0.924178309943 -0.362815756841
91980000 0.924167774323 -0.362871351672
91990000 0.924074597014 -0.362924627005
92000000 0.924070488698 -0.362952954749
92010000 0.924029664189 -0.363003866439
92020000 0.923974460219 -0.363123001944
92030000 0.923935439696 -0.3631563316
92040000 0.923842385395 -0.363255503826
92050000 0.9238296393 -0.363314520253
92060000 0.923820851528 -0.363409357582
92070000 0.923813918228 -0.363452979745
92080000 0.923806450006 -0.363513011795
92090000 0.923849428787 -0.363582122791
92100000 0.923778512665 -0.363630457769
92110000 0.923754616723 -0.363733075515
92120000 0.923802481637 -0.363828224105
92130000 0.923742336758 -0.363812503662
92140000 0.92366063238 -0.363894790033
92150000 0.923631035902 -0.363954208368
92160000 0.923592582273 -0.363995609927
92170000 0.923597107194 -0.364074843437
92180000 0.923537514234 -0.364127208619
92190000 0.923571356475 -0.364214789384
92200000 0.923536255435 -0.364285078716
92210000 0.923514237708 -0.364362167484
92220000 0.923501949638 -0.364405663298
92230000 0.923448421395 -0.364411037336
92240000 0.923442160624 -0.364431180113
92250000 0.923409859044 -0.364486391285
92260000 0.923379329854 -0.364552731488
92270000 0.923356493638 -0.364611727503
92280000 0.9233325141 -0.364685828359
92290000 0.923300858752 -0.364764398725
92300000 0.923262430612 -0.364851124021
92310000 0.92320895844 -0.364936280853
92320000 0.923155318916 -0.365050878521
92330000 0.923162419797 -0.365105753436
92340000 0.92314213662 -0.365175134548
92350000 0.923142050149 -0.365202308735
92360000 0.923113477722 -0.365281258814
92370000 0.923101366668 -0.365315414698
92380000 0.923081312335 -0.365367806558
92390000 0.923076133886 -0.365426864023
92400000 0.923050557438 -0.365446573069
92410000 0.923023620471 -0.365529936935
92420000 0.922953597059 -0.365564886967
92430000 0.922939066407 -0.36564193495
92440000 0.922902120083 -0.365655072785
92450000 0.92286071864 -0.365735715433
92460000 0.922858287053 -0.365817436048
92470000 0.922801942621 -0.365937045962
92480000 0.922763606975 -0.365852036785
92490000 0.922654001024 -0.366009367431
92500000 0.9226403705 -0.366137100328
92510000 0.922666192045 -0.366161143606
92520000 0.922617199639 -0.366333801327
92530000 0.922605256006 -0.366350576691
92540000 0.922551809178 -0.366455781831
92550000 0.922554845571 -0.366493865648
92560000 0.922527846931 -0.366516918676
92570000 0.922516586109 -0.366557810524
92580000 0.922501482856 -0.366576367811
92590000 0.922430364503 -0.366659141816
92600000 0.922332218944 -0.36668669363
92610000 0.922335192772 -0.366760879822
92620000 0.922264342893 -0.366807301447
92630000 0.922228871434 -0.366873235395
92640000 0.922215520442 -0.366963158603
92650000 0.922274709979 -0.36703484388
92660000 0.922286394989 -0.367107063947
92670000 0.922246848982 -0.367142460147
92680000 0.92221199732 -0.367209344618
92690000 0.922131607656 -0.367241500326
92700000 0.922143701625 -0.367287829698
92710000 0.922124970365 -0.367366093254
92720000 0.922132247977 -0.367450240967
92730000 0.922064320116 -0.367495845318
92740000 0.922012662291 -0.367565796405
92750000 0.921931874882 -0.367582037907
92760000 0.921884796179 -0.367674916495
92770000 0.921890182428 -0.367755535591
92780000 0.921848593087 -0.367811504297
92790000 0.921813288065 -0.367902689518
92800000 0.921834738464 -0.368044173354
92810000 0.921794999025 -0.368143013656
92820000 0.921796035554 -0.368167317532
92830000 0.921786671027 -0.368232829841
92840000 0.92180738653 -0.368281904079
92850000 0.921802746612 -0.368352546803
92860000 0.921761644235 -0.368395506223
92870000 0.921750172886 -0.368452925028
92880000 0.921670766729 -0.368458757096
92890000 0.921629054927 -0.368516007434
92900000 0.921597838278 -0.368597314749
92910000 0.921570250463 -0.368664355569
92920000 0.921528148634 -0.368773149252
92930000 0.921488367302 -0.368851865564
92940000 0.921474378404 -0.368935445332
92950000 0.921483912639 -0.368965249118
92960000 0.921466652136 -0.36901337176
92970000 0.921392342602 -0.369106168886
92980000 0.921393838613 -0.369139134643
92990000 0.921282957733 -0.369158245181
93000000 0.921262620881 -0.369196467146
93010000 0.921264173219 -0.369239768799
93020000 0.921197912531 -0.369306072949
93030000 0.921201137626 -0.369456596133
93040000 0.921161154831 -0.369517737219
93050000 0.921131396815 -0.369596866523
93060000 0.921093124427 -0.369634649109
93070000 0.921054511679 -0.369671702014
93080000 0.921048188844 -0.369745603038
93090000 0.920987764745 -0.36976766854
93100000 0.920961357852 -0.369858422503
93110000 0.920926466147 -0.369934509946
93120000 0.920860829236 -0.370003480927
93130000 0.920878630055 -0.370089270682
93140000 0.920849293245 -0.370140085679
93150000 0.920866336285 -0.370244767315
93160000 0.920858587882 -0.370265532467
93170000 0.920823336957 -0.37033032877
93180000 0.920838626063 -0.370342028119
93190000 0.920738634167 -0.370423305777
93200000 0.920692678996 -0.370485317523
93210000 0.920666438991 -0.370489288905
93220000 0.920600384097 -0.370603015309
93230000 0.920685939673 -0.370722814391
93240000 0.920592455271 -0.370772372748
93250000 0.920452728591 -0.370854856537
93260000 0.92045209203 -0.370890827114
93270000 0.920711758138 -0.371014329989
93280000 0.920447137938 -0.371007174076
93290000 0.92044144106 -0.371118367864
93300000 0.920269717613 -0.371329115782
93310000 0.920393160233 -0.371186139047
93320000 0.920306000577 -0.371363937642
93330000 0.920401781684 -0.371293171688
93340000 0.920508319168 -0.371400849063
93350000 0.920376912965 -0.371495953371
93360000 0.920307046564 -0.371487845215
93370000 0.92029254384 -0.371596587963
93380000 0.9201994728 -0.37163707251
93390000 0.92015872246 -0.371679024142
93400000 0.920106390235 -0.371711468074
93410000 0.92006413003 -0.371773926068
93420000 0.920051868285 -0.371823144633
93430000 0.920010189247 -0.371942299026
93440000 0.92004751752 -0.37205022141
93450000 0.919999642245 -0.372143188301
93460000 0.919981952467 -0.372195756009
93470000 0.920006573879 -0.372238178693
93480000 0.91995046736 -0.372299203883
93490000 0.919923697422 -0.372320399239
93500000 0.919848614726 -0.372367839658
93510000 0.919821193461 -0.372467545005
93520000 0.919756833857 -0.372540746678
93530000 0.919732243816 -0.372591697286
93540000 0.91966056746 -0.372642061736
93550000 0.919674484849 -0.372723857186
93560000 0.919658817975 -0.372793961763
93570000 0.919653125147 -0.372904721039
93580000 0.919681128126 -0.372992233776
93590000 0.919611963551 -0.373013295991
93600000 0.919611889353 -0.373041453074
93610000 0.91959555175 -0.373087777001
93620000 0.919545688071 -0.373152786128
93630000 0.919476281998 -0.373259804812
93640000 0.91941328945 -0.37327801678
93650000 0.91936953401 -0.373358646733
93660000 0.91926198404 -0.373420488438
93670000 0.919261835663 -0.373474371092
93680000 0.919228057498 -0.373550574697
93690000 0.919228376208 -0.373674382979
93700000 0.91926855175 -0.373759282849
93710000 0.919239572204 -0.373800865448
93720000 0.919209357201 -0.373874587823
93730000 0.919171249396 -0.373930860424
93740000 0.919119707423 -0.373952244164
93750000 0.919124107661 -0.374017485347
93760000 0.919037911829 -0.374069715924
93770000 0.919006251454 -0.374193807206
93780000 0.918936727859 -0.374228351529
93790000 0.918889679795 -0.374308400296
93800000 0.918902258721 -0.374388720929
93810000 0.918909968349 -0.374507061355
93820000 0.918876955402 -0.374561465782
93830000 0.918819125128 -0.374635950343
93840000 0.918791882073 -0.374680340701
93850000 0.918754944988 -0.374736570073
93860000 0.918706081702 -0.374808919623
93870000 0.918732996925 -0.374901812627
93880000 0.918696230695 -0.374973345409
93890000 0.918721227547 -0.375034591247
93900000 0.918653893372 -0.375090929161
93910000 0.918665658026 -0.375119487546
93920000 0.918634061411 -0.375111569547
93930000 0.918623136025 -0.375115309647
93940000 0.918618480325 -0.375171703621
93950000 0.918510383068 -0.375244814604
93960000 0.918473913826 -0.375329197013
93970000 0.918402850098 -0.375419402644
93980000 0.918297552262 -0.375469501829
93990000 0.918332446451 -0.375556349071
94000000 0.918266618983 -0.375656134719
94010000 0.918287594075 -0.375749243773
94020000 0.918281866053 -0.37583984551
94030000 0.918293565619 -0.375936961822
94040000 0.918289568438 -0.375960738965
94050000 0.918253604102 -0.376023488359
94060000 0.918213183284 -0.376056795406
94070000 0.918161117016 -0.376098557795
94080000 0.918142709599 -0.376174803042
94090000 0.918088267753 -0.376178799314
94100000 0.918042793758 -0.376268226242
94110000 0.917988629634 -0.376283722749
94120000 0.917948252185 -0.376329030584
94130000 0.917907279007 -0.376402066558
94140000 0.917863059867 -0.376482646786
94150000 0.917833838567 -0.376558532812
94160000 0.917792629851 -0.376623674863
94170000 0.917764711799 -0.376764534237
94180000 0.917697710851 -0.376808535347
94190000 0.917667906417 -0.376902473107
94200000 0.917725155704 -0.37699208371
94210000 0.917664345173 -0.377083780398
94220000 0.917636329042 -0.377146221715
94230000 0.917637415248 -0.377171095591
94240000 0.917597690569 -0.377211877322
94250000 0.917648701625 -0.377254408882
94260000 0.917631670347 -0.377329329018
94270000 0.917582094233 -0.377378815624
94280000 0.917540716926 -0.377445237203
94290000 0.917494849778 -0.377551968126
94300000 0.917493942973 -0.377585128652
94310000 0.917390985111 -0.377624890756
94320000 0.917367058704 -0.377699952675
94330000 0.91732080182 -0.377753939412
94340000 0.91731571329 -0.377861118559
94350000 0.917271578829 -0.377947060662
94360000 0.917275399667 -0.37805541536
94370000 0.917218127659 -0.378095318447
94380000 0.917162301858 -0.378134138896
94390000 0.917182531209 -0.37815875471
94400000 0.917181330446 -0.37820671543
94410000 0.917145081958 -0.378267383346
94420000 0.917089430286 -0.37830284511
94430000 0.91699740014 -0.37839553479
94440000 0.916993303807 -0.378462880395
94450000 0.916891195282 -0.378494658423
94460000 0.916895523055 -0.378600762815
94470000 0.916863856713 -0.378697224542
94480000 0.916832775619 -0.378766842835
94490000 0.91683226792 -0.378854375483
94500000 0.916816387136 -0.378901988258
94510000 0.916831789722 -0.379004994919
94520000 0.916802418515 -0.379029334537
94530000 0.916831141635 -0.379129736136
94540000 0.916485054146 -0.379151865935
94550000 0.916710371008 -0.379205961556
94560000 0.916625703305 -0.379234641565
94570000 0.916559020609 -0.379275871356
94580000 0.916557630707 -0.379315724254
94590000 0.916457705922 -0.379388714609
94600000 0.916467931368 -0.3794906031
94610000 0.91642421445 -0.379574122933
94620000 0.916355161893 -0.379681155631
94630000 0.916381173479 -0.379768073849
94640000 0.916344242593 -0.379801694729
94650000 0.916347121137 -0.379891024534
94660000 0.916342759436 -0.379908603482
94670000 0.916324819544 -0.379958186623
94680000 0.91629308203 -0.380042099986
94690000 0.916269683417 -0.380077021903
94700000 0.91623898355 -0.38018613734
94710000 0.916209863153 -0.380245419574
94720000 0.916145408728 -0.380357902694
94730000 0.916075145392 -0.380437516747
94740000 0.916058950123 -0.38047777366
94750000 0.916061789336 -0.380524242692
94760000 0.916043589509 -0.380574488756
94770000 0.916032712081 -0.380656253503
94780000 0.916027950397 -0.380675054022
94790000 0.915966988474 -0.380711624632
94800000 0.915944751155 -0.38073413391
94810000 0.915879893427 -0.380780142746
94820000 0.915812981678 -0.380849286004
94830000 0.915777559716 -0.380933633265
94840000 0.915724062097 -0.380981509707
94850000 0.915661704712 -0.381016293247
94860000 0.915651446866 -0.38109647521
94870000 0.915638770433 -0.381217252934
94880000 0.915554725217 -0.381330759507
94890000 0.915575725907 -0.381420453457
94900000 0.915494053064 -0.381473295528
94910000 0.915478333459 -0.381507138918
94920000 0.915521761732 -0.381577221391
94930000 0.915465297923 -0.381619022358
94940000 0.915449526035 -0.381687914513
94950000 0.915393128473 -0.38170305959
94960000 0.915354331181 -0.381793708205
94970000 0.915330483679 -0.381843142061
94980000 0.915283073914 -0.381958376324
94990000 0.915217818064 -0.382037870783
95000000 0.915188213866 -0.382086844085
95010000 0.915127018764 -0.382183565089
95020000 0.915134836549 -0.382296233953
95030000 0.915152224566 -0.382334761931
95040000 0.915120030827 -0.382409203953
95050000 0.915114222757 -0.382441359085
95060000 0.915075262702 -0.382496626121
95070000 0.914995748928 -0.382483999105
95080000 0.914937709933 -0.382542194222
95090000 0.914929499349 -0.382605652556
95100000 0.91490558543 -0.382719485448
95110000 0.915035767687 -0.382798368781
95120000 0.914794765539 -0.382927110336
95130000 0.914783953665 -0.383049218412
95140000 0.914774401794 -0.383097511698
95150000 0.914749019786 -0.383160690038
95160000 0.914740896963 -0.383199161477
95170000 0.914741099079 -0.383246097427
95180000 0.914642751816 -0.383346938241
95190000 0.914553256359 -0.383382200222
95200000 0.914519842783 -0.383441540145
95210000 0.914448711599 -0.383530976944
95220000 0.9144745815 -0.383616816747
95230000 0.914463104071 -0.383688730895
95240000 0.914409356145 -0.383734966311
95250000 0.914417619422 -0.383821565027
95260000 0.914383915335 -0.383804973258
95270000 0.914342589622 -0.383812509402
95280000 0.914342651838 -0.383826839051
95290000 0.914303216752 -0.383932944677
95300000 0.914262906965 -0.384068116272
95310000 0.914191013233 -0.384149612493
95320000 0.914162027932 -0.384212462696
95330000 0.914114369713 -0.384309367829
95340000 0.914073641821 -0.384366561483
95350000 0.914085690255 -0.384443751365
95360000 0.914081207836 -0.38447896873
95370000 0.914095147019 -0.384549155162
95380000 0.914054778039 -0.384614051391
95390000 0.913996084565 -0.384708421026
95400000 0.913956073176 -0.384790224894
95410000 0.913864626343 -0.38486444796
95420000 0.913802909426 -0.384905907874
95430000 0.913804676146 -0.384982437658
95440000 0.913837414757 -0.385069856983
95450000 0.913868692539 -0.385099573855
95460000 0.91377660255 -0.385170825364
95470000 0.913747516054 -0.38522806455
95480000 0.913706888925 -0.385232378845
95490000 0.913665419027 -0.385344212502
95500000 0.913618079983 -0.385412036787
95510000 0.913559046773 -0.385450231455
95520000 0.913537194744 -0.385542090967
95530000 0.913485921971 -0.385629658991
95540000 0.913434423037 -0.385706050906
95550000 0.913439874451 -0.38574355557
95560000 0.913399200955 -0.385818324583
95570000 0.91344252398 -0.385883398497
95580000 0.913413607501 -0.38597653919
95590000 0.913383049655 -0.386028591509
95600000 0.913325722746 -0.385990944884
95610000 0.913310949742 -0.38606955539
95620000 0.91321527715 -0.386088426721
95630000 0.91316229538 -0.386306821211
95640000 0.913182873229 -0.386384953239
95650000 0.913063490045 -0.386363587101
95660000 0.913049007276 -0.386515763372
95670000 0.913053724631 -0.38664485517
95680000 0.913007422994 -0.38671441579
95690000 0.912933804784 -0.386803831803
95700000 0.9128870197 -0.386723303655
95710000 0.912897247491 -0.38696061167
95720000 0.912785585383 -0.38687625726
95730000 0.912915168709 -0.387003000037
95740000 0.912826222267 -0.386913423964
95750000 0.912820004625 -0.386916135007
95760000 0.91277470262 -0.387027190671
95770000 0.912762065925 -0.387036919522
95780000 0.912726239979 -0.387239189579
95790000 0.912659589743 -0.387294997744
95800000 0.912588483942 -0.387351049549
95810000 0.912557397865 -0.387427337103
95820000 0.912509534181 -0.38752345061
95830000 0.912481710159 -0.387602176584
95840000 0.912465852663 -0.387641224035
95850000 0.912450611315 -0.387705901506
95860000 0.912391484388 -0.387750243373
95870000 0.91237197368 -0.38782990543
95880000 0.912336622246 -0.387841184723
95890000 0.912230089347 -0.387888799505
95900000 0.91222791905 -0.388020508834
95910000 0.91219315645 -0.388100525218
95920000 0.912189769423 -0.388212588539
95930000 0.912134224591 -0.388275858889
95940000 0.912156265886 -0.388325109599
95950000 0.912125781955 -0.388399266099
95960000 0.912123904509 -0.388465534495
95970000 0.912080604105 -0.388508242395
95980000 0.912062513915 -0.388547496396
95990000 0.912070418655 -0.388611029031
96000000 0.912090321238 -0.388655692493
96010000 0.911970164204 -0.388678194496
96020000 0.911881554677 -0.388780250192
96030000 0.911763147678 -0.388831607697
96040000 0.911765818282 -0.388888549089
96050000 0.911710698733 -0.388963762128
96060000 0.911659364979 -0.389010706419
96070000 0.911654089746 -0.389133122084
96080000 0.911603062998 -0.389181051927
96090000 0.911582904997 -0.389290269208
96100000 0.911500302142 -0.389349985645
96110000 0.911482698545 -0.389437624551
96120000 0.911444374107 -0.389554430578
96130000 0.911451681624 -0.389555649043
96140000 0.911457130685 -0.389619078449
96150000 0.911433765977 -0.389640011826
96160000 0.911420644207 -0.389737610743
96170000 0.911357738288 -0.389791722359
96180000 0.911292256024 -0.389818983539
96190000 0.911275256231 -0.389902888611
96200000 0.911200224227 -0.389933751933
96210000 0.911152195814 -0.390072990791
96220000 0.911165332641 -0.39019617503
96230000 0.911159270146 -0.390240381255
96240000 0.911149853203 -0.390318437774
96250000 0.911068821769 -0.390294319669
96260000 0.911044152852 -0.390415795775
96270000 0.911050146 -0.390437498746
96280000 0.91099847391 -0.390459454542
96290000 0.910972080125 -0.390563586932
96300000 0.910898782501 -0.390604645575
96310000 0.910852500997 -0.390693214338
96320000 0.910792197555 -0.390733175902
96330000 0.91076287344 -0.390827083436
96340000 0.910780440086 -0.390941437955
96350000 0.910725482932 -0.391000154304
96360000 0.91072128839 -0.391106750886
96370000 0.910690170174 -0.391155932979
96380000 0.910650171385 -0.391184689654
96390000 0.910590709074 -0.391213299694
96400000 0.910561899114 -0.391282836665
96410000 0.910537354555 -0.391382710161
96420000 0.910433446033 -0.391427564778
96430000 0.910445284083 -0.391561475818
96440000 0.910344709801 -0.391592496138
96450000 0.910289677716 -0.391650284482
96460000 0.910287927162 -0.3916882846
96470000 0.910224213669 -0.39177322239
96480000 0.910261910944 -0.391755149053
96490000 0.91016643205 -0.391923158076
96500000 0.910188158872 -0.392002279931
96510000 0.910212222944 -0.392057168933
96520000 0.91012856058 -0.391963083616
96530000 0.910139298649 -0.392169285116
96540000 0.91005277799 -0.392252144731
96550000 0.910018975688 -0.392392069715
96560000 0.909996173832 -0.392434865539
96570000 0.909954072722 -0.392524026202
96580000 0.909927393064 -0.392564406381
96590000 0.909895226078 -0.392704569385
96600000 0.909888276903 -0.392784514438
96610000 0.909853721507 -0.392799796735
96620000 0.909794453852 -0.392852578486
96630000 0.909783620399 -0.392849210077
96640000 0.90967890969 -0.392935688526
96650000 0.909653266942 -0.392997814085
96660000 0.909579477083 -0.393067494644
96670000 0.909588449053 -0.393194999991
96680000 0.909558821792 -0.393274488526
96690000 0.90953303917 -0.393380701678
96700000 0.909520998617 -0.393399232625
96710000 0.909517344049 -0.39345509061
96720000 0.909538759158 -0.393481105953
96730000 0.909453496905 -0.393556284783
96740000 0.909367508638 -0.393618713148
96750000 0.909330629399 -0.393612382608
96760000 0.909253714295 -0.39374606871
96770000 0.909231568661 -0.393763910479
96780000 0.909172683535 -0.393867302402
96790000 0.909145527501 -0.393951016068
96800000 0.90915760932 -0.394009268217
96810000 0.909098459392 -0.3940915036
96820000 0.909113735321 -0.394111189778
96830000 0.909082467952 -0.39421782419
96840000 0.909034840605 -0.394243746284
96850000 0.908986343075 -0.394270966074
96860000 0.908960669518 -0.394283374675
96870000 0.908891200618 -0.394358414403
96880000 0.908836654301 -0.394532066543
96890000 0.908778091978 -0.394586094416
96900000 0.908712708604 -0.394676063296
96910000 0.908742458816 -0.394804907355
96920000 0.908690483007 -0.394894092265
96930000 0.908605009102 -0.394933432555
96940000 0.908646827465 -0.394919734046
96950000 0.908575530283 -0.394990882009
96960000 0.908565059433 -0.395048681407
96970000 0.908510560899 -0.395129920174
96980000 0.908477314528 -0.395225364379
96990000 0.908473455536 -0.395266360538
97000000 0.908422472834 -0.395384852454
97010000 0.908401728318 -0.395464126101
97020000 0.908321145303 -0.395560585657
97030000 0.908314160981 -0.395647793624
97040000 0.908273113719 -0.395721449907
97050000 0.908318036093 -0.39573283575
97060000 0.908292226741 -0.395779488201
97070000 0.908229366516 -0.39583409093
97080000 0.908199944698 -0.395920603173
97090000 0.908151393578 -0.396015356366
97100000 0.90809171578 -0.396016241046
97110000 0.908027220054 -0.396151468706
97120000 0.908045335062 -0.396165008848
97130000 0.908030528172 -0.396252741495
97140000 0.908032678287 -0.396369200205
97150000 0.908036169524 -0.396401223156
97160000 0.907941825714 -0.396509069203
97170000 0.907887844351 -0.396544828915
97180000 0.907816775486 -0.396597712489
97190000 0.907804156139 -0.396692153732
97200000 0.907761354043 -0.396741282823
97210000 0.907688090763 -0.396858189631
97220000 0.907717842071 -0.39685680905
97230000 0.907618934212 -0.397036754092
97240000 0.907738461742 -0.396977671536
97250000 0.907603511565 -0.39712366813
97260000 0.907686360202 -0.397150780467
97270000 0.907557958608 -0.397185153315
97280000 0.907533307119 -0.397376577758
97290000 0.907369233713 -0.397379762323
97300000 0.907369002699 -0.397507068168
97310000 0.907495021035 -0.397471915313
97320000 0.907326784806 -0.397613109989
97330000 0.907358218297 -0.397684398112
97340000 0.907285176264 -0.397683407841
97350000 0.90719798269 -0.397868245422
97360000 0.907181997522 -0.397824521141
97370000 0.907101166275 -0.397850903321
97380000 0.90704583506 -0.39796363547
97390000 0.907005233872 -0.398022047071
97400000 0.906984391457 -0.398172214132
97410000 0.907019342135 -0.398204379881
97420000 0.906930688285 -0.398268432994
97430000 0.906932238515 -0.398311595978
97440000 0.906859944893 -0.39833212556
97450000 0.906849777556 -0.398480624735
97460000 0.906810853152 -0.398537071215
97470000 0.906809734693 -0.398666073233
97480000 0.906785973129 -0.398694465936
97490000 0.906698851348 -0.398788116988
97500000 0.906704041966 -0.398843747274
97510000 0.906662165896 -0.398899033708
97520000 0.906652260901 -0.39899395198
97530000 0.906649950941 -0.399064530094
97540000 0.906581652508 -0.399128930651
97550000 0.906558715264 -0.399144149745
97560000 0.906513127042 -0.399209926149
97570000 0.906509371237 -0.399284760016
97580000 0.906451048661 -0.399319449042
97590000 0.906388226827 -0.399395616238
97600000 0.906319322319 -0.399425218604
97610000 0.906242259516 -0.399520234994
97620000 0.906217891831 -0.399638449319
97630000 0.906140078997 -0.399728796603
97640000 0.90606071853 -0.39984378241
97650000 0.906105123927 -0.399891236999
97660000 0.906086791938 -0.39995523228
97670000 0.90608754791 -0.400032118216
97680000 0.906036252057 -0.400091506964
97690000 0.90600770823 -0.400145829023
97700000 0.905935449659 -0.400196384947
97710000 0.905874606726 -0.400279179779
97720000 0.905864447209 -0.400309085622
97730000 0.905793925622 -0.400437572017
97740000 0.905827768815 -0.400507621223
97750000 0.905791303823 -0.40059082105
97760000 0.905763777203 -0.400641133652
97770000 0.905732017049 -0.40066505637
97780000 0.905672791613 -0.400688797529
97790000 0.905645461188 -0.40076285899
97800000 0.905556592568 -0.400866635077
97810000 0.905538899947 -0.400947738148
97820000 0.905443917423 -0.400978106079
97830000 0.905452454761 -0.401067486941
97840000 0.905426910974 -0.401083146026
97850000 0.905368390324 -0.401174620735
97860000 0.905365726992 -0.401274521153
97870000 0.905271573462 -0.401338544422
97880000 0.905265903727 -0.401463864438
97890000 0.905209618111 -0.401534338951
97900000 0.905205505533 -0.401638223341
97910000 0.905343164902 -0.401822606229
97920000 0.905149289483 -0.401779349612
97930000 0.905151549141 -0.401852179465
97940000 0.905105837805 -0.401874353466
97950000 0.905131353018 -0.401943353104
97960000 0.905059552084 -0.402002046386
97970000 0.905000744702 -0.402033946631
97980000 0.904977016465 -0.402079987161
97990000 0.904880370595 -0.402160249228
98000000 0.904850811311 -0.402300792035
98010000 0.904805619807 -0.402370672143
98020000 0.904726809984 -0.40243027842
98030000 0.904682233604 -0.402525685179
98040000 0.904670343203 -0.402634599206
98050000 0.904652843969 -0.402692852439
98060000 0.904687820017 -0.402761558846
98070000 0.904633255677 -0.402799036775
98080000 0.904620874333 -0.402886633126
98090000 0.904601235151 -0.403029057937
98100000 0.904557722333 -0.402943061204
98110000 0.904473309183 -0.403071156506
98120000 0.904421162113 -0.4031161343
98130000 0.904388157457 -0.403148666816
98140000 0.90432471573 -0.403269717747
98150000 0.904224520842 -0.403359842295
98160000 0.904208969498 -0.403420737598
98170000 0.904161258575 -0.403505925875
98180000 0.904124820327 -0.403608123069
98190000 0.904148975571 -0.403703916167
98200000 0.90408545314 -0.403781251818
98210000 0.9040946406 -0.403852953674
98220000 0.903997061901 -0.403917627142
98230000 0.903928790481 -0.403951373786
98240000 0.903910286182 -0.404006026434
98250000 0.903921787764 -0.404053828466
98260000 0.903849007489 -0.404156801246
98270000 0.903819947337 -0.40425102911
98280000 0.903831052573 -0.404354629545
98290000 0.903714475268 -0.404465894036
98300000 0.903757361415 -0.404560057919
98310000 0.903666395505 -0.404633746922
98320000 0.903648283335 -0.404709553085
98330000 0.903605381543 -0.404740923803
98340000 0.903624472629 -0.404861302565
98350000 0.903599963629 -0.404913468481
98360000 0.903569732178 -0.404997121739
98370000 0.903504147762 -0.4050032361
98380000 0.903507858882 -0.405034568777
98390000 0.903476809487 -0.405105134934
98400000 0.903356423803 -0.405195830489
98410000 0.903317498858 -0.405241980822
98420000 0.903208507424 -0.405324309704
98430000 0.903170279645 -0.405397372403
98440000 0.903134439474 -0.40543791493
98450000 0.903128071707 -0.405533183028
98460000 0.903082165701 -0.405658260242
98470000 0.903106221987 -0.405736853044
98480000 0.903033039573 -0.405815195194
98490000 0.903055008889 -0.40588122036
98500000 0.903014800737 -0.405930433082
98510000 0.902972374721 -0.405988828065
98520000 0.902970097147 -0.406083094141
98530000 0.902975280667 -0.406181239938
98540000 0.902906830104 -0.406220566237
98550000 0.902840189356 -0.406259157586
98560000 0.902761386768 -0.406276071297
98570000 0.902696227213 -0.406370863933
98580000 0.902702340638 -0.40639805936
98590000 0.902648771296 -0.406522692839
98600000 0.902585404882 -0.406615056564
98610000 0.902523182544 -0.406723961252
98620000 0.90247302414 -0.406809050098
98630000 0.902399540707 -0.406917539813
98640000 0.902347775384 -0.40701044473
98650000 0.90236340467 -0.407052553901
98660000 0.902332939539 -0.407143891859
98670000 0.902317940145 -0.407162115449
98680000 0.902284751743 -0.4072167645
98690000 0.902217328506 -0.407309242504
98700000 0.902188601029 -0.407289038617
98710000 0.90216552496 -0.407376615536
98720000 0.902084082735 -0.407458991712
98730000 0.902024942412 -0.407578554901
98740000 0.901960450089 -0.407640579997
98750000 0.901880120863 -0.407705860718
98760000 0.901851481409 -0.407809900622
98770000 0.901834222879 -0.407899459666
98780000 0.901866323155 -0.408012007864
98790000 0.901831978135 -0.408112364046
98800000 0.90180385875 -0.408162280309
98810000 0.901714833625 -0.408217355634
98820000 0.901675683574 -0.408285883013
98830000 0.901662798162 -0.408375716312
98840000 0.90160413603 -0.408411171079
98850000 0.901523334196 -0.408559020067
98860000 0.901482475837 -0.408577543219
98870000 0.901375805815 -0.408578930045
98880000 0.901416244218 -0.408604774513
98890000 0.901301225333 -0.408775306069
98900000 0.901277216154 -0.408921377032
98910000 0.901274360474 -0.409047258484
98920000 0.901267269559 -0.409031385975
98930000 0.901218297556 -0.409183121106
98940000 0.901170944613 -0.409196938764
98950000 0.901184955851 -0.409290740736
98960000 0.901127102036 -0.409316535006
98970000 0.901084794708 -0.409417084795
98980000 0.901004388966 -0.409468381956
98990000 0.90098250672 -0.409564217966
99000000 0.900927619467 -0.409646984609
99010000 0.900860675114 -0.409730963258
99020000 0.900838452449 -0.409818831372
99030000 0.900854310517 -0.409920310433
99040000 0.900819810301 -0.410015419959
99050000 0.900779999797 -0.410110996606
99060000 0.900736966338 -0.410150531173
99070000 0.900675536597 -0.410138402736
99080000 0.900628782442 -0.410211637698
99090000 0.900539901329 -0.410258522507
99100000 0.900500675721 -0.410318677242
99110000 0.900452320431 -0.410404856134
99120000 0.900427747369 -0.410490699669
99130000 0.900384925148 -0.41063916548
99140000 0.900385059084 -0.410696063688
99150000 0.900351186106 -0.410763559438
99160000 0.900325562737 -0.410823629618
99170000 0.900294588031 -0.410897644182
99180000 0.900224785527 -0.410952152378
99190000 0.900164696179 -0.410993529431
99200000 0.900129233239 -0.41106188955
99210000 0.90010662807 -0.41113435646
99220000 0.90009624744 -0.411215461397
99230000 0.90002134465 -0.411311071924
99240000 0.899971918103 -0.411404701516
99250000 0.899872969443 -0.411520181252
99260000 0.89983447297 -0.411552115303
99270000 0.89979346526 -0.411651827617
99280000 0.899823797833 -0.411708104559
99290000 0.899761390897 -0.411802600971
99300000 0.89973696266 -0.411951957251
99310000 0.899668414962 -0.41204136648
99320000 0.899641611154 -0.412083697241
99330000 0.899631952425 -0.412115103306
99340000 0.899546170264 -0.412154766228
99350000 0.89949609034 -0.412235554037
99360000 0.899443262001 -0.412284505851
99370000 0.899434809212 -0.412375333156
99380000 0.899380157997 -0.412489502165
99390000 0.899349226606 -0.412561418536
99400000 0.899279678615 -0.412622870141
99410000 0.899216404956 -0.412691231772
99420000 0.899153263396 -0.412724347828
99430000 0.899103538883 -0.412761414721
99440000 0.899091445721 -0.412824041564
99450000 0.899080381598 -0.412956999022
99460000 0.898967876019 -0.413054368431
99470000 0.898890755007 -0.413157321969
99480000 0.898845044192 -0.413258890199
99490000 0.898830004778 -0.41333297103
99500000 0.898848950036 -0.413398786657
99510000 0.898828019661 -0.413455930182
99520000 0.898714166653 -0.413528475276
99530000 0.898683474843 -0.413614522181
99540000 0.898583863574 -0.413664633234
99550000 0.898526184625 -0.413690648112
99560000 0.898488913167 -0.413749112146
99570000 0.898452351449 -0.413797925868
99580000 0.898456676002 -0.414008525887
99590000 0.898416258884 -0.414144661902
99600000 0.898365886734 -0.414240272435
99610000 0.898315751983 -0.414310404471
99620000 0.89828851238 -0.414359990638
99630000 0.898221495268 -0.414393251882
99640000 0.898214237206 -0.414453995113
99650000 0.898222247107 -0.414541553479
99660000 0.898187881324 -0.414585418764
99670000 0.898156945413 -0.414658050006
99680000 0.898122221936 -0.414714827947
99690000 0.898045672951 -0.414781753583
99700000 0.898009488637 -0.414828355807
99710000 0.897959128662 -0.414898711368
99720000 0.897887371177 -0.414972575078
99730000 0.897796673136 -0.415072336777
99740000 0.897702824029 -0.415140911304
99750000 0.897641009603 -0.415216398872
99760000 0.897608821363 -0.415319425203
99770000 0.89756950763 -0.415403704511
99780000 0.897522046054 -0.415551732926
99790000 0.89750317223 -0.415615172376
99800000 0.897497794761 -0.415720989175
99810000 0.897450297366 -0.415736268544
99820000 0.897467670446 -0.415797364608
99830000 0.897427228616 -0.415883715888
99840000 0.897375519714 -0.415953937078
99850000 0.89734030719 -0.416052629502
99860000 0.897232156275 -0.416091433705
99870000 0.897264887766 -0.416164173706
99880000 0.897175631761 -0.416203420676
99890000 0.897159340399 -0.416240958026
99900000 0.89702608939 -0.41634697429
99910000 0.89709919851 -0.416427881768
99920000 0.896972042496 -0.416475819817
99930000 0.89684753793 -0.41664038879
99940000 0.896797833751 -0.416668051727
99950000 0.896765717926 -0.416767115571
99960000 0.896744187701 -0.416876152518
99970000 0.896741227773 -0.416998929331
99980000 0.896680238113 -0.417068593631
99990000 0.896646722025 -0.41717120398
100000000 0.896613204459 -0.417213398782
100010000 0.89659518152 -0.417284597362
100020000 0.896569225767 -0.417333141782
100030000 0.896563542138 -0.417413507581
100040000 0.896482603059 -0.417402841712
100050000 0.896339190753 -0.417476351285
100060000 0.896289116371 -0.417558349779
100070000 0.896222900141 -0.417657265419
100080000 0.896169242255 -0.417800932379
100090000 0.896115461038 -0.417861167446
100100000 0.896070547219 -0.417972061297
100110000 0.896033891536 -0.418062619215
100120000 0.896053360729 -0.418156871589
100130000 0.896003003618 -0.418141882743
100140000 0.895992787206 -0.418216873372
100150000 0.895948618305 -0.418286256487
100160000 0.895884696197 -0.418405512674
100170000 0.895771486643 -0.418516378841
100180000 0.895727691322 -0.418601802323
100190000 0.895659026441 -0.418714175564
100200000 0.895612419903 -0.418785150068
100210000 0.895619731172 -0.418841344499
100220000 0.895610889213 -0.418937343237
100230000 0.895590260838 -0.41899388141
100240000 0.895525159544 -0.41904137817
100250000 0.895469579963 -0.419107564866
100260000 0.89537531698 -0.419159228022
100270000 0.895356249564 -0.419283258516
100280000 0.895308421981 -0.419350886323
100290000 0.895235312174 -0.41947830193
100300000 0.895167034944 -0.41955128787
100310000 0.895123305304 -0.419669261771
100320000 0.895075518007 -0.419764970767
100330000 0.895014425739 -0.419828606095
100340000 0.895014690562 -0.41991650666
100350000 0.895022323747 -0.419982678647
100360000 0.894991845384 -0.420076715696
100370000 0.894986423972 -0.420140032833
100380000 0.894892879357 -0.420198207791
100390000 0.894839810047 -0.420214163841
100400000 0.894769896061 -0.420264618477
100410000 0.894793190405 -0.42035159194
100420000 0.894740885262 -0.420409548698
100430000 0.894693734561 -0.420485292302
100440000 0.89464908375 -0.420595120436
100450000 0.89461011317 -0.420655181734
100460000 0.894497190765 -0.420717012017
100470000 0.894415710268 -0.420755123421
100480000 0.894316943382 -0.420845536221
100490000 0.894253312831 -0.420960573585
100500000 0.894226989394 -0.421088630058
100510000 0.894238816982 -0.421178726341
100520000 0.894217227686 -0.421245225212
100530000 0.894158328205 -0.421380833456
100540000 0.894114265182 -0.421494154725
100550000 0.894085938817 -0.421531856096
100560000 0.894067999771 -0.421564972786
100570000 0.894020360171 -0.421590957066
100580000 0.893993258842 -0.421660758567
100590000 0.893962849548 -0.421750285498
100600000 0.893930584906 -0.421855508612
100610000 0.893829170507 -0.421945075527
100620000 0.893772479319 -0.421962049818
100630000 0.89371483919 -0.422029096036
100640000 0.893618417954 -0.422185281924
100650000 0.893588130569 -0.422275013898
100660000 0.893467972887 -0.42239360959
100670000 0.893386331553 -0.422476419725
100680000 0.893271420329 -0.422486220644
100690000 0.893254607098 -0.422489472265
100700000 0.893062485182 -0.422578476085
100710000 0.893215324767 -0.422638311514
100720000 0.893143562878 -0.422811145174
100730000 0.893104648871 -0.422865285674
100740000 0.893144505537 -0.423007195553
100750000 0.893071464245 -0.42305794124
100760000 0.893035217693 -0.423151368057
100770000 0.893009949288 -0.423212863758
100780000 0.892961407584 -0.423279025503
100790000 0.892859001077 -0.423358406275
100800000 0.892813994631 -0.423430194582
100810000 0.892731427475 -0.423487913601
100820000 0.892675026895 -0.42358244755
100830000 0.892591474075 -0.42368541003
100840000 0.892576898266 -0.423775892604
100850000 0.892569490505 -0.423860490785
100860000 0.892506295991 -0.423898292693
100870000 0.892451545501 -0.423968978739
100880000 0.892416969503 -0.424042481573
100890000 0.892400165404 -0.424133852168
100900000 0.892299510064 -0.424202241126
100910000 0.892236502084 -0.424303863759
100920000 0.892200351763 -0.424444209424
100930000 0.892152068719 -0.424529153728
100940000 0.892099525463 -0.424645509636
100950000 0.892071591165 -0.424739771653
100960000 0.892039640552 -0.424814699466
100970000 0.891998551447 -0.424870393733
100980000 0.891991538768 -0.424933475292
100990000 0.891914155783 -0.425006068523
101000000 0.89192994653 -0.425112438646
101010000 0.89186054899 -0.42516972937
101020000 0.891826248639 -0.425239378478
101030000 0.891796151868 -0.42528792432
101040000 0.89172863382 -0.425344417209
101050000 0.891680204566 -0.425421306237
101060000 0.891664775965 -0.425549356176
101070000 0.891572110722 -0.425592372788
101080000 0.891465970766 -0.425680554936
101090000 0.891373445537 -0.425753532657
101100000 0.891296311734 -0.425847297717
101110000 0.891226525326 -0.425944287334
101120000 0.891204807063 -0.426037322771
101130000 0.891162888236 -0.426090199003
101140000 0.891136795775 -0.426116285767
101150000 0.891109355847 -0.42622463219
101160000 0.891065747593 -0.426293552818
101170000 0.890986575526 -0.426384288328
101180000 0.890925477219 -0.426468379333
101190000 0.890893960558 -0.426562420847
101200000 0.890810709661 -0.426694006534
101210000 0.89074349826 -0.426783874812
101220000 0.890742943675 -0.426878426371
101230000 0.890649210132 -0.426949816088
101240000 0.89062346989 -0.427039120658
101250000 0.890606376121 -0.427110533483
101260000 0.890577889641 -0.42719703482
101270000 0.890521925533 -0.4272462063
101280000 0.890490156504 -0.427276514222
101290000 0.890503642181 -0.427376441293
101300000 0.890382124019 -0.427443936639
101310000 0.890302194832 -0.427506965523
101320000 0.890219439507 -0.427543168937
101330000 0.890178077602 -0.427614644544
101340000 0.890118874577 -0.427701359901
101350000 0.890044259302 -0.427794178828
101360000 0.89000898985 -0.4278856218
101370000 0.889928863793 -0.427960034826
101380000 0.889844623354 -0.428051813301
101390000 0.889787349896 -0.428184354122
101400000 0.88977707992 -0.428317253892
101410000 0.889729736535 -0.428405752859
101420000 0.889707851343 -0.428481422718
101430000 0.889657860145 -0.428511984082
101440000 0.889602666414 -0.428575275627
101450000 0.889543967762 -0.428603188323
101460000 0.8895216783 -0.428663979066
101470000 0.889420260527 -0.428794514136
101480000 0.889376714055 -0.428899467381
101490000 0.889233294877 -0.429029757133
101500000 0.889203221475 -0.429099690402
101510000 0.889141488728 -0.429199533021
101520000 0.88909280507 -0.42930478927
101530000 0.889049874223 -0.429363805962
101540000 0.889015713944 -0.429412814503
101550000 0.888966202282 -0.429473880635
101560000 0.888916455934 -0.42953468918
101570000 0.88885055212 -0.429607657735
101580000 0.888819033329 -0.429723215938
101590000 0.88874300368 -0.429788015655
101600000 0.888696273269 -0.429890602966
101610000 0.888632638739 -0.429976151831
101620000 0.888566264845 -0.430084206022
101630000 0.88851987558 -0.430207706642
101640000 0.888484051571 -0.430315840376
101650000 0.888460007512 -0.430353018153
101660000 0.888390566672 -0.430458977287
101670000 0.888345332176 -0.43055735036
101680000 0.888229645436 -0.430588298482
101690000 0.888132271323 -0.430619271663
101700000 0.888123385425 -0.430759658151
101710000 0.888052775938 -0.430836147401
101720000 0.887978121762 -0.430921449662
101730000 0.887929251881 -0.431021113288
101740000 0.887850549259 -0.431103684101
101750000 0.88778516773 -0.431145006282
101760000 0.887797675501 -0.431248559606
101770000 0.887785851783 -0.431338928824
101780000 0.887748041016 -0.431443472323
101790000 0.887712002206 -0.431488360123
101800000 0.887639915366 -0.431528275202
101810000 0.887525819232 -0.431618241326
101820000 0.887500769919 -0.431656910755
101830000 0.887436577904 -0.431740051548
101840000 0.887382486076 -0.431815469651
101850000 0.887335449985 -0.431924766293
101860000 0.887226018957 -0.432017619108
101870000 0.887148851085 -0.432115984081
101880000 0.8871058445 -0.43221229343
101890000 0.887079581215 -0.432276406946
101900000 0.887038032957 -0.432430882461
101910000 0.886983473138 -0.432535074272
101920000 0.886919965001 -0.432680623467
101930000 0.886865632389 -0.432767753927
101940000 0.886837089275 -0.432782756607
101950000 0.886813132417 -0.43283162032
101960000 0.886777990162 -0.432888626675
101970000 0.886690333122 -0.432948349487
101980000 0.886605099474 -0.433050436313
101990000 0.886514358526 -0.433074320281
102000000 0.886455420904 -0.433181282789
102010000 0.886347945434 -0.433290924029
102020000 0.88636621018 -0.433387843756
102030000 0.886336986408 -0.433530092425
102040000 0.886225470487 -0.433605854209
102050000 0.886186621226 -0.433727936525
102060000 0.886139660455 -0.433826558318
102070000 0.886125326466 -0.433932507308
102080000 0.886035809678 -0.434025665059
102090000 0.886042378255 -0.434119035815
102100000 0.885927223718 -0.434181699181
102110000 0.885886917206 -0.434207807159
102120000 0.88579117882 -0.434258889342
102130000 0.885674459125 -0.434318295748
102140000 0.885671536253 -0.4344693545
102150000 0.885559047487 -0.434521587427
102160000 0.885557570946 -0.434608163732
102170000 0.885483685034 -0.434710770563
102180000 0.885433866065 -0.434781366845
102190000 0.885415257011 -0.434830911921
102200000 0.885354905381 -0.434880142138
102210000 0.885337518827 -0.434930582178
102220000 0.88520457634 -0.435009356174
102230000 0.885124861008 -0.435045951922
102240000 0.885092427693 -0.43517352054
102250000 0.885012816856 -0.43525876507
102260000 0.884954022372 -0.435428980084
102270000 0.884856268855 -0.435517347598
102280000 0.884837741065 -0.435615117311
102290000 0.884737591003 -0.4357511304
102300000 0.884737760627 -0.435822040162
102310000 0.884656618953 -0.435954014684
102320000 0.884591466057 -0.436014637392
102330000 0.884564652029 -0.436092581496
102340000 0.884478775381 -0.436138816545
102350000 0.884486430202 -0.436178257002
102360000 0.884372041433 -0.436265631456
102370000 0.884271920989 -0.436321407356
102380000 0.884168362035 -0.436422715173
102390000 0.884068487812 -0.436466221424
102400000 0.88436543807 -0.436551637521
102410000 0.883878265787 -0.436641572366
102420000 0.883892889684 -0.436775693966
102430000 0.883887694043 -0.436824088064
102440000 0.883770786695 -0.436900842532
102450000 0.883749706014 -0.4369975723
102460000 0.883655956879 -0.437074676791
102470000 0.883666475511 -0.437186555027
102480000 0.883588395987 -0.437282339851
102490000 0.883567515036 -0.437371777551
102500000 0.883603278316 -0.437447226992
102510000 0.883442692317 -0.437539142895
102520000 0.883397155283 -0.437638190482
102530000 0.88334289552 -0.437728595059
102540000 0.883222920794 -0.437740386306
102550000 0.883133481003 -0.437856264494
102560000 0.883070810803 -0.437922311292
102570000 0.883032666608 -0.438050778503
102580000 0.882942429161 -0.438179087786
102590000 0.882909392811 -0.438259455419
102600000 0.882819212215 -0.438353136692
102610000 0.882765320668 -0.438407581776
102620000 0.882724887855 -0.438528198827
102630000 0.882659853509 -0.438576180661
102640000 0.88261018325 -0.438681237963
102650000 0.882537556795 -0.43873565529
102660000 0.882537003708 -0.438848139855
102670000 0.882462094552 -0.438879530175
102680000 0.882416634974 -0.43896677081
102690000 0.882353247909 -0.439041014386
102700000 0.882274352035 -0.43909961371
102710000 0.882212549631 -0.439193803158
102720000 0.882142086858 -0.439289966475
102730000 0.882090939141 -0.439381851153
102740000 0.881978350628 -0.439521564262
102750000 0.881943885044 -0.439572145354
102760000 0.88184948426 -0.439698083924
102770000 0.881808525839 -0.439762402292
102780000 0.881737176765 -0.439878486686
102790000 0.881672450672 -0.439992790529
102800000 0.881593666801 -0.440013807816
102810000 0.881560151033 -0.440161865296
102820000 0.881534556977 -0.440150414161
102830000 0.881486092222 -0.440202909065
102840000 0.8813928348 -0.440307439784
102850000 0.88131477013 -0.440376816285
102860000 0.881276368217 -0.440482599808
102870000 0.881173643163 -0.440540434275
102880000 0.881094925494 -0.440650146767
102890000 0.881050576101 -0.440716406234
102900000 0.880949130537 -0.440797089471
102910000 0.880916695978 -0.440925008926
102920000 0.880870102761 -0.440997574813
102930000 0.880747810846 -0.441070648454
102940000 0.880745986645 -0.441146985305
102950000 0.880730943705 -0.441260820532
102960000 0.880700049461 -0.441315598737
102970000 0.880602191039 -0.441388567777
102980000 0.88055553034 -0.441445975759
102990000 0.880511406106 -0.441498921573
103000000 0.880443236728 -0.441606931348
103010000 0.880366220398 -0.441710733624
103020000 0.880274349937 -0.441729180537
103030000 0.880197600861 -0.441851369829
103040000 0.880061774087 -0.441882690262
103050000 0.880016708537 -0.442012014464
103060000 0.879893097764 -0.442181056743
103070000 0.879792495586 -0.442255382243
103080000 0.879731349112 -0.442347372544
103090000 0.879773056161 -0.442399933487
103100000 0.879718519561 -0.442495842018
103110000 0.879667549101 -0.442593965621
103120000 0.879558278287 -0.442702956252
103130000 0.879480746879 -0.442799565031
103140000 0.879428301487 -0.44282496491
103150000 0.879394482241 -0.44288617734
103160000 0.879377520289 -0.442976928399
103170000 0.879277675615 -0.443094799924
103180000 0.879140411776 -0.443078405214
103190000 0.879118797732 -0.443159402658
103200000 0.879013798153 -0.443258362525
103210000 0.878948929051 -0.44335588497
103220000 0.87883361461 -0.443505841365
103230000 0.87880428094 -0.443584877147
103240000 0.878756800419 -0.443661997728
103250000 0.878686008068 -0.443732993204
103260000 0.878620792834 -0.443789690895
103270000 0.878533770514 -0.443917390784
103280000 0.878494505796 -0.443966103064
103290000 0.878410696525 -0.444139773099
103300000 0.878350882589 -0.444202631995
103310000 0.87830525281 -0.444284347953
103320000 0.878260849023 -0.444442806621
103330000 0.878211309588 -0.44455778293
103340000 0.8781600479 -0.444588422049
103350000 0.878094683374 -0.444641003682
103360000 0.878084283547 -0.444745042526
103370000 0.878003344616 -0.444810243833
103380000 0.87796761875 -0.44486567282
103390000 0.877852452262 -0.444930476196
103400000 0.877767225341 -0.444977613553
103410000 0.877610750187 -0.445098867394
103420000 0.877546106673 -0.445207514601
103430000 0.87749748532 -0.445316034917
103440000 0.877384255169 -0.445407316944
103450000 0.8772863668 -0.445459236891
103460000 0.877211514881 -0.445552221686
103470000 0.877144273501 -0.445632138298
103480000 0.877049963784 -0.445731700643
103490000 0.876992218821 -0.445836363352
103500000 0.876973753929 -0.445909322139
103510000 0.8769441266 -0.446017294843
103520000 0.876933263103 -0.446085430988
103530000 0.876886589035 -0.446162347337
103540000 0.876751783209 -0.446167417153
103550000 0.876665353056 -0.446276541045
103560000 0.876586965895 -0.446337972049
103570000 0.876569357813 -0.446439892079
103580000 0.876516697287 -0.446522876733
103590000 0.876430907097 -0.44656097796
103600000 0.876308929688 -0.446705759448
103610000 0.876260207148 -0.44673502918
103620000 0.876173177428 -0.446869938382
103630000 0.876089984599 -0.446975980228
103640000 0.876005262928 -0.44710635299
103650000 0.87600421185 -0.447289247123
103660000 0.875875488018 -0.4472271259
103670000 0.875947396546 -0.447471645884
103680000 0.875839751518 -0.447420765888
103690000 0.875664620708 -0.447436924385
103700000 0.875700881385 -0.447551594725
103710000 0.875616487065 -0.447728959006
103720000 0.875439651785 -0.447768964856
103730000 0.875291177795 -0.447688916463
103740000 0.875224634119 -0.447909524864
103750000 0.875180813319 -0.448033578608
103760000 0.875061931941 -0.448090933777
103770000 0.874952719285 -0.448153116873
103780000 0.874990642547 -0.448264240821
103790000 0.874954493724 -0.448402758712
103800000 0.874885471225 -0.448461506382
103810000 0.874835373352 -0.448537856778
103820000 0.874734600964 -0.448597133235
103830000 0.874706236113 -0.44863871403
103840000 0.874575148233 -0.448768517489
103850000 0.874540739151 -0.448819504755
103860000 0.874452656149 -0.44898494705
103870000 0.874340004075 -0.449049995835
103880000 0.874279829987 -0.449121069263
103890000 0.874172976986 -0.449192912278
103900000 0.87410109512 -0.449257713661
103910000 0.873978964378 -0.449375813934
103920000 0.873916356669 -0.449440108239
103930000 0.873831305033 -0.449555060222
103940000 0.873802280402 -0.449642179114
103950000 0.873805855643 -0.44972753212
103960000 0.873680923151 -0.44980231829
103970000 0.873668114476 -0.449870169709
103980000 0.873587429022 -0.449997525048
103990000 0.873592327603 -0.450037000373
104000000 0.873639717772 -0.450166060086
104010000 0.873426793181 -0.450231885845
104020000 0.873297621567 -0.450347265068
104030000 0.873192125895 -0.450429115553
104040000 0.873155895515 -0.450488244665
104050000 0.873059715659 -0.450681144485
104060000 0.872981874065 -0.450677517083
104070000 0.872950945247 -0.450795123651
104080000 0.872861581726 -0.450850645446
104090000 0.872764060014 -0.450911375587
104100000 0.872660578813 -0.451019669448
104110000 0.872610522024 -0.451087691077
104120000 0.872524367825 -0.451171781803
104130000 0.872479789735 -0.451193005554
104140000 0.872352208432 -0.451328415909
104150000 0.872356125364 -0.451403283
104160000 0.872328158778 -0.451500644346
104170000 0.872219478082 -0.451568185386
104180000 0.872130664429 -0.451634074784
104190000 0.872056762301 -0.451721014527
104200000 0.871985492633 -0.451777783995
104210000 0.87191013542 -0.451893938787
104220000 0.871863031213 -0.45195183791
104230000 0.871770174971 -0.452045653358
104240000 0.871685404158 -0.45219293714
104250000 0.871643531216 -0.452241015768
104260000 0.871502534716 -0.452323690419
104270000 0.871368583258 -0.452337868794
104280000 0.871271848555 -0.45244819149
104290000 0.871206237493 -0.452592320883
104300000 0.871180223744 -0.452692732933
104310000 0.871083575642 -0.452806460339
104320000 0.871083653612 -0.452837973782
104330000 0.87099187962 -0.452959643547
104340000 0.871024011312 -0.453053507205
104350000 0.870957419714 -0.453120743272
104360000 0.870793147409 -0.453229013761
104370000 0.870750782682 -0.453256170049
104380000 0.870539595643 -0.453351558789
104390000 0.870480481205 -0.453327656004
104400000 0.870459733794 -0.453492234928
104410000 0.870358959015 -0.453553901474
104420000 0.870298728665 -0.453647137183
104430000 0.870250290503 -0.453835236845
104440000 0.870165904118 -0.453851939749
104450000 0.870060359122 -0.453954569276
104460000 0.869938628597 -0.45392523202
104470000 0.869872846945 -0.45403909834
104480000 0.869770592587 -0.454183328105
104490000 0.869722504036 -0.454252797066
104500000 0.869637785791 -0.454405736099
104510000 0.869580180369 -0.454484411669
104520000 0.869524218514 -0.454560673264
104530000 0.869445420232 -0.454600004791
104540000 0.869383062944 -0.454647683204
104550000 0.869233236191 -0.454779124438
104560000 0.869177184433 -0.454827450605
104570000 0.869025538779 -0.454986883732
104580000 0.869010028256 -0.455014232519
104590000 0.86896967577 -0.455093806611
104600000 0.868905887688 -0.455177266976
104610000 0.868839341156 -0.455221278052
104620000 0.86875099008 -0.455390629753
104630000 0.868690396785 -0.455408560061
104640000 0.868620083856 -0.455517581466
104650000 0.868493285203 -0.455547274583
104660000 0.868412486938 -0.455612575114
104670000 0.868321050598 -0.45574824186
104680000 0.868291599095 -0.455812687597
104690000 0.868116105904 -0.455932437423
104700000 0.868035548546 -0.455960138391
104710000 0.86789637401 -0.456118312321
104720000 0.867835161289 -0.456224162623
104730000 0.867813037536 -0.45629477835
104740000 0.867652063568 -0.456349595477
104750000 0.867678987086 -0.456438348316
104760000 0.867585991723 -0.456569097091
104770000 0.867540908774 -0.456647267943
104780000 0.867500929519 -0.456761226128
104790000 0.867382440907 -0.456811183981
104800000 0.867320009683 -0.456793013155
104810000 0.867121818367 -0.456905823293
104820000 0.867115064593 -0.456984924608
104830000 0.867011567698 -0.457122973598
104840000 0.866912725598 -0.457153959054
104850000 0.866873840203 -0.457200927305
104860000 0.8667220021 -0.457346747056
104870000 0.866726687089 -0.457441504413
104880000 0.866586558573 -0.457571508173
104890000 0.866521969574 -0.457636659109
104900000 0.866388761081 -0.457741613723
104910000 0.866325731464 -0.457840834019
104920000 0.866275266995 -0.457916013351
104930000 0.866159915885 -0.457979772305
104940000 0.866190890566 -0.458009954748
104950000 0.866009117555 -0.458120373698
104960000 0.866024365204 -0.458145407795
104970000 0.86595154768 -0.458238886586
104980000 0.865862323862 -0.458288388612
104990000 0.865777140251 -0.458323837432
105000000 0.865593279344 -0.458494645248
105010000 0.865509994982 -0.458646497327
105020000 0.865485591036 -0.458722716242
105030000 0.865426169035 -0.458774794048
105040000 0.865296828614 -0.458834638336
105050000 0.865237766858 -0.458858901166
105060000 0.865118940142 -0.459005062087
105070000 0.865045446299 -0.459067083219
105080000 0.864986400312 -0.45911833788
105090000 0.864890706223 -0.459228180326
105100000 0.864802295522 -0.459335110851
105110000 0.86470756647 -0.459434492163
105120000 0.864705560459 -0.45950062883
105130000 0.864563903241 -0.45954902678
105140000 0.864426028904 -0.459627833187
105150000 0.864391322318 -0.459779802336
105160000 0.864333447904 -0.459866641605
105170000 0.864264939887 -0.459936492754
105180000 0.864080580433 -0.460053577782
105190000 0.863989273029 -0.460109920922
105200000 0.863852780041 -0.460184205564
105210000 0.863792767207 -0.460274829711
105220000 0.863774119288 -0.460393154864
105230000 0.863637292445 -0.460471050992
105240000 0.863625009555 -0.46055550411
105250000 0.863618507677 -0.460858105995
105260000 0.863452186841 -0.460748354533
105270000 0.863356738885 -0.460906817058
105280000 0.863350352599 -0.460804321523
105290000 0.863130365649 -0.460902169375
105300000 0.863060572779 -0.460940713484
105310000 0.863059284941 -0.461156319138
105320000 0.862922018713 -0.461180982901
105330000 0.862842599688 -0.461301061186
105340000 0.862739775484 -0.461477033061
105350000 0.862775226863 -0.461578656351
105360000 0.862665921098 -0.461615437691
105370000 0.862553425182 -0.461676560815
105380000 0.862493975617 -0.461742712456
105390000 0.862361681644 -0.461876225537
105400000 0.862351591305 -0.461912375804
105410000 0.862305826777 -0.461934303844
105420000 0.862202493054 -0.462035051605
105430000 0.86218247629 -0.462154531661
105440000 0.861995035432 -0.46225571222
105450000 0.861914868308 -0.462279927165
105460000 0.861786014149 -0.462268578894
105470000 0.861636051545 -0.462374903782
105480000 0.86156238428 -0.462539406174
105490000 0.861401041143 -0.462696835666
105500000 0.861393932585 -0.462717756613
105510000 0.861265561868 -0.462775751912
105520000 0.861188391582 -0.462829757574
105530000 0.861121843045 -0.462873320937
105540000 0.861080649584 -0.463014694332
105550000 0.861021731636 -0.463066129806
105560000 0.860886580208 -0.463119978108
105570000 0.860803862014 -0.463214692156
105580000 0.860690445036 -0.463397198489
105590000 0.860642741049 -0.463443535895
105600000 0.860595938093 -0.463575916766
105610000 0.860404396923 -0.463640721965
105620000 0.860312846358 -0.463726527929
105630000 0.860169170272 -0.463844168225
105640000 0.860138293495 -0.463890193392
105650000 0.860071334879 -0.463906725018
105660000 0.859941106086 -0.463966835297
105670000 0.859925861653 -0.464104828915
105680000 0.859776251193 -0.464198876228
105690000 0.859766526845 -0.464286882558
105700000 0.859638140996 -0.464282878055
105710000 0.859564238608 -0.464361401677
105720000 0.859468974415 -0.46449776186
105730000 0.859399845916 -0.46458863684
105740000 0.8593671001 -0.464694979746
105750000 0.85922297118 -0.464740625206
105760000 0.859178365452 -0.464789590574
105770000 0.859054709216 -0.464957407465
105780000 0.858972566479 -0.465033137759
105790000 0.858932483173 -0.465096726004
105800000 0.858778814262 -0.465099866693
105810000 0.858707482871 -0.465210889706
105820000 0.858552995489 -0.465349987169
105830000 0.858466834906 -0.465407565031
105840000 0.858415242753 -0.465468310853
105850000 0.858305912227 -0.465514368401
105860000 0.858264140132 -0.465628193671
105870000 0.858140049027 -0.465804522704
105880000 0.858100595836 -0.465882725392
105890000 0.857980315439 -0.465919406128
105900000 0.857921049463 -0.465945921978
105910000 0.857798741797 -0.466005731521
105920000 0.857637697032 -0.466073450514
105930000 0.857655034158 -0.466174065131
105940000 0.857542764874 -0.466190985905
105950000 0.857412521232 -0.46620669101
105960000 0.857250172354 -0.466339487071
105970000 0.8571650218 -0.466463666111
105980000 0.857108378172 -0.466552839767
105990000 0.857043128496 -0.466624013212
106000000 0.856983709388 -0.466726497419
106010000 0.856854836552 -0.466859818457
106020000 0.856836332776 -0.466953194293
106030000 0.856631942537 -0.466967533421
106040000 0.856631237898 -0.467050547705
106050000 0.856570491777 -0.467176683405
106060000 0.856461477539 -0.467287997759
106070000 0.856440512267 -0.467232553192
106080000 0.856239808739 -0.467473809576
106090000 0.856143451306 -0.467419669097
106100000 0.855790888632 -0.467642603137
106110000 0.855927023923 -0.467592805846
106120000 0.855795387133 -0.467661808284
106130000 0.855664007897 -0.467793423427
106140000 0.855562275318 -0.467876583414
106150000 0.85545657833 -0.467993265371
106160000 0.855384021018 -0.468091320883
106170000 0.855315390229 -0.468180408521
106180000 0.855264087095 -0.468283533112
106190000 0.855162070688 -0.468348040198
106200000 0.855058470868 -0.468403635303
106210000 0.855028561719 -0.468462841265
106220000 0.854953468056 -0.468569113903
106230000 0.854882258192 -0.468641570096
106240000 0.854781124191 -0.468719194659
106250000 0.854620919041 -0.468773149397
106260000 0.854500595453 -0.468830399737
106270000 0.854362189573 -0.468879931124
106280000 0.854243427575 -0.468951860371
106290000 0.85413322043 -0.469019143067
106300000 0.854078873465 -0.469168539474
106310000 0.853991257224 -0.469265263452
106320000 0.853927703397 -0.46937390463
106330000 0.85383472843 -0.469442235172
106340000 0.853772250243 -0.469444126
106350000 0.853702606441 -0.469553324693
106360000 0.85361054337 -0.469603897979
106370000 0.853521241847 -0.469633220433
106380000 0.853379077408 -0.469711474844
106390000 0.853242562582 -0.469790415038
106400000 0.853102541474 -0.469856038734
106410000 0.852976913109 -0.469966205895
106420000 0.852971707674 -0.470050962914
106430000 0.852860026196 -0.470178193111
106440000 0.852775986334 -0.47028502405
106450000 0.852697557072 -0.470342211462
106460000 0.852579546051 -0.470454497314
106470000 0.852541627709 -0.470502467437
106480000 0.852444052427 -0.470514857128
106490000 0.852353566284 -0.470668784905
106500000 0.85227226716 -0.470725857302
106510000 0.852145364884 -0.470815521639
106520000 0.851994872932 -0.470861887593
106530000 0.851855132856 -0.470903827099
106540000 0.851805892157 -0.471034243537
106550000 0.851669759331 -0.471105015276
106560000 0.851605663259 -0.471223614066
106570000 0.851404981256 -0.471298595617
106580000 0.85127093321 -0.471321894642
106590000 0.851258545521 -0.471446077476
106600000 0.851122557512 -0.471508088043
106610000 0.851172891404 -0.471619758785
106620000 0.85103264754 -0.471666407524
106630000 0.850889559997 -0.471739456526
106640000 0.850871939655 -0.471815612173
106650000 0.85077332648 -0.471826396233
106660000 0.850718414999 -0.471860590855
106670000 0.850633609912 -0.471899012003
106680000 0.850536881721 -0.472006363375
106690000 0.850448082995 -0.472075983747
106700000 0.850295325321 -0.472100681703
106710000 0.850179463364 -0.47218666913
106720000 0.850092424012 -0.472224783163
106730000 0.849976902274 -0.472298023917
106740000 0.849847410551 -0.472355934555
106750000 0.849754973655 -0.472465371584
106760000 0.849632636668 -0.472569751827
106770000 0.849466003793 -0.472608135343
106780000 0.849394329454 -0.472753733031
106790000 0.849193693609 -0.47279789926
106800000 0.849196052493 -0.472906956123
106810000 0.849085816834 -0.473010537957
106820000 0.849010277777 -0.473084138247
106830000 0.849020658073 -0.473205629598
106840000 0.848828239615 -0.473274368942
106850000 0.848812273634 -0.473273840332
106860000 0.848695131714 -0.47329633284
106870000 0.848575280664 -0.47337562598
106880000 0.848485022989 -0.473482482849
106890000 0.848360028943 -0.473589743968
106900000 0.848248117792 -0.473680255176
106910000 0.848190238805 -0.47376347288
106920000 0.848056299429 -0.473874909098
106930000 0.847974926697 -0.473892517891
106940000 0.847869699879 -0.473914880515
106950000 0.847789883152 -0.473955126022
106960000 0.847717742429 -0.474000015722
106970000 0.847622311695 -0.474082681958
106980000 0.847415275706 -0.474099253236
106990000 0.847403510417 -0.474195397517
107000000 0.847282078325 -0.474340507851
107010000 0.847196013584 -0.474422397498
107020000 0.847144469795 -0.474472556126
107030000 0.847034597737 -0.474617044973
107040000 0.846918528409 -0.474642094265
107050000 0.846878751244 -0.474729500132
107060000 0.84676476139 -0.474791540621
107070000 0.846653736925 -0.474787495047
107080000 0.84660063012 -0.474860084594
107090000 0.846451020504 -0.474920465455
107100000 0.846381374031 -0.474938963766
107110000 0.846224634143 -0.47500218026
107120000 0.846060284067 -0.475135156926
107130000 0.845970487684 -0.475210802534
107140000 0.845920819942 -0.475266082166
107150000 0.845902599409 -0.475374616291
107160000 0.845822343728 -0.475435337825
107170000 0.845667128851 -0.475507761645
107180000 0.845606877688 -0.475541349869
107190000 0.845500279503 -0.475637324937
107200000 0.845355212433 -0.475646230385
107210000 0.845229691273 -0.475662207767
107220000 0.845154880618 -0.475834947775
107230000 0.844989859514 -0.475863319792
107240000 0.844931072577 -0.475953081706
107250000 0.844775818954 -0.476081434639
107260000 0.844705015432 -0.476131318474
107270000 0.844657410103 -0.476257379613
107280000 0.84457084886 -0.476367756477
107290000 0.844503579044 -0.476429672827
107300000 0.844397512425 -0.47646265864
107310000 0.844281782932 -0.476465267796
107320000 0.844189961458 -0.476494339862
107330000 0.844083211462 -0.476530818217
107340000 0.84401101071 -0.476654930063
107350000 0.843922503248 -0.476703085634
107360000 0.843800436529 -0.476807422601
107370000 0.843667520931 -0.476893901528
107380000 0.843585609288 -0.476953581101
107390000 0.843452579346 -0.477016669164
107400000 0.843406721992 -0.477133730404
107410000 0.843297813404 -0.477230011124
107420000 0.84318713068 -0.477271507406
107430000 0.843155763586 -0.47734573752
107440000 0.843073603255 -0.477410381089
107450000 0.842939524019 -0.477399285194
107460000 0.842881504157 -0.477524557161
107470000 0.842716858609 -0.477558732199
107480000 0.842618072658 -0.477600680757
107490000 0.842570642519 -0.477618884774
107500000 0.842352851254 -0.477691291752
107510000 0.842324235982 -0.477751337304
107520000 0.842185956643 -0.477826315068
107530000 0.842129953134 -0.477902876503
107540000 0.842046967296 -0.478020201273
107550000 0.841945783436 -0.478098495148
107560000 0.841872169034 -0.47824807487
107570000 0.841802524837 -0.478320964326
107580000 0.841689145828 -0.478327836465
107590000 0.841633696803 -0.478407973412
107600000 0.84152842319 -0.478559283397
107610000 0.841385620565 -0.478547022994
107620000 0.841262734941 -0.478730794508
107630000 0.841245098012 -0.478754194214
107640000 0.841203542929 -0.47875395525
107650000 0.841068774996 -0.478777046889
107660000 0.841160500534 -0.478758158668
107670000 0.841011826875 -0.479045968933
107680000 0.840673198822 -0.479007632486
107690000 0.840504799367 -0.478967923711
107700000 0.840495915106 -0.479239009975
107710000 0.840632654554 -0.47907297197
107720000 0.840247371852 -0.479026301247
107730000 0.840299114342 -0.479138809121
107740000 0.840093485885 -0.47932010996
107750000 0.840054901384 -0.479385137665
107760000 0.839873049538 -0.479548054988
107770000 0.839826751282 -0.479587266024
107780000 0.839702876789 -0.479709594171
107790000 0.83957358844 -0.479834441098
107800000 0.839501822667 -0.479813906597
107810000 0.839424181334 -0.479936737425
107820000 0.839350035504 -0.480005504108
107830000 0.839269648589 -0.479942716405
107840000 0.839276640606 -0.480042744621
107850000 0.839159956341 -0.480080726298
107860000 0.839043119319 -0.48021530571
107870000 0.838868982437 -0.480258960844
107880000 0.83870872881 -0.480336076007
107890000 0.838631236326 -0.480440386967
107900000 0.83857198114 -0.480445250735
107910000 0.838534975757 -0.480552123311
107920000 0.838446033616 -0.480703276788
107930000 0.838381748114 -0.480775022303
107940000 0.83824295498 -0.480854090082
107950000 0.838165536289 -0.480910325493
107960000 0.838076564425 -0.480954363421
107970000 0.838019003821 -0.480924774922
107980000 0.837880557572 -0.481072872783
107990000 0.837766253146 -0.481101010672
108000000 0.837609124614 -0.481188145072
