! Calibrated averaged scanner-service zoom
# Hz S RI R 50
156000000 0.423566517328 -0.176674678633
156006000 0.421883229329 -0.174008672442
156012000 0.421406716602 -0.180301101423
156018000 0.422661730283 -0.176019274832
156024000 0.421938303 -0.175430748177
156030000 0.421878891912 -0.175723987725
156036000 0.422051123663 -0.174610908523
156042000 0.421472304768 -0.174715529067
156048000 0.421420864309 -0.174477121996
156054000 0.421637959853 -0.174743326061
156060000 0.421839763672 -0.173655397104
156066000 0.421325808058 -0.1740891367
156072000 0.421030050512 -0.173704918819
156078000 0.421111074005 -0.173256623842
156084000 0.421089250123 -0.172560915512
156090000 0.420829269413 -0.172709165194
156096000 0.420617919797 -0.172577671473
156102000 0.420974166309 -0.172238273738
156108000 0.420945628435 -0.171990826507
156114000 0.420938019806 -0.171776927006
156120000 0.420367613224 -0.171424121248
156126000 0.420528458845 -0.170708373689
156132000 0.420360955232 -0.170681373523
156138000 0.420705863071 -0.170154406381
156144000 0.420063697005 -0.169891251399
156150000 0.420011870804 -0.169307847694
156156000 0.420126652818 -0.169620910694
156162000 0.420222796358 -0.168965084904
156168000 0.419569691549 -0.168589240317
156174000 0.419715481498 -0.168001107126
156180000 0.419817518348 -0.168084946751
156186000 0.419870656499 -0.167135959077
156192000 0.419461513796 -0.167039296322
156198000 0.41927385006 -0.167097654611
156204000 0.419442417684 -0.167138116
156210000 0.41976003993 -0.166069647733
156216000 0.419206079674 -0.16614701983
156222000 0.419292690969 -0.165975531979
156228000 0.419315918483 -0.165639003269
156234000 0.419432240599 -0.164936062469
156240000 0.419146302321 -0.164983075648
156246000 0.418866839109 -0.164792903122
156252000 0.418939053148 -0.164417804853
156258000 0.418869877117 -0.164066612316
156264000 0.41881570362 -0.164039386136
156270000 0.418223113 -0.163631173172
156276000 0.418599024798 -0.162910919842
156282000 0.418493099341 -0.162946041787
156288000 0.418675093161 -0.162284841255
156294000 0.418191831693 -0.162088067974
156300000 0.418402482589 -0.161629929264
156306000 0.418546823883 -0.161744679757
156312000 0.41849337426 -0.161162050725
156318000 0.418193845801 -0.160690318534
156324000 0.418317692655 -0.16003046917
156330000 0.418508943478 -0.160404774431
156336000 0.418695189617 -0.159425636027
156342000 0.41796199983 -0.158573666962
156348000 0.417874553158 -0.159172577442
156354000 0.417887187481 -0.159117808867
156360000 0.418416101005 -0.158021198961
156366000 0.417811510613 -0.158156766047
156372000 0.417771750762 -0.157952382448
156378000 0.417766995511 -0.157552129928
156384000 0.417920902169 -0.156933133486
156390000 0.41782410563 -0.156821221948
156396000 0.417257184672 -0.156719317141
156402000 0.417634599932 -0.156475054577
156408000 0.417622318823 -0.156232187886
156414000 0.417437323836 -0.155862618875
156420000 0.417238914715 -0.155451335679
156426000 0.417430443216 -0.154732039641
156432000 0.417530588175 -0.154624858272
156438000 0.41765730849 -0.154277674114
156444000 0.417307020061 -0.153866329697
156450000 0.417468080083 -0.153321141092
156456000 0.417436966628 -0.153408412564
156462000 0.417714888506 -0.152851701484
156468000 0.417189940346 -0.152415231872
156474000 0.417510859313 -0.151867005641
156480000 0.417353204445 -0.151913731908
156486000 0.417845099951 -0.15113958577
156492000 0.417276415487 -0.150762217896
156498000 0.417131619008 -0.150741721731
156504000 0.417217159891 -0.150665140717
156510000 0.417507722378 -0.149872177864
156516000 0.417251387187 -0.149747503292
156522000 0.417040325243 -0.149483657414
156528000 0.417294902005 -0.149173320131
156534000 0.417516455048 -0.14848158203
156540000 0.417120422204 -0.148280570658
156546000 0.416808860614 -0.148275247106
156552000 0.416942267512 -0.147801540531
156558000 0.417011985064 -0.147474822069
156564000 0.41700684933 -0.147272301141
156570000 0.416780686965 -0.146807251926
156576000 0.416783516955 -0.145989958922
156582000 0.416628317909 -0.146099617315
156588000 0.416870144538 -0.145563903024
156594000 0.416769359526 -0.144947820269
156600000 0.417085398185 -0.144640859732
156606000 0.416266457711 -0.144213137078
156612000 0.417085575585 -0.143373655541
156618000 0.41635532629 -0.14389173787
156624000 0.41746515766 -0.143057297546
156630000 0.416708591502 -0.143042696973
156636000 0.417290570846 -0.141553534965
156642000 0.416338860426 -0.142692496691
156648000 0.417661609923 -0.141486587365
156654000 0.417232895171 -0.141761332681
156660000 0.417237221469 -0.141212765369
156666000 0.416210408645 -0.141823479179
156672000 0.416775927034 -0.141502040253
156678000 0.417277683165 -0.140795533182
156684000 0.417184638733 -0.139589467353
156690000 0.41659735088 -0.140010731266
156696000 0.417359975458 -0.1395221407
156702000 0.417518348312 -0.139184997255
156708000 0.41698428553 -0.138441650905
156714000 0.416518864346 -0.138572953374
156720000 0.41626111922 -0.138545734701
156726000 0.417166822389 -0.137953025783
156732000 0.416000416343 -0.137915260104
156738000 0.41677102359 -0.136987076735
156744000 0.416431196665 -0.136656378264
156750000 0.41743461483 -0.136051471219
156756000 0.416952445257 -0.135728776737
156762000 0.41721342792 -0.135057943576
156768000 0.416543439544 -0.135445461476
156774000 0.417637420217 -0.134696431582
156780000 0.417091285429 -0.134677852009
156786000 0.417911318131 -0.133126769914
156792000 0.416862942142 -0.133656249843
156798000 0.418182652493 -0.133001112592
156804000 0.417514308413 -0.132795586874
156810000 0.41780595341 -0.131524855223
156816000 0.416825892469 -0.132076988975
156822000 0.417510030132 -0.132012288215
156828000 0.417474845092 -0.131686630964
156834000 0.417368171294 -0.130784563902
156840000 0.417059352193 -0.130802453281
156846000 0.417109323187 -0.13045166435
156852000 0.417580518789 -0.130329561239
156858000 0.416935580032 -0.129933194329
156864000 0.416822559103 -0.129760706967
156870000 0.416769805626 -0.129665456596
156876000 0.417434623874 -0.12919415182
156882000 0.416050457104 -0.12897660827
156888000 0.416956657454 -0.128210756548
156894000 0.416590862962 -0.128216502015
156900000 0.417906761438 -0.12756192785
156906000 0.417338262978 -0.127300871457
156912000 0.418122585168 -0.126304956438
156918000 0.417269495037 -0.12644840455
156924000 0.418598708907 -0.125888540955
156930000 0.418056054705 -0.125384722964
156936000 0.418850260798 -0.1239576535
156942000 0.417673389042 -0.124096162386
156948000 0.41880634955 -0.124292680965
156954000 0.418199740633 -0.124130337045
156960000 0.418504664716 -0.123159640818
156966000 0.41792929111 -0.122844705613
156972000 0.418510568359 -0.123198259333
156978000 0.417529632275 -0.123640776189
156984000 0.418500715983 -0.122218184407
156990000 0.418281029201 -0.12156285018
156996000 0.419031998482 -0.121568746488
157002000 0.418983624041 -0.12173766791
157008000 0.418559470452 -0.120887782451
157014000 0.418119992213 -0.120493254429
157020000 0.418375408735 -0.120830271045
157026000 0.419769323292 -0.120766039814
157032000 0.418054520105 -0.120096862885
157038000 0.418927218399 -0.119333435033
157044000 0.41838880951 -0.119288272805
157050000 0.419654168409 -0.118809136904
157056000 0.418565622128 -0.118605337437
157062000 0.418878362598 -0.11778976738
157068000 0.417947742276 -0.117873619036
157074000 0.419181988193 -0.117541022359
157080000 0.418871497561 -0.117162397109
157086000 0.419850943412 -0.116023961045
157092000 0.418848988813 -0.116195592654
157098000 0.420621102685 -0.115572658025
157104000 0.419308619628 -0.115385385342
157110000 0.420232900357 -0.114595016835
157116000 0.419443752453 -0.114367296475
157122000 0.419687341285 -0.114472304809
157128000 0.419726091143 -0.114120753696
157134000 0.419897058146 -0.113097456783
157140000 0.419594377438 -0.113053996742
157146000 0.420497844819 -0.112647359061
157152000 0.42098168345 -0.112420620468
157158000 0.419704533908 -0.111751218202
157164000 0.420096918233 -0.111348418411
157170000 0.419696527563 -0.111832529073
157176000 0.4208473246 -0.111150897584
157182000 0.419307209801 -0.110865466827
157188000 0.420367963372 -0.110036113261
157194000 0.419703608106 -0.109335523542
157200000 0.421394712869 -0.109550540303
157206000 0.420521590086 -0.109085441376
157212000 0.420133235256 -0.109106296004
157218000 0.421209575798 -0.108847855707
157224000 0.420992630122 -0.10859750738
157230000 0.421475121644 -0.108104221783
157236000 0.420729079118 -0.107821723174
157242000 0.421404432595 -0.107572447208
157248000 0.421237851462 -0.107401752243
157254000 0.421737072357 -0.106594948765
157260000 0.421574889809 -0.106432424046
157266000 0.421740098669 -0.106113304978
157272000 0.421920712764 -0.105779110591
157278000 0.422105973436 -0.105379529695
157284000 0.421855429742 -0.104994027226
157290000 0.421529030356 -0.104823894023
157296000 0.422155339267 -0.104576614348
157302000 0.422075924463 -0.103866740673
157308000 0.422286209106 -0.103309059619
157314000 0.422308624046 -0.103116968546
157320000 0.423424502811 -0.102889132802
157326000 0.422975639444 -0.1023743444
157332000 0.423108497373 -0.101859559196
157338000 0.422651234554 -0.101663162928
157344000 0.423442057898 -0.101536710088
157350000 0.422694631685 -0.101048082365
157356000 0.423457613102 -0.100572885324
157362000 0.422818499343 -0.100116143718
157368000 0.424163080919 -0.0998006741632
157374000 0.423807867002 -0.0996667375085
157380000 0.424330022647 -0.0992952343021
157386000 0.423483415601 -0.098625903989
157392000 0.424463791805 -0.0986220791361
157398000 0.424102188958 -0.0982367642234
157404000 0.424661911071 -0.0976050969037
157410000 0.424228810155 -0.0971874414666
157416000 0.424666059575 -0.0970125714127
157422000 0.424709596226 -0.0968277119803
157428000 0.425231712937 -0.0963526543853
157434000 0.424950861749 -0.0956307699909
157440000 0.424771690395 -0.0957505853952
157446000 0.425073864649 -0.0953826390542
157452000 0.425350491116 -0.0948366953585
157458000 0.425919590444 -0.0943467039406
157464000 0.425468464027 -0.0940891852274
157470000 0.426172637708 -0.093925543941
157476000 0.425888907585 -0.0935517637727
157482000 0.426135185138 -0.0929525741776
157488000 0.425444859186 -0.0927468363054
157494000 0.426327563882 -0.0926862146812
157500000 0.425718637722 -0.0922555138636
157506000 0.426536235916 -0.0917964052727
157512000 0.426294526879 -0.091298079393
157518000 0.426983072339 -0.0912865546421
157524000 0.426851461848 -0.0909263080962
157530000 0.427087563726 -0.0905202321324
157536000 0.426870482335 -0.0899573053061
157542000 0.42745327145 -0.0899468700347
157548000 0.427196976744 -0.089670548593
157554000 0.427927592592 -0.0892540044904
157560000 0.427601596938 -0.0887624678605
157566000 0.428081223878 -0.0886648105262
157572000 0.42836479076 -0.0883491428194
157578000 0.428775710319 -0.0878220086348
157584000 0.428465537285 -0.0874122627193
157590000 0.428169231626 -0.0872157863941
157596000 0.428580913481 -0.0870101872327
157602000 0.428739026189 -0.0864765810959
157608000 0.429224841147 -0.0861378966019
157614000 0.429479715957 -0.0858083324504
157620000 0.429726918343 -0.0856951976681
157626000 0.429466747194 -0.0855364034872
157632000 0.429963962882 -0.0846966956142
157638000 0.429575577121 -0.0843707534306
157644000 0.430251272056 -0.0842769612099
157650000 0.429817715592 -0.0837956212314
157656000 0.430565512673 -0.0834260381392
157662000 0.430327178527 -0.0829195161084
157668000 0.431097163817 -0.0827376837001
157674000 0.430773676374 -0.0824499364107
157680000 0.43100582555 -0.0819923683901
157686000 0.430813092408 -0.0814425691429
157692000 0.43132929848 -0.0815708704463
157698000 0.430943026114 -0.0809291183609
157704000 0.432208018071 -0.08068647282
157710000 0.431731359186 -0.080150664532
157716000 0.432220847265 -0.079990146471
157722000 0.432466998435 -0.0796543628126
157728000 0.432532645399 -0.0791850207554
157734000 0.432654122366 -0.0786984395767
157740000 0.432344790909 -0.0783384962096
157746000 0.432639354548 -0.0783394956397
157752000 0.433295449147 -0.0780014038607
157758000 0.433467205125 -0.0774755296192
157764000 0.433252311482 -0.0769950264956
157770000 0.433981894553 -0.0770731059391
157776000 0.433772457465 -0.0765681780183
157782000 0.434289196119 -0.0760827753856
157788000 0.433885418823 -0.0756837937288
157794000 0.434445640768 -0.075790502643
157800000 0.434207910346 -0.0752280651391
157806000 0.434437589462 -0.0749672503215
157812000 0.434558796964 -0.0747005568819
157818000 0.434796596924 -0.074286124445
157824000 0.434880594673 -0.0740687597531
157830000 0.43507143381 -0.073613601273
157836000 0.435837987634 -0.0733287690212
157842000 0.435854678143 -0.0728683747824
157848000 0.435898848528 -0.0727224568768
157854000 0.43612888809 -0.0724955915219
157860000 0.436350674185 -0.0719603354933
157866000 0.436598607011 -0.0715374899868
157872000 0.436343221841 -0.071267171381
157878000 0.437067110795 -0.0712036990472
157884000 0.437487481129 -0.0708680141729
157890000 0.437502635269 -0.0704735736315
157896000 0.437673046734 -0.0700117084947
157902000 0.437960658874 -0.0699272507473
157908000 0.437823411929 -0.0693525744853
157914000 0.438100368467 -0.0691870542519
157920000 0.438116989701 -0.0687196302591
157926000 0.438703555153 -0.0688697909777
157932000 0.438552676814 -0.0683328933841
157938000 0.438846908195 -0.067872934246
157944000 0.439176427027 -0.0675031139862
157950000 0.439456338398 -0.0675134820979
157956000 0.439275822041 -0.0669994068644
157962000 0.439645859099 -0.066717662437
157968000 0.439924953184 -0.0662309062346
157974000 0.439993356059 -0.0660193981955
157980000 0.440098555405 -0.0656935729837
157986000 0.440613080098 -0.0654979128247
157992000 0.440806216788 -0.0651376806086
157998000 0.440804517211 -0.0649414757187
158004000 0.44112114746 -0.0645847910708
158010000 0.441367421592 -0.064288010683
158016000 0.441477878065 -0.0638716427516
158022000 0.441437954914 -0.0635263080704
158028000 0.44196858857 -0.0635565384233
158034000 0.442103973806 -0.0631625630416
158040000 0.442608551771 -0.0630718000826
158046000 0.442700253269 -0.0625169870092
158052000 0.443149402867 -0.0625603464506
158058000 0.442990508413 -0.0619525505754
158064000 0.443158467229 -0.061641376944
158070000 0.443351477904 -0.0612366472691
158076000 0.443929073913 -0.0613660884441
158082000 0.443944408057 -0.060870957816
158088000 0.444151388164 -0.0604703720474
158094000 0.444496517668 -0.060173053873
158100000 0.444730123497 -0.0601025514257
158106000 0.444749840481 -0.0594563730428
158112000 0.445023680872 -0.0592433287035
158118000 0.445177526749 -0.0589580164258
158124000 0.445176408885 -0.0587466071446
158130000 0.44567573042 -0.0585225093419
158136000 0.445959537267 -0.0582798338072
158142000 0.446342270657 -0.0577834868023
158148000 0.446298974184 -0.0575909296007
158154000 0.443892186607 -0.0580351829354
158160000 0.446816498908 -0.056940435691
158166000 0.445129716402 -0.056355663721
158172000 0.446965769522 -0.0561803038022
158178000 0.447375115726 -0.0562060753282
158184000 0.44774123586 -0.0559158207363
158190000 0.44787373756 -0.0555142658808
158196000 0.448165356193 -0.0550087795007
158202000 0.448592011688 -0.0550494663253
158208000 0.448645507482 -0.0545846541544
158214000 0.448706306966 -0.0539059425576
158220000 0.449105356524 -0.0537510759205
158226000 0.449504887862 -0.0538733773134
158232000 0.449342327276 -0.0533719334464
158238000 0.449739535875 -0.0531847143934
158244000 0.450274889237 -0.0527567249651
158250000 0.450327125784 -0.0527708496716
158256000 0.450270545552 -0.0521670468535
158262000 0.450696322119 -0.0518795926667
158268000 0.450930045491 -0.0515897287553
158274000 0.450921026726 -0.0512805117942
158280000 0.451435909408 -0.0510775690653
158286000 0.451765132983 -0.0509123769209
158292000 0.451970691947 -0.050593321001
158298000 0.452017729238 -0.0503643139175
158304000 0.452337289033 -0.0500670083314
158310000 0.45255856446 -0.0498052490562
158316000 0.452764912804 -0.0494109256003
158322000 0.452639919257 -0.0489975881504
158328000 0.453149835864 -0.0491399133532
158334000 0.453483321787 -0.0488655489493
158340000 0.453726510402 -0.0484716439459
158346000 0.453941393058 -0.0480329665243
158352000 0.45424648255 -0.0480392801055
158358000 0.454285795568 -0.0476261337647
158364000 0.454801507538 -0.0471296291882
158370000 0.454830010924 -0.0469091450469
158376000 0.455335987545 -0.0470464292273
158382000 0.45513289964 -0.0464406174857
158388000 0.455813683913 -0.0461766018324
158394000 0.456087247797 -0.0459254948579
158400000 0.456158686233 -0.0459828541893
158406000 0.456566297188 -0.0455031757584
158412000 0.456771886494 -0.0450842777682
158418000 0.457080423413 -0.0449224142809
158424000 0.457120354403 -0.0448740503646
158430000 0.457360596652 -0.0443805396427
158436000 0.456846618863 -0.0427553295955
158442000 0.457908884483 -0.0437544622917
158448000 0.457981128201 -0.0436095518441
158454000 0.458310269423 -0.0435243893431
158460000 0.458777500406 -0.0427396174585
158466000 0.458964288542 -0.042895650814
158472000 0.458931433599 -0.0427022530618
158478000 0.459101251108 -0.0423930992871
158484000 0.459617052185 -0.0417431696461
158490000 0.459794345077 -0.0418471207218
158496000 0.45970534596 -0.041450290243
158502000 0.460199742817 -0.0416077465494
158508000 0.46058961462 -0.0409533148064
158514000 0.460895059893 -0.0409335726429
158520000 0.460992400075 -0.0406008802173
158526000 0.461164579019 -0.0405590087278
158532000 0.461715482242 -0.0402885187813
158538000 0.461640830671 -0.0396739563433
158544000 0.461631839503 -0.039406595184
158550000 0.462238688739 -0.0395624419607
158556000 0.462622237493 -0.0392110350583
158562000 0.462981663503 -0.0387454559765
158568000 0.4631703092 -0.038710463143
158574000 0.463204876092 -0.0384773886563
158580000 0.463717539981 -0.0381641224576
158586000 0.463598105522 -0.0376380320978
158592000 0.464092432499 -0.0374433686863
158598000 0.464082434248 -0.0373620455144
158604000 0.464516988206 -0.0372750283462
158610000 0.464887091744 -0.0366652659499
158616000 0.465283722725 -0.0367314472514
158622000 0.465242378355 -0.0365538027019
158628000 0.465408805966 -0.036315878969
158634000 0.465846149308 -0.0356320039921
158640000 0.466006249792 -0.035720753844
158646000 0.466159784097 -0.0352552952938
158652000 0.466512335128 -0.0355420746908
158658000 0.466970867919 -0.0348984014007
158664000 0.4672538066 -0.0348179927
158670000 0.46745259464 -0.0346392617611
158676000 0.467468015977 -0.0345547342474
158682000 0.467945768308 -0.0340092329891
158688000 0.468066159415 -0.0336957076168
158694000 0.46842404248 -0.0333141857692
158700000 0.468454737515 -0.0334046680644
158706000 0.469039992406 -0.0330833487291
158712000 0.469365721973 -0.0326906631392
158718000 0.469584369434 -0.0324531123388
158724000 0.469485563344 -0.032493440162
158730000 0.46992408968 -0.0320374913776
158736000 0.470156011327 -0.0315255644534
158742000 0.47044047524 -0.03136831907
158748000 0.470563380092 -0.0312224439854
158754000 0.470841944549 -0.0311062182589
158760000 0.471227954625 -0.03071682165
158766000 0.471566054492 -0.0307800913351
158772000 0.471501648612 -0.0298956749888
158778000 0.471834964481 -0.0301970853208
158784000 0.47092884706 -0.0283166822799
158790000 0.472491002879 -0.0296515958063
158796000 0.472736894439 -0.0292801014258
158802000 0.472909550303 -0.0294245181411
158808000 0.47349855763 -0.0289574029565
158814000 0.473472056116 -0.0289110176548
158820000 0.473945294648 -0.0286611742454
158826000 0.474104979405 -0.0284774339633
158832000 0.474556716196 -0.0281243426527
158838000 0.474537220816 -0.0276819412151
158844000 0.475244747551 -0.0275051235829
158850000 0.475124405668 -0.0276010732324
158856000 0.475532811445 -0.0273765837385
158862000 0.475842010712 -0.027069241807
158868000 0.4758192285 -0.026708619422
158874000 0.476116036292 -0.0266500475379
158880000 0.476589029981 -0.0264389905002
158886000 0.476859525222 -0.0259441272158
158892000 0.476886398469 -0.0256975312751
158898000 0.47725410877 -0.0255974200951
158904000 0.477734060033 -0.0256085035026
158910000 0.477825030028 -0.0251164965146
158916000 0.478276130467 -0.0251459504141
158922000 0.478331907143 -0.02491161384
158928000 0.478388989032 -0.0246811721723
158934000 0.479030448951 -0.0241995419226
158940000 0.479208685792 -0.0242484209252
158946000 0.47937363532 -0.0237333420245
158952000 0.479755282334 -0.0240913923985
158958000 0.480320484007 -0.0237104905264
158964000 0.480448976832 -0.0237004592581
158970000 0.480765700345 -0.0233974821664
158976000 0.480580994125 -0.0232267762515
158982000 0.481177693076 -0.0227935422199
158988000 0.481429819854 -0.0225603999352
158994000 0.481836947494 -0.0221785165275
159000000 0.481945030189 -0.0223220134388
159006000 0.482221489468 -0.0219239609608
159012000 0.482330533412 -0.0221046558923
159018000 0.482704840968 -0.0216439155125
159024000 0.482874419016 -0.0213771785348
159030000 0.483351814673 -0.0214872396908
159036000 0.483319618562 -0.0215086802683
159042000 0.483757982661 -0.0210816367969
159048000 0.484140002377 -0.0206293409135
159054000 0.484255115652 -0.0203293122835
159060000 0.484452802212 -0.0202260107699
159066000 0.484905089339 -0.0198332253505
159072000 0.4852749724 -0.0197975537627
159078000 0.485612164197 -0.0198320010184
159084000 0.485659597407 -0.0195506375922
159090000 0.486058579944 -0.0191868100135
159096000 0.486371634116 -0.019095561443
159102000 0.486619735061 -0.0187747461339
159108000 0.48679416809 -0.0184301563001
159114000 0.486927796337 -0.0182964800609
159120000 0.487517953196 -0.0181831682112
159126000 0.487813657772 -0.0183020104054
159132000 0.487928961028 -0.0178607355389
159138000 0.488124207755 -0.0178316832065
159144000 0.488492467579 -0.0175855342763
159150000 0.488947452108 -0.0172499987922
159156000 0.489136753088 -0.0168327408793
159162000 0.488930639148 -0.0171248142308
159168000 0.489625233656 -0.0166496097996
159174000 0.490003227256 -0.0163022520118
159180000 0.490328931012 -0.0163089403064
159186000 0.49019701771 -0.0163945307594
159192000 0.490597576336 -0.0160481376225
159198000 0.490914839918 -0.0155683630905
159204000 0.491361446394 -0.0153490724613
159210000 0.491330327473 -0.0153013674733
159216000 0.491785086767 -0.0149351537769
159222000 0.492178276293 -0.0147135042228
159228000 0.492400981998 -0.0149213022266
159234000 0.49255984718 -0.0145863576251
159240000 0.490853863759 -0.013845595252
159246000 0.493417304709 -0.0141925071826
159252000 0.493288037332 -0.0143189138878
159258000 0.493879995834 -0.0135625201
159264000 0.493942721226 -0.0133982459724
159270000 0.494608311527 -0.0133421821268
159276000 0.494544387675 -0.0133209886427
159282000 0.494917846173 -0.0129182214501
159288000 0.495198365369 -0.0130340596803
159294000 0.495555779431 -0.012945202942
159300000 0.495617454704 -0.0124095591224
159306000 0.496130511588 -0.0120913397276
159312000 0.496296530248 -0.0121357285624
159318000 0.496650659085 -0.0120373914294
159324000 0.496836180958 -0.0116968110777
159330000 0.497258460688 -0.0117188778001
159336000 0.497148446682 -0.0116810344054
159342000 0.497667176399 -0.011362547648
159348000 0.498156421393 -0.0108773051225
159354000 0.498585322428 -0.0107385696549
159360000 0.498551184955 -0.0105381070162
159366000 0.499005318824 -0.0101559860498
159372000 0.499600351854 -0.0102957597996
159378000 0.499342610285 -0.0102963073483
159384000 0.499769054094 -0.0100785675442
159390000 0.499980677959 -0.00990512269111
159396000 0.500367321536 -0.00987445440371
159402000 0.500392121774 -0.00952558927341
159408000 0.500995118969 -0.00913412650883
159414000 0.501156486824 -0.00902659060587
159420000 0.501527635354 -0.00910853677979
159426000 0.501657982984 -0.00900209228784
159432000 0.502029217855 -0.00871756193023
159438000 0.502169906395 -0.00874036687475
159444000 0.502536927265 -0.00852840405226
159450000 0.50276726876 -0.00810392647981
159456000 0.503276204265 -0.00782750425938
159462000 0.503225441315 -0.00776293242259
159468000 0.503762934857 -0.00765186388356
159474000 0.504110889729 -0.00743088666042
159480000 0.504374368525 -0.00737151558663
159486000 0.504543645616 -0.00734920720405
159492000 0.504881584127 -0.00721509906671
159498000 0.505381748345 -0.006756198789
159504000 0.505657573323 -0.00674564461431
159510000 0.50574753585 -0.00662780385352
159516000 0.506209686092 -0.00636258441582
159522000 0.506767587589 -0.00622571414406
159528000 0.506783933744 -0.0062648343688
159534000 0.507607564168 -0.00586805105743
159540000 0.507137843196 -0.00558611875532
159546000 0.509707631096 -0.0052299930618
159552000 0.50779965447 -0.0053130479588
159558000 0.508199477547 -0.00480003432906
159564000 0.508388553022 -0.0048514047235
159570000 0.508812984312 -0.00484577609096
159576000 0.5090857498 -0.00481094339516
159582000 0.509385294801 -0.00455693660181
159588000 0.50957211133 -0.00452949026774
159594000 0.509790384433 -0.00442063885915
159600000 0.510190445747 -0.00397539623877
159606000 0.510501990052 -0.00406078017949
159612000 0.510751548338 -0.00378085799252
159618000 0.511913400383 -0.00345572523785
159624000 0.511976382365 -0.0031424261265
159630000 0.511823540238 -0.00303273766025
159636000 0.5120313968 -0.00293150924931
159642000 0.513163344004 -0.00302986266281
159648000 0.512974020143 -0.00285931482233
159654000 0.512721486856 -0.00271565789673
159660000 0.513208687599 -0.00238110816638
159666000 0.513896222388 -0.00228159258633
159672000 0.513943079331 -0.00196297392121
159678000 0.513915580491 -0.00154937273446
159684000 0.514413736122 -0.00169274162974
159690000 0.514664602195 -0.00189023635916
159696000 0.515250181552 -0.00160166092675
159702000 0.515627047395 -0.0019033599831
159708000 0.51548798261 -0.00143439887821
159714000 0.514533443133 -0.00106862669331
159720000 0.516653449863 -0.000880355312087
159726000 0.516561256291 -0.000364646277843
159732000 0.516675453362 -0.00066894187098
159738000 0.516959796981 -0.000712661542336
159744000 0.5178423809 -0.000528682973409
159750000 0.517818735369 -0.000279661539307
159756000 0.517562958369 -0.000317432030656
159762000 0.518340528526 9.71219667094e-05
159768000 0.519134868417 0.00034128306102
159774000 0.519013781177 0.000542079209974
159780000 0.518859301661 0.000507426481296
159786000 0.519306575673 0.000701782083554
159792000 0.520031296148 0.000493725044531
159798000 0.520273613228 0.000749131832144
159804000 0.520106702433 0.00100266835997
159810000 0.520634142827 0.00114740352564
159816000 0.521249978696 0.00123553099033
159822000 0.521490255916 0.00156813539792
159828000 0.521496372414 0.00192447939039
159834000 0.521717735909 0.00204439282522
159840000 0.522075953451 0.00175995901897
159846000 0.522587097562 0.00192610679797
159852000 0.522528834751 0.00220021229038
159858000 0.522877668464 0.00213879944078
159864000 0.522827006324 0.00228862237068
159870000 0.523881320653 0.00258671496217
159876000 0.523989357851 0.00307331259736
159882000 0.524023421926 0.00285244348203
159888000 0.523985275177 0.00285691337134
159894000 0.52495198342 0.00300999706686
159900000 0.525048094663 0.00305856593296
159906000 0.524816926197 0.00318796670722
159912000 0.525091116824 0.00335780878985
159918000 0.526251383866 0.00353912553731
159924000 0.526278588744 0.00392349964087
159930000 0.526308763674 0.00403410476375
159936000 0.526620999906 0.00409212924461
159942000 0.527608854044 0.00387085371917
159948000 0.52758680463 0.00408913366837
159954000 0.527732568195 0.00431373825102
159960000 0.527987424243 0.00451320499061
159966000 0.528928244922 0.00443866255235
159972000 0.528947862999 0.00486583022739
159978000 0.528850136978 0.00533731534912
159984000 0.529082414357 0.00531055743787
159990000 0.529495069382 0.00494091277143
159996000 0.529825595848 0.00520412550112
160002000 0.529936398931 0.0057242994849
160008000 0.530185495652 0.00553008329929
160014000 0.530195457933 0.00562761439983
160020000 0.53124114472 0.00589437698013
160026000 0.531328248995 0.00642373404496
160032000 0.53118930869 0.00634467143192
160038000 0.53121578542 0.00626697658926
160044000 0.532334757603 0.00626535071904
160050000 0.532135007999 0.00640723220119
160056000 0.53191142308 0.0066554002669
160062000 0.532045331359 0.0067534473577
160068000 0.533701398581 0.00694502034205
160074000 0.533687171934 0.00739770103091
160080000 0.533602879417 0.00749176757473
160086000 0.533900176144 0.00754014641649
160092000 0.534760451191 0.00719610024598
160098000 0.534809092774 0.00742705411807
160104000 0.534601363137 0.00762247761058
160110000 0.534948669921 0.0078930213351
160116000 0.535836894587 0.00770666533386
160122000 0.536335561991 0.00804507956321
160128000 0.53616956299 0.00870814503464
160134000 0.536578981705 0.00839264455131
160140000 0.536862018316 0.00822909066961
160146000 0.537300203042 0.00839185528486
160152000 0.537205803192 0.00883959457857
160158000 0.537483969019 0.0088263686215
160164000 0.537497747233 0.00885937622726
160170000 0.538469005153 0.00901151003831
160176000 0.538649944473 0.00957137971037
160182000 0.538577221189 0.0095278742487
160188000 0.53852177987 0.00932546353713
160194000 0.539244307613 0.00963270507791
160200000 0.53959034727 0.00980811720637
160206000 0.539185081744 0.00966259731096
160212000 0.540068264301 0.00993734921995
160218000 0.540044284755 0.0100426579505
160224000 0.540641519347 0.0099667728585
160230000 0.540796721466 0.010256361066
160236000 0.541347743382 0.0103441654069
160242000 0.541314725349 0.0107029118622
160248000 0.541786921861 0.0105261669123
160254000 0.542237567533 0.0105132308422
160260000 0.542573736506 0.0107665211455
160266000 0.542403812828 0.0112115180874
160272000 0.542906727649 0.0108696948568
160278000 0.543320390825 0.0110947974063
160284000 0.543966438293 0.0112294594786
160290000 0.543757953126 0.0116735777015
160296000 0.544311573502 0.011643876628
160302000 0.544745801279 0.0117907069917
160308000 0.545176461239 0.011779039282
160314000 0.545290882476 0.0120539486629
160320000 0.545740959432 0.0117481071176
160326000 0.54592710972 0.0120127384435
160332000 0.546696999532 0.0126789847039
160338000 0.546591181091 0.0123698953608
160344000 0.546704144131 0.0126117725362
160350000 0.547268185058 0.012455995772
160356000 0.547457862579 0.0126173387587
160362000 0.547881214764 0.012866044395
160368000 0.547834493188 0.0131197960153
160374000 0.548387672659 0.0127882219238
160380000 0.548451159003 0.0131352800543
160386000 0.549088159011 0.0132587870575
160392000 0.549031308294 0.0136733482642
160398000 0.549427062053 0.0134664796308
160404000 0.549701923506 0.0136598583955
160410000 0.550348436355 0.0135674122489
160416000 0.550010083907 0.0138869236132
160422000 0.55052344168 0.0137857369282
160428000 0.550832663413 0.0139257001704
160434000 0.551409041599 0.014079592875
160440000 0.551442845381 0.0146158406116
160446000 0.551833975369 0.0146065306056
160452000 0.552185570105 0.0148623684341
160458000 0.552740711223 0.0147781773924
160464000 0.55269715234 0.015020359368
160470000 0.553066471228 0.0149858936891
160476000 0.55354404144 0.0149291227287
160482000 0.553888490123 0.0149488477457
160488000 0.554398031797 0.0151510493626
160494000 0.554454296873 0.0152443535245
160500000 0.554900272066 0.0149987565282
160506000 0.554980788643 0.0153111913743
160512000 0.555490277247 0.015362336578
160518000 0.55542830228 0.0157009108323
160524000 0.555991345105 0.0153958134747
160530000 0.556072661642 0.0157088887161
160536000 0.556874134142 0.0158733747677
160542000 0.556967675102 0.0162911737701
160548000 0.557411670362 0.0160180479564
160554000 0.557624419127 0.0162492667187
160560000 0.558136870892 0.0161795416995
160566000 0.558073569389 0.016381313732
160572000 0.558379378548 0.0162376291021
160578000 0.558764050837 0.0164059978244
160584000 0.559386722881 0.016509530354
160590000 0.559288907218 0.0168428555149
160596000 0.559763413231 0.0167588038749
160602000 0.560167063951 0.0168497469007
160608000 0.559870018473 0.0168236414574
160614000 0.559368894756 0.0172867981331
160620000 0.559009792536 0.0173056174739
160626000 0.558797724205 0.0173747676668
160632000 0.558986724412 0.0175270245476
160638000 0.559864567711 0.0177492720709
160644000 0.56075453858 0.0178127483671
160650000 0.561873843321 0.0173688521289
160656000 0.562586356324 0.0176321030226
160662000 0.563358884948 0.0175469154176
160668000 0.563520536464 0.0178358213771
160674000 0.563780103186 0.0175520692608
160680000 0.563883588049 0.0179026616464
160686000 0.564494428404 0.0178637989642
160692000 0.564586325477 0.0182934019052
160698000 0.565121562856 0.0181992820289
160704000 0.565318818556 0.0182936212238
160710000 0.5658171103 0.0182669133466
160716000 0.565698991285 0.0186357175306
160722000 0.566097273098 0.0184054857483
160728000 0.56650209088 0.018553427927
160734000 0.567357614182 0.018551646137
160740000 0.567325713213 0.0190020261
160746000 0.5674672323 0.0187497413056
160752000 0.567884765584 0.018882788504
160758000 0.568540692526 0.0187866468365
160764000 0.568485471265 0.0191914843046
160770000 0.56872022745 0.0192106265728
160776000 0.569121933764 0.0191428941847
160782000 0.569651088005 0.0191957986229
160788000 0.569963744378 0.0194102054694
160794000 0.570274305184 0.0196955607445
160800000 0.570538292862 0.0192491676708
160806000 0.571253812235 0.0193372569311
160812000 0.571747282589 0.0196099789322
160818000 0.571873078467 0.0198492880818
160824000 0.572264767299 0.0197089538598
160830000 0.572643069409 0.019693620945
160836000 0.572412953003 0.0198109135505
160842000 0.571587554419 0.0202188888979
160848000 0.571123434724 0.0201810414805
160854000 0.570759755683 0.0204214979533
160860000 0.567781831909 0.0198339770741
160866000 0.570789277009 0.021587115168
160872000 0.568337842127 0.0203728885151
160878000 0.572440267422 0.0214517913947
160884000 0.574964958383 0.0203189811114
160890000 0.57557245926 0.020576340493
160896000 0.575865227397 0.0206197194668
160902000 0.576176078003 0.0205529223233
160908000 0.576754975286 0.0204924502803
160914000 0.577073095036 0.0209713525878
160920000 0.577410524654 0.0207997937169
160926000 0.577643428908 0.0209413643525
160932000 0.578235398069 0.0207492505217
160938000 0.578246613287 0.0211389491168
160944000 0.578568942535 0.0212376433887
160950000 0.578759845636 0.0210398993069
160956000 0.579213181703 0.0210841237947
160962000 0.579683405174 0.0213868739748
160968000 0.579956658935 0.0215240428365
160974000 0.580001118106 0.0213289601547
160980000 0.580545628713 0.0214532807736
160986000 0.580902339823 0.0213601626297
160992000 0.580890625907 0.0217425312018
160998000 0.581181334565 0.0217584222213
161004000 0.581596828589 0.0216718999857
161010000 0.582318575398 0.0217019913717
161016000 0.58234311242 0.0221344468912
161022000 0.582652550764 0.0220047999559
161028000 0.58297516114 0.0220886047623
161034000 0.583454595631 0.0218978684926
161040000 0.583325863868 0.0223287092118
161046000 0.583703877664 0.0221877162583
161052000 0.584077269432 0.0223103894524
161058000 0.584609399279 0.0221282918145
161064000 0.58482712814 0.0226390415563
161070000 0.585273441221 0.0225276814762
161076000 0.585339452742 0.0224149488769
161082000 0.585913623358 0.0221898227321
161088000 0.586141997743 0.0226062573899
161094000 0.586368434132 0.0226437707644
161100000 0.586683577991 0.0225525997119
161106000 0.587000101192 0.022572934883
161112000 0.587618664468 0.022737607761
161118000 0.587877641633 0.0228708529972
161124000 0.58794288992 0.0228531466473
161130000 0.588530554178 0.0228241642668
161136000 0.58886708261 0.0228971463553
161142000 0.588844549877 0.0231285468726
161148000 0.589323731644 0.0231216543246
161154000 0.589526196721 0.0231259473657
161160000 0.590397750726 0.023059759063
161166000 0.590581216353 0.0234287180633
161172000 0.590548819763 0.0233586358418
161178000 0.590975460811 0.0234052375463
161184000 0.591563912904 0.0231152545359
161190000 0.591436244054 0.0235048801233
161196000 0.591763727187 0.0233702712781
161202000 0.592166174814 0.0233489764916
161208000 0.592882818282 0.0233025048207
161214000 0.593019074703 0.0238272744654
161220000 0.593255496433 0.0237637237776
161226000 0.593559070545 0.0236418278841
161232000 0.594623233032 0.0234601323276
161238000 0.594534342335 0.0237450374291
161244000 0.594659760638 0.0236728695963
161250000 0.594645471457 0.0237608391999
161256000 0.595271139412 0.0236475309864
161262000 0.595678008625 0.0238108144054
161268000 0.595991170975 0.0239909721554
161274000 0.596009334804 0.024080335351
161280000 0.596626404961 0.0239111110489
161286000 0.597020272327 0.0239822082733
161292000 0.597146329411 0.0241603678877
161298000 0.597299129518 0.0240606633866
161304000 0.597835145996 0.0241344717206
161310000 0.598538005642 0.0239524647392
161316000 0.598679456537 0.0244524513487
161322000 0.599026513178 0.0242169187963
161328000 0.599379122959 0.0242691095779
161334000 0.599702016691 0.0239435795505
161340000 0.599821383954 0.0244296399314
161346000 0.600040844212 0.0242603935002
161352000 0.60059896396 0.0242969821338
161358000 0.601140676409 0.024182606499
161364000 0.601510524273 0.0245083867167
161370000 0.601669981203 0.0244890751974
161376000 0.602035666567 0.0243704226558
161382000 0.602351214715 0.0240293199083
161388000 0.602468637903 0.0242858318283
161394000 0.602856528338 0.0242348149811
161400000 0.602914285388 0.0243329701546
161406000 0.602820866782 0.0236843502738
161412000 0.603133183407 0.0242030453761
161418000 0.603319332801 0.0239367111934
161424000 0.603556322028 0.0242884663853
161430000 0.604286696089 0.023655130014
161436000 0.604563589467 0.024399903502
161442000 0.605592369098 0.0238342244205
161448000 0.605093169583 0.0244045196561
161454000 0.605535527121 0.0238039402871
161460000 0.605644428549 0.0242675116122
161466000 0.606221917565 0.0239874663274
161472000 0.606174901271 0.0243858611161
161478000 0.606812616117 0.0238556406347
161484000 0.606976283448 0.024400941492
161490000 0.607628362624 0.02402164976
161496000 0.607612796486 0.0244117184866
161502000 0.608034969356 0.0239960359107
161508000 0.608378665792 0.0241555319346
161514000 0.60871643816 0.0239995640706
161520000 0.608774156471 0.0242766198642
161526000 0.609192526637 0.0241189597591
161532000 0.609862708057 0.0240948224986
161538000 0.610312320147 0.0243043303093
161544000 0.610306338766 0.0242063587934
161550000 0.610544427616 0.0243506461705
161556000 0.611106351814 0.0239798144926
161562000 0.611291744063 0.0244525747294
161568000 0.611581258729 0.0240893044135
161574000 0.612000986586 0.0244332282016
161580000 0.612345435334 0.0238549181469
161586000 0.612819154715 0.0243455028177
161592000 0.613126122621 0.0241471863984
161598000 0.613245145386 0.0244937446676
161604000 0.613666729868 0.0238718350532
161610000 0.613826904315 0.024392795634
161616000 0.61415362751 0.0239271281987
161622000 0.614260979171 0.0244942557466
161628000 0.614841773483 0.023850155513
161634000 0.615232785418 0.0244041727057
161640000 0.615946322934 0.0238458320824
161646000 0.615773467236 0.0245531362958
161652000 0.616262809373 0.023878293247
161658000 0.616578094515 0.0240126242709
161664000 0.616883757627 0.0239613674724
161670000 0.61684591835 0.0242254584186
161676000 0.616928264655 0.0241332638415
161682000 0.617835283604 0.0239280343902
161688000 0.618198640776 0.0239840837814
161694000 0.618268630886 0.0240666990525
161700000 0.618695819581 0.024083002753
161706000 0.61911999962 0.0237435717927
161712000 0.619371257663 0.0241481938073
161718000 0.619598537195 0.0238340793147
161724000 0.619563041967 0.0243031678454
161730000 0.620166158491 0.0237331962229
161736000 0.619873964872 0.0239801677988
161742000 0.620880796577 0.0237987866996
161748000 0.621186063779 0.0242380331393
161754000 0.621720073094 0.0236142465293
161760000 0.621694142217 0.024034093047
161766000 0.621377206266 0.0240643578639
161772000 0.622238807586 0.0242219303075
161778000 0.622722985523 0.023788299841
161784000 0.62309109204 0.0239350184635
161790000 0.62351339751 0.0235637049918
161796000 0.623576934139 0.0241111270846
161802000 0.624160378754 0.0235758366442
161808000 0.624278838496 0.0236250595525
161814000 0.624704825745 0.0235258312526
161820000 0.624761990819 0.0237850863252
161826000 0.625298390964 0.0235218631029
161832000 0.625644513915 0.0234773846218
161838000 0.626163738844 0.0235927592772
161844000 0.626279199698 0.0235051080282
161850000 0.626389282071 0.023585892169
161856000 0.626749685863 0.0234201977605
161862000 0.627133502587 0.0237088287188
161868000 0.627228761728 0.0236008647857
161874000 0.627702273662 0.0236962279452
161880000 0.627990169315 0.0232179470469
161886000 0.628602434779 0.023713144501
161892000 0.628751575137 0.0232500170936
161898000 0.629079678968 0.0236981466762
161904000 0.629232515547 0.023058422711
161910000 0.629616863002 0.0235348875124
161916000 0.629997337164 0.0230969034521
161922000 0.630191550904 0.0237445442482
161928000 0.630608065703 0.0229223394999
161934000 0.631047248449 0.023215874847
161940000 0.631638881754 0.0229639370381
161946000 0.631251973434 0.0234790107962
161952000 0.631964525674 0.0229193658937
161958000 0.632108104959 0.0230567687955
161964000 0.632456633951 0.0229428159197
161970000 0.632639435073 0.0231905562481
161976000 0.633013283153 0.0229408157395
161982000 0.633603315178 0.0229835168553
161988000 0.634036171514 0.0229490577676
161994000 0.634084180677 0.0231078963626
162000000 0.634453548391 0.0230479766671
