! Calibrated averaged scanner-service zoom
# Hz S RI R 50
162400000 0.727964304364 0.0718821620001
162401500 0.728039446501 0.0718723117939
162403000 0.727881352541 0.0722503168885
162404500 0.727547015758 0.0720134853818
162406000 0.72816806749 0.071834380169
162407500 0.728135374525 0.0717629473622
162409000 0.728196980246 0.0719622536262
162410500 0.72821972887 0.0718074630108
162412000 0.728288322264 0.0716160110964
162413500 0.728364826667 0.0715769770584
162415000 0.728639073255 0.0716950579724
162416500 0.728458018607 0.0718415382391
162418000 0.728493750424 0.0714933012913
162419500 0.728758510973 0.07140415795
162421000 0.7288634822 0.0714873160155
162422500 0.728781369585 0.0716303357359
162424000 0.728781307851 0.0714395200394
162425500 0.728979369346 0.0711193099429
162427000 0.729086874991 0.071230714434
162428500 0.729014214518 0.0714328199386
162430000 0.729022618175 0.0713616639932
162431500 0.729224471589 0.0710760182227
162433000 0.729272571161 0.0710959527619
162434500 0.729441787117 0.0713958633438
162436000 0.72936800228 0.0711675948014
162437500 0.729562121774 0.0708828280583
162439000 0.72978248916 0.0708108789226
162440500 0.729673941724 0.0711813536702
162442000 0.729768291757 0.0710165652507
162443500 0.729970964623 0.0705958360554
162445000 0.73030664309 0.0706282810277
162446500 0.73028315491 0.0707313251396
162448000 0.730574000539 0.0706141553768
162449500 0.730638097864 0.0702929010924
162451000 0.731056484909 0.0702073206548
162452500 0.731178881711 0.0704430755328
162454000 0.731291974083 0.0703912838169
162455500 0.731225005408 0.0701558551977
162457000 0.731637096219 0.0700161067207
162458500 0.731855970701 0.0701248359964
162460000 0.731972392566 0.0701692685713
162461500 0.732065907813 0.0699618989311
162463000 0.732341987732 0.0697159414546
162464500 0.732474718926 0.0697241220928
162466000 0.732441850203 0.0699400357669
162467500 0.732624224814 0.0697511940635
162469000 0.732932132524 0.0693971262797
162470500 0.733084205612 0.0693735847768
162472000 0.733001170919 0.0697582246226
162473500 0.732746008367 0.0694646809272
162475000 0.732720165173 0.0692893329731
162476500 0.732751827278 0.0692009826429
162478000 0.732467088149 0.0695360715092
162479500 0.732513763434 0.0693245314681
162481000 0.732369246641 0.06911757516
162482500 0.73251209655 0.0690839290578
162484000 0.731423534901 0.070059066131
162485500 0.732370892605 0.0691165434481
162487000 0.734097163293 0.0670077015567
162488500 0.734036394417 0.068680428174
162490000 0.725540728156 0.069630496904
162491500 0.732159904818 0.0692020045543
162493000 0.731967794722 0.0689349809528
162494500 0.732161438607 0.0687588840456
162496000 0.725843743896 0.0694467119107
162497500 0.73188505826 0.068986065108
162499000 0.727674877945 0.0669489655571
162500500 0.731417001203 0.0694421297665
162502000 0.720891960903 0.0708350743052
162503500 0.732056868803 0.0688518787467
162505000 0.731844804948 0.0686128353774
162506500 0.732432321554 0.0683305126974
162508000 0.732720904403 0.0684133742363
162509500 0.732587408397 0.0685268989024
162511000 0.732418975433 0.0682875624645
162512500 0.732823113216 0.0680284181178
162514000 0.732865230669 0.0680196412184
162515500 0.732693025481 0.0683136211257
162517000 0.732736744602 0.0680804826648
162518500 0.733008973916 0.0678477868998
162520000 0.733088448025 0.0678825494423
162521500 0.733140128802 0.0680696550014
162523000 0.733166195449 0.0679021057012
162524500 0.733140867655 0.0676747866744
162526000 0.733505997824 0.0676016618394
162527500 0.733419051416 0.067817693407
162529000 0.733406682135 0.0678339648736
162530500 0.733492863156 0.0676194720992
162532000 0.73348812387 0.0675072351751
162533500 0.733767833189 0.0676603023738
162535000 0.733788294814 0.0677587261222
162536500 0.733822700644 0.0676100347634
162538000 0.733886064667 0.0673272071165
162539500 0.73397719058 0.0674139848817
162541000 0.733979903202 0.0676527768255
162542500 0.733967570071 0.0675568703061
162544000 0.733996390983 0.0671814133142
162545500 0.734326255519 0.0672440161766
162547000 0.734256612902 0.0676037267315
162548500 0.734124343115 0.0674425896259
162550000 0.734322725915 0.0671678943152
