! Calibrated averaged scanner-service zoom
# Hz S RI R 50
144000000 0.896898639885 -0.264066100612
144004000 0.897389999217 -0.264314135286
144008000 0.896957049024 -0.264183659662
144012000 0.896939173511 -0.26420387759
144016000 0.896889374436 -0.264440480983
144020000 0.897144621572 -0.264163739233
144024000 0.897198412511 -0.264102954857
144028000 0.896978615149 -0.264167645307
144032000 0.897235506011 -0.264274506769
144036000 0.897363176623 -0.263888383526
144040000 0.897200249519 -0.264397189451
144044000 0.897275085409 -0.264306168505
144048000 0.896888404905 -0.264390928886
144052000 0.89736393405 -0.264323700755
144056000 0.897234819581 -0.264494654973
144060000 0.897166760031 -0.264400171893
144064000 0.897133599299 -0.264405173192
144068000 0.897207580681 -0.264394150131
144072000 0.897134715743 -0.264200320852
144076000 0.897056745063 -0.264467399915
144080000 0.896950279439 -0.264592215576
144084000 0.896436863901 -0.26473940857
144088000 0.897118013094 -0.26461767668
144092000 0.897039932137 -0.264598707859
144096000 0.8970909486 -0.264584439654
144100000 0.897070424629 -0.264572797792
144104000 0.897154576996 -0.264729403127
144108000 0.89716587884 -0.264749209657
144112000 0.89693596816 -0.264710044183
144116000 0.896988383121 -0.264735971313
144120000 0.897004344789 -0.264813244146
144124000 0.897218828896 -0.264769739851
144128000 0.897082450752 -0.264778020859
144132000 0.897098049516 -0.264837735265
144136000 0.896972354241 -0.264726834324
144140000 0.897236462332 -0.264797189777
144144000 0.89693852135 -0.264908841952
144148000 0.897021588139 -0.264991142228
144152000 0.897190192983 -0.264949733334
144156000 0.897077602671 -0.265032290197
144160000 0.896994641979 -0.264956947892
144164000 0.896953810492 -0.264846716681
144168000 0.897088595597 -0.264989945663
144172000 0.89737719674 -0.265246089857
144176000 0.897221232466 -0.26505130995
144180000 0.897413892326 -0.265123691043
144184000 0.897507427282 -0.265164423972
144188000 0.897491086652 -0.265328494537
144192000 0.897415509087 -0.265097987651
144196000 0.897225119684 -0.265160466319
144200000 0.89735046938 -0.265083168496
144204000 0.89720861129 -0.265268119883
144208000 0.897174696307 -0.265111661541
144212000 0.897013533144 -0.265136870763
144216000 0.897036956084 -0.265126933003
144220000 0.89714078276 -0.265326481655
144224000 0.897165044597 -0.265249322654
144228000 0.897062290477 -0.265258920582
144232000 0.897205533013 -0.265404529268
144236000 0.897189381017 -0.26532839713
144240000 0.897324591055 -0.265430236788
144244000 0.897189435611 -0.265497338401
144248000 0.897224125473 -0.265647820903
144252000 0.897251087683 -0.265630320704
144256000 0.897647396677 -0.265739931503
144260000 0.897256116073 -0.265431465402
144264000 0.896973527731 -0.26565323985
144268000 0.897670678107 -0.265301386222
144272000 0.896967338768 -0.265681213556
144276000 0.897101812532 -0.265567445493
144280000 0.897157685967 -0.265654214549
144284000 0.897071563399 -0.265634721175
144288000 0.89757724143 -0.265909970458
144292000 0.897473627523 -0.265872373392
144296000 0.897198497385 -0.265802750096
144300000 0.897337604482 -0.265931394308
144304000 0.897387168199 -0.265845883296
144308000 0.897253795706 -0.26593540506
144312000 0.897420304075 -0.265805601238
144316000 0.897237507112 -0.26582025846
144320000 0.897316355311 -0.265929716236
144324000 0.897309237126 -0.265823604706
144328000 0.897209213733 -0.265842845361
144332000 0.897290919762 -0.266024850642
144336000 0.897119827708 -0.265853659986
144340000 0.897142392989 -0.266057809801
144344000 0.896963035588 -0.266059306005
144348000 0.89709526067 -0.265929249863
144352000 0.896994902979 -0.266144336859
144356000 0.896797108696 -0.266089737609
144360000 0.896834381075 -0.266009104536
144364000 0.897011679072 -0.266235299512
144368000 0.896997083726 -0.266207317087
144372000 0.897405618938 -0.266380876687
144376000 0.897113948062 -0.266241271218
144380000 0.895918479696 -0.266326868095
144384000 0.897172221775 -0.266264348081
144388000 0.897118825568 -0.266347713
144392000 0.896181963494 -0.266023273714
144396000 0.897270301751 -0.26618358549
144400000 0.897213497407 -0.266326310683
144404000 0.897335020155 -0.266234599256
144408000 0.897274398796 -0.266272622543
144412000 0.897297091234 -0.26636328945
144416000 0.897352559418 -0.266257524163
144420000 0.897055780456 -0.266201750431
144424000 0.897227317028 -0.26637368027
144428000 0.897356583423 -0.266349354811
144432000 0.8974237615 -0.266510909518
144436000 0.89713746255 -0.266478900144
144440000 0.897557421612 -0.266475250343
144444000 0.896652395017 -0.266594311878
144448000 0.897020896885 -0.266526999866
144452000 0.896860598544 -0.266471102798
144456000 0.897118362692 -0.266444615785
144460000 0.897192107592 -0.266422713
144464000 0.896930707213 -0.266582059774
144468000 0.897269356016 -0.266679084867
144472000 0.897065712792 -0.266611646906
144476000 0.896970366853 -0.266706033314
144480000 0.897193047663 -0.266704833527
144484000 0.896873812977 -0.266611297604
144488000 0.897065009533 -0.26668540646
144492000 0.897030412263 -0.266751290319
144496000 0.897155505462 -0.26675121403
144500000 0.897031324935 -0.266606051333
144504000 0.897071866586 -0.266579148659
144508000 0.897037348474 -0.266724288199
144512000 0.897159237871 -0.266704930095
144516000 0.896912298037 -0.266807899301
144520000 0.897175502761 -0.266902312305
144524000 0.897291884961 -0.266809272742
144528000 0.897274134919 -0.266668610672
144532000 0.897129195407 -0.266806947011
144536000 0.897303641326 -0.266906675534
144540000 0.897296836663 -0.266945524598
144544000 0.897098715597 -0.266753404889
144548000 0.897207820449 -0.266991205432
144552000 0.897296628841 -0.267197726647
144556000 0.897112812357 -0.26716041637
144560000 0.897118741112 -0.267070595148
144564000 0.897143778847 -0.267074154939
144568000 0.897143991251 -0.267069807371
144572000 0.897122375626 -0.267009604169
144576000 0.897093572591 -0.267099322435
144580000 0.897146513675 -0.267049482901
144584000 0.896925198681 -0.26705889774
144588000 0.896971466948 -0.267001038367
144592000 0.896974624501 -0.267186781779
144596000 0.897013023401 -0.267217684284
144600000 0.897248928155 -0.267283586728
144604000 0.896875371394 -0.267273090021
144608000 0.897170920561 -0.267320674865
144612000 0.897261957789 -0.266969672006
144616000 0.895903441148 -0.266426332626
144620000 0.896766276692 -0.267377595333
144624000 0.895710305108 -0.266819735166
144628000 0.893752905559 -0.266884394739
144632000 0.897130201272 -0.267502630532
144636000 0.896995820152 -0.267516221575
144640000 0.897181840346 -0.267292501098
144644000 0.896998703309 -0.267473291063
144648000 0.897027838251 -0.267479043865
144652000 0.896869990781 -0.267432730429
144656000 0.896944747261 -0.267541574211
144660000 0.896920835632 -0.267448017821
144664000 0.896986368953 -0.267666261988
144668000 0.896861942141 -0.267466176978
144672000 0.897019924942 -0.267424108674
144676000 0.89694916129 -0.267529882804
144680000 0.896935109867 -0.267585901516
144684000 0.896883992981 -0.267494019802
144688000 0.896864684507 -0.267582034138
144692000 0.896947856758 -0.267577499894
144696000 0.897274835444 -0.267690339221
144700000 0.896945030094 -0.267618849823
144704000 0.896995807834 -0.267543245925
144708000 0.896954616908 -0.267755269646
144712000 0.896980384535 -0.26773686053
144716000 0.896985021535 -0.267654613419
144720000 0.897011454105 -0.267752060902
144724000 0.897112905535 -0.267681628013
144728000 0.896936493508 -0.267535255476
144732000 0.89693464446 -0.267675057949
144736000 0.896845232204 -0.267919726994
144740000 0.896986073912 -0.267870983012
144744000 0.89675598489 -0.267610459084
144748000 0.896912712567 -0.267808360294
144752000 0.896795252211 -0.267842658251
144756000 0.896773772568 -0.26783136497
144760000 0.89686805685 -0.267912817989
144764000 0.896835961261 -0.267825565014
144768000 0.896875034675 -0.267806473626
144772000 0.896785835687 -0.267890860856
144776000 0.896841173661 -0.267941912584
144780000 0.896832837924 -0.267898121836
144784000 0.896832441405 -0.267797824837
144788000 0.896658950352 -0.267808986123
144792000 0.896768288506 -0.267767337591
144796000 0.896829685725 -0.267861628619
144800000 0.896938552389 -0.267832270813
144804000 0.896713002785 -0.267823123741
144808000 0.897031252482 -0.267993332809
144812000 0.897133859495 -0.268070114884
144816000 0.897087218661 -0.268132433456
144820000 0.897149617104 -0.26825214448
144824000 0.897113522063 -0.268128915235
144828000 0.897041279835 -0.268326107281
144832000 0.897070528861 -0.268239854287
144836000 0.897153450649 -0.268217165465
144840000 0.897015872646 -0.268472139431
144844000 0.897107026335 -0.268344773326
144848000 0.897114484893 -0.268457008355
144852000 0.897171961661 -0.268411750444
144856000 0.89723274988 -0.268328850834
144860000 0.897553086659 -0.268471331766
144864000 0.897654171899 -0.268483459976
144868000 0.897598901964 -0.268371658853
144872000 0.897805799867 -0.268525896424
144876000 0.897998804349 -0.268543175968
144880000 0.897632162725 -0.268421129868
144884000 0.897610035543 -0.26847206118
144888000 0.897491035678 -0.268503643234
144892000 0.897190745185 -0.268579469041
144896000 0.897227377737 -0.26877023962
144900000 0.896929409828 -0.268607919122
144904000 0.896897684533 -0.268742057431
144908000 0.89696847365 -0.268666713995
144912000 0.896650978287 -0.268631612849
144916000 0.897059273588 -0.268711166679
144920000 0.896952750745 -0.268626807544
144924000 0.896949431634 -0.268676150124
144928000 0.896928298321 -0.268666923085
144932000 0.896941896904 -0.26872348221
144936000 0.897019537462 -0.268899472685
144940000 0.896982278406 -0.268710329259
144944000 0.897106024547 -0.268778058023
144948000 0.897001974347 -0.268809721941
144952000 0.897040163508 -0.268982018887
144956000 0.897069806488 -0.269042814973
144960000 0.897148199761 -0.269119660876
144964000 0.897072932214 -0.269176178709
144968000 0.897176480278 -0.269096137017
144972000 0.897058493545 -0.268990896291
144976000 0.897025377571 -0.268931273854
144980000 0.897037182625 -0.268986030667
144984000 0.896930265708 -0.268869144609
144988000 0.896848450725 -0.268815310304
144992000 0.896769200353 -0.268983546385
144996000 0.896766971343 -0.268824344083
145000000 0.897007971107 -0.26892509778
145004000 0.896653052997 -0.26887094244
145008000 0.896675897284 -0.26898913311
145012000 0.896592258007 -0.26877136847
145016000 0.896596702527 -0.268973073299
145020000 0.8957750814 -0.269093999407
145024000 0.896722864025 -0.268953824273
145028000 0.896611854745 -0.26913719285
145032000 0.89602599617 -0.268908606816
145036000 0.896734726971 -0.269074112692
145040000 0.896395868446 -0.268860599758
145044000 0.896623405121 -0.269023732201
145048000 0.896694028125 -0.269162769432
145052000 0.89686546097 -0.269044852771
145056000 0.896769561428 -0.269140263395
145060000 0.89669066677 -0.269278429272
145064000 0.896689677787 -0.26933586386
145068000 0.896633317459 -0.269325563121
145072000 0.896484231054 -0.269355761185
145076000 0.896859561502 -0.269602404182
145080000 0.896684761226 -0.269437696544
145084000 0.896907092857 -0.269450996462
145088000 0.896913169087 -0.269563447123
145092000 0.896852287668 -0.269567165056
145096000 0.896974560605 -0.269404446376
145100000 0.896862192259 -0.269483348934
145104000 0.896867389101 -0.26932673494
145108000 0.896964289822 -0.269538506922
145112000 0.89688672137 -0.269510036044
145116000 0.897099883148 -0.269571002897
145120000 0.896797705626 -0.269600348834
145124000 0.896893023109 -0.269552793819
145128000 0.896837025819 -0.269533011974
145132000 0.896923792447 -0.269591474363
145136000 0.89673209428 -0.26958467354
145140000 0.89669349291 -0.26957359477
145144000 0.896485778309 -0.269561455006
145148000 0.896659661353 -0.269718933938
145152000 0.896625495547 -0.26988511079
145156000 0.895576827445 -0.269373865168
145160000 0.89624035367 -0.269613058459
145164000 0.896022668866 -0.269465024211
145168000 0.897862223573 -0.269982361152
145172000 0.896526894889 -0.269628598539
145176000 0.896577795717 -0.269693845312
145180000 0.896617151099 -0.269948647007
145184000 0.896351653583 -0.26969872082
145188000 0.896094278406 -0.269787544165
145192000 0.896466782824 -0.269875430119
145196000 0.896427174855 -0.269745575686
145200000 0.896390204509 -0.26978655695
145204000 0.896185892677 -0.269758647988
145208000 0.896293027829 -0.269854130886
145212000 0.896629131058 -0.269892409623
145216000 0.896211116255 -0.270028419119
145220000 0.896172556534 -0.269911298439
145224000 0.896528329464 -0.270069657797
145228000 0.896406937058 -0.270048721771
145232000 0.896346421061 -0.27006963677
145236000 0.896441466578 -0.270078196528
145240000 0.896486069322 -0.27023164917
145244000 0.896391881908 -0.27014121894
145248000 0.89637095791 -0.270140021109
145252000 0.896411275367 -0.270235800169
145256000 0.896162371494 -0.270116407975
145260000 0.896161062266 -0.2699283946
145264000 0.8961094754 -0.270009865469
145268000 0.896125605577 -0.270054856076
145272000 0.896036275925 -0.269802244563
145276000 0.89612101238 -0.269841668908
145280000 0.896038154719 -0.269840623911
145284000 0.896081789259 -0.270034932928
145288000 0.896042855203 -0.269863011732
145292000 0.896188892292 -0.269921720033
145296000 0.896108267127 -0.27005279987
145300000 0.896340771817 -0.270196227102
145304000 0.896056686303 -0.270059717299
145308000 0.896075540716 -0.27009206295
145312000 0.896294898921 -0.270284948943
145316000 0.896196572826 -0.270259943605
145320000 0.896061120378 -0.270096481644
145324000 0.896001174325 -0.270379816343
145328000 0.896042681541 -0.270397463855
145332000 0.896043850875 -0.270420886703
145336000 0.896385393095 -0.270444515853
145340000 0.896028470143 -0.270538765367
145344000 0.89597659132 -0.270427351102
145348000 0.896027008287 -0.27042192296
145352000 0.896072458119 -0.270384615027
145356000 0.895988062124 -0.270568840586
145360000 0.896090771664 -0.270611500859
145364000 0.895994671616 -0.27056378211
145368000 0.895970414018 -0.27071813731
145372000 0.896051265404 -0.270580217687
145376000 0.896277494137 -0.270527876965
145380000 0.895891430535 -0.270612600366
145384000 0.896065965432 -0.270686996374
145388000 0.895835986349 -0.270600627806
145392000 0.895819444073 -0.270528435312
145396000 0.896000972883 -0.27054366889
145400000 0.895932884845 -0.27068792832
145404000 0.895878499449 -0.270552192897
145408000 0.895761888242 -0.27043821904
145412000 0.895865297297 -0.270581745668
145416000 0.895610631412 -0.270493508319
145420000 0.895849386865 -0.270305467503
145424000 0.898626345706 -0.270161617193
145428000 0.895694948895 -0.270243973171
145432000 0.895713225852 -0.270279790224
145436000 0.895336866082 -0.269383082175
145440000 0.895853578519 -0.270377583573
145444000 0.895751443992 -0.270372538926
145448000 0.895935406197 -0.270490166241
145452000 0.895973464079 -0.270588902754
145456000 0.895930165389 -0.270481348114
145460000 0.895646645641 -0.270630786044
145464000 0.895720686426 -0.270483050273
145468000 0.895872589396 -0.270765455546
145472000 0.895605116799 -0.270612972969
145476000 0.895532659308 -0.270688858282
145480000 0.895737286941 -0.270769283885
145484000 0.895913202705 -0.270862338725
145488000 0.895701058624 -0.270853246446
145492000 0.895691602542 -0.270566733782
145496000 0.89574857739 -0.270775901694
145500000 0.895763434501 -0.270911108281
145504000 0.895807946441 -0.270861132751
145508000 0.895715663983 -0.2708394544
145512000 0.895565713147 -0.270791909135
145516000 0.895510680915 -0.270977029964
145520000 0.89567300608 -0.270810773319
145524000 0.895722725364 -0.270920218881
145528000 0.896175268175 -0.270926384707
145532000 0.895365531796 -0.271241377411
145536000 0.895594082617 -0.270942957826
145540000 0.895385414327 -0.270785676818
145544000 0.896077622799 -0.270819146722
145548000 0.895543209553 -0.270805284776
145552000 0.895565066982 -0.27093666459
145556000 0.895410581473 -0.270902989759
145560000 0.895475030489 -0.270828464973
145564000 0.895373164695 -0.270798327431
145568000 0.895300586397 -0.270984463684
145572000 0.89531446026 -0.270788562239
145576000 0.895490972085 -0.270852743227
145580000 0.895522679439 -0.271029134369
145584000 0.895631860775 -0.271143061796
145588000 0.895586794043 -0.270571779117
145592000 0.895731737669 -0.270898426326
145596000 0.89558170023 -0.271033899056
145600000 0.895422849747 -0.270938018699
145604000 0.89550024623 -0.270947742238
145608000 0.895486093886 -0.271042133347
145612000 0.89536613369 -0.271009049301
145616000 0.895497823572 -0.271129792665
145620000 0.89527138186 -0.271189694059
145624000 0.89521162742 -0.271185931479
145628000 0.895238080015 -0.271057371777
145632000 0.895233904919 -0.271216021998
145636000 0.895064909749 -0.271041088651
145640000 0.895203722314 -0.271056132222
145644000 0.895422517898 -0.270935740201
145648000 0.894937935544 -0.271025840601
145652000 0.895364749263 -0.271019726054
145656000 0.89523268024 -0.271128437946
145660000 0.895182764905 -0.271159014504
145664000 0.895281502847 -0.270981010152
145668000 0.89544019915 -0.271095444707
145672000 0.895211908893 -0.271079695461
145676000 0.895193450451 -0.271199514136
145680000 0.895305816705 -0.271141508171
145684000 0.895284928003 -0.271088497127
145688000 0.895410126063 -0.271137505678
145692000 0.895399500937 -0.271221110195
145696000 0.89492106831 -0.271151070125
145700000 0.895307416102 -0.271122515001
145704000 0.895230892573 -0.271090182691
145708000 0.895623690258 -0.271245233106
145712000 0.89524873438 -0.271108402393
145716000 0.895446957511 -0.271158167367
145720000 0.895380049564 -0.271348201379
145724000 0.895350850903 -0.271206160272
145728000 0.895193438891 -0.271361192617
145732000 0.895079227873 -0.271381589675
145736000 0.895299488505 -0.271472005713
145740000 0.895144435692 -0.271507127757
145744000 0.895309529147 -0.271583783689
145748000 0.8953321167 -0.271513311968
145752000 0.895282140229 -0.271523848156
145756000 0.89515925082 -0.271493216513
145760000 0.895144988558 -0.271723392786
145764000 0.895121812144 -0.271561190396
145768000 0.895145980351 -0.271415068272
145772000 0.892056137604 -0.270759715279
145776000 0.895191299595 -0.271676835847
145780000 0.895249404226 -0.27166615804
145784000 0.89685584448 -0.272298970133
145788000 0.895266363749 -0.271705522068
145792000 0.895252716504 -0.271678730454
145796000 0.895255005153 -0.271679925866
145800000 0.895047677461 -0.271711634387
145804000 0.895069359047 -0.271661540158
145808000 0.895015751383 -0.271685118011
145812000 0.895010990506 -0.271616808428
145816000 0.895301853174 -0.271645372763
145820000 0.895023491873 -0.271583643514
145824000 0.89500531174 -0.271449863423
145828000 0.894919173314 -0.27153524382
145832000 0.895172304367 -0.271513628848
145836000 0.895062922594 -0.271706239592
145840000 0.895096607794 -0.271500247599
145844000 0.895382413275 -0.271496859329
145848000 0.895199386553 -0.271777761167
145852000 0.895064131885 -0.271611376303
145856000 0.895041095001 -0.271565196744
145860000 0.895135957452 -0.271658609931
145864000 0.895340429153 -0.271814868914
145868000 0.895154874319 -0.271692717008
145872000 0.895075071258 -0.271637521011
145876000 0.895022151613 -0.271986216994
145880000 0.895082788065 -0.271851433019
145884000 0.894910243327 -0.271847955099
145888000 0.894990524497 -0.271838142806
145892000 0.895032519088 -0.271753391143
145896000 0.894916264921 -0.271805064937
145900000 0.894823024436 -0.271759870763
145904000 0.895047223918 -0.271960812841
145908000 0.894766878364 -0.271842680267
145912000 0.894782962805 -0.27174128421
145916000 0.894851283776 -0.271772150114
145920000 0.89486740585 -0.271982730532
145924000 0.894822867201 -0.27192896612
145928000 0.8948313827 -0.271925651603
145932000 0.894929102893 -0.272040005056
145936000 0.894858959922 -0.272128705607
145940000 0.894670575834 -0.271982103774
145944000 0.894790559827 -0.272096930501
145948000 0.894769427737 -0.27208373195
145952000 0.894569378635 -0.272079315858
145956000 0.894696884573 -0.27185790082
145960000 0.894616065094 -0.272059849986
145964000 0.894784701634 -0.272038569218
145968000 0.894608686297 -0.271868096974
145972000 0.894720954734 -0.271963830161
145976000 0.894483800388 -0.272130809841
145980000 0.894434634374 -0.271886941358
145984000 0.894558569532 -0.271989470291
145988000 0.894932600837 -0.2721312043
145992000 0.894475946928 -0.272196674662
145996000 0.894618370512 -0.271984040368
146000000 0.894463149153 -0.271971439693
146004000 0.894337727673 -0.272010758882
146008000 0.894299230307 -0.272201028361
146012000 0.89415632067 -0.272081182187
146016000 0.894359030098 -0.272219510777
146020000 0.894334348172 -0.272163892993
146024000 0.894348606294 -0.272341645619
146028000 0.894212381707 -0.272073906085
146032000 0.894156649268 -0.272054999077
146036000 0.894439622011 -0.272194682533
146040000 0.894353282976 -0.272300671563
146044000 0.89412877741 -0.271998958793
146048000 0.894366061641 -0.272204881763
146052000 0.894134421852 -0.272202116849
146056000 0.894183143888 -0.27217487397
146060000 0.894176482976 -0.272157154498
146064000 0.894006085822 -0.272231691026
146068000 0.893964830318 -0.272175531446
146072000 0.894054565499 -0.272384967521
146076000 0.894045456844 -0.272491964871
146080000 0.893978420078 -0.272361019682
146084000 0.893854467002 -0.272205826949
146088000 0.893849081437 -0.27245170375
146092000 0.893973500037 -0.272550857567
146096000 0.893962214613 -0.272242531946
146100000 0.894108839831 -0.272289078959
146104000 0.893843489922 -0.272385129591
146108000 0.894003915609 -0.27251578948
146112000 0.893911533517 -0.272377213635
146116000 0.894101281037 -0.272447226808
146120000 0.893887757498 -0.272345006514
146124000 0.893906186476 -0.27240010534
146128000 0.893936999062 -0.272381374294
146132000 0.89395148569 -0.272484674632
146136000 0.893994495542 -0.272411308744
146140000 0.893859517035 -0.272502947234
146144000 0.894052313941 -0.272442249959
146148000 0.893873041333 -0.272420556504
146152000 0.893895379381 -0.272326170369
146156000 0.893982937566 -0.272331171072
146160000 0.893751951604 -0.272359062306
146164000 0.893730119681 -0.272270297288
146168000 0.894009676806 -0.272230298813
146172000 0.894013047935 -0.27237690794
146176000 0.893884663208 -0.272322940192
146180000 0.893907185836 -0.272385041417
146184000 0.893869002649 -0.272242193767
146188000 0.893804309183 -0.27240622643
146192000 0.893815786786 -0.272427695737
146196000 0.893944098142 -0.272505984894
146200000 0.893648302772 -0.272353991399
146204000 0.893951727284 -0.272469840702
146208000 0.893591477215 -0.272638817755
146212000 0.893913018914 -0.272460493406
146216000 0.89384487635 -0.272538881368
146220000 0.893511588062 -0.272451409999
146224000 0.893822847757 -0.272515523566
146228000 0.89367104929 -0.272596277077
146232000 0.895234916198 -0.272617710138
146236000 0.893176716314 -0.27279338233
146240000 0.896437374221 -0.274264345757
146244000 0.88599303115 -0.280143311481
146248000 0.89023568148 -0.271676632623
146252000 0.895239229214 -0.272104931002
146256000 0.886036421493 -0.273597344308
146260000 0.893734027862 -0.272377389599
146264000 0.893863916304 -0.272441909706
146268000 0.893680781781 -0.272474968962
146272000 0.893658364959 -0.272576863557
146276000 0.893397044402 -0.272482346825
146280000 0.893356183638 -0.272372361455
146284000 0.893464974277 -0.272393466463
146288000 0.893569263628 -0.272412626185
146292000 0.893586428405 -0.27252030386
146296000 0.893381449764 -0.272285058897
146300000 0.893584936063 -0.272360775672
146304000 0.893569770534 -0.272318569486
146308000 0.893579120973 -0.272419553371
146312000 0.893430983024 -0.272414636406
146316000 0.893773206641 -0.272420362785
146320000 0.893654118645 -0.27245928139
146324000 0.893526137467 -0.272429380951
146328000 0.893566869643 -0.272537448191
146332000 0.893458765982 -0.272719743383
146336000 0.893651041233 -0.272580458818
146340000 0.89358479275 -0.272677041956
146344000 0.893408876219 -0.272564243199
146348000 0.893638770978 -0.272607948118
146352000 0.893387991036 -0.272517496259
146356000 0.893504176816 -0.272663620729
146360000 0.893572398575 -0.272680741056
146364000 0.893459017966 -0.272565796925
146368000 0.893508934872 -0.272496114395
146372000 0.893535092468 -0.272525262352
146376000 0.893671583648 -0.272555809989
146380000 0.893540912451 -0.272525861202
146384000 0.893589711905 -0.272558988247
146388000 0.893612865458 -0.2725789189
146392000 0.893668989862 -0.272595379703
146396000 0.893682070494 -0.272615010951
146400000 0.893708199569 -0.272619699541
146404000 0.89374204685 -0.272580549903
146408000 0.893770516033 -0.272706233395
146412000 0.893814053879 -0.272734075723
146416000 0.893774159321 -0.272688202212
146420000 0.893865045514 -0.272745369438
146424000 0.893916556972 -0.273005003531
146428000 0.894096291502 -0.272911908761
146432000 0.893799484369 -0.272784627173
146436000 0.893928503233 -0.272829694525
146440000 0.893832633474 -0.272933781812
146444000 0.89375308958 -0.27283446613
146448000 0.893960531669 -0.2728092249
146452000 0.893934909302 -0.272739462246
146456000 0.893946533146 -0.272718459867
146460000 0.893963372461 -0.272748752705
146464000 0.893943250781 -0.272769531757
146468000 0.893816050997 -0.272604085198
146472000 0.893905470839 -0.272664961635
146476000 0.893793092574 -0.272789675633
146480000 0.893851265654 -0.272700875467
146484000 0.893965080052 -0.272810962705
146488000 0.893825043885 -0.272766866192
146492000 0.89416981024 -0.272957234887
146496000 0.893624372071 -0.272893258216
146500000 0.893778487697 -0.27276960429
146504000 0.893678286622 -0.27281046497
146508000 0.893588708813 -0.272944874667
146512000 0.893863290654 -0.272929093139
146516000 0.893934615116 -0.272915562489
146520000 0.893883220258 -0.27284565955
146524000 0.893925223547 -0.273020456831
146528000 0.893976419646 -0.273016849429
146532000 0.893912923704 -0.272991788541
146536000 0.894130707128 -0.272959010567
146540000 0.894242446799 -0.273276304328
146544000 0.894228102469 -0.27301937381
146548000 0.894133493365 -0.27306177007
146552000 0.893938984636 -0.272875569242
146556000 0.894026260695 -0.273072371949
146560000 0.893872202267 -0.273020119523
146564000 0.893689802474 -0.272851809935
146568000 0.893860798182 -0.272832449562
146572000 0.893490306612 -0.272821339648
146576000 0.893778188979 -0.273034747043
146580000 0.893809476613 -0.272929569674
146584000 0.893699832113 -0.272734031452
146588000 0.893738414407 -0.272963781354
146592000 0.893572156731 -0.27308508049
146596000 0.893563534282 -0.273029021941
146600000 0.893961083157 -0.273064150373
146604000 0.893908603899 -0.273120500674
146608000 0.893680704659 -0.273194356773
146612000 0.893777849821 -0.273360497948
146616000 0.893714868053 -0.273274246027
146620000 0.893753594415 -0.273352230511
146624000 0.893769327478 -0.273200888613
146628000 0.893603748462 -0.273125954117
146632000 0.893230526991 -0.272968625711
146636000 0.893645725371 -0.273069132405
146640000 0.893393672247 -0.273245073434
146644000 0.893798322808 -0.273064246667
146648000 0.893514342033 -0.27327366258
146652000 0.893324459915 -0.272970744519
146656000 0.893874540131 -0.273231105301
146660000 0.893492887933 -0.273189489545
146664000 0.89339776151 -0.273063881813
146668000 0.893606083885 -0.273066077043
146672000 0.893573806504 -0.27316239153
146676000 0.893464211598 -0.273148108509
146680000 0.893402408909 -0.273027507009
146684000 0.893558048002 -0.27304495321
146688000 0.893553413684 -0.273126290238
146692000 0.893645180452 -0.273317961117
146696000 0.893331452467 -0.273091102704
146700000 0.893393212744 -0.273040999419
146704000 0.892302257274 -0.272001627188
146708000 0.89360827809 -0.27331703123
146712000 0.893421049006 -0.27331624776
146716000 0.896725470577 -0.273404092687
146720000 0.893674292529 -0.273308866108
146724000 0.893527553404 -0.273361198088
146728000 0.893605278128 -0.273570446075
146732000 0.893485402792 -0.273382886254
146736000 0.893689379247 -0.273223194924
146740000 0.893728794182 -0.273322305037
146744000 0.893785740287 -0.273394915396
146748000 0.893698190928 -0.273220205583
146752000 0.893579611455 -0.273140403609
146756000 0.893552600494 -0.273371820303
146760000 0.893480630065 -0.273383453903
146764000 0.893376614672 -0.273233457911
146768000 0.893341340402 -0.273219835293
146772000 0.89322891137 -0.273353250709
146776000 0.893418652981 -0.273310007448
146780000 0.893721148724 -0.273628533245
146784000 0.893310501131 -0.273334996674
146788000 0.893278285531 -0.273266949894
146792000 0.893265309132 -0.273651196847
146796000 0.893270492958 -0.273486864588
146800000 0.89336172904 -0.273353737633
146804000 0.893341589213 -0.273517984832
146808000 0.893402698441 -0.273469337366
146812000 0.893487540057 -0.273425158767
146816000 0.893503174971 -0.273522805753
146820000 0.893489535265 -0.273499905183
146824000 0.893564383693 -0.273542288929
146828000 0.893707869296 -0.273550286564
146832000 0.893550294717 -0.273605919158
146836000 0.893595181424 -0.273670500702
146840000 0.893711726468 -0.273629492821
146844000 0.893662210967 -0.27373462488
146848000 0.893361988733 -0.273656901575
146852000 0.893656134196 -0.273570656719
146856000 0.89346469535 -0.273595469456
146860000 0.893445360884 -0.273671240745
146864000 0.893363664008 -0.273590937004
146868000 0.893381713302 -0.273567258129
146872000 0.893460380782 -0.273623640339
146876000 0.89337890164 -0.273717257665
146880000 0.893434437735 -0.273653948175
146884000 0.893369003223 -0.273685462523
146888000 0.893513764418 -0.27376553626
146892000 0.893300263056 -0.273698730176
146896000 0.893514241402 -0.273564196629
146900000 0.893459739142 -0.273684197041
146904000 0.893519536904 -0.273592205821
146908000 0.893294379462 -0.27366933448
146912000 0.89348361184 -0.273696950476
146916000 0.893368338848 -0.27365572118
146920000 0.893408132904 -0.273710761121
146924000 0.893401481509 -0.273603667721
146928000 0.893484827755 -0.273658706708
146932000 0.893228664845 -0.273719484765
146936000 0.893367551125 -0.273671896775
146940000 0.893205388415 -0.273726666658
146944000 0.893042271849 -0.273925749835
146948000 0.893080024528 -0.273700436113
146952000 0.893267995474 -0.273582307503
146956000 0.892673749994 -0.273683286109
146960000 0.893436435251 -0.273916387009
146964000 0.893116899336 -0.273656406687
146968000 0.893138119313 -0.273599313768
146972000 0.893282905411 -0.273712052857
146976000 0.892923009399 -0.273771867106
146980000 0.892985752717 -0.273594656524
146984000 0.89302810767 -0.27367738214
146988000 0.893168837253 -0.273807898472
146992000 0.893088543583 -0.273901879594
146996000 0.893013829515 -0.273735529096
147000000 0.892966543661 -0.27379720183
147004000 0.893138783456 -0.273684499959
147008000 0.893088568726 -0.273765101968
147012000 0.893287318286 -0.273549898117
147016000 0.893478985609 -0.273816113087
147020000 0.893110678316 -0.273819728334
147024000 0.89281173775 -0.27391171231
147028000 0.892947898795 -0.273844209806
147032000 0.893340514287 -0.273947517187
147036000 0.893343627814 -0.273791945282
147040000 0.893274985473 -0.273992511158
147044000 0.893394132269 -0.273856020433
147048000 0.893320523252 -0.273722114035
147052000 0.893470551446 -0.273073519152
147056000 0.893123252092 -0.273830661594
147060000 0.893174178751 -0.273695774715
147064000 0.893045699014 -0.273279841905
147068000 0.893232658143 -0.273895104592
147072000 0.89320972264 -0.273926951481
147076000 0.8930805816 -0.27392627805
147080000 0.893151109981 -0.273661796389
147084000 0.893295801976 -0.274009708242
147088000 0.893025009014 -0.273823384109
147092000 0.89303365588 -0.273867203623
147096000 0.89311804803 -0.273779362203
147100000 0.893261403016 -0.273895727544
147104000 0.89291435808 -0.273743184905
147108000 0.892994681361 -0.273955805166
147112000 0.892755360248 -0.273723659865
147116000 0.893009935832 -0.273831485238
147120000 0.893001659533 -0.273902103203
147124000 0.892886660533 -0.274112115298
147128000 0.893078567126 -0.273778657815
147132000 0.892850729665 -0.273944566939
147136000 0.892772505835 -0.273871518695
147140000 0.893038454583 -0.273982024088
147144000 0.892969148041 -0.273818782817
147148000 0.892936760665 -0.273872488729
147152000 0.893215643776 -0.273861261894
147156000 0.892896315468 -0.273884347003
147160000 0.892953556573 -0.273797139987
147164000 0.893087999709 -0.27381572331
147168000 0.893044745511 -0.27378230931
147172000 0.892984758273 -0.273723920025
147176000 0.893272460085 -0.273962546408
147180000 0.893190509576 -0.273666500384
147184000 0.893115318455 -0.273856112008
147188000 0.893226869457 -0.273698842103
147192000 0.892920099958 -0.273817121846
147196000 0.893083659882 -0.273644949131
147200000 0.893031392386 -0.27373870608
147204000 0.892822768537 -0.27389800305
147208000 0.89286522944 -0.273867570124
147212000 0.892764094413 -0.273859838194
147216000 0.892956168209 -0.273758884405
147220000 0.892960638559 -0.273823529082
147224000 0.892871968237 -0.274030422761
147228000 0.892927571787 -0.273970742577
147232000 0.892930760256 -0.273717268755
147236000 0.892749803849 -0.27371468355
147240000 0.892920762506 -0.273944946237
147244000 0.892880445229 -0.273892307933
147248000 0.893164048439 -0.27395283138
147252000 0.892785126617 -0.273859346309
147256000 0.892891257578 -0.273929669519
147260000 0.89277753093 -0.27388411828
147264000 0.893089364147 -0.273937951079
147268000 0.892908754338 -0.273715919375
147272000 0.892772073268 -0.273926826422
147276000 0.893231804602 -0.274142485923
147280000 0.892800156914 -0.274025805772
147284000 0.892971061153 -0.273847432563
147288000 0.892674849997 -0.273906577045
147292000 0.892590351586 -0.274038718283
147296000 0.892722598991 -0.27415915794
147300000 0.892832892902 -0.27383394206
147304000 0.89252961245 -0.273904213239
147308000 0.892586999419 -0.274081726663
147312000 0.892716189673 -0.274011059274
147316000 0.892949003441 -0.273787049996
147320000 0.892533789129 -0.274075124892
147324000 0.892976651982 -0.274126992963
147328000 0.893107406065 -0.274065611603
147332000 0.893876817981 -0.273964698697
147336000 0.893519200572 -0.274149864563
147340000 0.892809385485 -0.27388263015
147344000 0.892935855251 -0.273991187681
147348000 0.892890852294 -0.273728318905
147352000 0.893067828745 -0.273779321125
147356000 0.892672331541 -0.273805448085
147360000 0.892929356188 -0.273916889493
147364000 0.892907724288 -0.273913761839
147368000 0.89292457307 -0.273704245494
147372000 0.892637964582 -0.273652032945
147376000 0.892694135334 -0.27395851658
147380000 0.892950003975 -0.273826954357
147384000 0.893294055538 -0.273646850991
147388000 0.892831846473 -0.273956862067
147392000 0.893101097055 -0.274232362443
147396000 0.892885895233 -0.274021105597
147400000 0.892998319487 -0.273893757245
147404000 0.892919699942 -0.273955261123
147408000 0.892877585186 -0.274240676323
147412000 0.892725690509 -0.274140126436
147416000 0.892770753058 -0.273775905965
147420000 0.893050098682 -0.273887625367
147424000 0.892582452518 -0.274027432056
147428000 0.892602432346 -0.273937596271
147432000 0.892403534414 -0.273453098684
147436000 0.891656971358 -0.274004062353
147440000 0.892556924206 -0.273780129975
147444000 0.892781005987 -0.273929318037
147448000 0.893064657756 -0.273460039852
147452000 0.892825637537 -0.273974188952
147456000 0.892200224095 -0.273965970881
147460000 0.892682821843 -0.273964305374
147464000 0.892747144594 -0.273958328034
147468000 0.89227485104 -0.273722831258
147472000 0.892652107074 -0.274083801955
147476000 0.892438891823 -0.273880374201
147480000 0.892784843672 -0.274125641319
147484000 0.892836752839 -0.27388098735
147488000 0.892669123349 -0.273883089507
147492000 0.892523663974 -0.27393701472
147496000 0.89281888443 -0.274122562765
147500000 0.892708911599 -0.27387377761
147504000 0.892735512856 -0.273910872869
147508000 0.892720976638 -0.274203034326
147512000 0.892584506896 -0.274223015247
147516000 0.892766830354 -0.27393339789
147520000 0.892480650989 -0.274055320278
147524000 0.892605649334 -0.274261380025
147528000 0.892714384413 -0.274200111108
147532000 0.892844418181 -0.274108499507
147536000 0.892659690191 -0.274083062508
147540000 0.892789232294 -0.274158559237
147544000 0.892561160143 -0.274152590699
147548000 0.892777318573 -0.274156467152
147552000 0.89269370516 -0.273866562759
147556000 0.89270072786 -0.274066528006
147560000 0.892697244934 -0.274135941711
147564000 0.892776890844 -0.274134178971
147568000 0.892795349702 -0.274006878369
147572000 0.892712316007 -0.274229376324
147576000 0.892836552281 -0.274409255965
147580000 0.892852263063 -0.274340187338
147584000 0.892816726543 -0.274079363159
147588000 0.892807937402 -0.274164538041
147592000 0.892641657305 -0.274382933764
147596000 0.89257900315 -0.274330479793
147600000 0.892740335596 -0.274023666398
147604000 0.892666342569 -0.273991260411
147608000 0.892712161977 -0.274122031189
147612000 0.892521635034 -0.274363952987
147616000 0.892693461833 -0.274214444558
147620000 0.892692906844 -0.274037559297
147624000 0.892951607737 -0.274176614008
147628000 0.892726623552 -0.274206124949
147632000 0.893041692878 -0.274169039132
147636000 0.893069087907 -0.274190798141
147640000 0.892997776974 -0.274262652331
147644000 0.892813324406 -0.274316675569
147648000 0.89284195847 -0.274304955703
147652000 0.893071533281 -0.274530511905
147656000 0.892870159457 -0.274202729936
147660000 0.892773340852 -0.274262071888
147664000 0.892797807416 -0.274307381082
147668000 0.892824145162 -0.274450275265
147672000 0.89282246615 -0.274299609279
147676000 0.89258118938 -0.274212256942
147680000 0.892741603676 -0.274296527324
147684000 0.892844602167 -0.274416913081
147688000 0.892710921366 -0.274196572463
147692000 0.892626232504 -0.274311771071
147696000 0.892593040474 -0.274470687134
147700000 0.892641181078 -0.274294783311
147704000 0.892536270542 -0.274143478944
147708000 0.892580143393 -0.274181341974
147712000 0.892593912663 -0.274235158679
147716000 0.892584832409 -0.274202354361
147720000 0.892671762779 -0.274061749601
147724000 0.892578027934 -0.274000644025
147728000 0.892602259345 -0.274306216525
147732000 0.892694611183 -0.274087300017
147736000 0.89275638582 -0.274238218981
147740000 0.892786653632 -0.274000661817
147744000 0.892832236154 -0.273928392354
147748000 0.893042029385 -0.27409411511
147752000 0.892723722239 -0.274209113556
147756000 0.892689379353 -0.274021575384
147760000 0.892852735078 -0.274155655708
147764000 0.892640581465 -0.274177530973
147768000 0.892770307554 -0.274136838343
147772000 0.893034676974 -0.273962207037
147776000 0.892812654804 -0.274067942849
147780000 0.892668368432 -0.274229724744
147784000 0.892713231412 -0.274273212581
147788000 0.892946328245 -0.274060211809
147792000 0.892811637073 -0.274002236056
147796000 0.892687767425 -0.27436728451
147800000 0.892706955087 -0.274112108042
147804000 0.892785852936 -0.274190767244
147808000 0.892840417507 -0.274115678167
147812000 0.892795415043 -0.274314864772
147816000 0.892547416686 -0.274210424443
147820000 0.893039400973 -0.274048684969
147824000 0.892781456104 -0.274062672039
147828000 0.89255184855 -0.274027580626
147832000 0.892753469111 -0.274097096935
147836000 0.892806057658 -0.27423910658
147840000 0.892772199316 -0.27409493396
147844000 0.892705526799 -0.274274321454
147848000 0.892776122762 -0.274176158004
147852000 0.892976285864 -0.274271463818
147856000 0.892885402054 -0.274202751354
147860000 0.891262830246 -0.275213678331
147864000 0.894265990887 -0.27435264492
147868000 0.89308288809 -0.274398515528
147872000 0.895914744394 -0.276585927793
147876000 0.89314481963 -0.273949674457
147880000 0.892769100161 -0.274340874916
147884000 0.892828969213 -0.274400790725
147888000 0.892957473933 -0.274141523243
147892000 0.892597305769 -0.274079373669
147896000 0.892439154126 -0.274380611895
147900000 0.892748821946 -0.274330676971
147904000 0.892745376938 -0.274023845214
147908000 0.89277418215 -0.274190026625
147912000 0.892808395487 -0.274272633699
147916000 0.89290589831 -0.274174477752
147920000 0.892876276985 -0.27413412096
147924000 0.892870526104 -0.274050097547
147928000 0.892851337069 -0.274305028435
147932000 0.892692208849 -0.274057201636
147936000 0.892600257103 -0.274257325537
147940000 0.892773822834 -0.27409487865
147944000 0.892568096784 -0.274163469901
147948000 0.892704683913 -0.274210936426
147952000 0.89254258758 -0.274415823678
147956000 0.892713766063 -0.273924157617
147960000 0.892744614291 -0.274138681931
147964000 0.89254538135 -0.273994757
147968000 0.892669804339 -0.274101310809
147972000 0.892916767126 -0.273874674815
147976000 0.89289144992 -0.274025119239
147980000 0.892902774204 -0.273968088832
147984000 0.892769134703 -0.274219192449
147988000 0.892955804183 -0.273874438217
147992000 0.892932269961 -0.273962305845
147996000 0.892702377805 -0.274299253043
148000000 0.892960989263 -0.274278730671
