! Calibrated averaged scanner-service zoom
# Hz S RI R 50
769000000 0.727266656673 -0.364583058294
769006000 0.727777724334 -0.365278370439
769012000 0.72752126284 -0.364932882162
769018000 0.727882845485 -0.365069736556
769024000 0.728181461875 -0.364826497678
769030000 0.727528595948 -0.365179538722
769036000 0.727973014281 -0.36555031178
769042000 0.727773052779 -0.365230986966
769048000 0.727395454106 -0.365586714727
769054000 0.727527643223 -0.364963586353
769060000 0.727781114968 -0.364873295323
769066000 0.727800006654 -0.364245700289
769072000 0.727048465692 -0.364934751181
769078000 0.727523299907 -0.364331833086
769084000 0.727504926672 -0.364318069497
769090000 0.726683839992 -0.364064309441
769096000 0.726546600305 -0.363777230785
769102000 0.726753237559 -0.364315181576
769108000 0.727199003492 -0.36474913639
769114000 0.727734298718 -0.36462109595
769120000 0.728091817808 -0.364417451207
769126000 0.727310194097 -0.364917215257
769132000 0.727487508843 -0.365018315642
769138000 0.727707193402 -0.365311414745
769144000 0.728073755177 -0.366551554875
769150000 0.72601776812 -0.365920506213
769156000 0.727821827516 -0.366535085104
769162000 0.728325822373 -0.365955698145
769168000 0.727657470732 -0.365402467108
769174000 0.728036775718 -0.365913700602
769180000 0.728572837796 -0.364580329799
769186000 0.728274207755 -0.364789621006
769192000 0.728656192776 -0.364943976253
769198000 0.727831541145 -0.365064346466
769204000 0.728139778194 -0.365116034321
769210000 0.727385047366 -0.364923835022
769216000 0.727721538573 -0.364662511256
769222000 0.727782823609 -0.365086924575
769228000 0.728415980211 -0.365676640427
769234000 0.728302804508 -0.365259028754
769240000 0.728395015198 -0.365330639914
769246000 0.728355721279 -0.36562258697
769252000 0.727841621621 -0.365349436214
769258000 0.728275523376 -0.365776552471
769264000 0.728162430545 -0.365881079268
769270000 0.727644022428 -0.365214475267
769276000 0.727903872079 -0.365248051309
769282000 0.727913704913 -0.365668902187
769288000 0.727995830037 -0.365944128303
769294000 0.727678444547 -0.365504164653
769300000 0.727694106205 -0.365793761389
769306000 0.727778033404 -0.365454686287
769312000 0.727886986345 -0.365476131541
769318000 0.727866095107 -0.365711717236
769324000 0.728006476591 -0.365544125555
769330000 0.727351613507 -0.365423928072
769336000 0.727575098644 -0.365381514494
769342000 0.727126689523 -0.365024728826
769348000 0.72657190879 -0.364785395075
769354000 0.726658940522 -0.365033683352
769360000 0.726589720378 -0.364976738085
769366000 0.726927461792 -0.365489359547
769372000 0.726658837575 -0.365138463297
769378000 0.726917065908 -0.365250302464
769384000 0.72679635196 -0.365098206395
769390000 0.727376343491 -0.365075054414
769396000 0.727726869657 -0.364817285823
769402000 0.727871556228 -0.364526093481
769408000 0.728079565135 -0.363981432507
769414000 0.728244801166 -0.364218731292
769420000 0.728120922206 -0.364497643143
769426000 0.72837332111 -0.36492399614
769432000 0.728251965668 -0.365719462384
769438000 0.728737012593 -0.366012445908
769444000 0.728168944143 -0.3662606411
769450000 0.728069775849 -0.365988822756
769456000 0.727389690868 -0.365488558192
769462000 0.727284630588 -0.36641243321
769468000 0.726557659257 -0.365861233633
769474000 0.727116108457 -0.365806407286
769480000 0.728048517276 -0.36566621255
769486000 0.727641980378 -0.365703212358
769492000 0.728043268325 -0.365627929447
769498000 0.727675616433 -0.365203274715
769504000 0.727791619706 -0.365182916439
769510000 0.72804859307 -0.365155020072
769516000 0.727714231152 -0.36587672849
769522000 0.727673651048 -0.36620717785
769528000 0.727673983581 -0.366067224977
769534000 0.727421046361 -0.366230249425
769540000 0.727509353439 -0.365342231046
769546000 0.727976527512 -0.365148463993
769552000 0.72812657058 -0.365024700022
769558000 0.72799243558 -0.364796422029
769564000 0.727266035862 -0.365477368174
769570000 0.72788357943 -0.365807542367
769576000 0.727135797644 -0.365916398972
769582000 0.727660091961 -0.36615699242
769588000 0.727329476504 -0.366549066749
769594000 0.727214445907 -0.366517290868
769600000 0.727064775205 -0.366604255443
769606000 0.727557433288 -0.366976451212
769612000 0.727475252447 -0.367146852107
769618000 0.728020890725 -0.36717880013
769624000 0.727695912205 -0.366859146585
769630000 0.727834039027 -0.366850373339
769636000 0.727889775324 -0.366444374325
769642000 0.728034030487 -0.366282041078
769648000 0.727579465696 -0.366196326707
769654000 0.727358788676 -0.36672413981
769660000 0.727169975223 -0.366514397298
769666000 0.727341909393 -0.365926629288
769672000 0.727080771665 -0.366462225553
769678000 0.726713076283 -0.366208520459
769684000 0.726543396215 -0.366359219191
769690000 0.726991222524 -0.366345569215
769696000 0.726343497952 -0.366678001588
769702000 0.726536473212 -0.366358456619
769708000 0.726691855779 -0.366552319316
769714000 0.727226957482 -0.366885973625
769720000 0.72682949137 -0.366761227691
769726000 0.727072463082 -0.367173677454
769732000 0.727686481927 -0.367299641827
769738000 0.726944867015 -0.366576419325
769744000 0.72746642038 -0.366941057252
769750000 0.727338161543 -0.366216309109
769756000 0.727341614118 -0.366536886544
769762000 0.727101865465 -0.36675002783
769768000 0.727321146501 -0.366741060859
769774000 0.727275578275 -0.366341084592
769780000 0.727120974961 -0.36636629551
769786000 0.727251823792 -0.366697628539
769792000 0.727354235138 -0.366801174982
769798000 0.727180570463 -0.36668532547
769804000 0.727286323593 -0.367163276758
769810000 0.727400330255 -0.367333134576
769816000 0.727012518325 -0.36726783484
769822000 0.727007719753 -0.36694254346
769828000 0.727591477918 -0.366498833443
769834000 0.726964017929 -0.366713086594
769840000 0.726896120047 -0.36650394985
769846000 0.727373853581 -0.366274700638
769852000 0.727313734618 -0.366712547521
769858000 0.727628414234 -0.36721650423
769864000 0.727946866651 -0.367429157463
769870000 0.727783496857 -0.367448481337
769876000 0.728422948516 -0.367532732835
769882000 0.72776877585 -0.367725806883
769888000 0.727522023321 -0.367138912419
769894000 0.727559673464 -0.3672125247
769900000 0.727147001641 -0.367521970465
769906000 0.727248318926 -0.367318646928
769912000 0.727563328404 -0.367344589045
769918000 0.727392293826 -0.367304130317
769924000 0.727378486776 -0.367602734231
769930000 0.727283208867 -0.367231356973
769936000 0.727234698183 -0.366994586281
769942000 0.726581712303 -0.367888873295
769948000 0.726249123992 -0.367269203412
769954000 0.724914700288 -0.367886071354
769960000 0.725148979822 -0.367819965658
769966000 0.725888620673 -0.367392427807
769972000 0.726711749788 -0.367291262476
769978000 0.726965333986 -0.367691114613
769984000 0.727348168986 -0.367408880216
769990000 0.727699920408 -0.367125193561
769996000 0.727547279175 -0.367141056926
770002000 0.726751209132 -0.366707270707
770008000 0.72706637089 -0.36667543552
770014000 0.727100603208 -0.367096711276
770020000 0.726648808255 -0.366727947457
770026000 0.727302924929 -0.367041644956
770032000 0.727450522089 -0.366993838396
770038000 0.727615164851 -0.366848753735
770044000 0.727678359724 -0.366928039174
770050000 0.72781668613 -0.366938546039
770056000 0.727300223956 -0.367057062583
770062000 0.726879706605 -0.367345014741
770068000 0.72666471884 -0.367195958354
770074000 0.727065519645 -0.367007376707
770080000 0.726718940147 -0.367412210296
770086000 0.727191590708 -0.367379546016
770092000 0.727141385028 -0.367028109334
770098000 0.727460712066 -0.367961390267
770104000 0.727482663809 -0.367395838103
770110000 0.72730621441 -0.36717188497
770116000 0.72765405837 -0.36689887982
770122000 0.72756003268 -0.366622852777
770128000 0.726687666525 -0.366894417319
770134000 0.727569199962 -0.366639732008
770140000 0.727254125054 -0.366538740061
770146000 0.727089450398 -0.36690978884
770152000 0.727584431041 -0.36715311192
770158000 0.72748138422 -0.367710652912
770164000 0.727108976747 -0.367514750965
770170000 0.727019607447 -0.367269253336
770176000 0.726999571448 -0.367398504445
770182000 0.726632823241 -0.367269450454
770188000 0.7263194041 -0.367220635259
770194000 0.726456899087 -0.366970470097
770200000 0.726929476298 -0.367152275789
770206000 0.726446898343 -0.366982444355
770212000 0.726897349992 -0.367475860147
770218000 0.725807698189 -0.367679890444
770224000 0.726514594859 -0.367846097857
770230000 0.726200528196 -0.367725418142
770236000 0.726733437253 -0.367771248102
770242000 0.726168445275 -0.368389871981
770248000 0.726740440112 -0.368629638456
770254000 0.726323859423 -0.368351113243
770260000 0.726448216763 -0.368826579286
770266000 0.727236145464 -0.368577408497
770272000 0.727471385598 -0.368920604499
770278000 0.727169662848 -0.368632961596
770284000 0.727255290303 -0.368682122092
770290000 0.727199070437 -0.36857930694
770296000 0.727090281712 -0.368299217763
770302000 0.726708797519 -0.368743049194
770308000 0.727440995363 -0.36836202113
770314000 0.727181999818 -0.368287954365
770320000 0.726941182656 -0.368367600875
770326000 0.726864028991 -0.367733244789
770332000 0.726250301207 -0.367997719009
770338000 0.72639284026 -0.367930730165
770344000 0.726023207422 -0.367549833447
770350000 0.726260339955 -0.368086592795
770356000 0.726539548016 -0.368713462442
770362000 0.726425584437 -0.368715504595
770368000 0.726655590088 -0.36837255674
770374000 0.726331600376 -0.368068543801
770380000 0.726893323531 -0.367587114237
770386000 0.726439210568 -0.367026171742
770392000 0.726306736912 -0.367435315049
770398000 0.726531589515 -0.367075162602
770404000 0.72667935691 -0.36715515814
770410000 0.727300322762 -0.36755607861
770416000 0.727053421235 -0.367296051689
770422000 0.727017027642 -0.367775489519
770428000 0.727337705274 -0.367329652151
770434000 0.727122392016 -0.367591012563
770440000 0.727395343182 -0.367863012364
770446000 0.727315253238 -0.367702588978
770452000 0.727222212955 -0.368493506302
770458000 0.727369825825 -0.368186005798
770464000 0.727563605552 -0.368419760043
770470000 0.727266394355 -0.368493191085
770476000 0.727616522502 -0.368848906939
770482000 0.727908089029 -0.36857704936
770488000 0.727931527347 -0.368639553033
770494000 0.727695600434 -0.368180368553
770500000 0.728302250529 -0.368416011165
770506000 0.727500141371 -0.368630044181
770512000 0.727870136867 -0.368476391593
770518000 0.727419011645 -0.368543940153
770524000 0.727581160812 -0.368651387065
770530000 0.727605202546 -0.368521716576
770536000 0.727635592084 -0.36873970275
770542000 0.727681862077 -0.36857128227
770548000 0.728121479528 -0.368364201769
770554000 0.72760545785 -0.368672255493
770560000 0.72794049601 -0.36862681782
770566000 0.727665948449 -0.368200334188
770572000 0.727564997219 -0.36772926362
770578000 0.727226216087 -0.368675117831
770584000 0.726548368868 -0.368640758839
770590000 0.726130823424 -0.368501010167
770596000 0.726292938009 -0.368311878999
770602000 0.726377225351 -0.368033424586
770608000 0.726966167584 -0.367921998078
770614000 0.727099115849 -0.367992518906
770620000 0.727101093435 -0.368030657487
770626000 0.727739599147 -0.368009962626
770632000 0.727115061192 -0.36794275018
770638000 0.726951400802 -0.368160773557
770644000 0.727002168572 -0.368283734677
770650000 0.726956733025 -0.368465038102
770656000 0.726963593896 -0.368056510101
770662000 0.72630148771 -0.368446923556
770668000 0.727148606807 -0.368603648565
770674000 0.726853539891 -0.368395384131
770680000 0.726245938345 -0.368644540525
770686000 0.727042172864 -0.368680557892
770692000 0.727068759922 -0.369061010129
770698000 0.728472390094 -0.369179132083
770704000 0.728133229339 -0.367814029487
770710000 0.727219980118 -0.368409230987
770716000 0.726668419236 -0.368612090112
770722000 0.726964658405 -0.368940017126
770728000 0.727078052552 -0.369299107871
770734000 0.72687012733 -0.368989609459
770740000 0.726552821747 -0.369113529957
770746000 0.726610265326 -0.369104517052
770752000 0.726686694572 -0.369268272544
770758000 0.726439732456 -0.369648086862
770764000 0.72669474764 -0.369330175443
770770000 0.727276098873 -0.369466634088
770776000 0.727055150436 -0.36941447895
770782000 0.727481649889 -0.369123467576
770788000 0.727734970991 -0.369441150457
770794000 0.727276507725 -0.368886972635
770800000 0.7275739159 -0.369520096209
770806000 0.726902500085 -0.369117582028
770812000 0.726752853581 -0.369811198525
770818000 0.727245407535 -0.36935292961
770824000 0.726697622886 -0.368937514499
770830000 0.727433558314 -0.368661979655
770836000 0.726439023283 -0.369329709932
770842000 0.727081445604 -0.369223632687
770848000 0.726482467642 -0.36937152338
770854000 0.726662412648 -0.369146099676
770860000 0.726832606589 -0.369362718107
770866000 0.726446900303 -0.369225449135
770872000 0.726051066481 -0.368670832015
770878000 0.725821773642 -0.3688359041
770884000 0.726040391484 -0.368513031841
770890000 0.726317200987 -0.368789418604
770896000 0.725942247214 -0.368673015596
770902000 0.725893598375 -0.368817397761
770908000 0.726117429992 -0.369197550475
770914000 0.726445026579 -0.368841898105
770920000 0.726565052096 -0.368707571903
770926000 0.726700631122 -0.368879315391
770932000 0.727361150491 -0.369042126573
770938000 0.726553871575 -0.369009128763
770944000 0.726608902242 -0.36920997354
770950000 0.726595494936 -0.369264217447
770956000 0.726784630458 -0.369693939597
770962000 0.726593365856 -0.369733187208
770968000 0.726435631944 -0.36951923298
770974000 0.726613472614 -0.370159404463
770980000 0.726065677946 -0.369545750631
770986000 0.726209865846 -0.369939371895
770992000 0.726084656404 -0.369701773694
770998000 0.726295667134 -0.369416740056
771004000 0.72668378105 -0.369847542322
771010000 0.726736117948 -0.369644576712
771016000 0.726746215517 -0.369659936569
771022000 0.72671755631 -0.369242732265
771028000 0.727304478595 -0.369010843671
771034000 0.72706480752 -0.369281851097
771040000 0.726936267394 -0.369367663583
771046000 0.727271048775 -0.369493354299
771052000 0.727596141969 -0.369274447272
771058000 0.72760415889 -0.36880589327
771064000 0.727182567944 -0.369322853435
771070000 0.727572072425 -0.368968112541
771076000 0.72799897694 -0.368865945588
771082000 0.727760265572 -0.368964064139
771088000 0.727359252794 -0.369195865051
771094000 0.727114978525 -0.369742026291
771100000 0.726543732486 -0.369788002068
771106000 0.726383086541 -0.370373854894
771112000 0.72679068668 -0.370333318527
771118000 0.726695980452 -0.370065900121
771124000 0.726135928976 -0.370250675887
771130000 0.726607841405 -0.370247521353
771136000 0.726569256517 -0.370010076978
771142000 0.726891998222 -0.370069667935
771148000 0.726809590081 -0.369399182005
771154000 0.726681489562 -0.369503285175
771160000 0.726750701593 -0.369406663394
771166000 0.72655742298 -0.369674733205
771172000 0.726811904375 -0.369582797352
771178000 0.727059742838 -0.369719723029
771184000 0.726360082313 -0.369992168177
771190000 0.726796261332 -0.370281243216
771196000 0.726975798806 -0.370567920428
771202000 0.726954604294 -0.370327723895
771208000 0.726596356083 -0.370371812852
771214000 0.727045529691 -0.370407653127
771220000 0.726758786528 -0.370447444842
771226000 0.726409062109 -0.370413766138
771232000 0.726968165151 -0.370490024289
771238000 0.726438597832 -0.370287493715
771244000 0.726112040044 -0.369772221281
771250000 0.726207736141 -0.369138797601
771256000 0.726056648259 -0.369456874398
771262000 0.725711913821 -0.369728252159
771268000 0.726398140285 -0.369199212597
771274000 0.726304722451 -0.369349196348
771280000 0.726208536713 -0.369702560012
771286000 0.727029693867 -0.369864285995
771292000 0.726793397648 -0.36932723874
771298000 0.726713904299 -0.369439448199
771304000 0.726738250205 -0.369577377124
771310000 0.726634186844 -0.369067994836
771316000 0.726762572869 -0.36928670648
771322000 0.726669184841 -0.36942141415
771328000 0.726217270773 -0.36940217966
771334000 0.726273059742 -0.369892913189
771340000 0.726021510931 -0.369330221683
771346000 0.725860889118 -0.369423387549
771352000 0.726242227651 -0.369489812723
771358000 0.726095240549 -0.369937571457
771364000 0.726078417517 -0.370259985479
771370000 0.726246736831 -0.370018628162
771376000 0.726293195864 -0.370308636772
771382000 0.726771017743 -0.370256102321
771388000 0.726589639909 -0.370445829418
771394000 0.726745293241 -0.370336240065
771400000 0.726501573186 -0.370338085699
771406000 0.725964941914 -0.371290890821
771412000 0.72601183185 -0.371010776219
771418000 0.725906626363 -0.370894886285
771424000 0.725531921855 -0.371038189113
771430000 0.725656383705 -0.370963799917
771436000 0.725485386711 -0.371443428644
771442000 0.725914543764 -0.371292596243
771448000 0.726016279502 -0.370986520427
771454000 0.725907993566 -0.371128286043
771460000 0.725899318205 -0.371156246549
771466000 0.725795664382 -0.370709433618
771472000 0.725806260122 -0.370996231962
771478000 0.725876009962 -0.370905266778
771484000 0.725767733242 -0.37019091507
771490000 0.725910897672 -0.370376694213
771496000 0.725675222618 -0.370309619028
771502000 0.725808932195 -0.370572333559
771508000 0.72620491148 -0.370565323506
771514000 0.726364947231 -0.370757727418
771520000 0.726586920182 -0.370861150698
771526000 0.726386032223 -0.371277036094
771532000 0.726673717551 -0.371948423244
771538000 0.727154027295 -0.37158112124
771544000 0.72713488455 -0.37158569845
771550000 0.726658897713 -0.371382667557
771556000 0.726734497155 -0.370949715179
771562000 0.726356996648 -0.37058234518
771568000 0.726254045743 -0.37107797764
771574000 0.726560364466 -0.370792582262
771580000 0.725745550811 -0.370940220457
771586000 0.726102800356 -0.370977727612
771592000 0.726388319075 -0.371020415525
771598000 0.72611258678 -0.371068406083
771604000 0.72629147162 -0.371136157923
771610000 0.726883669936 -0.370805479488
771616000 0.726717224686 -0.370988598569
771622000 0.726806967564 -0.371127951841
771628000 0.726887578655 -0.371236753224
771634000 0.726556173937 -0.371970083164
771640000 0.726514341242 -0.371418821188
771646000 0.726496494637 -0.371946816724
771652000 0.726082094677 -0.372085654281
771658000 0.726563037286 -0.371973785266
771664000 0.726287977618 -0.372378208169
771670000 0.726429522007 -0.37186169292
771676000 0.726270730472 -0.371365476772
771682000 0.726368767167 -0.371305573426
771688000 0.725833721593 -0.371414365757
771694000 0.726008716871 -0.371050628502
771700000 0.726163773907 -0.371354338851
771706000 0.725399926716 -0.371296657978
771712000 0.72637447951 -0.371468117327
771718000 0.725584415908 -0.371260189507
771724000 0.725903045234 -0.371492764394
771730000 0.725877175259 -0.371550309745
771736000 0.725958185733 -0.371743284185
771742000 0.725396158514 -0.371328955348
771748000 0.726011757587 -0.371547972844
771754000 0.725623580324 -0.371304523065
771760000 0.726512175911 -0.371663117257
771766000 0.726269729292 -0.371183914194
771772000 0.72645093642 -0.37160755256
771778000 0.726595749126 -0.371905922413
771784000 0.726210659896 -0.371618901433
771790000 0.726037032045 -0.371553413527
771796000 0.72632197588 -0.37166714175
771802000 0.726189377714 -0.371979464638
771808000 0.725349879974 -0.371981374756
771814000 0.725874320613 -0.372150295438
771820000 0.725315395874 -0.372099567271
771826000 0.725171304146 -0.372579807697
771832000 0.726382057138 -0.373474030705
771838000 0.727828822469 -0.374460715527
771844000 0.729350905956 -0.375345347548
771850000 0.730577222252 -0.376523818582
771856000 0.731405793195 -0.377143044663
771862000 0.73051688312 -0.376166062821
771868000 0.729014893804 -0.374711973673
771874000 0.728181236021 -0.373765495004
771880000 0.727556743559 -0.372284463998
771886000 0.72664092434 -0.371888008539
771892000 0.726980599197 -0.3717403823
771898000 0.726367020889 -0.371886379119
771904000 0.726066614575 -0.371805466118
771910000 0.725798584255 -0.371750530694
771916000 0.725961727669 -0.371700149399
771922000 0.725691643381 -0.371779095565
771928000 0.725579669529 -0.371982618549
771934000 0.725373646493 -0.371797514059
771940000 0.72578562172 -0.371908816235
771946000 0.725373748269 -0.372358990678
771952000 0.725927879081 -0.372041503406
771958000 0.725531605248 -0.37217326377
771964000 0.724841667721 -0.372183247623
771970000 0.724423450345 -0.372229793236
771976000 0.725242269944 -0.372189361559
771982000 0.724519728856 -0.371957706032
771988000 0.72500706204 -0.371790929979
771994000 0.725342990984 -0.370994049558
772000000 0.725389339498 -0.371419978207
772006000 0.725573212717 -0.370901705529
772012000 0.725429982925 -0.370946272533
772018000 0.725319193511 -0.371427756872
772024000 0.725752578885 -0.371199244797
772030000 0.725774722093 -0.371226281302
772036000 0.725185752739 -0.371640538949
772042000 0.72575786563 -0.371406797042
772048000 0.725588639479 -0.371592117462
772054000 0.725761985901 -0.371922751919
772060000 0.725644283903 -0.371604927346
772066000 0.725348354907 -0.371530350104
772072000 0.725869237642 -0.371115936986
772078000 0.725658485771 -0.371942946601
772084000 0.725822463618 -0.371295372658
772090000 0.725588110121 -0.371419909195
772096000 0.72593854338 -0.371630921329
772102000 0.725978225528 -0.371289470284
772108000 0.725760646599 -0.370774164664
772114000 0.726478880043 -0.371261017624
772120000 0.726208226346 -0.37111670466
772126000 0.726511675972 -0.371352277265
772132000 0.726179603876 -0.372359588524
772138000 0.726421365825 -0.372129020257
772144000 0.726516663296 -0.372035943843
772150000 0.726580304224 -0.371646379878
772156000 0.726417507542 -0.371941719055
772162000 0.726532510906 -0.371649450705
772168000 0.726414415228 -0.372100212479
772174000 0.726586405674 -0.371929829902
772180000 0.726039676598 -0.371382046481
772186000 0.726943807138 -0.37147521397
772192000 0.72681174726 -0.371412692959
772198000 0.727211854707 -0.371135021672
772204000 0.727018384064 -0.371311223265
772210000 0.726819762106 -0.371182848049
772216000 0.726488978893 -0.372012864473
772222000 0.726854875469 -0.371811660037
772228000 0.726100279586 -0.372132158041
772234000 0.726242108555 -0.372505914605
772240000 0.726282193272 -0.372181626416
772246000 0.725969906078 -0.372215148339
772252000 0.725272128626 -0.372584575488
772258000 0.725271962336 -0.371785480143
772264000 0.725797577324 -0.372426559507
772270000 0.726021003382 -0.372544365469
772276000 0.725677559463 -0.372811664257
772282000 0.725478078131 -0.373077758657
772288000 0.726057375056 -0.373026397754
772294000 0.726286437913 -0.372974211357
772300000 0.725884359276 -0.371957058038
772306000 0.726458903197 -0.372310368027
772312000 0.727237845057 -0.371652698216
772318000 0.727479578374 -0.37171134541
772324000 0.726680320167 -0.371598311046
772330000 0.726793655853 -0.371298732633
772336000 0.726942802374 -0.371637515122
772342000 0.726537498747 -0.371462817201
772348000 0.726714590986 -0.371541276092
772354000 0.726143228011 -0.371172565164
772360000 0.726046752432 -0.371643941162
772366000 0.726161996882 -0.371832002683
772372000 0.725751306738 -0.371627526567
772378000 0.725938689357 -0.371564982421
772384000 0.72555232997 -0.372048723291
772390000 0.726118829126 -0.372182354357
772396000 0.725749602851 -0.372250592839
772402000 0.726050378277 -0.372729478582
772408000 0.725838085527 -0.372290099951
772414000 0.726179217883 -0.372112053086
772420000 0.725944047976 -0.372458873373
772426000 0.725961660008 -0.371881476839
772432000 0.72562062575 -0.372080646602
772438000 0.725951728118 -0.372332017758
772444000 0.726698529125 -0.372589476957
772450000 0.726416174818 -0.372789979468
772456000 0.72606417019 -0.373389413981
772462000 0.726774129552 -0.373411571466
772468000 0.727089468845 -0.373178344797
772474000 0.726975570559 -0.372961223645
772480000 0.726436744301 -0.372320544192
772486000 0.726845490892 -0.372027689559
772492000 0.726748941271 -0.372070540899
772498000 0.727074262445 -0.37237107043
772504000 0.726901095339 -0.3719701967
772510000 0.726469478486 -0.371979477891
772516000 0.726772711907 -0.372302648886
772522000 0.726563970412 -0.37274850772
772528000 0.727362554777 -0.372394558728
772534000 0.7271215651 -0.37222132043
772540000 0.726955352476 -0.372033731321
772546000 0.727234782892 -0.371982357442
772552000 0.726962177318 -0.37177580301
772558000 0.726312589138 -0.371896806444
772564000 0.726379105932 -0.372055505335
772570000 0.725661331888 -0.371834130632
772576000 0.725519287114 -0.372474231148
772582000 0.725600800124 -0.373035121341
772588000 0.725766235629 -0.37275154473
772594000 0.726458259842 -0.372673653862
772600000 0.725717412729 -0.373584205245
772606000 0.725452969173 -0.373401102768
772612000 0.725325004712 -0.373905644779
772618000 0.724473042195 -0.373595457817
772624000 0.725117563239 -0.372922747891
772630000 0.725416383553 -0.373844592132
772636000 0.725152154314 -0.373654795304
772642000 0.724792988962 -0.373204491743
772648000 0.725397366335 -0.372873403813
772654000 0.725757770703 -0.373173232742
772660000 0.725383393047 -0.372758193735
772666000 0.725394473122 -0.372102875367
772672000 0.725429359144 -0.372764270512
772678000 0.725534161421 -0.372222662629
772684000 0.725740937052 -0.371945837973
772690000 0.725391477305 -0.371956252003
772696000 0.725852685588 -0.372171498597
772702000 0.725528575218 -0.372175935284
772708000 0.725587175518 -0.372930662877
772714000 0.725294729983 -0.372181085637
772720000 0.725344171898 -0.373475753244
772726000 0.725137336619 -0.37274445719
772732000 0.72550048944 -0.37245439728
772738000 0.725695067124 -0.372586736709
772744000 0.726236291139 -0.372712465486
772750000 0.72571050865 -0.372760685595
772756000 0.726125369054 -0.372643092088
772762000 0.725582430116 -0.372400910304
772768000 0.724865017501 -0.372730911413
772774000 0.724566182353 -0.372809019318
772780000 0.724681742898 -0.372752340409
772786000 0.72537221627 -0.372964764387
772792000 0.724992012574 -0.372878749027
772798000 0.724982566447 -0.372711822701
772804000 0.725333014756 -0.372825519961
772810000 0.725092506699 -0.372475842058
772816000 0.725279155912 -0.372605329444
772822000 0.72533840132 -0.372455702441
772828000 0.726244748059 -0.372246574622
772834000 0.726204254411 -0.372498300297
772840000 0.726290523937 -0.372086611064
772846000 0.725821639538 -0.372513038823
772852000 0.725583197711 -0.372483745427
772858000 0.725357795619 -0.37240976933
772864000 0.725339421511 -0.373041506558
772870000 0.7257116821 -0.372884508834
772876000 0.725546889009 -0.372315528432
772882000 0.725277740832 -0.371836605562
772888000 0.725846956183 -0.37178129824
772894000 0.725178015119 -0.371692644984
772900000 0.725991020849 -0.372202371476
772906000 0.725701329016 -0.372450747535
772912000 0.725849312845 -0.372354933176
772918000 0.726319684322 -0.372747518523
772924000 0.725448545176 -0.372797514522
772930000 0.726017081441 -0.372607925434
772936000 0.726296226501 -0.37276640946
772942000 0.726274812437 -0.372903771194
772948000 0.726318381589 -0.372484739886
772954000 0.72616501763 -0.372626810793
772960000 0.725849841949 -0.372320455695
772966000 0.72590744159 -0.372255879985
772972000 0.72545850632 -0.372180529472
772978000 0.725422585422 -0.371560226551
772984000 0.72498439043 -0.371902025035
772990000 0.724960564445 -0.371685769051
772996000 0.724876502219 -0.3717024496
773002000 0.724547414508 -0.37220486037
773008000 0.725153224754 -0.372457371074
773014000 0.725276655149 -0.3716841038
773020000 0.725182226768 -0.371891474998
773026000 0.725513321199 -0.372227111031
773032000 0.72539639333 -0.372121041215
773038000 0.725200870879 -0.372132802446
773044000 0.725577290116 -0.372225934526
773050000 0.72526552071 -0.372591874543
773056000 0.725290269365 -0.372849367366
773062000 0.725083152333 -0.37274293132
773068000 0.725450871915 -0.372389846109
773074000 0.725689361412 -0.372677577015
773080000 0.725499212586 -0.372819895971
773086000 0.726004320133 -0.372499996883
773092000 0.72596110571 -0.372908832654
773098000 0.72633529258 -0.372664538585
773104000 0.726175087274 -0.372630899444
773110000 0.726029783221 -0.372588167912
773116000 0.725949426816 -0.372570233546
773122000 0.726247544757 -0.372040493328
773128000 0.726038879799 -0.372256231817
773134000 0.725763855185 -0.372490357813
773140000 0.725025855645 -0.372178267601
773146000 0.725275571487 -0.371996444496
773152000 0.725132367395 -0.37133135291
773158000 0.725404480458 -0.371623027632
773164000 0.72496642826 -0.371856034257
773170000 0.724613960232 -0.371433758827
773176000 0.724642702833 -0.371657724284
773182000 0.724831183973 -0.371490228242
773188000 0.72487745339 -0.371247379937
773194000 0.724859164928 -0.371704803313
773200000 0.725624831957 -0.371500022399
773206000 0.726943004712 -0.372293253209
773212000 0.727505803477 -0.37207100077
773218000 0.727505398462 -0.372023545227
773224000 0.727808463298 -0.37202024115
773230000 0.727819472412 -0.371879409524
773236000 0.728018698709 -0.371011582007
773242000 0.728056262486 -0.371750942039
773248000 0.728446858082 -0.371937264928
773254000 0.72858840691 -0.372335444296
773260000 0.728921950122 -0.372085002826
773266000 0.728525742239 -0.3726659107
773272000 0.7282076369 -0.372064574392
773278000 0.728278156018 -0.371494967891
773284000 0.72753791374 -0.371341978008
773290000 0.727218523111 -0.371100079411
773296000 0.727119930952 -0.371454250796
773302000 0.726901000749 -0.371710654963
773308000 0.727460125153 -0.372122860107
773314000 0.727540745534 -0.372492299622
773320000 0.727458067775 -0.373547347309
773326000 0.72798581806 -0.373324077809
773332000 0.727730253276 -0.373276940017
773338000 0.727909299784 -0.372278414686
773344000 0.728084860416 -0.37191258501
773350000 0.728283684861 -0.372171301471
773356000 0.728364187179 -0.372193776007
773362000 0.727790378381 -0.371993820647
773368000 0.727375179493 -0.372252467733
773374000 0.728066242506 -0.372681288796
773380000 0.727180584012 -0.372709577389
773386000 0.727421859415 -0.373031782111
773392000 0.727893250628 -0.372568235182
773398000 0.726973126705 -0.372927622996
773404000 0.727496276776 -0.372262231222
773410000 0.72709049813 -0.372620131086
773416000 0.727397353909 -0.372624950389
773422000 0.72753915423 -0.372407872142
773428000 0.727491286149 -0.37199864057
773434000 0.727479137063 -0.372241728736
773440000 0.727343688143 -0.372420571062
773446000 0.727521185862 -0.372738715438
773452000 0.727011804709 -0.373011800035
773458000 0.727686918559 -0.372515729432
773464000 0.727396251104 -0.373048552024
773470000 0.727594745508 -0.373093164025
773476000 0.727959911389 -0.373084532677
773482000 0.72694306 -0.372595711743
773488000 0.727350040483 -0.372794931491
773494000 0.727445592415 -0.371203774471
773500000 0.727831944614 -0.372636976211
773506000 0.727695114833 -0.3716623144
773512000 0.726322434235 -0.371102564062
773518000 0.726666853912 -0.371486282471
773524000 0.726866469428 -0.371342061574
773530000 0.726465858909 -0.371199602075
773536000 0.727054680813 -0.3715252492
773542000 0.726667184863 -0.371616505272
773548000 0.726956927539 -0.371737552715
773554000 0.727046412931 -0.372165720478
773560000 0.726925603591 -0.372227517253
773566000 0.727226698737 -0.371960821407
773572000 0.727062183889 -0.371799079375
773578000 0.726893773734 -0.37191091015
773584000 0.726745467165 -0.371823855676
773590000 0.726495284555 -0.371483444414
773596000 0.726849856042 -0.371819319346
773602000 0.727222948839 -0.371140404643
773608000 0.726826882244 -0.372004936877
773614000 0.727003545801 -0.371727320698
773620000 0.727023001803 -0.371991654993
773626000 0.727005966818 -0.372399715841
773632000 0.726782310332 -0.37265282126
773638000 0.726859571678 -0.372933544752
773644000 0.727125233413 -0.373074508392
773650000 0.72703407636 -0.373121731549
773656000 0.726971759564 -0.373351969744
773662000 0.726956830952 -0.37338319446
773668000 0.726925560104 -0.37345766264
773674000 0.727306944279 -0.373148939025
773680000 0.72693763635 -0.372997856263
773686000 0.726740329776 -0.372742753583
773692000 0.727027387214 -0.372452775775
773698000 0.727039479709 -0.372762019423
773704000 0.727137535249 -0.372663146023
773710000 0.726671098734 -0.37239253309
773716000 0.726482020084 -0.372459872653
773722000 0.726774281269 -0.37220463726
773728000 0.726731369747 -0.37210410441
773734000 0.726822722361 -0.372178590933
773740000 0.726971335777 -0.372194652741
773746000 0.726866918699 -0.372243291065
773752000 0.726852022039 -0.371928480098
773758000 0.727232445553 -0.37228300153
773764000 0.726836127747 -0.372312470243
773770000 0.727172455131 -0.372141719041
773776000 0.727066669121 -0.372759453578
773782000 0.727090619538 -0.372864188156
773788000 0.727038806661 -0.372231727106
773794000 0.727535051525 -0.373194859362
773800000 0.72703764227 -0.372787944849
773806000 0.726410657575 -0.372363301297
773812000 0.72686060263 -0.372360837748
773818000 0.726043585287 -0.372577109402
773824000 0.725984249574 -0.373010126082
773830000 0.725657881104 -0.373006358463
773836000 0.72559530475 -0.373310299573
773842000 0.725544185365 -0.373732241548
773848000 0.725850309066 -0.373507621738
773854000 0.726055702299 -0.373676185385
773860000 0.726321248074 -0.373587292609
773866000 0.725969349164 -0.373296517366
773872000 0.725673235105 -0.373285870253
773878000 0.725687775553 -0.373226564369
773884000 0.72553346265 -0.373247400181
773890000 0.725463026747 -0.372746058735
773896000 0.725500784674 -0.372947866227
773902000 0.725505044518 -0.372338331223
773908000 0.725878769438 -0.372436519378
773914000 0.725801741808 -0.372615913291
773920000 0.725815965215 -0.373027099084
773926000 0.726265819045 -0.373083406485
773932000 0.725968164915 -0.373030126288
773938000 0.726357596183 -0.372915991839
773944000 0.726120274353 -0.372716234995
773950000 0.726410704505 -0.372987601825
773956000 0.726875148988 -0.373006016001
773962000 0.726158312577 -0.3727734052
773968000 0.72655550641 -0.372400258973
773974000 0.727007640486 -0.372758400761
773980000 0.726270712252 -0.37299371317
773986000 0.726052944824 -0.373246250414
773992000 0.72617961997 -0.373388176289
773998000 0.72616379816 -0.373000206729
774004000 0.725769650228 -0.373696847948
774010000 0.725941535022 -0.373623370562
774016000 0.726318234623 -0.373274663655
774022000 0.725712805507 -0.373428360016
774028000 0.726173520728 -0.373381828386
774034000 0.725879250361 -0.372941912948
774040000 0.725793284177 -0.373367802838
774046000 0.726278313857 -0.373443030714
774052000 0.725899142667 -0.374038600041
774058000 0.725986384179 -0.373455858696
774064000 0.72567259474 -0.373975044605
774070000 0.725439754704 -0.374367585813
774076000 0.726030968007 -0.374086575466
774082000 0.726098203681 -0.374251505195
774088000 0.726494657993 -0.373736257338
774094000 0.726150126851 -0.373902297587
774100000 0.726323186863 -0.373691827025
774106000 0.726563722866 -0.373318785554
774112000 0.725835599793 -0.373162527807
774118000 0.725704281115 -0.372841180636
774124000 0.725727723962 -0.373656632701
774130000 0.725486189798 -0.3727368741
774136000 0.725852670608 -0.372995111382
774142000 0.72670311066 -0.373190390578
774148000 0.726318889446 -0.37307869411
774154000 0.726768550279 -0.373351056368
774160000 0.726261795251 -0.373604279076
774166000 0.726184067945 -0.373452487968
774172000 0.72608560348 -0.373294378915
774178000 0.72581360261 -0.373928599387
774184000 0.725880129271 -0.373995621785
774190000 0.726183180517 -0.373849448649
774196000 0.726143878266 -0.373709789802
774202000 0.726356425875 -0.373709923658
774208000 0.72597462278 -0.373528616833
774214000 0.72646428142 -0.372990238862
774220000 0.726170942721 -0.373873496322
774226000 0.726310992253 -0.373612373506
774232000 0.726820904803 -0.373543576156
774238000 0.726378120659 -0.373840219759
774244000 0.726166892904 -0.373658770933
774250000 0.726309308296 -0.373732026569
774256000 0.726464201917 -0.373975888435
774262000 0.72637453837 -0.373538402431
774268000 0.726044492728 -0.373181604642
774274000 0.725965310588 -0.37367708817
774280000 0.725539556531 -0.373428918187
774286000 0.726074694324 -0.373054677949
774292000 0.725590018471 -0.373419386755
774298000 0.725734148102 -0.372913906896
774304000 0.725622032781 -0.373368794576
774310000 0.725443167889 -0.373376609076
774316000 0.72608756287 -0.372884162218
774322000 0.726085370233 -0.373698429807
774328000 0.725796724647 -0.373603484143
774334000 0.725867686171 -0.373724387061
774340000 0.726606554071 -0.373487678469
774346000 0.726600165618 -0.373053115424
774352000 0.726657877671 -0.373153841067
774358000 0.726618771302 -0.373494484012
774364000 0.727057889978 -0.373592289057
774370000 0.726728686595 -0.373753715994
774376000 0.726345540443 -0.373600859455
774382000 0.72686836191 -0.374380855586
774388000 0.72679344425 -0.374261287903
774394000 0.726524069607 -0.373965567408
774400000 0.726513884799 -0.374629326752
774406000 0.727293457555 -0.373645203941
774412000 0.726678284243 -0.37423229233
774418000 0.726765126046 -0.373760532102
774424000 0.726860139698 -0.373509137653
774430000 0.727084281786 -0.373397311202
774436000 0.726803551574 -0.372734881427
774442000 0.72693289163 -0.372901957461
774448000 0.726753215719 -0.372761993746
774454000 0.726642130824 -0.372624086077
774460000 0.726229020294 -0.373042533451
774466000 0.726475511084 -0.37312386048
774472000 0.726618198542 -0.372962421447
774478000 0.726746433419 -0.373267799602
774484000 0.72662524741 -0.373497712565
774490000 0.726158861273 -0.373099712924
774496000 0.726537343637 -0.373277564183
774502000 0.726724389001 -0.373489345256
774508000 0.726617323452 -0.373016610859
774514000 0.726576566686 -0.373823261139
774520000 0.726721552587 -0.373048562944
774526000 0.726748899376 -0.373760182394
774532000 0.726437873258 -0.373713450912
774538000 0.726881894572 -0.373286987809
774544000 0.726601106413 -0.372844497383
774550000 0.726178405425 -0.372371010906
774556000 0.725672168095 -0.372618798434
774562000 0.72563936059 -0.372903806836
774568000 0.725679112996 -0.372938699907
774574000 0.725585552834 -0.3732701368
774580000 0.725317681072 -0.373433286316
774586000 0.724938823235 -0.373344506256
774592000 0.724776276683 -0.373140845996
774598000 0.725261349681 -0.373203515948
774604000 0.725788783983 -0.373421347581
774610000 0.726090414697 -0.373161923097
774616000 0.726286392062 -0.373122198721
774622000 0.725947819557 -0.373036781764
774628000 0.726240837968 -0.373572238542
774634000 0.726444090807 -0.37302562954
774640000 0.726575742504 -0.372535731451
774646000 0.726839902309 -0.37284057947
774652000 0.726738100405 -0.372994810896
774658000 0.726273576198 -0.372962845539
774664000 0.726205870988 -0.373501284114
774670000 0.725830767657 -0.373547276524
774676000 0.725969706299 -0.373896352153
774682000 0.725595995976 -0.37334857746
774688000 0.725917446662 -0.373139814724
774694000 0.725263661021 -0.373867591714
774700000 0.725066347588 -0.373353240279
774706000 0.72546503355 -0.372998116655
774712000 0.724678744019 -0.373683011847
774718000 0.725785848691 -0.373692732943
774724000 0.725763916988 -0.373896540937
774730000 0.725415217853 -0.374020385371
774736000 0.725859148465 -0.373829825748
774742000 0.725366952203 -0.373673255517
774748000 0.725807475046 -0.373963996284
774754000 0.725854788412 -0.373774905367
774760000 0.725930489856 -0.37397081334
774766000 0.72567310089 -0.374269010555
774772000 0.725642785299 -0.37455913911
774778000 0.725977531076 -0.374291186203
774784000 0.725518673014 -0.374784350943
774790000 0.725507709221 -0.374645083821
774796000 0.72558935779 -0.374975675443
774802000 0.725254524518 -0.374760034059
774808000 0.725740187825 -0.374497922316
774814000 0.725450622743 -0.37502063471
774820000 0.725491059731 -0.374800489169
774826000 0.725831035461 -0.374367294752
774832000 0.726306742876 -0.374826542397
774838000 0.726286564538 -0.374511610365
774844000 0.726745870736 -0.374384677728
774850000 0.726997393452 -0.374181990395
774856000 0.726066632143 -0.37469407556
774862000 0.725575856849 -0.373897732636
774868000 0.725893245437 -0.374288982444
774874000 0.725692811182 -0.374177722323
774880000 0.725640004384 -0.374442730228
774886000 0.725087730827 -0.374299662445
774892000 0.725266495193 -0.37488501272
774898000 0.725408889475 -0.375185668797
774904000 0.72480075122 -0.375235230189
774910000 0.725256107091 -0.375167921834
774916000 0.725076009889 -0.374976705696
774922000 0.725442719684 -0.375005935082
774928000 0.724968773629 -0.374666047904
774934000 0.725071390163 -0.375159695437
774940000 0.725320300577 -0.375161423703
774946000 0.725399256303 -0.375170264087
774952000 0.725141967526 -0.375374504545
774958000 0.725718487633 -0.375763563896
774964000 0.725341870292 -0.375866653254
774970000 0.725216042401 -0.376582315848
774976000 0.724942800516 -0.377608430167
774982000 0.725162702197 -0.37715652161
774988000 0.724753139342 -0.377832295259
774994000 0.725030959607 -0.377809813711
775000000 0.725148500936 -0.376623698324
