! Calibrated averaged scanner-service zoom
# Hz S RI R 50
935000000 0.684491859407 -0.555055673006
935006000 0.684347490814 -0.552484988787
935012000 0.687544240434 -0.551083870977
935018000 0.686821285782 -0.552389401604
935024000 0.686393157217 -0.553038281003
935030000 0.684309351118 -0.552279084522
935036000 0.686909930617 -0.552808425997
935042000 0.687897480814 -0.550259713335
935048000 0.683801734847 -0.549650009931
935054000 0.686346728209 -0.55079763706
935060000 0.685892890914 -0.549259150783
935066000 0.680437765053 -0.555332086322
935072000 0.682249278505 -0.551719488784
935078000 0.68262823385 -0.552136345526
935084000 0.683376441058 -0.55083760549
935090000 0.679236873351 -0.558472894816
935096000 0.687074537012 -0.55752031358
935102000 0.684208941051 -0.55387346215
935108000 0.684086840376 -0.555122714183
935114000 0.685933503107 -0.555422632781
935120000 0.683449253784 -0.554483450164
935126000 0.683336735877 -0.55536004379
935132000 0.681995782284 -0.552881739288
935138000 0.687386044043 -0.551795830678
935144000 0.684310821377 -0.551058329879
935150000 0.685630538516 -0.55172057752
935156000 0.689249319646 -0.550667798184
935162000 0.685619410617 -0.550742817906
935168000 0.685082671217 -0.550591410854
935174000 0.686197427908 -0.551733049885
935180000 0.682123059311 -0.550747235291
935186000 0.682060074573 -0.552151248958
935192000 0.683215504529 -0.553760482554
935198000 0.681675325752 -0.553353342188
935204000 0.681311321099 -0.555608684058
935210000 0.682489417589 -0.556298120315
935216000 0.683861040699 -0.554412497728
935222000 0.685019466766 -0.554186911676
935228000 0.682679257047 -0.551603202617
935234000 0.685171494236 -0.549812410701
935240000 0.685262572355 -0.549924975312
935246000 0.684823365167 -0.550681667823
935252000 0.683681358259 -0.548865995515
935258000 0.685275246484 -0.550622812397
935264000 0.683413382723 -0.550921124217
935270000 0.684140398746 -0.55430614827
935276000 0.683389322851 -0.551201041671
935282000 0.681784059652 -0.551442500665
935288000 0.681300253507 -0.553424644922
935294000 0.681613797674 -0.554567030586
935300000 0.681514684703 -0.553763001942
935306000 0.680027399141 -0.554631970403
935312000 0.680176712304 -0.553931826465
935318000 0.683071957135 -0.554656153547
935324000 0.683223073421 -0.55458089781
935330000 0.681611014668 -0.555421326924
935336000 0.682428968082 -0.552622002829
935342000 0.684046110116 -0.555272820741
935348000 0.686882795556 -0.553587519654
935354000 0.686338770092 -0.555601695034
935360000 0.687797473323 -0.553264600399
935366000 0.685210686966 -0.555872105507
935372000 0.68567704349 -0.554220855383
935378000 0.689076050559 -0.552271407653
935384000 0.686076683282 -0.552303662375
935390000 0.687369552188 -0.552690843888
935396000 0.689045970626 -0.553364159154
935402000 0.691833796536 -0.551846767912
935408000 0.686783990215 -0.550585728859
935414000 0.687226387071 -0.550571579282
935420000 0.686625354191 -0.550147294749
935426000 0.68791605665 -0.550003302673
935432000 0.68602621137 -0.550411215192
935438000 0.686959505286 -0.550740985848
935444000 0.688846576072 -0.550332373306
935450000 0.68903382153 -0.550899529205
935456000 0.688809404338 -0.552521030727
935462000 0.687246408751 -0.553287913356
935468000 0.68742856171 -0.550237583917
935474000 0.686058592546 -0.552531184959
935480000 0.68530995535 -0.553158938531
935486000 0.683367159568 -0.552766255052
935492000 0.684582727096 -0.555179765083
935498000 0.680463370297 -0.557100356388
935504000 0.682394576679 -0.55428887727
935510000 0.685460684166 -0.553013980975
935516000 0.684886542337 -0.554779034223
935522000 0.686441993648 -0.554530807141
935528000 0.686144512455 -0.552688480336
935534000 0.686021805462 -0.551861870176
935540000 0.686206165976 -0.554138185294
935546000 0.684488995001 -0.553758421679
935552000 0.685695367604 -0.555485542636
935558000 0.685009898139 -0.554281174281
935564000 0.682976699424 -0.556917208715
935570000 0.683548526237 -0.556653162999
935576000 0.683652490729 -0.557324693839
935582000 0.685309197154 -0.555406999835
935588000 0.682842212958 -0.556425585218
935594000 0.683359816263 -0.555974484181
935600000 0.685680629358 -0.554329700027
935606000 0.684222097274 -0.548028144258
935612000 0.685942535804 -0.551072768762
935618000 0.685803338204 -0.547921570895
935624000 0.684784824689 -0.548507604043
935630000 0.686624252381 -0.552085925443
935636000 0.68331938151 -0.550661105239
935642000 0.68470746211 -0.552374153853
935648000 0.683179290551 -0.552861194352
935654000 0.684309160878 -0.553617577765
935660000 0.684705007638 -0.553395701526
935666000 0.680160857079 -0.549705279425
935672000 0.682414978011 -0.552603684564
935678000 0.682776860057 -0.553185883246
935684000 0.682043328221 -0.552865917666
935690000 0.681884151536 -0.553232030292
935696000 0.681234785774 -0.552430867899
935702000 0.683236198413 -0.555667511295
935708000 0.684478007695 -0.552414384599
935714000 0.684062574604 -0.551363959173
935720000 0.688426935928 -0.553074950369
935726000 0.685644586694 -0.548923700609
935732000 0.687387470952 -0.550156147861
935738000 0.689120148332 -0.550694539366
935744000 0.68544390401 -0.550784009027
935750000 0.687764910268 -0.552229188118
935756000 0.685027405516 -0.553651611971
935762000 0.685345047402 -0.553216043182
935768000 0.686923711343 -0.552227360324
935774000 0.682734058659 -0.550840491205
935780000 0.686963746217 -0.551615726307
935786000 0.687580656153 -0.54855558562
935792000 0.688206143993 -0.552376456014
935798000 0.689114403724 -0.551175441838
935804000 0.683485685333 -0.556493536093
935810000 0.687920367565 -0.556119047923
935816000 0.687166169869 -0.556853888645
935822000 0.68886116021 -0.557483497899
935828000 0.685327096006 -0.556540781525
935834000 0.68498427807 -0.556451419794
935840000 0.683130830942 -0.554510065639
935846000 0.682901120027 -0.556576480359
935852000 0.682534711179 -0.554437466876
935858000 0.686754021432 -0.556022601555
935864000 0.682538658624 -0.554354867888
935870000 0.687411196252 -0.554384404397
935876000 0.687194169792 -0.555115184839
935882000 0.686764179454 -0.556448852365
935888000 0.687326966411 -0.555592737677
935894000 0.687326443626 -0.554727154061
935900000 0.685396056136 -0.555734473553
935906000 0.686562184877 -0.557811459194
935912000 0.687417636158 -0.556475709302
935918000 0.685811088723 -0.556621418793
935924000 0.686011397699 -0.552367482307
935930000 0.685463009746 -0.554978296198
935936000 0.684745249028 -0.553470344689
935942000 0.686192343625 -0.552556340822
935948000 0.68448268584 -0.555357267829
935954000 0.682811387111 -0.551907940027
935960000 0.680692736742 -0.551291434773
935966000 0.682501559764 -0.553174534666
935972000 0.680549516595 -0.555892081726
935978000 0.682102673022 -0.555236542387
935984000 0.68229218086 -0.556150324839
935990000 0.679091146704 -0.55196124908
935996000 0.681784769922 -0.555357904297
936002000 0.682369563273 -0.556141868374
936008000 0.679849515797 -0.554340022845
936014000 0.679230541018 -0.552110531576
936020000 0.677476757576 -0.552645947787
936026000 0.678140054336 -0.553753512133
936032000 0.677926938228 -0.552339254991
936038000 0.678147017127 -0.550840603901
936044000 0.681901441606 -0.552822891418
936050000 0.681337593446 -0.550800007366
936056000 0.6820773027 -0.553955895008
936062000 0.67969689818 -0.552477864806
936068000 0.678420998788 -0.554319101361
936074000 0.680596391613 -0.553491644439
936080000 0.680984192172 -0.554149829247
936086000 0.680592048198 -0.552243932165
936092000 0.681027121785 -0.554752586731
936098000 0.681216569925 -0.554730999897
936104000 0.682224167456 -0.554153958104
936110000 0.68231342579 -0.553721405782
936116000 0.684320994024 -0.552289775646
936122000 0.683254508724 -0.552754974255
936128000 0.685156023504 -0.552958376674
936134000 0.684572796831 -0.552598437888
936140000 0.685535962512 -0.553691583641
936146000 0.685253433868 -0.55185756163
936152000 0.686496137729 -0.552352712455
936158000 0.685960460168 -0.552498598007
936164000 0.68351108957 -0.551742103863
936170000 0.68468835048 -0.549241819243
936176000 0.684296499132 -0.550680630776
936182000 0.681525131772 -0.551436330349
936188000 0.681239899682 -0.551231884833
936194000 0.681362200302 -0.551939153388
936200000 0.680829566849 -0.554213967488
936206000 0.682400884587 -0.556709561385
936212000 0.68053660706 -0.558203085942
936218000 0.683325797969 -0.559055602047
936224000 0.684511402032 -0.558009070166
936230000 0.682875602097 -0.558264303303
936236000 0.683984003623 -0.55664036646
936242000 0.685656298251 -0.557114096887
936248000 0.68567353548 -0.555034325686
936254000 0.685094621668 -0.555585695734
936260000 0.684689565547 -0.553743184544
936266000 0.683858066139 -0.55433970695
936272000 0.68199601908 -0.554976855959
936278000 0.681478507359 -0.555474646684
936284000 0.681449964912 -0.555117649429
936290000 0.682013623158 -0.553613317502
936296000 0.682255312274 -0.551657330169
936302000 0.681486359519 -0.551989983839
936308000 0.683978733436 -0.552228136989
936314000 0.684497396797 -0.552039113895
936320000 0.683777543962 -0.552666741431
936326000 0.684186240283 -0.550776643825
936332000 0.683193042608 -0.551122005556
936338000 0.684890435066 -0.553552046962
936344000 0.685848193793 -0.551464350328
936350000 0.685655796851 -0.554466242343
936356000 0.686109249791 -0.554873719002
936362000 0.68613130686 -0.554244721815
936368000 0.687797212256 -0.556464390359
936374000 0.687944807689 -0.558966930023
936380000 0.685642546774 -0.555598747746
936386000 0.686345849601 -0.557379133493
936392000 0.686095242291 -0.556519159424
936398000 0.686272372428 -0.55530479193
936404000 0.683133597312 -0.553739767608
936410000 0.685825609735 -0.553282421262
936416000 0.682805541007 -0.550466532189
936422000 0.682529785231 -0.551117721928
936428000 0.684718521697 -0.550505789921
936434000 0.680918624587 -0.556225432106
936440000 0.683530298436 -0.556657068253
936446000 0.683319437944 -0.553867988825
936452000 0.681609266781 -0.554954591627
936458000 0.68375652103 -0.553763865413
936464000 0.681655173139 -0.555710130097
936470000 0.681745106974 -0.55594002734
936476000 0.681650139352 -0.555545791232
936482000 0.682206813704 -0.555491704811
936488000 0.681184880157 -0.553803550471
936494000 0.687276244803 -0.553820185259
936500000 0.68616130815 -0.553978065179
936506000 0.69071205165 -0.552760158409
936512000 0.688541891423 -0.553586689689
936518000 0.687804979065 -0.555403935038
936524000 0.686317634523 -0.554102431003
936530000 0.687185868767 -0.555509880721
936536000 0.68571995878 -0.557138005476
936542000 0.68387431291 -0.555295770129
936548000 0.682301064632 -0.553856881156
936554000 0.682180188127 -0.556804001022
936560000 0.681888186241 -0.552692367
936566000 0.683016267537 -0.553612826704
936572000 0.682529249034 -0.554342393757
936578000 0.684490428094 -0.553801822052
936584000 0.686407067177 -0.555526839091
936590000 0.68427799427 -0.557078892867
936596000 0.684589897072 -0.554559966289
936602000 0.680738554323 -0.557175575792
936608000 0.6841357435 -0.554112025713
936614000 0.682982902163 -0.553679526399
936620000 0.682005101589 -0.552341949683
936626000 0.683708760603 -0.550888319394
936632000 0.685500448099 -0.551206411559
936638000 0.685373349794 -0.553458633872
936644000 0.683125054238 -0.551507485286
936650000 0.686647311322 -0.551561278975
936656000 0.682301578853 -0.550853469476
936662000 0.68499905286 -0.553237371655
936668000 0.685637110554 -0.548814942255
936674000 0.681987909789 -0.550046975884
936680000 0.682464358895 -0.547901214308
936686000 0.682049596017 -0.546310881831
936692000 0.68239503183 -0.550597299802
936698000 0.684083647155 -0.549209151965
936704000 0.685973834175 -0.550343871242
936710000 0.686226206241 -0.553862292818
936716000 0.685358454086 -0.551331042562
936722000 0.685493241681 -0.551192198972
936728000 0.685664614703 -0.551694180606
936734000 0.684190603849 -0.553167231971
936740000 0.685696361146 -0.552961207446
936746000 0.683270656484 -0.552792594706
936752000 0.685484044056 -0.55556834117
936758000 0.684829479546 -0.553165687726
936764000 0.681944319688 -0.552778420986
936770000 0.683582527272 -0.550548140472
936776000 0.681331353823 -0.551726857452
936782000 0.681396438583 -0.553009340998
936788000 0.680716289813 -0.552768643907
936794000 0.679785999303 -0.552648482413
936800000 0.681365034933 -0.552878829469
936806000 0.679723582538 -0.549561741032
936812000 0.681980985117 -0.549290175862
936818000 0.683066052113 -0.549146020088
936824000 0.682042455024 -0.549775166081
936830000 0.682717153599 -0.552071101337
936836000 0.683782179163 -0.552460207846
936842000 0.682880473966 -0.552681457995
936848000 0.682302568237 -0.552982603915
936854000 0.684367773458 -0.552968806587
936860000 0.681780111637 -0.553419103421
936866000 0.682244932506 -0.55101240486
936872000 0.681179409204 -0.551265865427
936878000 0.68426973429 -0.550839324533
936884000 0.682393865757 -0.550637306609
936890000 0.684876970181 -0.550032607615
936896000 0.68571002036 -0.552698651126
936902000 0.685678765701 -0.550777099123
936908000 0.687300898761 -0.551089119861
936914000 0.687108853632 -0.550818744809
936920000 0.685828320479 -0.552567444271
936926000 0.685930488072 -0.550097912388
936932000 0.683700234386 -0.548144464181
936938000 0.684186464858 -0.550432792701
936944000 0.685754816809 -0.550676642591
936950000 0.684638244058 -0.552050183341
936956000 0.684211935664 -0.551517009779
936962000 0.68506443232 -0.553357858581
936968000 0.685561964037 -0.552314142659
936974000 0.684296476252 -0.549863828169
936980000 0.684537843635 -0.548899692953
936986000 0.687654395724 -0.55313219419
936992000 0.687408262109 -0.551696295988
936998000 0.685839602075 -0.55200815453
937004000 0.685891375874 -0.551094840159
937010000 0.684095193025 -0.551215712993
937016000 0.687009504091 -0.552861207888
937022000 0.683523119978 -0.554106786278
937028000 0.685573148799 -0.552487514495
937034000 0.68505833283 -0.554776392353
937040000 0.685115116651 -0.551630902957
937046000 0.684688081154 -0.549190062616
937052000 0.68618911077 -0.553060406997
937058000 0.686032506298 -0.549634409715
937064000 0.685944154075 -0.551633419386
937070000 0.683808219566 -0.55227997826
937076000 0.682473160812 -0.550735714605
937082000 0.681963385164 -0.551326934602
937088000 0.682682884665 -0.553339304209
937094000 0.685183148361 -0.553490133734
937100000 0.684415054968 -0.55512119905
937106000 0.684085243573 -0.555066027554
937112000 0.68673752349 -0.556608708853
937118000 0.685977553706 -0.556793129299
937124000 0.684799778201 -0.55550562784
937130000 0.682478164404 -0.557956159631
937136000 0.681883902402 -0.556832672257
937142000 0.68223879466 -0.554305030665
937148000 0.68245354955 -0.554176919944
937154000 0.681178005979 -0.554160510276
937160000 0.681660100558 -0.554493422617
937166000 0.680196509045 -0.552251888334
937172000 0.681555165763 -0.553534290489
937178000 0.683177725133 -0.554441333752
937184000 0.681790867792 -0.554949792243
937190000 0.681885438691 -0.554034319489
937196000 0.683006999033 -0.555254844575
937202000 0.683016630196 -0.555949665758
937208000 0.682065313563 -0.553880681218
937214000 0.684076336707 -0.55373779649
937220000 0.684422640934 -0.54973415188
937226000 0.681367572881 -0.552287173844
937232000 0.683559383329 -0.553494869258
937238000 0.684837007717 -0.553331138326
937244000 0.68251928577 -0.553854758295
937250000 0.684439345666 -0.553005261969
937256000 0.686191832604 -0.552469931715
937262000 0.683720944162 -0.555919000976
937268000 0.68369977101 -0.554216213181
937274000 0.685956687971 -0.557173257016
937280000 0.687440804642 -0.558090010523
937286000 0.682399967837 -0.555257366049
937292000 0.685380262868 -0.551132659627
937298000 0.679177394231 -0.557358825962
937304000 0.68407484108 -0.555680417386
937310000 0.683203001875 -0.555467744181
937316000 0.680360752876 -0.555074148541
937322000 0.683796660227 -0.554506954418
937328000 0.685757279737 -0.554171420343
937334000 0.683244461968 -0.552129778146
937340000 0.682890689453 -0.554513690088
937346000 0.682826297907 -0.554349265804
937352000 0.681676326187 -0.554048103966
937358000 0.681305530298 -0.55125225974
937364000 0.680930934566 -0.552062919767
937370000 0.679986856974 -0.552493382591
937376000 0.678909063781 -0.554671792173
937382000 0.681748515817 -0.551414575443
937388000 0.681815679871 -0.552480379089
937394000 0.683523142415 -0.552350462946
937400000 0.682550990719 -0.55364197795
937406000 0.681263167689 -0.554374362968
937412000 0.683025343183 -0.555297083573
937418000 0.680761453684 -0.553797037615
937424000 0.682677608909 -0.556536723614
937430000 0.681551946038 -0.554679867035
937436000 0.682044716814 -0.552803007933
937442000 0.681683985707 -0.555167712876
937448000 0.683380533625 -0.553798600119
937454000 0.683143633495 -0.554477532215
937460000 0.681885265817 -0.556713309474
937466000 0.681839565429 -0.55579288929
937472000 0.679750472391 -0.555025218351
937478000 0.683125172972 -0.556367567714
937484000 0.682304761482 -0.55736544353
937490000 0.679991562231 -0.558999941893
937496000 0.681508126162 -0.556528638671
937502000 0.681249955171 -0.555055255609
937508000 0.681627318473 -0.555396107667
937514000 0.680823545425 -0.556770524187
937520000 0.682227775848 -0.556141094419
937526000 0.682129223799 -0.556737959632
937532000 0.682533888934 -0.557404118365
937538000 0.684318597272 -0.560080619498
937544000 0.683348699096 -0.558966326406
937550000 0.684217804484 -0.557100605811
937556000 0.682492576259 -0.556816658667
937562000 0.681451327571 -0.554866728585
937568000 0.683158507391 -0.55361270106
937574000 0.678703309697 -0.55236792641
937580000 0.681433870285 -0.553720075904
937586000 0.68200289785 -0.553936068789
937592000 0.681798720629 -0.555603332182
937598000 0.685329410284 -0.553729271012
937604000 0.682566050872 -0.552730991502
937610000 0.681876551192 -0.552132668959
937616000 0.681030810003 -0.552215455175
937622000 0.680038273445 -0.553226682551
937628000 0.679827366909 -0.548382110509
937634000 0.679960815813 -0.549760812003
937640000 0.680695870715 -0.551349330885
937646000 0.679648659565 -0.550125570168
937652000 0.68236364933 -0.553197081943
937658000 0.680880328516 -0.555826333549
937664000 0.683402948936 -0.556172187376
937670000 0.682127108004 -0.554728194814
937676000 0.684101995628 -0.555340828883
937682000 0.682406841629 -0.55570084311
937688000 0.681560171994 -0.556659682623
937694000 0.680979589604 -0.553134780843
937700000 0.678878114158 -0.554211564099
937706000 0.678159538464 -0.553671457701
937712000 0.67825305878 -0.554777998329
937718000 0.676012895165 -0.555355231709
937724000 0.678723587199 -0.554670227588
937730000 0.677296342409 -0.557394422591
937736000 0.678749506829 -0.557318133662
937742000 0.676573002688 -0.557655867753
937748000 0.677879357003 -0.555484891144
937754000 0.679244505694 -0.555345348621
937760000 0.68016800495 -0.554000456347
937766000 0.680206052633 -0.552537471823
937772000 0.683666754287 -0.551506435441
937778000 0.680847274019 -0.552725705937
937784000 0.680637901662 -0.554309626356
937790000 0.68265848472 -0.556318031339
937796000 0.681953832576 -0.554560698934
937802000 0.683434264362 -0.555421400812
937808000 0.680066646074 -0.553864320436
937814000 0.680899735399 -0.553897339698
937820000 0.680259687871 -0.55606104523
937826000 0.68245836833 -0.555403975891
937832000 0.682156071147 -0.551215404779
937838000 0.680579454468 -0.55401054237
937844000 0.679227753102 -0.55226392195
937850000 0.677788095976 -0.553260963717
937856000 0.681198265626 -0.551333086628
937862000 0.679218580386 -0.551819195865
937868000 0.680800932414 -0.555645480336
937874000 0.680554741174 -0.554248094486
937880000 0.680223255002 -0.55340486588
937886000 0.680992098626 -0.556144006806
937892000 0.680455736784 -0.555608126334
937898000 0.681109388262 -0.554258218173
937904000 0.680459625863 -0.554826804102
937910000 0.680775069614 -0.554689945239
937916000 0.678933780675 -0.554976936102
937922000 0.679881527237 -0.555420198939
937928000 0.682237131698 -0.555761976248
937934000 0.68507601269 -0.557522888904
937940000 0.683286733774 -0.557162158385
937946000 0.68551491025 -0.556425105365
937952000 0.685198342461 -0.555891267103
937958000 0.683185360883 -0.55601524604
937964000 0.682180095665 -0.552166488055
937970000 0.681546307314 -0.551756173652
937976000 0.68153939306 -0.553442772941
937982000 0.683919352068 -0.552662054756
937988000 0.682772837882 -0.554367717436
937994000 0.684457648374 -0.551065758864
938000000 0.686155768243 -0.550565861027
938006000 0.684461859916 -0.554627136307
938012000 0.687715778896 -0.556980592703
938018000 0.688292516724 -0.556019165515
938024000 0.687154270712 -0.560944822621
938030000 0.687692909757 -0.560114823592
938036000 0.687345793258 -0.559046827487
938042000 0.687664883374 -0.559146093557
938048000 0.684619637112 -0.55754707032
938054000 0.683953430897 -0.55431420378
938060000 0.683098028981 -0.555769873896
938066000 0.683123690989 -0.55354909154
938072000 0.685135908691 -0.554234559818
938078000 0.682847521408 -0.553303684958
938084000 0.682999317107 -0.550535067899
938090000 0.683865382148 -0.550956092486
938096000 0.683166018756 -0.55209446347
938102000 0.685000759591 -0.553733126114
938108000 0.684038931712 -0.551580243581
938114000 0.683342030264 -0.551738553586
938120000 0.682990236746 -0.551448464206
938126000 0.684744666264 -0.554849676643
938132000 0.681365097232 -0.5549328816
938138000 0.685672290382 -0.557017588096
938144000 0.685622773674 -0.558460432612
938150000 0.684621330188 -0.558150522863
938156000 0.680767248993 -0.556389856413
938162000 0.680031372001 -0.556012964108
938168000 0.679396232779 -0.555805013597
938174000 0.679398083125 -0.556622528471
938180000 0.679033534083 -0.553151882053
938186000 0.680816154828 -0.556215914455
938192000 0.680194333633 -0.555565048851
938198000 0.683031763202 -0.556635988348
938204000 0.683917164751 -0.556748075917
938210000 0.682593964837 -0.558498201337
938216000 0.682309127868 -0.557751150903
938222000 0.683192498569 -0.556007647412
938228000 0.685152494723 -0.557156758212
938234000 0.682635391596 -0.556277036562
938240000 0.682229563656 -0.558629318234
938246000 0.680710538399 -0.559180877835
938252000 0.681737108951 -0.5601541563
938258000 0.681589786668 -0.561380480358
938264000 0.679996861855 -0.559130021625
938270000 0.682278882042 -0.560618874662
938276000 0.679981925908 -0.559986649762
938282000 0.683324110926 -0.558781639741
938288000 0.682616628775 -0.556138551045
938294000 0.681060110022 -0.557236110902
938300000 0.680981973154 -0.557211892844
938306000 0.68120048603 -0.558039121749
938312000 0.681789365093 -0.556165791838
938318000 0.68150289174 -0.557994890311
938324000 0.681531945252 -0.553785370918
938330000 0.682220535703 -0.556431661882
938336000 0.681198088716 -0.555211676528
938342000 0.683578490304 -0.553860500616
938348000 0.680770768135 -0.555383878955
938354000 0.68164578325 -0.554956491823
938360000 0.681245542838 -0.555010950641
938366000 0.678534819558 -0.557015032538
938372000 0.679197500999 -0.558237597681
938378000 0.677859112417 -0.556482473595
938384000 0.67961997739 -0.555982770692
938390000 0.678291597014 -0.557482111106
938396000 0.681354138235 -0.556146578006
938402000 0.68142275498 -0.55553889411
938408000 0.678792090807 -0.553920114462
938414000 0.679493854719 -0.558735942137
938420000 0.680407893904 -0.558415951272
938426000 0.681693812384 -0.558951273642
938432000 0.683305221094 -0.559883620841
938438000 0.681395519012 -0.558197595382
938444000 0.682530730745 -0.559123164295
938450000 0.68194709237 -0.558450025042
938456000 0.681915564453 -0.55862657086
938462000 0.682374851249 -0.556786780768
938468000 0.680919873931 -0.558606593706
938474000 0.68316360008 -0.55541020479
938480000 0.682508589424 -0.557918512808
938486000 0.686162582145 -0.557365113597
938492000 0.683606640339 -0.555130919879
938498000 0.681471566104 -0.555582584105
938504000 0.681656232191 -0.553210476343
938510000 0.681470354226 -0.553332350401
938516000 0.680967362569 -0.554486393987
938522000 0.681479706993 -0.551309121799
938528000 0.678090477707 -0.553313591309
938534000 0.677198118591 -0.552966972238
938540000 0.678365203024 -0.550361941671
938546000 0.678112566881 -0.556019554104
938552000 0.677873190834 -0.552068669409
938558000 0.682229182651 -0.553373383584
938564000 0.68272532124 -0.553435994283
938570000 0.6839537208 -0.555393147983
938576000 0.68779160461 -0.554349091759
938582000 0.687179180996 -0.555795781513
938588000 0.686932722895 -0.555039215286
938594000 0.685676059487 -0.554039518361
938600000 0.685216985621 -0.554708408474
938606000 0.686211185876 -0.555747013908
938612000 0.687336618372 -0.556008645229
938618000 0.684847120675 -0.552897089744
938624000 0.68657813132 -0.555436101477
938630000 0.685347653099 -0.555431034948
938636000 0.68523555917 -0.552307685934
938642000 0.681410549338 -0.557005711543
938648000 0.68085036931 -0.556412298338
938654000 0.682103031998 -0.558569246992
938660000 0.679917063248 -0.562239348336
938666000 0.677620478783 -0.561790492704
938672000 0.6792159157 -0.559917248265
938678000 0.67708886943 -0.557635862421
938684000 0.67883805882 -0.560036334745
938690000 0.682665633303 -0.557320964128
938696000 0.680409105688 -0.555543549068
938702000 0.678151897873 -0.554195982147
938708000 0.679302426301 -0.558203261167
938714000 0.676626218796 -0.55374553186
938720000 0.676701714811 -0.554233518622
938726000 0.676872457924 -0.554129529202
938732000 0.679664044762 -0.555857373283
938738000 0.679014600746 -0.556957584667
938744000 0.681012793173 -0.558440750065
938750000 0.68146388676 -0.556984018201
938756000 0.682174737501 -0.557458114431
938762000 0.68461770507 -0.560667287637
938768000 0.684111812889 -0.557614592741
938774000 0.687416033264 -0.558922253935
938780000 0.686585841348 -0.557540360764
938786000 0.685536359591 -0.554604214607
938792000 0.684619546577 -0.556003434186
938798000 0.685440631656 -0.558123088544
938804000 0.6842192828 -0.555303319196
938810000 0.683695189763 -0.557075157969
938816000 0.682826880642 -0.55482817405
938822000 0.681907694045 -0.556050127058
938828000 0.682546453818 -0.555860745559
938834000 0.680232520821 -0.556751447899
938840000 0.682721957798 -0.556168661047
938846000 0.681087545725 -0.556734503398
938852000 0.684219446248 -0.560205497716
938858000 0.682895709586 -0.560651027786
938864000 0.685758784229 -0.559998236618
938870000 0.680315301199 -0.560922394629
938876000 0.681064930899 -0.559128843142
938882000 0.677427859794 -0.561889527259
938888000 0.67918822528 -0.558528438517
938894000 0.677124461394 -0.560866611022
938900000 0.678762626143 -0.557566491783
938906000 0.682203360795 -0.557625034209
938912000 0.68084006789 -0.559106203802
938918000 0.68021647694 -0.560330855746
938924000 0.682755208508 -0.559595187907
938930000 0.683960719545 -0.559423647379
938936000 0.682965755408 -0.557776924074
938942000 0.685756331684 -0.561376877252
938948000 0.681185195104 -0.555010107505
938954000 0.682840575175 -0.554749547518
938960000 0.682914241002 -0.556416854837
938966000 0.682253709292 -0.552354429508
938972000 0.685230507266 -0.556240631932
938978000 0.682186675327 -0.553769560749
938984000 0.684878223676 -0.553457726655
938990000 0.687683321529 -0.555459336949
938996000 0.682793954831 -0.552283663341
939002000 0.682824124213 -0.553379189346
939008000 0.68441265711 -0.553980733201
939014000 0.684048950039 -0.555448994183
939020000 0.683055273166 -0.552772016232
939026000 0.681460403165 -0.553198178981
939032000 0.679080429318 -0.552533314839
939038000 0.681002010323 -0.554545021739
939044000 0.682233852878 -0.555833228549
939050000 0.681421029009 -0.557322794279
939056000 0.683816849685 -0.557778975498
939062000 0.683513486793 -0.559210138983
939068000 0.683748319169 -0.560490528133
939074000 0.684311084142 -0.560448652365
939080000 0.683896102615 -0.558991424555
939086000 0.687963532281 -0.558807486654
939092000 0.68405301345 -0.559229704545
939098000 0.683876895064 -0.558079700019
939104000 0.683351882615 -0.558394131425
939110000 0.683383709551 -0.557585198363
939116000 0.682930647313 -0.557142612489
939122000 0.680415688075 -0.555874311306
939128000 0.681273289247 -0.556767128541
939134000 0.682518028684 -0.556246486931
939140000 0.681292744791 -0.557212099423
939146000 0.68659257081 -0.556761135558
939152000 0.685404564496 -0.556433979901
939158000 0.686249101185 -0.555188566136
939164000 0.68728028387 -0.557042764837
939170000 0.685929287941 -0.554966185332
939176000 0.685040887579 -0.554072697511
939182000 0.686182048069 -0.554307526849
939188000 0.687896892886 -0.555612571388
939194000 0.687506897523 -0.556298032918
939200000 0.68638913374 -0.559905562937
939206000 0.683290475234 -0.559176472259
939212000 0.683832483299 -0.556629651435
939218000 0.68287660489 -0.557222583118
939224000 0.680248608999 -0.556061527808
939230000 0.680569704812 -0.556549597424
939236000 0.682048034679 -0.556012500869
939242000 0.681270264712 -0.554827876684
939248000 0.677940157893 -0.554969893718
939254000 0.681405065424 -0.557768385885
939260000 0.679990217608 -0.555766203919
939266000 0.68184238616 -0.556165617708
939272000 0.683354402274 -0.555949010485
939278000 0.682498254053 -0.556325829909
939284000 0.680708117268 -0.552900030862
939290000 0.680467665559 -0.553673032004
939296000 0.679693204701 -0.552333501627
939302000 0.679699026833 -0.550340767408
939308000 0.677670813071 -0.550543878841
939314000 0.675619103337 -0.551178520577
939320000 0.678253690256 -0.555399588833
939326000 0.675287709649 -0.552777603271
939332000 0.674859196864 -0.552195648588
939338000 0.674877801482 -0.554094511502
939344000 0.675539325542 -0.557728282646
939350000 0.67653738538 -0.559070027568
939356000 0.676885532552 -0.560040764109
939362000 0.678390664928 -0.558270386046
939368000 0.67742772034 -0.558797725858
939374000 0.6782013604 -0.560584880732
939380000 0.681639299193 -0.55493635759
939386000 0.679428337596 -0.554165619782
939392000 0.680901816286 -0.55602878869
939398000 0.681775388517 -0.555497975431
939404000 0.680082097252 -0.552938834756
939410000 0.681507667154 -0.555231707141
939416000 0.679400085052 -0.557193924865
939422000 0.68105042694 -0.55549927983
939428000 0.680869902858 -0.555445794929
939434000 0.68054673501 -0.55397005196
939440000 0.679371409769 -0.556436087173
939446000 0.680064594449 -0.558544621678
939452000 0.679495003208 -0.555181144537
939458000 0.68066540226 -0.555901149433
939464000 0.6817867137 -0.558023548809
939470000 0.679854905648 -0.555956827518
939476000 0.682686263152 -0.557486399984
939482000 0.683413091047 -0.557551273941
939488000 0.683714056388 -0.559615000896
939494000 0.681525159485 -0.558639241096
939500000 0.680662031951 -0.55532439283
939506000 0.683210245922 -0.555813035371
939512000 0.680780811211 -0.555019501869
939518000 0.680327877863 -0.55311034572
939524000 0.682861837677 -0.552324750793
939530000 0.681052081159 -0.553368864398
939536000 0.680209986838 -0.555114191834
939542000 0.683769848243 -0.557799513305
939548000 0.680729883848 -0.558003491437
939554000 0.682746184172 -0.560562867366
939560000 0.681974788356 -0.558629086928
939566000 0.677388346172 -0.559107880445
939572000 0.67847708442 -0.55982496938
939578000 0.679167226786 -0.55853809583
939584000 0.676686061629 -0.557344397787
939590000 0.677620489259 -0.558756528255
939596000 0.677636240581 -0.563523455902
939602000 0.681482207025 -0.560589954285
939608000 0.678709972678 -0.562996307846
939614000 0.677370533892 -0.561765819778
939620000 0.679492701099 -0.560350187329
939626000 0.680010132475 -0.563422097113
939632000 0.680959805737 -0.559969283243
939638000 0.682342411643 -0.559871267495
939644000 0.681524764342 -0.560721739171
939650000 0.681057698023 -0.559463320586
939656000 0.682006317455 -0.559065655993
939662000 0.681981816053 -0.560891505445
939668000 0.68379491592 -0.560559791327
939674000 0.683627798335 -0.560455621785
939680000 0.684286346392 -0.559975833436
939686000 0.681364245398 -0.560007664954
939692000 0.683354661718 -0.559056891365
939698000 0.680570998832 -0.557303463731
939704000 0.682464103245 -0.557385455196
939710000 0.681340560142 -0.558621466147
939716000 0.681234423384 -0.559353393092
939722000 0.679647056385 -0.561123909172
939728000 0.677303851822 -0.561291513043
939734000 0.67987588813 -0.560657135974
939740000 0.676919739239 -0.559944840588
939746000 0.680896470097 -0.55799798218
939752000 0.679229821608 -0.555240248462
939758000 0.681633988563 -0.558415209295
939764000 0.680377979904 -0.557225596221
939770000 0.679879678392 -0.557341456939
939776000 0.680608308202 -0.559357876548
939782000 0.679961451319 -0.561199429582
939788000 0.681431002246 -0.560971863844
939794000 0.683728403892 -0.561908718378
939800000 0.682452356164 -0.562539661038
939806000 0.682523652798 -0.563998424708
939812000 0.679999492513 -0.564494205401
939818000 0.681531179325 -0.563156853556
939824000 0.678887072638 -0.559752043419
939830000 0.679917996168 -0.556095991945
939836000 0.678327335949 -0.556443584781
939842000 0.679895421907 -0.553415853523
939848000 0.678933239396 -0.55541669842
939854000 0.679790587749 -0.555791588247
939860000 0.678560371886 -0.55690088183
939866000 0.67959748672 -0.560747322724
939872000 0.681157341519 -0.560879831298
939878000 0.680806222959 -0.561200439609
939884000 0.682540206199 -0.561316836243
939890000 0.681135135257 -0.561717022243
939896000 0.68166140806 -0.559389307082
939902000 0.683037914543 -0.557320652329
939908000 0.6825126643 -0.559680290897
939914000 0.680354720122 -0.559772769956
939920000 0.679930564872 -0.559690336839
939926000 0.682755126374 -0.560668127587
939932000 0.681540314094 -0.561355710403
939938000 0.678750511361 -0.560359391399
939944000 0.6809526908 -0.562657260808
939950000 0.681059721632 -0.565478532095
939956000 0.681500352743 -0.562504856663
939962000 0.68009372009 -0.564236994014
939968000 0.679751428715 -0.562278671091
939974000 0.68168098894 -0.562309294643
939980000 0.681544764592 -0.562404526996
939986000 0.679192150222 -0.565471845815
939992000 0.680839420444 -0.559945047981
939998000 0.681107374922 -0.559692530763
940004000 0.678911967523 -0.561601385676
940010000 0.679729449503 -0.561241982845
940016000 0.681080828809 -0.563015677133
940022000 0.680344741683 -0.56108049358
940028000 0.682308654837 -0.563333644064
940034000 0.68583765751 -0.563243309401
940040000 0.684136260272 -0.560885774478
940046000 0.686245289305 -0.561637223548
940052000 0.680231825689 -0.559338325619
940058000 0.681260593527 -0.558040784863
940064000 0.681121601796 -0.557874925225
940070000 0.680742115119 -0.557756553323
940076000 0.679512727769 -0.556009791835
940082000 0.678568015503 -0.558503065937
940088000 0.67987809128 -0.55729566603
940094000 0.678530441083 -0.557978320075
940100000 0.676210777792 -0.557793630808
940106000 0.680665472999 -0.558116394172
940112000 0.677787587842 -0.55564036942
940118000 0.677681658229 -0.561847564634
940124000 0.679180898732 -0.558732174343
940130000 0.679602711059 -0.557769156441
940136000 0.678885467012 -0.559028538868
940142000 0.679671435757 -0.56096914239
940148000 0.6793684692 -0.559605232199
940154000 0.681055345304 -0.561159719213
940160000 0.684934395464 -0.561892009947
940166000 0.681733062351 -0.562019553066
940172000 0.684093850458 -0.562650359787
940178000 0.685170854409 -0.563033936848
940184000 0.686458461743 -0.560255955039
940190000 0.68742707556 -0.56141325633
940196000 0.682692779888 -0.562883407963
940202000 0.683239489603 -0.560788436985
940208000 0.682318182488 -0.561005295835
940214000 0.677742468134 -0.561214490876
940220000 0.679999287512 -0.558224867172
940226000 0.678703149614 -0.559923607216
940232000 0.677916763757 -0.55844708034
940238000 0.677414892395 -0.55875069335
940244000 0.677504771912 -0.558940579102
940250000 0.67772266414 -0.559149871161
940256000 0.677976762726 -0.558802028955
940262000 0.676122999243 -0.559283501525
940268000 0.678153857038 -0.559671291405
940274000 0.675160241842 -0.560008610695
940280000 0.677432110356 -0.559262146736
940286000 0.675906860422 -0.557001778877
940292000 0.676126163214 -0.558609290208
940298000 0.677163700522 -0.558992485677
940304000 0.674913875427 -0.555140301986
940310000 0.672205208942 -0.5608780463
940316000 0.681058361782 -0.556595788881
940322000 0.679978133086 -0.558242968074
940328000 0.665943567521 -0.56349326395
940334000 0.677275365672 -0.566693810776
940340000 0.676604118353 -0.560655410581
940346000 0.678861280832 -0.56164737194
940352000 0.677755347103 -0.56295469339
940358000 0.680813452893 -0.564536914967
940364000 0.680715174144 -0.565381685197
940370000 0.683160133108 -0.561685791997
940376000 0.683177999248 -0.562773420642
940382000 0.682844825662 -0.562860316902
940388000 0.679181418309 -0.558902271175
940394000 0.681672246974 -0.558002602169
940400000 0.680389421483 -0.558907846754
940406000 0.681682385881 -0.561079996374
940412000 0.683204399862 -0.557766844647
940418000 0.679845011662 -0.558621636235
940424000 0.685878380269 -0.557333828238
940430000 0.681962781192 -0.557022529099
940436000 0.680902229261 -0.557136872991
940442000 0.680597350961 -0.554074030306
940448000 0.681083749829 -0.554296187724
940454000 0.68193966572 -0.556663563816
940460000 0.681206558405 -0.556110625308
940466000 0.684096134989 -0.561048378724
940472000 0.684627669497 -0.562830770085
940478000 0.68241685288 -0.560755265132
940484000 0.683090755246 -0.562821028314
940490000 0.683283795758 -0.562101385775
940496000 0.684139725317 -0.563696179394
940502000 0.683673184125 -0.561635282284
940508000 0.68118039818 -0.560403256629
940514000 0.683430962298 -0.56168236234
940520000 0.68080209973 -0.557572520066
940526000 0.685794621901 -0.553931350046
940532000 0.678295753918 -0.556491044557
940538000 0.679167505098 -0.558263871462
940544000 0.677607438947 -0.559775072531
940550000 0.680922506998 -0.560015790503
940556000 0.681090936166 -0.56268701786
940562000 0.680778801523 -0.562444976314
940568000 0.682358934229 -0.564431172739
940574000 0.682296537698 -0.563104268485
940580000 0.679701733949 -0.565122397985
940586000 0.679713393378 -0.561636437038
940592000 0.681623510146 -0.562540685276
940598000 0.680683076205 -0.561943414268
940604000 0.680429968086 -0.560462618423
940610000 0.68039765419 -0.560479884244
940616000 0.681911509528 -0.561185372507
940622000 0.680835853467 -0.561419770073
940628000 0.680069192555 -0.558505715592
940634000 0.679504860067 -0.560661328599
940640000 0.678906867793 -0.557196413577
940646000 0.678736554166 -0.556994643629
940652000 0.680519101205 -0.559617986098
940658000 0.679403427264 -0.557746596251
940664000 0.675136641718 -0.555856884892
940670000 0.679756498505 -0.555916479087
940676000 0.680921656122 -0.556770598625
940682000 0.68366628565 -0.554908420053
940688000 0.683326432809 -0.557252926795
940694000 0.684481414329 -0.557197400059
940700000 0.686058042672 -0.558764231564
940706000 0.685481580599 -0.559540880478
940712000 0.685441078847 -0.560224997107
940718000 0.68515726642 -0.561020608231
940724000 0.683121175969 -0.560796298697
940730000 0.683754723187 -0.563132417207
940736000 0.682268850072 -0.565951608068
940742000 0.681954783295 -0.564636361418
940748000 0.682855655377 -0.563239400352
940754000 0.682620285581 -0.564498052143
940760000 0.68186081522 -0.56440257661
940766000 0.678189991676 -0.563829475762
940772000 0.679177380875 -0.562842882198
940778000 0.678666526905 -0.564828043262
940784000 0.677990087718 -0.563404484665
940790000 0.680005728358 -0.566478992857
940796000 0.679608528823 -0.56431496312
940802000 0.677246608054 -0.564871089321
940808000 0.681219589455 -0.56462534278
940814000 0.682393674143 -0.563942772292
940820000 0.680674454093 -0.564672925492
940826000 0.681059280943 -0.562859307947
940832000 0.680802123372 -0.561221523144
940838000 0.68003957322 -0.56676421001
940844000 0.680605543208 -0.562917988353
940850000 0.682196429231 -0.562375111221
940856000 0.681903024571 -0.561371735302
940862000 0.68112850538 -0.561711155205
940868000 0.678898657377 -0.56205165345
940874000 0.679690166813 -0.563845862131
940880000 0.680669668149 -0.560899657362
940886000 0.682183350042 -0.562476052195
940892000 0.680698317783 -0.564183148197
940898000 0.681170596383 -0.563132685876
940904000 0.6828140993 -0.562667297737
940910000 0.684621561611 -0.563183248742
940916000 0.683895815547 -0.563333356288
940922000 0.684087929528 -0.563188719249
940928000 0.683786344792 -0.562246238828
940934000 0.681410518779 -0.562511041873
940940000 0.682881051344 -0.563505387105
940946000 0.682684526552 -0.563852951794
940952000 0.683530574811 -0.565502826041
940958000 0.682413454349 -0.563071210412
940964000 0.679362593646 -0.564817624556
940970000 0.681902440269 -0.565206969815
940976000 0.682599098664 -0.56243336429
940982000 0.683384998084 -0.562917199987
940988000 0.684119869735 -0.563041879582
940994000 0.683607664888 -0.563061642087
941000000 0.683556233171 -0.560342671121
