! Calibrated averaged scanner-service zoom
# Hz S RI R 50
450000000 0.345754827285 0.0117109179871
450010000 0.3461001937 0.0120190935752
450020000 0.345974823795 0.0121168252036
450030000 0.346212142382 0.0121935422269
450040000 0.346226684711 0.0117909071596
450050000 0.346269547668 0.0122318778402
450060000 0.346468555453 0.0123163905807
450070000 0.346555030665 0.012471363096
450080000 0.346814181841 0.0124610778708
450090000 0.346969486474 0.0123839028469
450100000 0.347384094012 0.0128849366619
450110000 0.347240096135 0.0129962914855
450120000 0.347762294888 0.0128712200751
450130000 0.347590377951 0.0128843056331
450140000 0.347733066266 0.0129118495274
450150000 0.347986201861 0.0129906751704
450160000 0.347799616218 0.0126192783377
450170000 0.348345715799 0.0127201938404
450180000 0.348437362195 0.0128277769861
450190000 0.347938139149 0.0131209228967
450200000 0.348063243521 0.0127855904556
450210000 0.348187325367 0.0124843836659
450220000 0.348377146983 0.0123884098197
450230000 0.348671938535 0.01264055463
450240000 0.348722650905 0.0129212615786
450250000 0.348669076361 0.0129051665493
450260000 0.348830095562 0.0132713077169
450270000 0.348598283292 0.0129483730633
450280000 0.349096792591 0.0132236369465
450290000 0.349372022886 0.0130741728868
450300000 0.349325000007 0.0132595475096
450310000 0.349547962244 0.0134469957445
450320000 0.348754217054 0.0134316306301
450330000 0.347063672786 0.0133251922375
450340000 0.346027272785 0.0136358079127
450350000 0.34638690493 0.0134340412907
450360000 0.347745480068 0.0130819213409
450370000 0.348821722148 0.0132154094409
450380000 0.349485734234 0.0133475158808
450390000 0.349563728548 0.0136059135651
450400000 0.347946602378 0.0142620411354
450410000 0.349722118783 0.0137191370717
450420000 0.349624008107 0.013848484733
450430000 0.350239270782 0.0137428717439
450440000 0.350178946425 0.0138415591125
450450000 0.35018274579 0.0138156939289
450460000 0.350434764932 0.013851834897
450470000 0.350351642842 0.0141915696013
450480000 0.350324599711 0.0142566119159
450490000 0.350171247644 0.0143490318051
450500000 0.349990872237 0.0141373916967
450510000 0.350130042329 0.0139490794863
450520000 0.349986139991 0.0139793040361
450530000 0.350365611672 0.0139847804665
450540000 0.350461423818 0.0138272455267
450550000 0.350329799582 0.0141211104046
450560000 0.350625877178 0.0138736804909
450570000 0.350767724114 0.0143037982312
450580000 0.350741187341 0.0138566567522
450590000 0.350864464396 0.0144993614218
450600000 0.35016802238 0.0144439822573
450610000 0.350895643147 0.0144151950085
450620000 0.350397529212 0.0146246140109
450630000 0.350698269556 0.0143515683299
450640000 0.35053308378 0.0143534516944
450650000 0.350557876526 0.0142448480335
450660000 0.350398841099 0.014209140728
450670000 0.35042040702 0.014456323087
450680000 0.351104264189 0.0146742432112
450690000 0.351084226457 0.0144865177158
450700000 0.351307394518 0.0147479179661
450710000 0.350677251967 0.0147947396799
450720000 0.350784135105 0.0147295195227
450730000 0.350297068332 0.0147944501524
450740000 0.350719692268 0.0146271053994
450750000 0.350557161139 0.0150158962322
450760000 0.350902262604 0.0147776637116
450770000 0.351439978846 0.0145173315119
450780000 0.351650423938 0.0145538198659
450790000 0.351175758066 0.0145290750612
450800000 0.351016808147 0.0151108860647
450810000 0.351350542753 0.0153055997899
450820000 0.351281020831 0.0148875960005
450830000 0.351034341413 0.0149036257518
450840000 0.351213834352 0.0143263451992
450850000 0.351471112104 0.0140477979481
450860000 0.350313374127 0.0139825277361
450870000 0.351303315114 0.0140673174254
450880000 0.351306894831 0.0142830837901
450890000 0.351304851958 0.0146842483088
450900000 0.351031966921 0.0146864053847
450910000 0.351416216265 0.0148674107592
450920000 0.351077755371 0.0148230850339
450930000 0.351692517791 0.01514055654
450940000 0.35098371577 0.0152185810325
450950000 0.351663746315 0.0149982844482
450960000 0.351403027424 0.0150402243719
450970000 0.3515835662 0.0150795396096
450980000 0.351233715395 0.0154834146533
450990000 0.351523066913 0.0153176852589
451000000 0.351335670391 0.0153159284607
451010000 0.34982238682 0.0146831702144
451020000 0.349885831786 0.0146480248386
451030000 0.349651325646 0.0147807554015
451040000 0.35017792175 0.0147238544035
451050000 0.350245852371 0.0140993507699
451060000 0.350298585979 0.0145090539028
451070000 0.350593857759 0.0146977051412
451080000 0.350343376533 0.0144867220736
451090000 0.350205983713 0.0146995791117
451100000 0.350284827543 0.014813327262
451110000 0.350171205396 0.0149685113331
451120000 0.350605423395 0.0146840407291
451130000 0.350684916698 0.0148854194171
451140000 0.350987760941 0.0150049217423
451150000 0.351036633565 0.0151329782618
451160000 0.351042345368 0.0151907269512
451170000 0.351276500586 0.0153765581565
451180000 0.351192745604 0.0155881735008
451190000 0.351040807342 0.0156907312859
451200000 0.351211075092 0.0156193672844
451210000 0.351112077946 0.015442596603
451220000 0.351665437726 0.0153433109694
451230000 0.351909556719 0.0158201782273
451240000 0.351819923888 0.0161350672982
451250000 0.351869428278 0.0159133045739
451260000 0.352178458634 0.0160524359097
451270000 0.351852875118 0.016412828152
451280000 0.352397972952 0.0157735496057
451290000 0.352088211354 0.0161894136796
451300000 0.352057789485 0.016041352571
451310000 0.352158112992 0.0159596088769
451320000 0.352411315249 0.0162348716493
451330000 0.352446314168 0.0162592708731
451340000 0.352592452816 0.0164761749626
451350000 0.352744536029 0.0165452407435
451360000 0.352252966077 0.0167976639206
451370000 0.353171818804 0.0164962796054
451380000 0.353792078523 0.0182180427294
451390000 0.353181332392 0.0168234317534
451400000 0.353217832151 0.0164662658624
451410000 0.353326025906 0.0163242515797
451420000 0.353072464303 0.016862983471
451430000 0.352488773633 0.0172756185381
451440000 0.352431111327 0.0174077786011
451450000 0.352659658166 0.0177262775729
451460000 0.353117506169 0.0172980201163
451470000 0.353102222948 0.017209249179
451480000 0.352886168973 0.0173126097859
451490000 0.353418930796 0.0171938652281
451500000 0.353138798679 0.0165720021945
451510000 0.353105521029 0.0171002919327
451520000 0.353610778196 0.0172384502637
451530000 0.353541760032 0.0171454091493
451540000 0.353807220777 0.0174199590301
451550000 0.35364230632 0.0172189500681
451560000 0.353979787577 0.0173991908524
451570000 0.353634993321 0.0176764904117
451580000 0.353873880459 0.0178799612678
451590000 0.353756003619 0.0180645387009
451600000 0.354079064531 0.0177900762948
451610000 0.353882455909 0.0179432384405
451620000 0.353705929606 0.0175046180785
451630000 0.353954913244 0.0178440509594
451640000 0.354118181464 0.0177149997536
451650000 0.353893271974 0.0183793181024
451660000 0.35414830583 0.0180491183126
451670000 0.354180385145 0.0181928238426
451680000 0.354014157201 0.0186400643906
451690000 0.354749853354 0.0188522564289
451700000 0.354649423094 0.0183577220061
451710000 0.354619320342 0.018369817724
451720000 0.354606853257 0.0177040506541
451730000 0.354919505043 0.0178547712206
451740000 0.354462444848 0.0179573187039
451750000 0.354502909175 0.0180203971069
451760000 0.354317554099 0.017916274028
451770000 0.354801608954 0.0181485193874
451780000 0.354662880382 0.0179625628806
451790000 0.354891090067 0.0176946740789
451800000 0.355346641612 0.0185856755823
451810000 0.355053513046 0.0187543306742
451820000 0.354881182867 0.0185737334967
451830000 0.355003134537 0.0187024479464
451840000 0.355013958689 0.0183208502037
451850000 0.35522062865 0.0179695994587
451860000 0.355458101299 0.0186880013173
451870000 0.355322561975 0.0188571776662
451880000 0.355807324725 0.0187081816469
451890000 0.356222133506 0.0240021005874
451900000 0.356426595274 0.0185328867978
451910000 0.355668835733 0.0187167251163
451920000 0.355511111087 0.0184762865467
451930000 0.355295675146 0.0185760145163
451940000 0.355165808623 0.0185376651144
451950000 0.35539243421 0.018971772915
451960000 0.355639839345 0.0185210161757
451970000 0.355736737637 0.0189960049829
451980000 0.355631625409 0.0188067505548
451990000 0.355676253108 0.0195216995891
452000000 0.356060652323 0.0187728360508
452010000 0.354539441089 0.0120529030036
452020000 0.354702198044 0.0118445168199
452030000 0.354686637216 0.0117112896474
452040000 0.354603399249 0.0115907819469
452050000 0.354493955879 0.0119162514698
452060000 0.35455930712 0.012069567957
452070000 0.354476835723 0.0120744242676
452080000 0.354573714196 0.0119657292941
452090000 0.35471237224 0.0118961287895
452100000 0.354626348931 0.0119648575845
452110000 0.354855073171 0.0120356969093
452120000 0.35507079351 0.0122487380672
452130000 0.355465211909 0.0122031132284
452140000 0.355103179523 0.0124909719272
452150000 0.355575624379 0.0122600859258
452160000 0.354868561772 0.0122199234589
452170000 0.35577213225 0.0121426993175
452180000 0.355622746572 0.0122050090716
452190000 0.356046637712 0.0122803738472
452200000 0.355935908398 0.0122778513365
452210000 0.355541535015 0.0123370479004
452220000 0.355754704694 0.012092604494
452230000 0.355363655919 0.0121658262505
452240000 0.355179349677 0.012694719365
452250000 0.355410176318 0.0122942647126
452260000 0.355641023943 0.0120516260347
452270000 0.355987046629 0.0120168337028
452280000 0.356537967447 0.012859695854
452290000 0.355915733521 0.0118418393855
452300000 0.356477156423 0.0117739799326
452310000 0.356354347934 0.0116831194414
452320000 0.355714359245 0.0122322022079
452330000 0.355826525843 0.0121897200256
452340000 0.356478400769 0.0120657613314
452350000 0.356335571608 0.0126144390654
452360000 0.356801686224 0.0126349801471
452370000 0.356800882254 0.0124343197092
452380000 0.357353845766 0.0122004952726
452390000 0.35721826939 0.011568242278
452400000 0.356720429559 0.0123005109208
452410000 0.356903710831 0.0127541902078
452420000 0.356674851008 0.0128312951707
452430000 0.357199643152 0.0123191407883
452440000 0.356619460482 0.011698817394
452450000 0.356870577864 0.0124681711075
452460000 0.357143544156 0.012013004265
452470000 0.357241067441 0.0122561044826
452480000 0.357646859788 0.0123233977633
452490000 0.357691213103 0.0119317485746
452500000 0.357858478522 0.0119819381045
452510000 0.357694998747 0.012548492779
452520000 0.3572527885 0.0121509306219
452530000 0.357742150376 0.0123967129634
452540000 0.35760865878 0.0120740483645
452550000 0.357814100404 0.012058734048
452560000 0.358511902621 0.0120645323243
452570000 0.357630651188 0.0117658138027
452580000 0.358622394174 0.011916611145
452590000 0.358322592579 0.0120723458803
452600000 0.358085265484 0.0119040683332
452610000 0.358469535308 0.0124569838159
452620000 0.358232631628 0.0119363694002
452630000 0.358654664192 0.0123610270644
452640000 0.358338987795 0.012430590897
452650000 0.358315883541 0.0122180729415
452660000 0.358208525219 0.0120127457864
452670000 0.358634648414 0.0113587383676
452680000 0.358614806866 0.0122905207188
452690000 0.358646763334 0.0123064807294
452700000 0.359237331082 0.0118337665822
452710000 0.359024802999 0.0119604053896
452720000 0.358958169789 0.011732974622
452730000 0.359465618465 0.0111787159177
452740000 0.359319418235 0.0114993929367
452750000 0.359262010189 0.0117797771913
452760000 0.359041591785 0.0120319714751
452770000 0.359129668516 0.0119129705894
452780000 0.359370599436 0.0120025885628
452790000 0.359455253349 0.0122522902749
452800000 0.359456823 0.0118653995919
452810000 0.359329445735 0.0120246276029
452820000 0.359831097917 0.0119061353472
452830000 0.360183794174 0.0119613490098
452840000 0.360053064218 0.0120845812325
452850000 0.360256900479 0.011943335373
452860000 0.359640434948 0.0116527364136
452870000 0.359439361752 0.011846472033
452880000 0.359639471877 0.0116751915545
452890000 0.359810523205 0.0118607347995
452900000 0.360037714399 0.0124078493304
452910000 0.360171303901 0.0120839289122
452920000 0.360366787125 0.0119151032724
452930000 0.360208518778 0.0117806357181
452940000 0.359953400146 0.011913073893
452950000 0.360336078145 0.0121778434673
452960000 0.360096255763 0.0114940849662
452970000 0.360492444591 0.0116805349677
452980000 0.360676678073 0.0119395723602
452990000 0.360730907171 0.0118625304457
453000000 0.360796618376 0.0118656587094
453010000 0.361191363483 0.00943367309191
453020000 0.361404630534 0.00875246239588
453030000 0.361431801879 0.00942375032524
453040000 0.361350901405 0.00940046777807
453050000 0.362010903996 0.00945819327883
453060000 0.361958496744 0.00955659621982
453070000 0.361905183894 0.00987354017223
453080000 0.362097710742 0.0102423215911
453090000 0.361499463159 0.00979726869943
453100000 0.361465621096 0.0101021609637
453110000 0.361239352906 0.0101913005439
453120000 0.36136655062 0.0102415927549
453130000 0.361806626092 0.0105238031148
453140000 0.361683046585 0.0101288178748
453150000 0.362280331878 0.0104887617625
453160000 0.362507224931 0.0104231147537
453170000 0.362210044322 0.0104684013054
453180000 0.362769572734 0.0100687851861
453190000 0.362546362809 0.010335629389
453200000 0.362324234081 0.0106423277158
453210000 0.362847847665 0.01020829397
453220000 0.362822361693 0.0106125165168
453230000 0.362937836977 0.010427250753
453240000 0.363003986467 0.0101379338276
453250000 0.362814024541 0.0106677670347
453260000 0.362678683898 0.0103375305403
453270000 0.363061582014 0.010136504315
453280000 0.363189266993 0.0106198235452
453290000 0.362891639368 0.0105683438889
453300000 0.363301593127 0.0104706159774
453310000 0.363086975095 0.0112478838109
453320000 0.363398124208 0.0107801131346
453330000 0.363621622813 0.0111919769956
453340000 0.363957295556 0.0114152537279
453350000 0.36389029735 0.0127773179892
453360000 0.364522953129 0.0131070710097
453370000 0.364280371488 0.0128652597672
453380000 0.364166780471 0.0121828244195
453390000 0.364056606182 0.0112277329789
453400000 0.364016031758 0.0115466963762
453410000 0.363847762068 0.0112992359797
453420000 0.364580436328 0.0114396697811
453430000 0.364115415358 0.0118217590112
453440000 0.364542484845 0.0118194293375
453450000 0.364100784532 0.0113780558397
453460000 0.364362445656 0.0114499227777
453470000 0.364423637003 0.0118941196829
453480000 0.364483196698 0.0120818283971
453490000 0.36491277832 0.0119111855203
453500000 0.365237837476 0.0118911958226
453510000 0.365116443382 0.0120693173738
453520000 0.36526186003 0.0120768213758
453530000 0.365024894016 0.0124587296912
453540000 0.365026257097 0.0120035102105
453550000 0.365185962238 0.0123127630269
453560000 0.364748652164 0.0119089577414
453570000 0.365074452471 0.0122667820236
453580000 0.365276835982 0.0124230582999
453590000 0.365262786493 0.012455042792
453600000 0.365489173315 0.0125561488329
453610000 0.365683273195 0.0127910426271
453620000 0.36579812688 0.0123895369873
453630000 0.365685322897 0.0129565773015
453640000 0.365835269675 0.0130229827873
453650000 0.365938295527 0.0130320956847
453660000 0.365721543456 0.0128215098803
453670000 0.36570984921 0.0129576490318
453680000 0.365778103846 0.0133133094528
453690000 0.366003039103 0.0133280316974
453700000 0.366310253035 0.0130236491552
453710000 0.365809449759 0.0130672709784
453720000 0.366373873299 0.0134637250257
453730000 0.366375921487 0.0136698410842
453740000 0.366338346495 0.013771405045
453750000 0.366580816009 0.0137251868657
453760000 0.365968754689 0.013605048019
453770000 0.366035273344 0.0141220799983
453780000 0.36630989774 0.0139733711335
453790000 0.36649627969 0.0141181550406
453800000 0.366529642188 0.0143111974054
453810000 0.366739591661 0.0146516780456
453820000 0.366481936984 0.014655969733
453830000 0.367056602266 0.0147065782774
453840000 0.367169472881 0.0147182848197
453850000 0.366866433291 0.014686024633
453860000 0.366733304267 0.0149504811157
453870000 0.367421868437 0.0145647197894
453880000 0.367302429462 0.0151975582835
453890000 0.367364635482 0.0148844656419
453900000 0.367391462303 0.0149078505571
453910000 0.367596683612 0.0148589572178
453920000 0.367476540848 0.0154760985749
453930000 0.367670434443 0.0152341106283
453940000 0.36753663609 0.015350897981
453950000 0.367021436092 0.0157587437886
453960000 0.367647666986 0.0159406197301
453970000 0.367410996339 0.0160255013252
453980000 0.367172311485 0.0160171975773
453990000 0.367593431678 0.0161226907593
454000000 0.367596555435 0.0162956788436
454010000 0.368038525152 0.0227827627405
454020000 0.368231327534 0.0231860341574
454030000 0.368199631799 0.023396946863
454040000 0.368417933501 0.0232674791453
454050000 0.369152793757 0.0237575848321
454060000 0.36909586142 0.0237629221329
454070000 0.368959792323 0.0241161567498
454080000 0.368763335036 0.0239963087419
454090000 0.368879186203 0.0239317152406
454100000 0.368914275835 0.0243097924892
454110000 0.369049486243 0.0245104537843
454120000 0.369445137951 0.0243149275961
454130000 0.369406788458 0.024888546388
454140000 0.369536666941 0.024653998963
454150000 0.369556553697 0.0248947812173
454160000 0.36987678853 0.0246690475234
454170000 0.369808548053 0.0247231032737
454180000 0.370309772665 0.0247982305329
454190000 0.369898407783 0.0251137749461
454200000 0.370445572852 0.0247392179508
454210000 0.370678167225 0.0251477783303
454220000 0.370806189613 0.0249661554886
454230000 0.370852591867 0.0251371834153
454240000 0.371098528722 0.0252574155304
454250000 0.371484698906 0.0253743503601
454260000 0.371358966707 0.0253173052524
454270000 0.371505191872 0.0260985599314
454280000 0.371736026803 0.0254829714534
454290000 0.372165388976 0.0261018938955
454300000 0.372578600493 0.0255173734688
454310000 0.372924877849 0.0257651632587
454320000 0.372634345583 0.0256239475209
454330000 0.373074392968 0.0263242779993
454340000 0.37314537391 0.026502077531
454350000 0.372797937884 0.0264724148853
454360000 0.373009224084 0.0268039847011
454370000 0.37314110045 0.0266755725376
454380000 0.373198921254 0.0266941754827
454390000 0.373068033034 0.0271688084019
454400000 0.373098432876 0.0269889004326
454410000 0.373258978203 0.0271382790662
454420000 0.37368780548 0.0272073984731
454430000 0.374074364088 0.027635499869
454440000 0.374526522106 0.0273594489793
454450000 0.374635836073 0.0276476797566
454460000 0.375091270345 0.0278838936006
454470000 0.374926170533 0.0276863212172
454480000 0.37553633772 0.0281197151778
454490000 0.375231217808 0.0277029343944
454500000 0.375693865561 0.0279745843728
454510000 0.37500889192 0.0277066893733
454520000 0.375458209794 0.0277903782664
454530000 0.375367774145 0.0282037448963
454540000 0.37564845484 0.0281623489949
454550000 0.375417504109 0.0282651499772
454560000 0.376055711097 0.028244432654
454570000 0.37641534006 0.0287197430384
454580000 0.376430722832 0.028557728614
454590000 0.375907191089 0.0285742968523
454600000 0.376023501616 0.0284346394348
454610000 0.376190133801 0.0284653195768
454620000 0.376400969186 0.0288510230808
454630000 0.376741103284 0.0293141293046
454640000 0.37690190194 0.0291193770089
454650000 0.377079131391 0.0294693246348
454660000 0.377273613323 0.0290662574978
454670000 0.377155005496 0.02903269968
454680000 0.377374684465 0.0292983554235
454690000 0.377302909332 0.0288045326945
454700000 0.377686868257 0.0290952197615
454710000 0.377621514614 0.0288479437298
454720000 0.37828564512 0.0284647462225
454730000 0.378146589364 0.029340421505
454740000 0.378240376324 0.0294436749535
454750000 0.378456828186 0.0293277995337
454760000 0.378213678542 0.0292363550868
454770000 0.378697526235 0.0296052888318
454780000 0.37909900662 0.0297360637885
454790000 0.378901712394 0.0296562867972
454800000 0.378746056207 0.0296194849707
454810000 0.379112043707 0.0298415716997
454820000 0.379137840877 0.0295178565765
454830000 0.379125955736 0.0299628400414
454840000 0.379492633531 0.0297832122376
454850000 0.379576472056 0.030140060189
454860000 0.379949358001 0.0299903656672
454870000 0.379961313824 0.0297213947219
454880000 0.379946693128 0.0295447419379
454890000 0.380391515424 0.0298659400914
454900000 0.380394122665 0.0296978571276
454910000 0.380900319847 0.0298969169535
454920000 0.381175297936 0.0300485749267
454930000 0.38076889093 0.0302550824716
454940000 0.38122275865 0.0297191902657
454950000 0.379589908909 0.0295143737129
454960000 0.378499261626 0.0277200844705
454970000 0.365847172907 0.0336030848589
454980000 0.374961804453 0.0296866944385
454990000 0.368386739922 0.0214589886416
455000000 0.383249263052 0.0288958604972
455010000 0.379640975441 0.00940447798356
455020000 0.387345008347 0.0293897825196
455030000 0.384802401317 0.0297079923795
455040000 0.385954729844 0.0288912978655
455050000 0.385648975783 0.0295184650217
455060000 0.384897303226 0.029120729311
455070000 0.385667718689 0.0292525252698
455080000 0.3853852618 0.0291894370668
455090000 0.385692890321 0.0293917073721
455100000 0.385537859301 0.0292898017034
455110000 0.3858222103 0.0291953278688
455120000 0.386088067357 0.029460139933
455130000 0.386110839909 0.0292790474835
455140000 0.38629317664 0.0291009952245
455150000 0.386378215619 0.0298327963134
455160000 0.386254712709 0.029805927786
455170000 0.38677608908 0.0296219896228
455180000 0.38658182897 0.029410641845
455190000 0.386398612861 0.0290690739649
455200000 0.386908095516 0.028764941621
455210000 0.386712551702 0.0287869226175
455220000 0.386730649442 0.0287249618812
455230000 0.386471817673 0.0285824417701
455240000 0.386919627818 0.0285329093241
455250000 0.386947317887 0.0285217565403
455260000 0.38745234372 0.0291427443484
455270000 0.387056683886 0.0288371255798
455280000 0.387256790843 0.0287099158232
455290000 0.387098484363 0.0281991570431
455300000 0.387370027011 0.0285930711093
455310000 0.38813705947 0.0289022244792
455320000 0.387663016555 0.0287580105034
455330000 0.387346707637 0.0286708297056
455340000 0.387905375774 0.0283723438659
455350000 0.38791260119 0.0282063548892
455360000 0.388354830953 0.0283699444121
455370000 0.388012251039 0.0284297425443
455380000 0.38814293244 0.0281382752669
455390000 0.388373831211 0.0279576469279
455400000 0.388160957496 0.0284154628843
455410000 0.387862898304 0.0280834125849
455420000 0.388300170041 0.0281665200289
455430000 0.388021610653 0.0281037647323
455440000 0.388626413261 0.0280742867963
455450000 0.388979379877 0.0281971812267
455460000 0.389158890992 0.0285742216312
455470000 0.389130947305 0.0286563562517
455480000 0.389239073442 0.0289933242804
455490000 0.388819277955 0.0278260354044
455500000 0.388617080594 0.0276912405845
455510000 0.388998010503 0.0281563795676
455520000 0.389469253251 0.027085476459
455530000 0.389297306086 0.027716654146
455540000 0.389446025764 0.0279234061162
455550000 0.389942617701 0.027505552481
455560000 0.390017010534 0.0275165408572
455570000 0.389776313103 0.0274729069093
455580000 0.390257007049 0.0276146855662
455590000 0.390149719791 0.0269949482388
455600000 0.39036994848 0.0269320765261
455610000 0.390560415135 0.0269772795801
455620000 0.390496133397 0.0270481851723
455630000 0.390610995409 0.0267872566178
455640000 0.390705304003 0.026269644149
455650000 0.390058087645 0.0263486904166
455660000 0.390319539668 0.0265004885241
455670000 0.391242095814 0.0265458410146
455680000 0.391107657203 0.0265583578987
455690000 0.391239270882 0.0263535544306
455700000 0.391241844977 0.0261923463968
455710000 0.392069974558 0.0254644065183
455720000 0.391615146339 0.0257200984601
455730000 0.391452843532 0.0258378957296
455740000 0.39204224531 0.0256031602921
455750000 0.391959664473 0.0252284150675
455760000 0.391748290529 0.0253740832329
455770000 0.391323621062 0.0252322915661
455780000 0.391698926618 0.0250290245207
455790000 0.391805722433 0.0252976539556
455800000 0.392298967262 0.0252455383594
455810000 0.392450418544 0.0252182054296
455820000 0.392332122096 0.0248323701191
455830000 0.393000926608 0.0246827406589
455840000 0.393103157485 0.024913205526
455850000 0.392817962724 0.0247729994835
455860000 0.393467363032 0.0247768522791
455870000 0.393361395581 0.0246429064884
455880000 0.393279601736 0.0244084271316
455890000 0.393241589984 0.0230276819272
455900000 0.393645769637 0.0241466423777
455910000 0.393660994232 0.0241634229625
455920000 0.393868738035 0.0236984437043
455930000 0.393800067244 0.024216844002
455940000 0.393734162805 0.0239750774087
455950000 0.39399011522 0.0234902919266
455960000 0.393880092234 0.0237702941627
455970000 0.394409858367 0.0233159915552
455980000 0.394591898978 0.0235451398363
455990000 0.394455261354 0.0231944444561
456000000 0.394925467616 0.0233135114799
456010000 0.383042320539 0.0181643725126
456020000 0.382554434409 0.0185531492265
456030000 0.382932238334 0.0183334598047
456040000 0.382559583478 0.0180570647977
456050000 0.382642962154 0.0182321463109
456060000 0.382473076259 0.0186985322556
456070000 0.382619838225 0.0181795027084
456080000 0.382550312315 0.0186938012094
456090000 0.383459222501 0.0182401851168
456100000 0.383194524289 0.0185295286929
456110000 0.383091805618 0.0187242013481
456120000 0.383597486177 0.0185605767728
456130000 0.383542406699 0.0188438231156
456140000 0.383287280809 0.0189011877865
456150000 0.383176008726 0.0190108842153
456160000 0.383527501843 0.0189766769043
456170000 0.383628253866 0.0200321864205
456180000 0.383231944032 0.0190125100011
456190000 0.38357210358 0.0195909221695
456200000 0.384365224574 0.0189818121312
456210000 0.384585333892 0.0193505222198
456220000 0.385026882719 0.0193815124311
456230000 0.384557067173 0.019650070001
456240000 0.384526818967 0.0195314212377
456250000 0.38442622665 0.0196971551711
456260000 0.384541415659 0.0200954214007
456270000 0.384263863343 0.0197842545394
456280000 0.384480063151 0.0201812671755
456290000 0.384273083591 0.0203723503362
456300000 0.384563618708 0.0204841887398
456310000 0.38416975041 0.0203725074153
456320000 0.384140917073 0.0208397035303
456330000 0.384697748091 0.0207550980389
456340000 0.384129614919 0.0204657986564
456350000 0.38423676653 0.0206122021764
456360000 0.384681899754 0.0198934237827
456370000 0.385333297017 0.0201579808522
456380000 0.385533241392 0.0201433476787
456390000 0.384976695669 0.0198057407787
456400000 0.385518261883 0.0207703549614
456410000 0.384865571818 0.0208406026175
456420000 0.385579503775 0.0211131310144
456430000 0.385697636936 0.0210605580363
456440000 0.386207315139 0.0211379428685
456450000 0.386219325079 0.0217046194438
456460000 0.385850241882 0.021746473655
456470000 0.385984713164 0.0218175877879
456480000 0.386066486018 0.0212370912309
456490000 0.386688150714 0.0209332260902
456500000 0.386133763043 0.0210188686348
456510000 0.386510231059 0.0209195340835
456520000 0.386687644191 0.0212900656105
456530000 0.386775984218 0.0214273507408
456540000 0.386907484094 0.0218739393934
456550000 0.386956160116 0.0214399682609
456560000 0.387192799844 0.0217284398327
456570000 0.386981004599 0.0214125688341
456580000 0.387345669082 0.0218025483355
456590000 0.387333389587 0.0218259767679
456600000 0.387235995603 0.0219731084068
456610000 0.387618666297 0.0219679107761
456620000 0.388141823165 0.0219162238014
456630000 0.387885776564 0.0222206717021
456640000 0.387842845725 0.0223336850416
456650000 0.387915632017 0.0223627148605
456660000 0.387800602706 0.0225466659032
456670000 0.388045349824 0.0224166605038
456680000 0.387717490974 0.0224066844379
456690000 0.387811955311 0.0223653270998
456700000 0.387790987747 0.0223807862091
456710000 0.388074783209 0.0225550291708
456720000 0.388445181201 0.0225817139698
456730000 0.388721449957 0.0231653518432
456740000 0.388341703969 0.022807621405
456750000 0.388782019959 0.0229761795315
456760000 0.388697231339 0.0228681659852
456770000 0.388970715737 0.0235835248117
456780000 0.389485542101 0.0230557465896
456790000 0.389169086786 0.023004251853
456800000 0.389303690014 0.0229949347681
456810000 0.389180054348 0.0228890590476
456820000 0.388669138647 0.0229267430832
456830000 0.389148894558 0.0233149093344
456840000 0.388926555578 0.0231919932506
456850000 0.389728351202 0.023227848879
456860000 0.389663796686 0.0232235182622
456870000 0.390053092234 0.0234623361845
456880000 0.389806345867 0.0232297644169
456890000 0.390407493838 0.0237416708199
456900000 0.390151791816 0.0233167056969
456910000 0.390239522601 0.0232580423239
456920000 0.390156984439 0.0233503564033
456930000 0.390290262117 0.0234207314186
456940000 0.390541542622 0.0237698441555
456950000 0.390781792514 0.0240090949087
456960000 0.391378924737 0.023774208655
456970000 0.390806588503 0.0237936763
456980000 0.390862694568 0.0242313076474
456990000 0.391183857863 0.0238850728546
457000000 0.391235024804 0.0236437234875
457010000 0.392246264937 0.0176478893605
457020000 0.392338258655 0.01728075286
457030000 0.392508317376 0.0170637519774
457040000 0.392720958695 0.0172829585846
457050000 0.392862307939 0.0173696497399
457060000 0.393114839174 0.018059735686
457070000 0.393160776867 0.0178802714569
457080000 0.392865269399 0.0177541892299
457090000 0.392977247085 0.0178550091481
457100000 0.393202657548 0.0174373977923
457110000 0.393517480369 0.0181179083998
457120000 0.393597744743 0.0183381954823
457130000 0.393808040043 0.0188663883418
457140000 0.393756899653 0.0183406391593
457150000 0.393433586936 0.0189055688435
457160000 0.394121254323 0.0187829796042
457170000 0.394452887441 0.0191864813002
457180000 0.395045062578 0.0191998935564
457190000 0.394596181144 0.0191649583786
457200000 0.395209404782 0.0188481773724
457210000 0.395130917408 0.0188945839396
457220000 0.395226809462 0.0189360670297
457230000 0.39586978576 0.0195379422126
457240000 0.395588125314 0.0193519571706
457250000 0.396400337527 0.0187947136441
457260000 0.395938289583 0.0192941317686
457270000 0.396558115443 0.0188931755947
457280000 0.395839866592 0.0195115472958
457290000 0.396407340919 0.0196641697849
457300000 0.395927810198 0.0198757923229
457310000 0.396185956133 0.0198646448802
457320000 0.396831401528 0.0200430503426
457330000 0.396722276265 0.0199741870557
457340000 0.396778812375 0.0199332715087
457350000 0.397123906201 0.0197828228281
457360000 0.396780492779 0.020280301318
457370000 0.396894302837 0.0203606815595
457380000 0.396740605927 0.0209586238385
457390000 0.396651898636 0.0208983462518
457400000 0.397057410621 0.0207493725487
457410000 0.397324220091 0.0209077678791
457420000 0.397588488652 0.0211565398951
457430000 0.397870580213 0.0213103914331
457440000 0.397900272581 0.0216159713322
457450000 0.397955003227 0.0214987925305
457460000 0.397900704139 0.0216628475285
457470000 0.398672883792 0.022215492145
457480000 0.398778832236 0.0223195525723
457490000 0.399248560964 0.0223825687007
457500000 0.399276088343 0.0224405060801
457510000 0.399126359011 0.022647061768
457520000 0.399701450688 0.0229781915371
457530000 0.399718799571 0.0235115200195
457540000 0.399925440611 0.0231955260758
457550000 0.400033674186 0.023407382827
457560000 0.400204570597 0.0230254975181
457570000 0.400503140893 0.0224504226833
457580000 0.400171532518 0.0230910275236
457590000 0.400625662165 0.0230557828588
457600000 0.400723228137 0.0236400139818
457610000 0.401176802419 0.0242287568523
457620000 0.401527658767 0.0248259814745
457630000 0.401846771488 0.0243197577925
457640000 0.40126386722 0.0247523407589
457650000 0.402037739475 0.0243920952248
457660000 0.402136944718 0.0242662387053
457670000 0.402506176624 0.0244742570966
457680000 0.402692425532 0.0247436069228
457690000 0.402789170901 0.0248225023441
457700000 0.4029426646 0.0249521448723
457710000 0.403283809661 0.0250460043458
457720000 0.403349686675 0.0250768421789
457730000 0.403471534556 0.0254265168321
457740000 0.403302668059 0.0252349634846
457750000 0.403954288349 0.0250711871542
457760000 0.403720477681 0.0252373797853
457770000 0.404350030796 0.0255481933126
457780000 0.404433985817 0.0261685414726
457790000 0.404830298667 0.0261136650262
457800000 0.404905572687 0.0263267193138
457810000 0.405195139667 0.0266015481058
457820000 0.405133059216 0.0272302068244
457830000 0.405579626828 0.0267158078417
457840000 0.405431995433 0.0268682165127
457850000 0.406528140946 0.0265907200906
457860000 0.405984382312 0.0271125761454
457870000 0.40589816502 0.0273078976207
457880000 0.405936149971 0.0275798226187
457890000 0.406226370525 0.0278534671679
457900000 0.406308564571 0.0277762395177
457910000 0.406471707859 0.0277969793731
457920000 0.406697294811 0.0277649603093
457930000 0.406741242718 0.0275029581697
457940000 0.406994578964 0.0278388744897
457950000 0.407404138065 0.0277725528731
457960000 0.407382350484 0.0283308729869
457970000 0.407360491771 0.0280426542737
457980000 0.407707314762 0.0281240085973
457990000 0.40792312801 0.0280506435164
458000000 0.408228574713 0.0280005086086
458010000 0.409495872317 0.030624816004
458020000 0.409528895864 0.0310780365688
458030000 0.409468480406 0.0308253017022
458040000 0.409407801268 0.0309231340294
458050000 0.409318589758 0.0305736356303
458060000 0.408900322552 0.0311459345465
458070000 0.409214190477 0.0312366443853
458080000 0.408897358747 0.0312690690307
458090000 0.409112694244 0.0311119284629
458100000 0.409288810712 0.0313430478764
458110000 0.409691084809 0.0313305543719
458120000 0.409794125947 0.0314776441424
458130000 0.410338721312 0.0314898460207
458140000 0.410053532859 0.0313888973314
458150000 0.409898909667 0.03154939294
458160000 0.410121237443 0.0313174349584
458170000 0.410254727938 0.0315004994177
458180000 0.410022242972 0.0316134144902
458190000 0.410090627917 0.0313861842487
458200000 0.41025001349 0.0314764341229
458210000 0.410137013076 0.0313955915789
458220000 0.409883591542 0.0314565620004
458230000 0.409900449356 0.0315347597318
458240000 0.410346972561 0.0311208198065
458250000 0.410281248193 0.0315539468362
458260000 0.410283528083 0.0318024747205
458270000 0.410680432665 0.031848182478
458280000 0.410445153201 0.0317260164532
458290000 0.410668703128 0.031703957783
458300000 0.41081808825 0.032148999705
458310000 0.410679534736 0.0316834930681
458320000 0.411429234342 0.0312103287308
458330000 0.410869229961 0.0312762903251
458340000 0.411198218689 0.0313329927702
458350000 0.411590363371 0.0320949481211
458360000 0.410972911135 0.0315731812823
458370000 0.411161998556 0.0311366524498
458380000 0.41154487381 0.0317781295314
458390000 0.411723190589 0.0319715643757
458400000 0.411764243781 0.0323045795486
458410000 0.411872041649 0.0318975866552
458420000 0.411578104089 0.031595006012
458430000 0.41216435967 0.0316322712522
458440000 0.411975573931 0.0317694157912
458450000 0.412344567619 0.0317134138798
458460000 0.412727174178 0.0316457221342
458470000 0.412837140438 0.0322540962228
458480000 0.412994225691 0.0318057576766
458490000 0.413281972466 0.0319083896685
458500000 0.413861817 0.0314447096202
458510000 0.413691957921 0.0315808902816
458520000 0.413192934032 0.0315480250156
458530000 0.412956860311 0.0319826569039
458540000 0.41256369651 0.0318928330236
458550000 0.412818843163 0.0319931409594
458560000 0.412938942552 0.0318089643017
458570000 0.413145558577 0.0317167125669
458580000 0.413756798095 0.0317248169386
458590000 0.413882244087 0.0322323021232
458600000 0.414722206826 0.0319707603822
458610000 0.414220771596 0.0321018665873
458620000 0.413729928729 0.0321558404359
458630000 0.41380523684 0.0316130200216
458640000 0.413569408132 0.031569589156
458650000 0.413838554188 0.0313967255664
458660000 0.414222182714 0.0314876706305
458670000 0.413710440664 0.0314280577378
458680000 0.414595992982 0.0317360114707
458690000 0.414358207104 0.0317208575859
458700000 0.414767061424 0.0316746598598
458710000 0.41474144955 0.0314329059961
458720000 0.415144451312 0.0319822586451
458730000 0.415491252168 0.0318607864653
458740000 0.415358382258 0.0317640443607
458750000 0.415269895203 0.0317556159534
458760000 0.415423098664 0.0319554845665
458770000 0.415642982873 0.0317869133542
458780000 0.415264194353 0.031845546997
458790000 0.41565263237 0.0326251071689
458800000 0.415945060178 0.0318554529889
458810000 0.416503610408 0.0319919318476
458820000 0.417051866225 0.0316348613214
458830000 0.416866040721 0.0314228984502
458840000 0.416771210169 0.0320749670389
458850000 0.416160840182 0.0315611234566
458860000 0.416519563552 0.0316320125802
458870000 0.416238611288 0.0320269601915
458880000 0.416135459584 0.0317656042958
458890000 0.416352092936 0.0319694814141
458900000 0.416404169903 0.0321121473657
458910000 0.416502427106 0.0320127481612
458920000 0.416546776171 0.0321921525782
458930000 0.416394217893 0.0324872369224
458940000 0.417046878604 0.0322386883073
458950000 0.417271174566 0.0315971427612
458960000 0.417468845632 0.0316962318279
458970000 0.417601683511 0.0319877424041
458980000 0.417762929275 0.0321877965515
458990000 0.417892029944 0.0318683509719
459000000 0.417879725469 0.0312043585988
459010000 0.418490757344 0.0339732243777
459020000 0.418159232783 0.0338151516439
459030000 0.418462880227 0.0340333384724
459040000 0.418478558829 0.0345473766243
459050000 0.418894205438 0.0339790154659
459060000 0.418705317192 0.033722902855
459070000 0.419486875974 0.034255015932
459080000 0.419191924538 0.033937361364
459090000 0.418858304132 0.0340500947776
459100000 0.419294464382 0.0345961604768
459110000 0.41932988721 0.0344886949068
459120000 0.419077216436 0.0339782856305
459130000 0.419077708769 0.0336373308278
459140000 0.418871514629 0.0334427641293
459150000 0.419387068027 0.033913165025
459160000 0.419310794597 0.0336301038528
459170000 0.419756812605 0.0335976795647
459180000 0.420178026069 0.0337908088106
459190000 0.419983147966 0.0340768071728
459200000 0.419861565109 0.0335409180941
459210000 0.419836124061 0.0337106534112
459220000 0.42001958991 0.0338669532814
459230000 0.419883173686 0.0338200165461
459240000 0.420040621838 0.0340495216537
459250000 0.420137091859 0.0337670535781
459260000 0.41991135534 0.0329247245835
459270000 0.420704207252 0.03348177174
459280000 0.420621256818 0.0331280152865
459290000 0.42068702014 0.0332097985473
459300000 0.420896092966 0.0330210513566
459310000 0.421498996488 0.0331213333774
459320000 0.427651543412 0.0309828795616
459330000 0.421118300821 0.0327176861135
459340000 0.421112964225 0.0327363814199
459350000 0.42131354016 0.0329538157698
459360000 0.421239466239 0.0327931187543
459370000 0.421487395841 0.0330864786631
459380000 0.421601251649 0.032863351101
459390000 0.421209263948 0.0322653083611
459400000 0.421508788324 0.0326167577948
459410000 0.421608285455 0.032758637475
459420000 0.421669447168 0.0320954586325
459430000 0.42219879322 0.0321306579114
459440000 0.422064255204 0.0322671408712
459450000 0.421848295802 0.0320068736652
459460000 0.421679555115 0.0320147152206
459470000 0.422235620084 0.0313400450745
459480000 0.421878432054 0.03184096107
459490000 0.421979189623 0.0316446683926
459500000 0.422330857462 0.0318730669088
459510000 0.422338876298 0.0319284492253
459520000 0.422638055673 0.0315384101277
459530000 0.42215970253 0.0311240006374
459540000 0.422152745891 0.0314807845714
459550000 0.421850921053 0.0309910261719
459560000 0.422071569383 0.0308774546046
459570000 0.421937783653 0.0305381538181
459580000 0.422581362566 0.0307270640426
459590000 0.422356366264 0.0307916927892
459600000 0.422867028792 0.0307007082487
459610000 0.42247798492 0.0311102997367
459620000 0.422707804485 0.0305971640339
459630000 0.422796092212 0.0306951862992
459640000 0.42243203876 0.0303109349553
459650000 0.423133630448 0.0302869750476
459660000 0.422793244577 0.0301589620941
459670000 0.422488597005 0.0301699866561
459680000 0.422578278726 0.0304660738146
459690000 0.423019386355 0.0300834205714
459700000 0.423008747777 0.0299538500598
459710000 0.422878140187 0.029835984334
459720000 0.422995405273 0.029647271633
459730000 0.42369524851 0.029045918104
459740000 0.423517013787 0.0291877321225
459750000 0.423568163559 0.0288155272611
459760000 0.423080486711 0.0292220755402
459770000 0.422908293423 0.0285647674623
459780000 0.423538231381 0.0292131024832
459790000 0.424062896505 0.0294725204708
459800000 0.424984953047 0.0294410033542
459810000 0.424318109858 0.02951604999
459820000 0.424516961587 0.0291488167971
459830000 0.423703065272 0.0284520412449
459840000 0.423203938047 0.028394406994
459850000 0.423281688696 0.0287665187647
459860000 0.423459050908 0.0283413328402
459870000 0.423151323757 0.0281462402105
459880000 0.423519089739 0.0276055030767
459890000 0.422947841643 0.0276501522839
459900000 0.423452389484 0.027607481107
459910000 0.423530138529 0.0274953706109
459920000 0.423757340077 0.0274104977185
459930000 0.423599490516 0.0276435761819
459940000 0.423438140307 0.0275858049137
459950000 0.423261722849 0.0272911529903
459960000 0.423228054314 0.0268976302219
459970000 0.422979705993 0.0267077688946
459980000 0.423506775559 0.0262540916252
459990000 0.423294063905 0.0262488963287
460000000 0.423623491492 0.026533954477
460010000 0.410683374642 0.0280607813583
460020000 0.411056080271 0.0283363699996
460030000 0.411325422692 0.0281938219519
460040000 0.411266782873 0.0282010236445
460050000 0.411582359147 0.0280962035043
460060000 0.411732085187 0.0280501233764
460070000 0.411588676278 0.0285750849142
460080000 0.412050593316 0.0288553826162
460090000 0.411880195902 0.0291472379501
460100000 0.412235031372 0.0289066767656
460110000 0.412296805585 0.0293723244438
460120000 0.412584348821 0.0296270073878
460130000 0.412669208467 0.029688253301
460140000 0.412830396235 0.0296082002916
460150000 0.412989985751 0.0295309475867
460160000 0.412879099541 0.0305626109072
460170000 0.413220805887 0.0299842128045
460180000 0.413624952458 0.0299378866861
460190000 0.41327288321 0.0301918039687
460200000 0.414063572825 0.0304465516059
460210000 0.414038914018 0.0304124360423
460220000 0.413912908388 0.0304860099334
460230000 0.414339618728 0.0307065768847
460240000 0.414218633323 0.0306177219486
460250000 0.414254447677 0.0304076737091
460260000 0.414669413294 0.0311545304402
460270000 0.414897064561 0.0311487430563
460280000 0.415205657518 0.0307703811185
460290000 0.415426932516 0.0313631731769
460300000 0.415538634169 0.0313052133677
460310000 0.416074610618 0.0312213745007
460320000 0.415548809577 0.0317265114459
460330000 0.415882085455 0.0318919013245
460340000 0.416249425253 0.0317184191332
460350000 0.417045912271 0.0324882432143
460360000 0.417257797946 0.0321168017009
460370000 0.416979982011 0.0317934480365
460380000 0.417329552633 0.0323004514611
460390000 0.416213863758 0.0332872499673
460400000 0.413214557442 0.0323314369469
460410000 0.408005913988 0.039451100165
460420000 0.416235262199 0.0330855960596
460430000 0.417880459561 0.0325952605089
460440000 0.418972612609 0.0322562481318
460450000 0.419377454823 0.0324514104112
460460000 0.419303510024 0.0323302254109
460470000 0.419347482992 0.0328848921738
460480000 0.420177520725 0.0328056645069
460490000 0.420161181003 0.0327487398587
460500000 0.41999325409 0.0325680642096
460510000 0.420688364205 0.0322646450454
460520000 0.420940042892 0.0315824697353
460530000 0.421062020192 0.0325803662621
460540000 0.421212184754 0.0325873651927
460550000 0.421874652286 0.0326406117799
460560000 0.420027440205 0.0346714799346
460570000 0.421712308557 0.0350657850576
460580000 0.422404255644 0.0360647777964
460590000 0.422751675915 0.034696209822
460600000 0.423339647194 0.0340740625732
460610000 0.423555502148 0.033147320093
460620000 0.423623361262 0.0330705159775
460630000 0.423361866993 0.032841822963
460640000 0.425839649036 0.0326897822478
460650000 0.424178105058 0.0326403462329
460660000 0.424341808591 0.0330285293086
460670000 0.424391621317 0.0330976865632
460680000 0.424923834143 0.0327058488143
460690000 0.424592808688 0.0333318157816
460700000 0.425818330577 0.0331702365544
460710000 0.425775951865 0.0331228004021
460720000 0.426324416428 0.0329427181096
460730000 0.426361880799 0.0325428835062
460740000 0.426717767519 0.0328529414261
460750000 0.426786647095 0.0327050409064
460760000 0.427154823099 0.0327254890222
460770000 0.427295929234 0.0326704311863
460780000 0.42729714856 0.0330965175986
460790000 0.427710180188 0.0328216080894
460800000 0.428243823919 0.033103359952
460810000 0.428207584349 0.0325433899725
460820000 0.428449075959 0.0325617966505
460830000 0.428541183759 0.0320963519817
460840000 0.429093620334 0.0324499065267
460850000 0.428707100617 0.0326104921126
460860000 0.428951174437 0.032667632812
460870000 0.428482582782 0.0319255197547
460880000 0.428672905958 0.0315172612635
460890000 0.429199903874 0.0307702536734
460900000 0.429260985467 0.0310547971421
460910000 0.429831834206 0.0313181869418
460920000 0.430038524293 0.0317447962045
460930000 0.429914547211 0.0318503647092
460940000 0.429713705172 0.0318848719178
460950000 0.430306571552 0.0316192092702
460960000 0.430197066505 0.0317395882245
460970000 0.430952099044 0.0318991575703
460980000 0.431067122492 0.0318668781063
460990000 0.431429646616 0.0318810819096
461000000 0.431735912618 0.0318986106642
461010000 0.436505143876 0.0289517405142
461020000 0.436407306169 0.02903443078
461030000 0.436258285019 0.0291492129447
461040000 0.435721269498 0.028817649081
461050000 0.436073086417 0.0285544432118
461060000 0.436524619856 0.0288736024887
461070000 0.436582969752 0.02890748352
461080000 0.436561627448 0.0292687938142
461090000 0.436367965277 0.0292391426491
461100000 0.436497482682 0.0287690958009
461110000 0.436516815548 0.0286641634455
461120000 0.436959921922 0.0284204857907
461130000 0.436754806735 0.0289675159432
461140000 0.436682757123 0.0288476288095
461150000 0.437216323534 0.0289502615013
461160000 0.437138001715 0.0289315405627
461170000 0.437384703838 0.0284397287683
461180000 0.435986456379 0.0312692218826
461190000 0.437236330751 0.0284241633518
461200000 0.437520481518 0.0286263990444
461210000 0.437956155724 0.0288857744521
461220000 0.437930125697 0.0289420373161
461230000 0.437727708414 0.0292865269762
461240000 0.438425268076 0.0290040694162
461250000 0.438322268029 0.0289455905239
461260000 0.438044776782 0.0285234906897
461270000 0.438241030178 0.0283330270009
461280000 0.438104145985 0.0282987652646
461290000 0.438089836033 0.028540487547
461300000 0.43792770387 0.0285478055392
461310000 0.437939637637 0.0287886407863
461320000 0.43798560889 0.028529604345
461330000 0.438009396774 0.0287293022048
461340000 0.438160559785 0.0285814934615
461350000 0.438650589477 0.0289489517925
461360000 0.438508615443 0.0283046969477
461370000 0.438592818978 0.0284456537943
461380000 0.438686824388 0.0290596908219
461390000 0.438346361792 0.0286119820224
461400000 0.439003185876 0.0283434261419
461410000 0.438829987606 0.0283669231138
461420000 0.439441975937 0.0283018722159
461430000 0.439380029036 0.0282312340959
461440000 0.438870835645 0.028173203407
461450000 0.439520016561 0.0288279383851
461460000 0.439480588243 0.0289920723226
461470000 0.439730906075 0.0289083106197
461480000 0.439177704782 0.0287760835054
461490000 0.448703729872 0.0161395820022
461500000 0.440094407571 0.0288495697926
461510000 0.439939207478 0.0284977978889
461520000 0.43983734559 0.0292104915841
461530000 0.439810278348 0.0290036018741
461540000 0.440221683956 0.0286924441357
461550000 0.439869329641 0.0282166909273
461560000 0.439668000265 0.0284370201401
461570000 0.439698424919 0.0286735934451
461580000 0.440898367158 0.0292640883384
461590000 0.440339632546 0.029242885378
461600000 0.440604742323 0.0292337643607
461610000 0.440665441411 0.0290591479251
461620000 0.440370692357 0.0293447187074
461630000 0.440516725788 0.0291151468992
461640000 0.440666513348 0.0287484881066
461650000 0.441115607884 0.0288651803762
461660000 0.440966020419 0.0286769519712
461670000 0.441033301369 0.0281691610285
461680000 0.440549552645 0.0286408198408
461690000 0.440614010526 0.0283856877707
461700000 0.440510448064 0.0286881154864
461710000 0.440920011236 0.0285548922032
461720000 0.441033813388 0.028617370807
461730000 0.440875721542 0.0290299367105
461740000 0.442124024929 0.0286788147236
461750000 0.443091427444 0.0277560218483
461760000 0.445016746908 0.0257830102835
461770000 0.442497424457 0.0286901766702
461780000 0.442148197314 0.0287558143724
461790000 0.441290071876 0.0287795656321
461800000 0.442129981975 0.0286597272748
461810000 0.441979348539 0.0282826765773
461820000 0.442195532593 0.0278958682875
461830000 0.441389883261 0.028314551688
461840000 0.441550923129 0.0284618532354
461850000 0.44150315381 0.028365380046
461860000 0.441966678534 0.0288337593016
461870000 0.441839424703 0.0284989220588
461880000 0.441994230182 0.0284680698501
461890000 0.441977858684 0.0277744798946
461900000 0.442079454076 0.0283290919053
461910000 0.442331309356 0.0282541365346
461920000 0.441856055734 0.028125335511
461930000 0.441926028814 0.0279484367039
461940000 0.442207792183 0.0282597913799
461950000 0.441929895972 0.0283787764852
461960000 0.442031353344 0.0279216423365
461970000 0.442183977405 0.0284018392145
461980000 0.442729405738 0.0277915418152
461990000 0.443259539048 0.0282296187905
462000000 0.443034271111 0.0280543966816
462010000 0.43957983845 0.0261172857371
462020000 0.439782631706 0.0258512501216
462030000 0.439680929094 0.0263027158989
462040000 0.43963777666 0.0259102734451
462050000 0.439517141164 0.0258973089902
462060000 0.439734204191 0.0254759439631
462070000 0.440133003118 0.0254363153084
462080000 0.440748497205 0.025236485926
462090000 0.440359213867 0.0251690215086
462100000 0.439847197691 0.02588825121
462110000 0.440298929183 0.0254926579832
462120000 0.44040337023 0.0251409631845
462130000 0.440609753315 0.0259148109552
462140000 0.440643801449 0.0256247768424
462150000 0.44048779347 0.0253230932596
462160000 0.440354751352 0.0256167979246
462170000 0.44006284478 0.0249505428716
462180000 0.439828433137 0.0248689709715
462190000 0.44017601866 0.0245177588188
462200000 0.439753722575 0.0226235914391
462210000 0.438266261485 0.0203060076972
462220000 0.439799821803 0.0203051396342
462230000 0.437995008365 0.0193926808108
462240000 0.440392901952 0.0234638976957
462250000 0.440786102206 0.0236729380876
462260000 0.441215700002 0.0245475759962
462270000 0.439886797491 0.0243774965336
462280000 0.440164603405 0.0235444452797
462290000 0.442110598929 0.0233652805507
462300000 0.440789403773 0.0252700299018
462310000 0.440705611517 0.0237773789418
462320000 0.441324709384 0.0213057113074
462330000 0.43924118028 0.0218372421213
462340000 0.441201557591 0.0242328161975
462350000 0.4408335157 0.0249778029804
462360000 0.441884551035 0.0229279771607
462370000 0.441269777264 0.0232603692783
462380000 0.442715437812 0.0235486472358
462390000 0.439265148464 0.0268675308453
462400000 0.442070103207 0.0250422838591
462410000 0.442548619391 0.0234610374569
462420000 0.442070222055 0.0231456593764
462430000 0.441530260809 0.0268237531412
462440000 0.442576376026 0.0233446416271
462450000 0.441956469079 0.0238707484035
462460000 0.441340540871 0.0216245606023
462470000 0.441177570694 0.0242983349362
462480000 0.443413986792 0.0231449128922
462490000 0.441349529839 0.0241362732567
462500000 0.44363949116 0.0231141233699
462510000 0.44452829216 0.0230010153791
462520000 0.442521658898 0.0218093203069
462530000 0.441822506153 0.0260480879605
462540000 0.443363702664 0.0225624686038
462550000 0.440420736753 0.022243941817
462560000 0.44135529445 0.0228493066188
462570000 0.44160307035 0.0231155611435
462580000 0.442213285821 0.0211697670089
462590000 0.4421178965 0.0226874199131
462600000 0.439728456222 0.0228088723785
462610000 0.44166211538 0.021744344161
462620000 0.441111032634 0.0231509382803
462630000 0.442287702265 0.0219239766613
462640000 0.443620904947 0.0214674838196
462650000 0.44151683085 0.0226527444983
462660000 0.444814899494 0.022473699873
462670000 0.442290371959 0.0203306132447
462680000 0.442748045283 0.0219195564927
462690000 0.44272818544 0.0215432405694
462700000 0.444087419614 0.0217075263921
462710000 0.443401360999 0.0231781859118
462720000 0.440747047526 0.0218592067999
462730000 0.442993219085 0.0226016209584
462740000 0.442636822145 0.0226287329194
462750000 0.443035507365 0.0213476030924
462760000 0.442661988467 0.0225315537774
462770000 0.442612717536 0.0229933028557
462780000 0.442702714146 0.0207834899095
462790000 0.444901259299 0.0200711667844
462800000 0.442496859912 0.0218539734062
462810000 0.442486725232 0.0219026315339
462820000 0.443100622459 0.0224596938295
462830000 0.443559626828 0.0217532709563
462840000 0.443809292425 0.021344163514
462850000 0.443427470463 0.0218212616959
462860000 0.442308249817 0.0209848503769
462870000 0.443658791131 0.0220595440659
462880000 0.443524081579 0.0216453191703
462890000 0.442469168064 0.0225332890623
462900000 0.443151658822 0.020382125005
462910000 0.443718373812 0.0214100857692
462920000 0.443439101809 0.0216330054506
462930000 0.443778571454 0.0213717413081
462940000 0.44364539136 0.021187127489
462950000 0.443953586622 0.0208388722229
462960000 0.443738320179 0.0214602927551
462970000 0.44424188102 0.0207466178327
462980000 0.443649306839 0.0213292514144
462990000 0.443547503008 0.0210866513802
463000000 0.44346510486 0.0208260069084
463010000 0.440179467247 0.0149211933362
463020000 0.440088982926 0.0149888823609
463030000 0.440082647491 0.0148076230519
463040000 0.440330835407 0.014329214671
463050000 0.440386052687 0.0147058514918
463060000 0.44021523221 0.0145411446779
463070000 0.440200613506 0.013936036274
463080000 0.44041217848 0.0142068047782
463090000 0.44024329357 0.0145131672258
463100000 0.440984240777 0.0146552912899
463110000 0.439097598696 0.0150516954305
463120000 0.439221745318 0.0161563710387
463130000 0.440758380832 0.0139375691268
463140000 0.441051290356 0.0141489643289
463150000 0.44083018156 0.013721186108
463160000 0.440702213703 0.0143643045664
463170000 0.440557938272 0.0141268430617
463180000 0.440955330686 0.0144130271263
463190000 0.441176190668 0.0141947859568
463200000 0.441056485676 0.0141351858147
463210000 0.441098570948 0.0135274890685
463220000 0.440832090464 0.0129871160558
463230000 0.44129758825 0.0128041703491
463240000 0.441484036414 0.0127140856095
463250000 0.441952536857 0.0130452340348
463260000 0.442079765775 0.013267470698
463270000 0.441520031277 0.0127310239949
463280000 0.441715110292 0.0130381274319
463290000 0.441499371532 0.0131014475074
463300000 0.441320270164 0.0129381681027
463310000 0.441536916724 0.0129747153641
463320000 0.441620633526 0.0132306326901
463330000 0.441286828883 0.0127150259993
463340000 0.441853864111 0.0128209357047
463350000 0.441572365267 0.0128878645151
463360000 0.441563694084 0.0130095450046
463370000 0.441886122929 0.0124668190035
463380000 0.441869276558 0.0118017140133
463390000 0.441726953085 0.01161021538
463400000 0.441527339024 0.00964420972012
463410000 0.442069681892 0.0121672115728
463420000 0.441753512484 0.012001330041
463430000 0.441943626998 0.0124322266957
463440000 0.44209729261 0.0123543011522
463450000 0.442641628399 0.012315881446
463460000 0.441969966236 0.0125239399693
463470000 0.441503417395 0.0117651541704
463480000 0.441121008899 0.0119005911132
463490000 0.441149222465 0.0116547864777
463500000 0.44172189238 0.0115334867386
463510000 0.441772227604 0.0120117095006
463520000 0.442160211272 0.0119163360461
463530000 0.442144178471 0.0116715609197
463540000 0.442286041861 0.0121902562398
463550000 0.442348974094 0.0116727960486
463560000 0.442295035192 0.0115613459497
463570000 0.442304497129 0.0114838946017
463580000 0.441980860702 0.0111189097568
463590000 0.442508827495 0.0110437385156
463600000 0.442094622382 0.0113115058341
463610000 0.442379630838 0.0111748015728
463620000 0.443061795008 0.011331423122
463630000 0.442625249917 0.0108326394222
463640000 0.442516598232 0.00999148242889
463650000 0.442648134884 0.00932047878399
463660000 0.44257512459 0.00976570684622
463670000 0.442532513273 0.00993289243392
463680000 0.442820129439 0.0102576132575
463690000 0.442889194939 0.0105273736056
463700000 0.442887914407 0.0105108631163
463710000 0.443250183762 0.0107896123161
463720000 0.443470053716 0.0111076401292
463730000 0.443450943364 0.01073875776
463740000 0.44308239071 0.0107694658982
463750000 0.44339728385 0.0109951933271
463760000 0.443523669852 0.010503397883
463770000 0.444421705384 0.0100274511266
463780000 0.442796253057 0.0115346001235
463790000 0.443954162445 0.0105524381654
463800000 0.443142660944 0.0107110733249
463810000 0.443413754655 0.0106400054852
463820000 0.442912417928 0.0103056149257
463830000 0.443749251406 0.0103654918371
463840000 0.44320743962 0.010463340899
463850000 0.443666093625 0.0102719375062
463860000 0.443710812373 0.0104210145242
463870000 0.443967614219 0.0105411119447
463880000 0.443581346053 0.0107129256111
463890000 0.443313170452 0.0102903808753
463900000 0.443687669864 0.0107963451268
463910000 0.444755201128 0.0109354215077
463920000 0.444479465065 0.0102341909811
463930000 0.444144717221 0.0101701567263
463940000 0.443961236619 0.0100840036063
463950000 0.445531197935 0.0104743751729
463960000 0.447007072698 0.0112317938358
463970000 0.448223659707 0.0119568019932
463980000 0.44709050739 0.0112372173598
463990000 0.4461448676 0.0106493002553
464000000 0.444692392969 0.0102474863278
464010000 0.445605896279 0.0093452344341
464020000 0.445449909403 0.00953979428917
464030000 0.445927224508 0.00911217325297
464040000 0.445786884149 0.00916020533606
464050000 0.446008310616 0.00944188201366
464060000 0.446131132569 0.00919389388365
464070000 0.446226863928 0.00899794055174
464080000 0.446218709127 0.00902993252215
464090000 0.44660253728 0.00887785935423
464100000 0.446811189579 0.00879572566299
464110000 0.446368333869 0.00869249982122
464120000 0.446383980475 0.00875330028376
464130000 0.446402876343 0.00888755422981
464140000 0.446083729597 0.00897416928395
464150000 0.446072601432 0.00883531331407
464160000 0.446240210532 0.00879735246102
464170000 0.44678020799 0.00880936675702
464180000 0.446975180047 0.00843019257906
464190000 0.447099614649 0.00843437372253
464200000 0.447725055491 0.00861859285305
464210000 0.44726912232 0.00819313620521
464220000 0.44704351195 0.00788658946065
464230000 0.446958984401 0.00756445229532
464240000 0.447591964015 0.00725704677931
464250000 0.448026619101 0.00741973381784
464260000 0.448160677706 0.00788128723776
464270000 0.447958356211 0.00714932326006
464280000 0.447637891945 0.00743967415661
464290000 0.447763375006 0.00709909440117
464300000 0.448281614981 0.00704256629281
464310000 0.448119771198 0.00690166966813
464320000 0.447968969705 0.00698399506445
464330000 0.448310903792 0.00695841663068
464340000 0.448292025636 0.00733580550464
464350000 0.448331305322 0.00745954250288
464360000 0.449238288395 0.00637626153007
464370000 0.448910546689 0.00712229984445
464380000 0.449036062003 0.00713020035915
464390000 0.449063947869 0.00692630229956
464400000 0.448405650227 0.00646298919385
464410000 0.448981148267 0.00677147647058
464420000 0.44932968584 0.00642248831662
464430000 0.449376992044 0.00617506475228
464440000 0.449282947676 0.00678263826556
464450000 0.449839147818 0.00638794247217
464460000 0.450437365087 0.00604526017852
464470000 0.450150929259 0.00602968332247
464480000 0.449903597308 0.00584645830727
464490000 0.45001784378 0.00580009258245
464500000 0.449990755888 0.00573206083455
464510000 0.449648042688 0.00606927135377
464520000 0.450105244884 0.0061817107885
464530000 0.448828609133 0.00652045315577
464540000 0.447733169581 0.00637056297282
464550000 0.447960964731 0.00645513821382
464560000 0.448757207014 0.00585272631178
464570000 0.449791068418 0.00513632400764
464580000 0.449900537699 0.00499370462784
464590000 0.450326616883 0.00503283081852
464600000 0.450590720751 0.00526042353947
464610000 0.450513656003 0.00513820950147
464620000 0.446813736931 0.00228656839811
464630000 0.450387467037 0.00471361629668
464640000 0.450623382346 0.0045120851226
464650000 0.450860727613 0.00490024182162
464660000 0.451108588672 0.00482490663696
464670000 0.451032522619 0.00500602453951
464680000 0.451302986102 0.00451833625698
464690000 0.451273048647 0.00476506743304
464700000 0.450698533597 0.00513191352427
464710000 0.45180346736 0.00451983113489
464720000 0.452176515833 0.0041163910216
464730000 0.452397650585 0.00403452128224
464740000 0.452167965192 0.00401155248935
464750000 0.452150631026 0.00393825148054
464760000 0.452599624781 0.00407755467218
464770000 0.452549925268 0.00394393113478
464780000 0.452466913197 0.00381934396104
464790000 0.452309636479 0.00390841887079
464800000 0.452966700462 0.00366871079045
464810000 0.452630129119 0.00349609516234
464820000 0.453102904498 0.00354919357208
464830000 0.453716110108 0.00358145600961
464840000 0.453367932126 0.00352505431372
464850000 0.45263421555 0.00367449477034
464860000 0.45300485226 0.00340698460975
464870000 0.453123589748 0.0031967684686
464880000 0.453370004554 0.00343331636671
464890000 0.45411327983 0.00387666316432
464900000 0.453760419341 0.0033413143415
464910000 0.453865920465 0.00352691336577
464920000 0.453973877045 0.00299871354333
464930000 0.453935593054 0.00311271290042
464940000 0.45424724654 0.00308166503831
464950000 0.45432389327 0.00309123044839
464960000 0.454583382785 0.00292125022544
464970000 0.454502721894 0.00248355192974
464980000 0.454861958402 0.00235089539054
464990000 0.454903307809 0.00276866308002
465000000 0.45522698617 0.00255430550237
465010000 0.465660199837 0.00337088756635
465020000 0.465790704035 0.00322166651264
465030000 0.465668622212 0.00334614235598
465040000 0.465616108423 0.00342245115747
465050000 0.46602107423 0.00292513025163
465060000 0.465615145087 0.0034868840177
465070000 0.46569623455 0.00306437116466
465080000 0.465585287247 0.0032589293322
465090000 0.465793283922 0.00288172941919
465100000 0.466250719712 0.00278715221637
465110000 0.466231280603 0.00249154783393
465120000 0.466581709816 0.00313811665016
465130000 0.466486921044 0.00313012527297
465140000 0.467012238481 0.0031035501033
465150000 0.467243404197 0.0026965264116
465160000 0.466873613987 0.00285783975784
465170000 0.467446978468 0.00313352745004
465180000 0.467233097912 0.00297279325667
465190000 0.467460763157 0.00295336239773
465200000 0.467194005405 0.00308287692816
465210000 0.467567457258 0.00299157062231
465220000 0.467366891183 0.0022706745836
465230000 0.46797625816 0.00242465543321
465240000 0.467908616342 0.00295090825341
465250000 0.466346324962 0.00228372563965
465260000 0.467345125368 0.00322269910181
465270000 0.467308232884 0.00295549144556
465280000 0.467825113828 0.00308110174295
465290000 0.467632953805 0.00331030292524
465300000 0.467546739205 0.00297989744354
465310000 0.467924866829 0.00367616339544
465320000 0.468084986425 0.0034118659001
465330000 0.468047442046 0.00339796753303
465340000 0.468475405764 0.0033235058099
465350000 0.468194117402 0.0026567085102
465360000 0.468746434397 0.00324738291979
465370000 0.468804926217 0.00315184205675
465380000 0.469088759203 0.002911605932
465390000 0.468843345492 0.0031777155577
465400000 0.468626746435 0.00322322870567
465410000 0.469208577955 0.00385102688872
465420000 0.469089513005 0.00321410794543
465430000 0.469015052007 0.00350867044779
465440000 0.469210300708 0.00358648202541
465450000 0.469591572219 0.00326365534375
465460000 0.469136107479 0.00303155646503
465470000 0.468322718781 0.00320550593206
465480000 0.469104472262 0.00307723610265
465490000 0.469812722131 0.00365776625233
465500000 0.469649714007 0.00380591971216
465510000 0.470170615083 0.0034406029908
465520000 0.470638148854 0.00332304835778
465530000 0.47056140498 0.00348534915275
465540000 0.470251469489 0.00382045041529
465550000 0.470153111759 0.00359576863044
465560000 0.469276170909 0.00343135455848
465570000 0.469698019804 0.00359109538944
465580000 0.469772878779 0.00345257336084
465590000 0.470041272249 0.00376336819064
465600000 0.470060995429 0.00345436783488
465610000 0.470870493782 0.00363966142549
465620000 0.470810030165 0.00361324423495
465630000 0.46993683539 0.00374328739436
465640000 0.47058038636 0.00381029006666
465650000 0.470454460932 0.00353078221974
465660000 0.470940808585 0.0034426409483
465670000 0.470983831557 0.0037150243366
465680000 0.470766789965 0.00358979907646
465690000 0.470890830974 0.00321936562554
465700000 0.470899450754 0.00337686370512
465710000 0.470718172981 0.00354589735672
465720000 0.471252877362 0.00342404176078
465730000 0.471341516013 0.0036706784123
465740000 0.47138802121 0.0038550134659
465750000 0.472074963362 0.00342013138605
465760000 0.4717489703 0.00342547430936
465770000 0.472126507156 0.00367102668456
465780000 0.471599182353 0.00382514534774
465790000 0.473067337643 -0.0233082520877
465800000 0.470685366286 -0.059666676633
465810000 0.464494901592 -0.0955861165448
465820000 0.468899973715 -0.0715348440441
465830000 0.472293628692 -0.0313530841787
465840000 0.472325279097 0.00320944242447
465850000 0.471921124453 0.00349552434673
465860000 0.472180862981 0.00338578043188
465870000 0.472830984282 0.00335568722343
465880000 0.473171285965 0.00301382424471
465890000 0.472819692261 0.00398335885447
465900000 0.47241332126 0.00375441033118
465910000 0.472846958432 0.00372808217907
465920000 0.472424713967 0.00357756939393
465930000 0.472922207415 0.00354893010726
465940000 0.473105656543 0.0031327952341
465950000 0.472949478522 0.00344082092203
465960000 0.472938685863 0.00393938026153
465970000 0.473499435351 0.00305061473903
465980000 0.472878892145 0.00340009372517
465990000 0.473306883833 0.00349222407392
466000000 0.47342064258 0.00366318635319
466010000 0.475919556077 0.00788880033407
466020000 0.475224886475 0.00825433022526
466030000 0.47515994675 0.00806812799218
466040000 0.47511165899 0.00827835107182
466050000 0.475321538906 0.0077586070988
466060000 0.475323426755 0.00781983057092
466070000 0.474621181793 0.00851672717426
466080000 0.475001867553 0.00640450550022
466090000 0.475318332071 0.00773684069263
466100000 0.475439229396 0.00766547467556
466110000 0.475248166819 0.00784089412176
466120000 0.475320644402 0.00755443422547
466130000 0.475711010347 0.00752360002974
466140000 0.475277513127 0.00815187728879
466150000 0.475737082245 0.00843625466413
466160000 0.476093740599 0.0082489453004
466170000 0.474950890268 0.00759536302415
466180000 0.472748307271 0.00747612345723
466190000 0.47624012178 0.00805087079363
466200000 0.475816782093 0.0082095000234
466210000 0.469721199545 0.00964497549286
466220000 0.475979332036 0.0079848645913
466230000 0.475149825685 0.00739050294654
466240000 0.471945102357 0.00798730866626
466250000 0.474760025919 0.00635038974595
466260000 0.474895679139 0.00730721148514
466270000 0.476344054725 0.00950308195766
466280000 0.475405414792 0.0114788905447
466290000 0.474071065107 0.00730315573009
466300000 0.475611964732 0.0087366337065
466310000 0.473401783575 0.00662735829874
466320000 0.476160397997 0.00832710142537
466330000 0.478104994081 0.00522199739517
466340000 0.479768477993 0.0079762427238
466350000 0.476991296214 0.0149354546444
466360000 0.476638071555 0.00488317422639
466370000 0.471867927571 0.00645012237551
466380000 0.475439760252 0.0045308840905
466390000 0.467341679904 0.0114109494607
466400000 0.475054565134 0.0049258172831
466410000 0.470980900152 0.0104556626904
466420000 0.474816207823 0.0196318226572
466430000 0.484627458626 0.00199086327178
466440000 0.476968020371 0.014292834393
466450000 0.471878810967 0.0130455441478
466460000 0.474755955665 0.0184217889732
466470000 0.469693394446 0.00345906215575
466480000 0.474937158933 0.013514962801
466490000 0.480123480556 0.00568144261848
466500000 0.471930617516 0.0142465583003
466510000 0.473594523388 0.00205453312874
466520000 0.4723636276 0.0114379204068
466530000 0.485612428498 0.0157931188028
466540000 0.471996340467 0.004123726642
466550000 0.476056280613 0.00549709760309
466560000 0.473112732997 0.0091711508754
466570000 0.47772031738 0.0128435495675
466580000 0.475590739368 0.00668727437699
466590000 0.475389932568 0.0133773289309
466600000 0.467845168622 0.00569060756834
466610000 0.476519773424 0.00557047205972
466620000 0.476532489955 -0.00374834180588
466630000 0.472831916282 0.00510037562992
466640000 0.476004390636 0.0080656172871
466650000 0.471521180775 0.001632702248
466660000 0.475180660002 0.00999202783385
466670000 0.479269125919 0.00504976896676
466680000 0.47525441563 0.00942478863528
466690000 0.476091379011 0.00812135279901
466700000 0.483940524399 0.0101623411161
466710000 0.483036163271 0.0137151334291
466720000 0.474712013421 0.00862298464984
466730000 0.478709183571 0.00648110772886
466740000 0.474831091096 0.00732086100893
466750000 0.476011004144 0.00804414917848
466760000 0.475254522023 0.00686462004408
466770000 0.475552667243 0.00559262767947
466780000 0.475317078968 0.00895863898401
466790000 0.475449268367 0.00898253281824
466800000 0.475444038095 0.00900968807709
466810000 0.474428303818 0.00470257295836
466820000 0.47552507432 0.00925500824201
466830000 0.476236847679 0.0116327700014
466840000 0.475449224762 0.00940495428003
466850000 0.475741975989 0.00898980868427
466860000 0.478057956444 0.00919358394321
466870000 0.477872914004 0.00721250876737
466880000 0.476240593495 0.00891689824086
466890000 0.47605687546 0.0092047493739
466900000 0.473450867775 0.0103250265235
466910000 0.476318945721 0.00911140255051
466920000 0.476960564741 0.00805075922126
466930000 0.475340106441 0.00985359439662
466940000 0.474813722163 0.00972221493613
466950000 0.475059447512 0.00929627017967
466960000 0.474929622609 0.0094982480629
466970000 0.474487355868 0.00900672510411
466980000 0.474791271169 0.00870201670231
466990000 0.474905221239 0.00858013134151
467000000 0.474892259276 0.0091059246982
467010000 0.466868816794 0.0120917128996
467020000 0.467022794201 0.0122305984045
467030000 0.466542023945 0.0122304755683
467040000 0.467102110616 0.0118279231351
467050000 0.46688812333 0.0115958496968
467060000 0.466870885702 0.0117059674267
467070000 0.466618676986 0.0117678388042
467080000 0.466395990263 0.0118037778809
467090000 0.466428198823 0.0115499580513
467100000 0.466416035718 0.0122527621938
467110000 0.46586952839 0.0115548200518
467120000 0.46624624969 0.011832066033
467130000 0.466226010786 0.0116114989117
467140000 0.466967970324 0.0116281710699
467150000 0.466376382867 0.011331867763
467160000 0.466276506765 0.0115849720338
467170000 0.466138698516 0.0115462749158
467180000 0.466731625221 0.0114146290192
467190000 0.466666191355 0.0113098236918
467200000 0.46733649126 0.0114115951659
467210000 0.466272129934 0.0117876913469
467220000 0.466322203135 0.0114358883442
467230000 0.46568521456 0.0113528476747
467240000 0.465819074144 0.0112921396986
467250000 0.465882454819 0.0108775091611
467260000 0.465786539442 0.0112570554864
467270000 0.465984833628 0.0113839141218
467280000 0.466174344198 0.0108446875533
467290000 0.465979120427 0.0109895977212
467300000 0.465837721022 0.0105357074543
467310000 0.466114436971 0.0106403038947
467320000 0.46616099483 0.0109736389123
467330000 0.46612820776 0.0107726981028
467340000 0.466274710936 0.0106773009382
467350000 0.465884697537 0.0105967062123
467360000 0.466145850641 0.0107151191676
467370000 0.46616512027 0.0115308691215
467380000 0.466195733345 0.010415673384
467390000 0.465826162107 0.0105534011434
467400000 0.46597502717 0.0104902479861
467410000 0.466223785743 0.0102068848391
467420000 0.466499733857 0.0095198516844
467430000 0.466378156825 0.0101615417128
467440000 0.466025990028 0.0101527568927
467450000 0.465594636477 0.010481184581
467460000 0.465902302526 0.00976618168704
467470000 0.465996825054 0.0100292771009
467480000 0.466316390559 0.00966716587732
467490000 0.466198919828 0.00946260906136
467500000 0.466921011628 0.00990269315195
467510000 0.466192044413 0.0095288653974
467520000 0.466496920818 0.00962139095617
467530000 0.466265902916 0.00905499990825
467540000 0.46597649167 0.00929504523777
467550000 0.466057108022 0.00941274182638
467560000 0.46587088714 0.00948069092809
467570000 0.465862892 0.00919259060403
467580000 0.465789599627 0.00939982773703
467590000 0.466175712894 0.00919435949862
467600000 0.466196887216 0.00913778542122
467610000 0.466403218107 0.00890616022388
467620000 0.466354976443 0.00932640065823
467630000 0.466277447171 0.00901215312661
467640000 0.466129953627 0.00926587879825
467650000 0.466368646665 0.00975318374854
467660000 0.465879806812 0.0089051249584
467670000 0.466004795994 0.0090031483112
467680000 0.466262117418 0.00896210697043
467690000 0.46641851396 0.00871392745107
467700000 0.46652859743 0.00859721604352
467710000 0.466608259043 0.00838352689929
467720000 0.467144913063 0.00860230402457
467730000 0.467052982696 0.0082552333319
467740000 0.466817705186 0.00840175640646
467750000 0.467218153525 0.00834561955407
467760000 0.467429817944 0.00848636331762
467770000 0.46753045798 0.00843882448111
467780000 0.466885694869 0.00844420995616
467790000 0.466546350577 0.00807028444588
467800000 0.466586694844 0.00770571356712
467810000 0.46705937112 0.00825679099612
467820000 0.466926212255 0.00775339440217
467830000 0.466752340852 0.00770203703655
467840000 0.46715489911 0.0077313950506
467850000 0.467583433587 0.00797593073313
467860000 0.467532688176 0.00779874796103
467870000 0.467240800983 0.00760048315764
467880000 0.467187027109 0.00747516942618
467890000 0.466800948427 0.00741242546937
467900000 0.467202819469 0.00756094589422
467910000 0.466882897399 0.00753903319304
467920000 0.466915217941 0.0072498700253
467930000 0.467087210647 0.0073142325942
467940000 0.467498291277 0.00740726734627
467950000 0.467470974997 0.00756410309246
467960000 0.4678744824 0.00760232641418
467970000 0.46797987098 0.00784468090144
467980000 0.467563978754 0.00729590128074
467990000 0.464870872038 0.0166778957848
468000000 0.467143548704 0.00468147467965
468010000 0.46465839855 0.00382280419108
468020000 0.464608687413 0.00337403027287
468030000 0.464936671783 0.00317921638502
468040000 0.464811632048 0.00347171607484
468050000 0.464232486732 0.00371457183707
468060000 0.464199228539 0.00324373086587
468070000 0.464163514769 0.00316748506995
468080000 0.464543149681 0.0031488015943
468090000 0.464810430553 0.00329573095938
468100000 0.464678520943 0.00319058265387
468110000 0.464389554008 0.0036318753774
468120000 0.464566134507 0.00365709955146
468130000 0.464690284203 0.00376207371137
468140000 0.465027734873 0.00362159130038
468150000 0.464902451737 0.00341046951884
468160000 0.464682859933 0.00376221674969
468170000 0.46460337821 0.0032881991611
468180000 0.464366535372 0.00325722271371
468190000 0.464581342756 0.00312449467068
468200000 0.464604690113 0.00341995455941
468210000 0.46450099767 0.00302498682927
468220000 0.464804637305 0.00331927492115
468230000 0.464816531958 0.00279876664874
468240000 0.464655492791 0.00294585843268
468250000 0.464910935872 0.00289588918393
468260000 0.464658794181 0.00307692624881
468270000 0.46462580348 0.00346837629155
468280000 0.46522130119 0.00299918826121
468290000 0.464549853458 0.0035605476651
468300000 0.465016957428 0.00374045124347
468310000 0.46483977317 0.00296523683573
468320000 0.465523354512 0.00385257347552
468330000 0.465912837716 0.0035551201792
468340000 0.465340302331 0.00319285464926
468350000 0.465395269193 0.00310739032637
468360000 0.464999852967 0.00323250864773
468370000 0.465189850847 0.0034544705091
468380000 0.465187942305 0.00331278380374
468390000 0.464844758127 0.00331150650526
468400000 0.46538807217 0.00335394316831
468410000 0.464668026344 0.00382855918015
468420000 0.465552670151 0.00329942856794
468430000 0.46514891585 0.00331468151521
468440000 0.465369220139 0.00360500219505
468450000 0.465288768967 0.00377147192618
468460000 0.465455774708 0.00320447484975
468470000 0.465380087087 0.00352949207824
468480000 0.465619726379 0.00378868476257
468490000 0.46516493404 0.00376081620536
468500000 0.465381886318 0.00391152127896
468510000 0.465411206606 0.00397792897726
468520000 0.465491262358 0.00405733378118
468530000 0.465101867112 0.00461802997626
468540000 0.465760856424 0.00365083832486
468550000 0.4656654405 0.00333342103074
468560000 0.465631437912 0.00370301035491
468570000 0.465894757614 0.00373168821016
468580000 0.466092152567 0.00387457363289
468590000 0.466080680975 0.00386635043533
468600000 0.466094202001 0.00360635180836
468610000 0.465465089529 0.00373142112653
468620000 0.465941143998 0.00380739868786
468630000 0.4656692774 0.00363157817123
468640000 0.465856661452 0.0038579391434
468650000 0.466112174536 0.0039172213908
468660000 0.466152406802 0.00360455488887
468670000 0.466517333479 0.00440968366016
468680000 0.466203013285 0.00424780264556
468690000 0.466313034427 0.00435992820009
468700000 0.466503248388 0.00416553982541
468710000 0.467083279722 0.00525209158887
468720000 0.466475751742 0.00445555950592
468730000 0.466907792059 0.00416364230074
468740000 0.467248846602 0.00413371672046
468750000 0.46681083908 0.00416164689337
468760000 0.466752520135 0.00450847494117
468770000 0.467127498543 0.00443812974139
468780000 0.466592591145 0.00439348033514
468790000 0.466618064265 0.00449884316376
468800000 0.466911593277 0.00438727653944
468810000 0.466671419651 0.00453853701186
468820000 0.46667639309 0.00504506408891
468830000 0.467255131454 0.00518660336181
468840000 0.467102697058 0.00477599699624
468850000 0.466806329693 0.00481959341296
468860000 0.466883041603 0.00461075802813
468870000 0.467104443001 0.00458602877353
468880000 0.46733609823 0.00460191678413
468890000 0.467789666616 0.00470272707818
468900000 0.467944705937 0.0051672994213
468910000 0.467904327083 0.00526766197524
468920000 0.467801260981 0.00466690358183
468930000 0.467141397025 0.00449339725053
468940000 0.467678690812 0.00446360578904
468950000 0.467468850361 0.0047854962713
468960000 0.467557585078 0.00420306910257
468970000 0.468321189715 0.0047628420825
468980000 0.468006327529 0.00465251913748
468990000 0.467887475411 0.00489536518032
469000000 0.468053567943 0.00459305157893
469010000 0.464562783257 0.00458768261233
469020000 0.464313456443 0.00512817929881
469030000 0.464169467454 0.00479472231379
469040000 0.464692743357 0.00450804689619
469050000 0.464211879239 0.00470500227195
469060000 0.464103896656 0.00456397450236
469070000 0.464030768463 0.004462891254
469080000 0.464309717786 0.00448149890861
469090000 0.46379385097 0.00438935060162
469100000 0.464273354562 0.00445837323023
469110000 0.464146913902 0.00405305014903
469120000 0.464599047639 0.00408359478583
469130000 0.464376481948 0.00410227638469
469140000 0.464151520365 0.00405944877192
469150000 0.464265622128 0.00419943092356
469160000 0.464254177707 0.00393652139339
469170000 0.464018656062 0.00406591767529
469180000 0.464625306523 0.00358870561134
469190000 0.463653371069 0.00399420921069
469200000 0.463712302879 0.00417366924154
469210000 0.463732555531 0.00396147779814
469220000 0.463833075161 0.00403474127967
469230000 0.464101582002 0.00411484962459
469240000 0.464164425017 0.00414846824288
469250000 0.464520711746 0.00413318280007
469260000 0.463726350717 0.00399128861546
469270000 0.46385902122 0.00416294516779
469280000 0.463937310478 0.00360647054144
469290000 0.463886876517 0.00400086871302
469300000 0.46399407907 0.00406661154766
469310000 0.464193962938 0.00385361879104
469320000 0.464030666994 0.00336477714807
469330000 0.464428951599 0.00329046697428
469340000 0.464473321177 0.00282574738177
469350000 0.464003962976 0.00309624996603
469360000 0.463995758316 0.00297033911269
469370000 0.463795643032 0.00314415714931
469380000 0.463976895129 0.00327367575411
469390000 0.4639666281 0.00294281122923
469400000 0.463729292215 0.00330699109685
469410000 0.463622443748 0.00443120628282
469420000 0.463163857074 0.00672561119451
469430000 0.462740573853 0.0109019900995
469440000 0.459983293282 0.00461426743485
469450000 0.462903740096 0.00645970700137
469460000 0.463734252099 0.00401645412374
469470000 0.463897497357 0.00332762535844
469480000 0.463593707348 0.00328034498456
469490000 0.463612116585 0.00314251282517
469500000 0.463674739894 0.002792733676
469510000 0.464220457117 0.0029569307742
469520000 0.464112048318 0.00264967165092
469530000 0.463682669769 0.0024361665652
469540000 0.463781361693 0.00217756262267
469550000 0.463623058739 0.00234206544349
469560000 0.463730418518 0.00207500784993
469570000 0.463692919267 0.0019946835583
469580000 0.463703754348 0.00177071040158
469590000 0.463728606464 0.00207658760721
469600000 0.464121585359 0.0026251209739
469610000 0.463556341668 0.00239616262253
469620000 0.463869504969 0.00232150501865
469630000 0.463683817493 0.00249499569252
469640000 0.464274784453 0.00272991927551
469650000 0.46392178098 0.00242453651705
469660000 0.463707169167 0.00222900936079
469670000 0.463935375362 0.00229841363266
469680000 0.463680436603 0.00243962454768
469690000 0.462759378811 0.00266534199142
469700000 0.463869414936 0.00256092052826
469710000 0.463572653355 0.0024752620091
469720000 0.463307456787 0.00228857357563
469730000 0.463867607527 0.0021565623295
469740000 0.463291690184 0.00203438100186
469750000 0.463524576698 0.00223072986022
469760000 0.46386273569 0.00198979878425
469770000 0.46362460649 0.00199144981972
469780000 0.46352703884 0.00211077329151
469790000 0.463979944219 0.00228596005617
469800000 0.463776148252 0.00226135484536
469810000 0.463655225949 0.00217617879621
469820000 0.46374984537 0.00259345705173
469830000 0.46344558837 0.00256054683084
469840000 0.462974314274 0.00247338905894
469850000 0.46334388037 0.00254714411986
469860000 0.462957943323 0.00258083753968
469870000 0.463274344195 0.00232351325964
469880000 0.463163832996 0.00200335691629
469890000 0.463272565882 0.0023029057784
469900000 0.463316809545 0.00237068438812
469910000 0.463354165905 0.00209372197164
469920000 0.463185176198 0.00277323908082
469930000 0.46308841897 0.00259106730822
469940000 0.462969193435 0.0025625265307
469950000 0.463166556637 0.0024627564293
469960000 0.463214700338 0.00253780560619
469970000 0.463104607828 0.00272911281542
469980000 0.462843695617 0.00319204858581
469990000 0.463365526074 0.00313779716983
470000000 0.46331184907 0.00268781472783
