! Calibrated averaged scanner-service zoom
# Hz S RI R 50
144000000 0.548453326501 0.262431065677
144004000 0.548415958698 0.262602440063
144008000 0.548755777809 0.262767474429
144012000 0.54873147376 0.262377484038
144016000 0.548730712657 0.262055156408
144020000 0.549224918411 0.262399125971
144024000 0.549098210017 0.262672548601
144028000 0.549362631733 0.262311678687
144032000 0.549294675096 0.262190747495
144036000 0.549390834687 0.262330244568
144040000 0.549811873603 0.262574300709
144044000 0.549824492878 0.2623745732
144048000 0.549672791132 0.262143996001
144052000 0.550283528857 0.262200926807
144056000 0.550132277033 0.262261881119
144060000 0.550387684618 0.262157000245
144064000 0.55032954871 0.261789943107
144068000 0.550747983696 0.261853320943
144072000 0.551114171725 0.262305544956
144076000 0.550996308268 0.262116025255
144080000 0.550730114236 0.261693298366
144084000 0.550662454774 0.261750100459
144088000 0.551182832224 0.261863559882
144092000 0.551146501717 0.262070274265
144096000 0.551135029431 0.261602594427
144100000 0.551479144786 0.26154653934
144104000 0.551568577163 0.261631563618
144108000 0.551989234067 0.261863557425
144112000 0.55177565471 0.261558856379
144116000 0.552090660764 0.261375200297
144120000 0.552364787754 0.261360980805
144124000 0.552498446436 0.261684083322
144128000 0.552631068554 0.261286703259
144132000 0.552539416716 0.261185953796
144136000 0.552900232828 0.26125400948
144140000 0.553156248858 0.261491647009
144144000 0.553024871146 0.261247159922
144148000 0.553184142934 0.261073480559
144152000 0.553458203082 0.261087511462
144156000 0.553413650421 0.261268731552
144160000 0.553750976955 0.2610921267
144164000 0.553802727651 0.260835432262
144168000 0.553959040583 0.26090615932
144172000 0.554187842944 0.261229930551
144176000 0.55418418128 0.261108330654
144180000 0.554102763269 0.260828059786
144184000 0.55438656014 0.260731240396
144188000 0.554597517134 0.260920003438
144192000 0.554720719144 0.26097883278
144196000 0.55471343357 0.260658113706
144200000 0.55495782716 0.260529845376
144204000 0.555103158721 0.26070934164
144208000 0.55535385063 0.260833112768
144212000 0.555263616948 0.260493067401
144216000 0.555328969061 0.2603850671
144220000 0.55574457024 0.260417039054
144224000 0.555846271849 0.260685534585
144228000 0.555718848569 0.260402216415
144232000 0.555869838207 0.260239353621
144236000 0.556222467939 0.260265490947
144240000 0.556405357291 0.260473948273
144244000 0.556272904856 0.260231542882
144248000 0.556192638252 0.260004061574
144252000 0.556596573072 0.259899444984
144256000 0.556503814711 0.260040608979
144260000 0.556561297274 0.259971259071
144264000 0.556943808672 0.259791177103
144268000 0.556839973816 0.259745539052
144272000 0.557531436466 0.260168130311
144276000 0.557301038163 0.25992714761
144280000 0.557340238041 0.259666027427
144284000 0.557559105958 0.259591922227
144288000 0.557940461921 0.259748091388
144292000 0.55794547768 0.259820560946
144296000 0.557929863945 0.259562049802
144300000 0.558228646037 0.259394920055
144304000 0.558376686697 0.259524166818
144308000 0.558547866883 0.259724336326
144312000 0.558748272758 0.259542655672
144316000 0.558617124807 0.259300064413
144320000 0.559073047887 0.259324627209
144324000 0.55910997623 0.259531034878
144328000 0.559217871881 0.259352391917
144332000 0.559233583535 0.259132994161
144336000 0.559636520253 0.259185309
144340000 0.559759372362 0.259324710345
144344000 0.559759311859 0.259263582196
144348000 0.559781198957 0.258989476827
144352000 0.560196952186 0.259034438875
144356000 0.560123196029 0.259135610488
144360000 0.560311640906 0.259073957146
144364000 0.559956953416 0.258698061204
144368000 0.56059976305 0.258762176521
144372000 0.560690778142 0.258928799166
144376000 0.560657602138 0.258971527888
144380000 0.559852776655 0.258673846612
144384000 0.560820815127 0.258568638083
144388000 0.561065571446 0.258603148201
144392000 0.560245797089 0.258742849792
144396000 0.561212624196 0.258404332958
144400000 0.561189371815 0.258290692547
144404000 0.561612865841 0.258232791373
144408000 0.561588958523 0.258375580968
144412000 0.561911979625 0.258241402271
144416000 0.561838334653 0.258196939124
144420000 0.56251544827 0.258204844404
144424000 0.56212459722 0.258183362542
144428000 0.562468100765 0.258113909156
144432000 0.562486010121 0.257880766153
144436000 0.562818485959 0.257875325475
144440000 0.562480947664 0.257881177931
144444000 0.563254511279 0.257767362609
144448000 0.562836535081 0.257692813374
144452000 0.563497403492 0.257845514432
144456000 0.563196206861 0.257724149621
144460000 0.56353791775 0.257760061508
144464000 0.563480393709 0.257509987773
144468000 0.563841320612 0.257587023217
144472000 0.563873065213 0.25752059005
144476000 0.564069405234 0.257563965753
144480000 0.564186738586 0.257359023199
144484000 0.564349275825 0.257438881147
144488000 0.564448424212 0.257275679375
144492000 0.564699367466 0.257462472758
144496000 0.564575484032 0.257110765768
144500000 0.564399329584 0.25709025618
144504000 0.564806341363 0.256930291599
144508000 0.56487991929 0.257120863309
144512000 0.565121460831 0.256890480144
144516000 0.565170843202 0.256955260528
144520000 0.565536948184 0.256758260187
144524000 0.565558081918 0.256862062589
144528000 0.565701762434 0.25669473758
144532000 0.565437309634 0.256620222425
144536000 0.565932067258 0.256522813222
144540000 0.565966971298 0.256622883573
144544000 0.566326848231 0.256510768416
144548000 0.566128898736 0.256463709363
144552000 0.566614225462 0.256488348388
144556000 0.56655824248 0.25642046589
144560000 0.566876573149 0.256396934446
144564000 0.566986680237 0.256257354893
144568000 0.56702709833 0.256253377272
144572000 0.567030706502 0.256102937863
144576000 0.56729527613 0.256270475472
144580000 0.567261477455 0.255993433467
144584000 0.567551379063 0.256100193961
144588000 0.567581365622 0.255919013107
144592000 0.567839390157 0.25607884405
144596000 0.567736583113 0.255719953446
144600000 0.567930168002 0.255740616316
144604000 0.568048076765 0.255586142651
144608000 0.568211628603 0.255728891477
144612000 0.568517257413 0.255598589578
144616000 0.56712370415 0.257159590845
144620000 0.568614362719 0.255244959848
144624000 0.568548804764 0.255657921592
144628000 0.570207290731 0.25448137436
144632000 0.568643948978 0.255159937453
144636000 0.569076322729 0.25507651256
144640000 0.569168143787 0.255153693315
144644000 0.569265647563 0.255039950769
144648000 0.569273844625 0.254926232511
144652000 0.569523163652 0.254854623259
144656000 0.569611357061 0.254852378525
144660000 0.569748168592 0.254819988466
144664000 0.569720897837 0.254569215357
144668000 0.570003043883 0.25460025185
144672000 0.570063492562 0.254558875895
144676000 0.570362655124 0.254582581377
144680000 0.570350519232 0.254351198901
144684000 0.570446653371 0.254425616718
144688000 0.570775494323 0.254320427123
144692000 0.570761787291 0.254356871903
144696000 0.571023379263 0.254208933249
144700000 0.571097960234 0.254213243658
144704000 0.571497590837 0.254027197949
144708000 0.571408351828 0.254239374266
144712000 0.571454319155 0.253936675364
144716000 0.571313092071 0.254044370225
144720000 0.571834450533 0.253836126168
144724000 0.571739444556 0.253946504963
144728000 0.571825010673 0.253670439439
144732000 0.571811998467 0.253614392009
144736000 0.571986908454 0.253437310295
144740000 0.572343863848 0.253488033701
144744000 0.572316131868 0.253441487165
144748000 0.572341193035 0.253426491113
144752000 0.572853428162 0.253504248366
144756000 0.572839765051 0.253330371983
144760000 0.572846997319 0.253233155924
144764000 0.572922543677 0.25306144757
144768000 0.57300801798 0.25306611997
144772000 0.573205882737 0.252954945498
144776000 0.573361910647 0.253026354003
144780000 0.573481586933 0.252880902849
144784000 0.573513713611 0.252963185622
144788000 0.573632981658 0.25275097466
144792000 0.573632294343 0.252908251874
144796000 0.573837449445 0.25262344759
144800000 0.573696066145 0.252732230475
144804000 0.573969719887 0.252648512737
144808000 0.574225046889 0.252397311961
144812000 0.574497034564 0.252648167273
144816000 0.5744807757 0.252598918742
144820000 0.574358783699 0.252388137811
144824000 0.57474480149 0.252225640227
144828000 0.57497919533 0.25222040941
144832000 0.575117299448 0.252325846975
144836000 0.574777561259 0.252103363579
144840000 0.575093339113 0.251870467655
144844000 0.575140608126 0.251894382048
144848000 0.575494353162 0.251964026503
144852000 0.575246958387 0.251869639319
144856000 0.575487150754 0.251801034108
144860000 0.57563755341 0.251725847472
144864000 0.575653202712 0.251903134455
144868000 0.575355100975 0.251714923955
144872000 0.575578647603 0.251584166059
144876000 0.575700446155 0.251548189406
144880000 0.576037032092 0.251649206438
144884000 0.576114238466 0.251435325924
144888000 0.576138185599 0.251269492544
144892000 0.57646552725 0.251184964356
144896000 0.576603286984 0.251314215024
144900000 0.576807382541 0.251117761976
144904000 0.576665879195 0.250943810371
144908000 0.576958539732 0.250789160601
144912000 0.577119919623 0.251188950643
144916000 0.577165613879 0.250965959823
144920000 0.577232412044 0.250826193829
144924000 0.577543121266 0.250764303223
144928000 0.577827533732 0.250854406753
144932000 0.577831863894 0.250891506326
144936000 0.577793302495 0.250764456854
144940000 0.57799956172 0.250494623207
144944000 0.578161333177 0.250485629111
144948000 0.578312397532 0.25046876237
144952000 0.578268895577 0.250310505528
144956000 0.578258628404 0.250086837039
144960000 0.578578571856 0.249964511137
144964000 0.578618678087 0.250099467666
144968000 0.578695543038 0.249980314591
144972000 0.578732690485 0.249907003485
144976000 0.579071310199 0.249772851703
144980000 0.579181819696 0.249916707806
144984000 0.579029627975 0.249819340033
144988000 0.57900137382 0.249616246944
144992000 0.579206663642 0.24953845688
144996000 0.579460606837 0.249727432172
145000000 0.579402231028 0.249563222752
145004000 0.579342981598 0.249469200437
145008000 0.579625216895 0.249298570624
145012000 0.579738024308 0.249540904205
145016000 0.579975425712 0.249428132238
145020000 0.579652872519 0.249241725958
145024000 0.580119279887 0.249134109904
145028000 0.580460234011 0.249108499437
145032000 0.581512275956 0.249290023545
145036000 0.580565293478 0.248974931297
145040000 0.580769257286 0.248611976257
145044000 0.580758742498 0.248715825734
145048000 0.58106747307 0.248817810907
145052000 0.580841507972 0.248529788204
145056000 0.581097425441 0.248672078969
145060000 0.581338502035 0.248522341421
145064000 0.581319471637 0.248675856844
145068000 0.581337434954 0.248374348588
145072000 0.581387785471 0.248359459945
145076000 0.581480780612 0.2482785214
145080000 0.581612686503 0.248455003566
145084000 0.581727230279 0.248317585506
145088000 0.58162427476 0.248156660715
145092000 0.581924905353 0.24802237635
145096000 0.58193797871 0.248169033252
145100000 0.582081333808 0.247963255663
145104000 0.581767790171 0.247951824673
145108000 0.582204318047 0.247687087341
145112000 0.582314406105 0.247865209208
145116000 0.583079692297 0.247860139014
145120000 0.582430044782 0.247567591921
145124000 0.582676861098 0.247343513278
145128000 0.582893750937 0.247355424301
145132000 0.583128961937 0.247339563849
145136000 0.582897586116 0.247175090892
145140000 0.583062603885 0.247046508452
145144000 0.583265940435 0.247130285279
145148000 0.583529181042 0.247184067667
145152000 0.583550638586 0.247081794257
145156000 0.58345735362 0.24725539892
145160000 0.583569233464 0.246834214209
145164000 0.583770088815 0.246966585907
145168000 0.584290633683 0.246171463487
145172000 0.583709976074 0.246709618197
145176000 0.584128067472 0.246560266958
145180000 0.584279774334 0.246594876826
145184000 0.584362210165 0.246578294503
145188000 0.584195025 0.246495799459
145192000 0.584704020916 0.246402329478
145196000 0.58467697912 0.246509932939
145200000 0.584826275235 0.246303601554
145204000 0.584916066975 0.246030790746
145208000 0.58507764889 0.246192450386
145212000 0.58552507427 0.246122315324
145216000 0.585103569178 0.245923510073
145220000 0.585250748446 0.245792683382
145224000 0.585813661385 0.245843870369
145228000 0.585475799218 0.245710611477
145232000 0.585414040295 0.24574493806
145236000 0.585630134895 0.245484334019
145240000 0.585723890967 0.245571088958
145244000 0.585854407551 0.24538744654
145248000 0.585722140633 0.245301625178
145252000 0.585930719711 0.245088437026
145256000 0.586198976863 0.245232582817
145260000 0.586267273801 0.245147864484
145264000 0.586067226235 0.245104317193
145268000 0.58637032239 0.244946052723
145272000 0.586448889694 0.244979871405
145276000 0.586797022984 0.244912224846
145280000 0.586587776816 0.244793809656
145284000 0.586751550684 0.244632072476
145288000 0.587012489517 0.244647660988
145292000 0.587296349461 0.244672393617
145296000 0.58711329221 0.244587124344
145300000 0.58726110678 0.24450091891
145304000 0.587363298826 0.244326137243
145308000 0.587527487353 0.244573725016
145312000 0.58750837761 0.244359620701
145316000 0.587547164209 0.244249555989
145320000 0.587594438664 0.243986350798
145324000 0.5878738722 0.244099560032
145328000 0.587930498844 0.243994255969
145332000 0.587908570495 0.243898071171
145336000 0.587924322023 0.243669180349
145340000 0.588271320982 0.243908373601
145344000 0.588275725609 0.24367333696
145348000 0.588322586361 0.243689926023
145352000 0.588256031526 0.243321943514
145356000 0.588782176966 0.24355509223
145360000 0.588722378135 0.243516768541
145364000 0.589066026094 0.243422663074
145368000 0.588840058586 0.243211235229
145372000 0.588971886032 0.2433280871
145376000 0.588783477864 0.243341567692
145380000 0.589076885902 0.243276086342
145384000 0.588995664439 0.24299829846
145388000 0.589460351209 0.24314741907
145392000 0.589608959832 0.243044637963
145396000 0.589385800624 0.242957658273
145400000 0.589628043627 0.242803684323
145404000 0.589685694465 0.24269453684
145408000 0.58981922322 0.242778241298
145412000 0.589758050317 0.242660267414
145416000 0.589724865504 0.242512227929
145420000 0.589864132651 0.242434217696
145424000 0.589397364988 0.242064227961
145428000 0.589952809621 0.242343633571
145432000 0.590245124254 0.242207930339
145436000 0.589776257281 0.241499078765
145440000 0.590447586745 0.242116235435
145444000 0.590298497582 0.241993827004
145448000 0.590327054995 0.241931625752
145452000 0.590481648297 0.241759487165
145456000 0.590742384897 0.241843916358
145460000 0.590952830728 0.241783347744
145464000 0.590777026453 0.241683196102
145468000 0.590844709057 0.2415330088
145472000 0.591211635639 0.241489532023
145476000 0.591498797541 0.241636730998
145480000 0.59135316834 0.241585200601
145484000 0.591269899832 0.241240526963
145488000 0.591423092302 0.241325325588
145492000 0.591953577921 0.241268716176
145496000 0.591569759573 0.241191389412
145500000 0.591763548656 0.240937845594
145504000 0.591834849401 0.240767359737
145508000 0.591919237477 0.240886600587
145512000 0.592200727615 0.2408968057
145516000 0.592033915636 0.240664322472
145520000 0.592234280277 0.240697861936
145524000 0.592489467352 0.240727271668
145528000 0.592613090178 0.240715783291
145532000 0.59308420397 0.24066250239
145536000 0.592684519652 0.240575778066
145540000 0.592773891563 0.240575561469
145544000 0.593133327919 0.240108738116
145548000 0.592793100336 0.240438111945
145552000 0.592847639572 0.240248541618
145556000 0.593045586665 0.240305158392
145560000 0.593283001634 0.240242854437
145564000 0.593136249934 0.240171907993
145568000 0.593143669309 0.239997191326
145572000 0.593411882159 0.239934136122
145576000 0.59345142095 0.239894961461
145580000 0.59334654839 0.239907685209
145584000 0.593307278141 0.239718315985
145588000 0.593728723043 0.239693087884
145592000 0.593858676487 0.239749735735
145596000 0.593805783795 0.239647408985
145600000 0.59373711633 0.23956972018
145604000 0.593616273521 0.239477847792
145608000 0.5938976558 0.239291141569
145612000 0.594089379656 0.239278625333
145616000 0.594349512518 0.239289930532
145620000 0.594304104467 0.239165978712
145624000 0.594371747373 0.238996098929
145628000 0.594559288866 0.238952850424
145632000 0.594642766175 0.239071832537
145636000 0.594371089163 0.238924215855
145640000 0.594538798304 0.238831564008
145644000 0.594884711452 0.238713594301
145648000 0.5950424596 0.238799532211
145652000 0.594994033427 0.238667659986
145656000 0.594926213027 0.238580171165
145660000 0.595076876076 0.238397351553
145664000 0.59521056501 0.238587703622
145668000 0.595238660263 0.238390903554
145672000 0.595067048312 0.238384908765
145676000 0.595351935084 0.238109935474
145680000 0.595439925248 0.23821921001
145684000 0.595600646344 0.238022726756
145688000 0.595478745478 0.238168920294
145692000 0.595681829392 0.237953910289
145696000 0.595949708643 0.238056559618
145700000 0.595927633884 0.237944567168
145704000 0.595866522126 0.238026677844
145708000 0.596021358328 0.237640670807
145712000 0.596170273511 0.237944674602
145716000 0.596324347622 0.237735755054
145720000 0.596166378386 0.237746720936
145724000 0.596106085204 0.237442109797
145728000 0.596371138281 0.237469204238
145732000 0.596719273773 0.237438449864
145736000 0.596555386449 0.237509324566
145740000 0.596617070099 0.237217911675
145744000 0.596639850643 0.237176103268
145748000 0.596911140377 0.237042065251
145752000 0.596802918582 0.237113655918
145756000 0.596885630581 0.236883684776
145760000 0.597024734547 0.236679283064
145764000 0.597287243051 0.23672169963
145768000 0.597280786442 0.236610440882
145772000 0.596651021776 0.235502505237
145776000 0.597301245674 0.236532691324
145780000 0.597567512679 0.23657908132
145784000 0.600800006296 0.236492572126
145788000 0.597709354082 0.236571697595
145792000 0.597691816021 0.236350377159
145796000 0.597962038198 0.236475038702
145800000 0.597986988394 0.236304661776
145804000 0.598054145529 0.236360333348
145808000 0.597969961993 0.236179697305
145812000 0.598233377034 0.236326660957
145816000 0.598330522971 0.236008485104
145820000 0.598322390051 0.236113521307
145824000 0.598325001609 0.235880015391
145828000 0.598313271759 0.235960512278
145832000 0.598945305406 0.235766236224
145836000 0.598619495669 0.235855920041
145840000 0.598825643462 0.235551977227
145844000 0.598647267572 0.235628637439
145848000 0.599135453171 0.235439314221
145852000 0.598975094009 0.235611128639
145856000 0.599248595347 0.235440082786
145860000 0.598900449915 0.235368776796
145864000 0.599602319209 0.23527064776
145868000 0.59992172635 0.235319748069
145872000 0.599457707032 0.235160323602
145876000 0.59915295656 0.235250949054
145880000 0.599709995432 0.235071992136
145884000 0.599529544256 0.235093643079
145888000 0.599815149581 0.234935248031
145892000 0.599622214806 0.234949441309
145896000 0.599919514887 0.234771462918
145900000 0.599861235455 0.234731188313
145904000 0.599534442513 0.234556397958
145908000 0.599842839909 0.234571919278
145912000 0.600111553179 0.234563437695
145916000 0.600087063383 0.234561457702
145920000 0.600279123444 0.234477563645
145924000 0.600058921682 0.234290727931
145928000 0.600422639826 0.234300034282
145932000 0.600627470636 0.23414392851
145936000 0.600706374044 0.234290577296
145940000 0.600563833956 0.234004669606
145944000 0.600602941334 0.233976813555
145948000 0.600993330271 0.23389552584
145952000 0.600909737495 0.233996259788
145956000 0.601061334871 0.233836084543
145960000 0.601115409203 0.233771932693
145964000 0.601336685441 0.233665911515
145968000 0.601278169805 0.233717740299
145972000 0.601349591826 0.233591323574
145976000 0.601205634867 0.233575064028
145980000 0.601631666719 0.233478000548
145984000 0.60159943283 0.233436882075
145988000 0.601536249482 0.233385990484
145992000 0.601551892177 0.233448041416
145996000 0.601903956121 0.23333670547
146000000 0.601807217396 0.233277934449
146004000 0.60201021283 0.233106933549
146008000 0.602004999239 0.232971515027
146012000 0.602190706848 0.233030806643
146016000 0.602042605041 0.23290916334
146020000 0.602246022432 0.232923499115
146024000 0.6023914889 0.23276417203
146028000 0.602340290143 0.232780216972
146032000 0.602389982491 0.232641425619
146036000 0.602541908802 0.232692651629
146040000 0.602659858642 0.232530923089
146044000 0.602674693009 0.232467825971
146048000 0.60273066465 0.232370279702
146052000 0.602640973621 0.232304574023
146056000 0.6029041662 0.232279807293
146060000 0.602837597185 0.232167971527
146064000 0.603119539252 0.232117697362
146068000 0.602906031136 0.232080367987
146072000 0.603379325084 0.232071394792
146076000 0.603011084385 0.23187515653
146080000 0.603346601008 0.232020540659
146084000 0.603096162251 0.231816480645
146088000 0.603482661144 0.231861951742
146092000 0.603538973036 0.231635817504
146096000 0.603592562899 0.23173255698
146100000 0.603564378941 0.231573687723
146104000 0.603732588461 0.231648078914
146108000 0.603915411314 0.231440750477
146112000 0.603922199877 0.231561890369
146116000 0.603907202458 0.231336151977
146120000 0.603958679783 0.231291189492
146124000 0.604064235644 0.231128056125
146128000 0.604192794878 0.231180059429
146132000 0.604162897288 0.231021879156
146136000 0.604320373224 0.231046982805
146140000 0.604399720303 0.230837327837
146144000 0.604432241824 0.230945725476
146148000 0.604514965519 0.230782338169
146152000 0.604364065799 0.230805496622
146156000 0.604586107473 0.230630368229
146160000 0.604689415453 0.23064052633
146164000 0.604796306587 0.230420286474
146168000 0.604787895151 0.230497860845
146172000 0.605157655322 0.230433213179
146176000 0.605059489849 0.230395933439
146180000 0.605257552317 0.230403633724
146184000 0.605011215565 0.230330401263
146188000 0.605338425748 0.230319836762
146192000 0.60520381047 0.23022157807
146196000 0.605375290547 0.230260485863
146200000 0.605272436371 0.230101678653
146204000 0.605501978104 0.230090089415
146208000 0.605637314273 0.229955353786
146212000 0.60566021848 0.230044599658
146216000 0.605613180736 0.229887902685
146220000 0.605572542974 0.229768719725
146224000 0.605645661743 0.229639648327
146228000 0.605816537936 0.22969452118
146232000 0.605191946524 0.229067677521
146236000 0.607468062102 0.22924800684
146240000 0.60492208516 0.229966819343
146244000 0.608015450871 0.235913778884
146248000 0.605695560707 0.229512249335
146252000 0.607219191092 0.230538609778
146256000 0.613728863673 0.225829997211
146260000 0.60605973519 0.229167952116
146264000 0.606296061557 0.229014822346
146268000 0.606213052621 0.228956616248
146272000 0.606647466764 0.228944472008
146276000 0.606531929308 0.228922237679
146280000 0.606719315594 0.228932637184
146284000 0.606618935121 0.228873920035
146288000 0.606967597801 0.22879310067
146292000 0.60677025503 0.228742590604
146296000 0.606930774319 0.22856009855
146300000 0.606687229954 0.22861399974
146304000 0.607014374612 0.228483841025
146308000 0.607014313009 0.228452597189
146312000 0.607140544194 0.228490964048
146316000 0.60702638537 0.228428132511
146320000 0.607299125863 0.228382249354
146324000 0.60727815946 0.228172923962
146328000 0.607450121334 0.228190437342
146332000 0.607269477656 0.228124356703
146336000 0.607513691492 0.228038653765
146340000 0.607624656822 0.227900979238
146344000 0.607844513034 0.227942878582
146348000 0.607841605142 0.227817544693
146352000 0.607682366678 0.227907856939
146356000 0.607944638577 0.227888280085
146360000 0.607938024886 0.22778486576
146364000 0.608019274875 0.227613473041
146368000 0.607938850122 0.227749162154
146372000 0.608193859806 0.227626317587
146376000 0.608158114833 0.227590148767
146380000 0.608359370954 0.227536005618
146384000 0.60820686315 0.227489612269
146388000 0.60850706779 0.227342371574
146392000 0.608448312101 0.227289296983
146396000 0.608612300416 0.227166920482
146400000 0.608456688716 0.227147912531
146404000 0.608612594365 0.227211090287
146408000 0.608533699265 0.22715871466
146412000 0.608835647234 0.227160042639
146416000 0.609078015297 0.226996529838
146420000 0.609001462237 0.227063029391
146424000 0.609026128516 0.227088885918
146428000 0.608975527267 0.226948071155
146432000 0.609270204148 0.226956481247
146436000 0.609358604892 0.226882044348
146440000 0.609341050295 0.226794503536
146444000 0.609299610063 0.226636125969
146448000 0.609489134546 0.226564584376
146452000 0.609746491251 0.226487252153
146456000 0.609699039356 0.226509191984
146460000 0.6095746594 0.226338319132
146464000 0.60960744803 0.226480663276
146468000 0.609832437548 0.226088531889
146472000 0.60981121192 0.226251173845
146476000 0.609851161804 0.226071177722
146480000 0.609759504598 0.226029187835
146484000 0.609973420139 0.225847221907
146488000 0.610117192746 0.225965774235
146492000 0.610020160745 0.22598709654
146496000 0.610162915384 0.225884005006
146500000 0.610684118815 0.225799342943
146504000 0.610386604098 0.225807730305
146508000 0.610483135603 0.225739895903
146512000 0.61074018877 0.225750425225
146516000 0.610976950721 0.225530703674
146520000 0.610820011189 0.225679960224
146524000 0.610665601735 0.225516239894
146528000 0.610517773913 0.225535757594
146532000 0.610790023236 0.22531660739
146536000 0.610561224544 0.225375526166
146540000 0.610597435827 0.225219321692
146544000 0.61046156819 0.225248524476
146548000 0.610869979429 0.225021683454
146552000 0.610990133868 0.225178291223
146556000 0.611026300681 0.225017970868
146560000 0.611000481655 0.225091888677
146564000 0.611391788912 0.225018683608
146568000 0.611666807622 0.224878790974
146572000 0.611635491916 0.224873706521
146576000 0.611574174905 0.224888624217
146580000 0.611777348657 0.224823869622
146584000 0.611781344849 0.224736790158
146588000 0.611896822133 0.224866082092
146592000 0.611780349615 0.224932834118
146596000 0.611557991672 0.224784634883
146600000 0.612200425753 0.224532526431
146604000 0.612017654997 0.224615881271
146608000 0.6119954582 0.224539563974
146612000 0.612102927127 0.224498334852
146616000 0.612629055233 0.224233807314
146620000 0.612642404559 0.22428530759
146624000 0.612393484999 0.224148373087
146628000 0.612348881254 0.224203858983
146632000 0.612899848766 0.223953720686
146636000 0.612657358305 0.224072492809
146640000 0.612653424988 0.223803372514
146644000 0.612706946081 0.223906150574
146648000 0.613139442959 0.223683742884
146652000 0.613079472989 0.223678440838
146656000 0.613018529213 0.223676287358
146660000 0.612878455883 0.223688598209
146664000 0.613209289942 0.223503055244
146668000 0.613150533233 0.223347914138
146672000 0.613351416001 0.223290396862
146676000 0.612830633219 0.22333167495
146680000 0.613231248684 0.223102024697
146684000 0.613297799754 0.223140325488
146688000 0.613392875423 0.223045689032
146692000 0.613264371625 0.223221271079
146696000 0.613448339347 0.222908148302
146700000 0.613543721621 0.222881716619
146704000 0.614890987796 0.221427384885
146708000 0.613439530182 0.222979790557
146712000 0.613724620415 0.222766355913
146716000 0.612803063779 0.223262044877
146720000 0.613985807828 0.222799749448
146724000 0.613864840041 0.222837123885
146728000 0.614023040434 0.222741781612
146732000 0.614152152983 0.222621653676
146736000 0.614180912113 0.222531063742
146740000 0.614172937915 0.222523726639
146744000 0.614263269164 0.222474789929
146748000 0.614441859047 0.222309305122
146752000 0.61462700423 0.222337657289
146756000 0.614521786538 0.222336588423
146760000 0.614515753452 0.222450285351
146764000 0.614669393335 0.222243963192
146768000 0.614841465316 0.222098463849
146772000 0.614797714481 0.22213556315
146776000 0.614815986674 0.222139493273
146780000 0.614712913282 0.221679172389
146784000 0.6152328671 0.221857924666
146788000 0.615083044414 0.221806859452
146792000 0.615291362655 0.2221469245
146796000 0.615102931962 0.221701143748
146800000 0.615409116421 0.221626511473
146804000 0.615473284992 0.221384108962
146808000 0.615210667635 0.221697560135
146812000 0.615527002576 0.221254688979
146816000 0.615414736288 0.221456604585
146820000 0.615613881169 0.221058912916
146824000 0.615401621293 0.221378587134
146828000 0.615735368364 0.221070768938
146832000 0.61563575798 0.221208696195
146836000 0.615985481736 0.220944348784
146840000 0.61582560835 0.221121840633
146844000 0.615985741763 0.220780586297
146848000 0.615835957159 0.220853743043
146852000 0.616075759254 0.220669174008
146856000 0.616024782224 0.220784728474
146860000 0.616351165418 0.220552789943
146864000 0.616125568725 0.220582078138
146868000 0.616455095118 0.220563954784
146872000 0.616361365691 0.220360819395
146876000 0.616421499942 0.220486401537
146880000 0.616339267592 0.22028806919
146884000 0.616481168408 0.220198742115
146888000 0.61651696287 0.220251386817
146892000 0.616687586426 0.220298936805
146896000 0.616643349627 0.220228837809
146900000 0.616842238188 0.220108033844
146904000 0.616851264161 0.219966238211
146908000 0.616783250594 0.220130405537
146912000 0.617039525692 0.219785920422
146916000 0.617111440884 0.219946416044
146920000 0.617063224474 0.219661889082
146924000 0.617249744048 0.219959458038
146928000 0.617292927922 0.21962110472
146932000 0.617336627142 0.219902076089
146936000 0.617523069877 0.219573046529
146940000 0.617296550849 0.21979523918
146944000 0.617821198238 0.219125042516
146948000 0.617405191641 0.21962318454
146952000 0.617651714915 0.219292679273
146956000 0.616678848973 0.219230929375
146960000 0.617682870466 0.219089969198
146964000 0.617716468848 0.219268841225
146968000 0.617896878853 0.218983770854
146972000 0.617297265382 0.218991965327
146976000 0.617866759328 0.218828579997
146980000 0.617733548517 0.218960666642
146984000 0.618106284398 0.218567125032
146988000 0.617874019654 0.218876591521
146992000 0.618074327312 0.218648701683
146996000 0.617913454358 0.218816224254
147000000 0.618189822706 0.218475454069
147004000 0.618181035985 0.218551575938
147008000 0.618236029038 0.218501547161
147012000 0.618306980703 0.2185433208
147016000 0.618140069282 0.218256442292
147020000 0.618452035587 0.218301137552
147024000 0.618246025128 0.218401862293
147028000 0.618484933562 0.218173176174
147032000 0.618533972149 0.218198097955
147036000 0.618656790897 0.218133694429
147040000 0.618510123861 0.21810697587
147044000 0.618684487906 0.217934005073
147048000 0.618726621635 0.21793627889
147052000 0.618317590481 0.217874439851
147056000 0.61881479344 0.217931758312
147060000 0.618894767879 0.217669819558
147064000 0.616722158587 0.216931158358
147068000 0.619053605291 0.217546728085
147072000 0.618963862671 0.217643137107
147076000 0.618982013385 0.217459100213
147080000 0.619168073768 0.217470094629
147084000 0.619296502579 0.217161758735
147088000 0.619309475688 0.217362064687
147092000 0.619295217015 0.217202631334
147096000 0.619271616834 0.217367274454
147100000 0.619539438176 0.21693671466
147104000 0.619467694575 0.217104414972
147108000 0.619301955387 0.21703999181
147112000 0.619008357821 0.216790797779
147116000 0.619489027637 0.216825131941
147120000 0.619524338073 0.216846590658
147124000 0.619289398168 0.216880761303
147128000 0.619631820878 0.216804166775
147132000 0.619594948635 0.216628177105
147136000 0.620186864137 0.216874541576
147140000 0.61974025516 0.216566772674
147144000 0.619943112766 0.216631364476
147148000 0.620016889004 0.216362577693
147152000 0.620159190579 0.21649033583
147156000 0.620053444263 0.216336611074
147160000 0.620120611348 0.216359987617
147164000 0.620271651681 0.216183908729
147168000 0.620361427372 0.21624984008
147172000 0.620285633325 0.216154065137
147176000 0.620328198942 0.216133001473
147180000 0.620292246729 0.216005441872
147184000 0.620416771748 0.215922551363
147188000 0.620549322334 0.215868872237
147192000 0.620475707236 0.21597298583
147196000 0.62063495226 0.216019327336
147200000 0.620649076683 0.215840170004
147204000 0.620697085312 0.215846220418
147208000 0.620646703894 0.21586551057
147212000 0.620796109406 0.215546706759
147216000 0.62093588329 0.215660682855
147220000 0.620834362905 0.215606848034
147224000 0.620912877435 0.215567692431
147228000 0.621027617207 0.21539365482
147232000 0.621005255828 0.215451386009
147236000 0.620904749943 0.215397017531
147240000 0.620899772255 0.215348164162
147244000 0.620998739046 0.215231892802
147248000 0.621092991596 0.215208562559
147252000 0.621074970023 0.215210554873
147256000 0.62131289397 0.215079252247
147260000 0.621350757791 0.215032493807
147264000 0.621500690181 0.214994189363
147268000 0.621279843832 0.215006163971
147272000 0.621442147975 0.214807030274
147276000 0.621878344942 0.21489903305
147280000 0.621559743771 0.214752015389
147284000 0.621479049552 0.214928444092
147288000 0.621508599796 0.214698971121
147292000 0.62161606971 0.214805498075
147296000 0.621768097568 0.214631556597
147300000 0.621552474625 0.214573274428
147304000 0.621674484571 0.214659827756
147308000 0.621556495264 0.214572817448
147312000 0.621699031883 0.214297915345
147316000 0.621806436997 0.214319237007
147320000 0.621018824415 0.214459600013
147324000 0.62210185991 0.21436351871
147328000 0.621921917599 0.214193032269
147332000 0.620735242261 0.213683211142
147336000 0.621793181845 0.214212058074
147340000 0.622036994421 0.214174843766
147344000 0.622133354401 0.213949847694
147348000 0.622272820281 0.214083183692
147352000 0.622109941422 0.214066541801
147356000 0.622406321822 0.213940822786
147360000 0.622383209152 0.213907189568
147364000 0.622426008951 0.214008823357
147368000 0.622456406962 0.213897739719
147372000 0.622550551358 0.213721792114
147376000 0.622538433996 0.213760945626
147380000 0.622512615664 0.213664478084
147384000 0.622667123046 0.213739525329
147388000 0.62259522003 0.213618696298
147392000 0.622634112954 0.213544093069
147396000 0.622827600265 0.213453970292
147400000 0.622715671432 0.213349178487
147404000 0.62281066181 0.213447994431
147408000 0.622603980571 0.213235114474
147412000 0.622928524002 0.213139619255
147416000 0.622853052098 0.213058245614
147420000 0.622739258158 0.213238030874
147424000 0.622991919819 0.213100542083
147428000 0.622983865273 0.213029929533
147432000 0.623271877442 0.212980885109
147436000 0.622613737735 0.213241173445
147440000 0.62306240457 0.212906852916
147444000 0.62301507259 0.212794569168
147448000 0.623175880197 0.212985023521
147452000 0.622779589927 0.212990771801
147456000 0.622256642894 0.212665222545
147460000 0.623442149734 0.21278771156
147464000 0.623589426234 0.212799210322
147468000 0.623682303644 0.212868815912
147472000 0.623502362744 0.212593175304
147476000 0.623245983084 0.212579782244
147480000 0.623484861806 0.212490825753
147484000 0.623568298707 0.212582126427
147488000 0.623736496609 0.212562872736
147492000 0.623691250729 0.212454136338
147496000 0.62387832606 0.212457330952
147500000 0.623783342031 0.212311554889
147504000 0.623814515301 0.212493326268
147508000 0.623718272787 0.212296537543
147512000 0.62398217873 0.212187739686
147516000 0.623980481873 0.212041967947
147520000 0.623985564205 0.212279938176
147524000 0.624033398536 0.212060234916
147528000 0.624166605632 0.21211085607
147532000 0.624146414391 0.21194832952
147536000 0.623998899458 0.212244165994
147540000 0.624164401704 0.211900850046
147544000 0.624032167421 0.211956206874
147548000 0.624042080258 0.211775353194
147552000 0.62398795482 0.212128166656
147556000 0.624175500743 0.211705360389
147560000 0.624246979739 0.211980261954
147564000 0.624393046725 0.21182898817
147568000 0.624194407989 0.211976187157
147572000 0.62444458583 0.211671629293
147576000 0.624316688739 0.21208662029
147580000 0.624380603672 0.211575642347
147584000 0.62426748593 0.211720179764
147588000 0.624593709789 0.211582286104
147592000 0.624644618976 0.211618671288
147596000 0.624680034964 0.211431534882
147600000 0.624586125815 0.211359334315
147604000 0.62480236689 0.211428278337
147608000 0.624596618078 0.211426560577
147612000 0.624613375606 0.211304007469
147616000 0.624528278382 0.211515891632
147620000 0.624871435499 0.210937036408
147624000 0.624691343078 0.211282080677
147628000 0.624796844526 0.211127473207
147632000 0.624749555729 0.21141389005
147636000 0.625009356322 0.210986345216
147640000 0.624859201044 0.211150636707
147644000 0.625072873575 0.210986402368
147648000 0.624814531722 0.211309980407
147652000 0.624930845722 0.21100836534
147656000 0.624754969434 0.210990113851
147660000 0.625412626244 0.210944064427
147664000 0.625063396604 0.210956512914
147668000 0.625191724349 0.211073553138
147672000 0.625322885182 0.211039702434
147676000 0.62533257674 0.210811153398
147680000 0.625342455109 0.210893427087
147684000 0.625492762363 0.210982467636
147688000 0.625438762967 0.21069356719
147692000 0.625637632384 0.210860082477
147696000 0.625646860591 0.210686588459
147700000 0.625565571773 0.211025062642
147704000 0.625903520315 0.210613165167
147708000 0.62584456053 0.210870060332
147712000 0.625944547151 0.210658704849
147716000 0.625723161381 0.210999760159
147720000 0.626033609833 0.210453021444
147724000 0.626006061972 0.210781109555
147728000 0.626025683377 0.210480800898
147732000 0.625979962091 0.210851253797
147736000 0.626440238521 0.210391979893
147740000 0.626209905436 0.210528907955
147744000 0.626213478118 0.210017234404
147748000 0.626077835504 0.210507579218
147752000 0.626380224612 0.210299214595
147756000 0.626234199738 0.210273142231
147760000 0.626408121349 0.210032121769
147764000 0.626323749982 0.210293291454
147768000 0.62638259646 0.210328889108
147772000 0.626334920698 0.210158553967
147776000 0.626494985274 0.210001664533
147780000 0.626347921418 0.210181112802
147784000 0.626681951716 0.210356734101
147788000 0.626485597187 0.209952675795
147792000 0.626595897129 0.21007471397
147796000 0.626579845521 0.209978377477
147800000 0.626585304735 0.210258052317
147804000 0.626821331992 0.209898575761
147808000 0.626930514256 0.210036270353
147812000 0.626941298644 0.209959040836
147816000 0.626858468715 0.210180952252
147820000 0.626921893109 0.209665048686
147824000 0.626849921906 0.209948210874
147828000 0.626793947411 0.209809507979
147832000 0.626888485473 0.210238597105
147836000 0.626999273744 0.209754546022
147840000 0.626970313894 0.209949355026
147844000 0.627181603731 0.209689147817
147848000 0.627128430843 0.21007421183
147852000 0.627236599509 0.209879596349
147856000 0.627178185366 0.209840254113
147860000 0.629005624307 0.210495671801
147864000 0.627038226159 0.210358337379
147868000 0.627347114874 0.209897008937
147872000 0.631775520281 0.2113373508
147876000 0.627614109567 0.208952341543
147880000 0.627826527291 0.209791791096
147884000 0.627651373853 0.209846901409
147888000 0.627712052739 0.209572898025
147892000 0.627872848772 0.20958486429
147896000 0.627866969002 0.209629265144
147900000 0.62777878881 0.209790951313
147904000 0.627986081842 0.209535346754
147908000 0.628042506167 0.209630375914
147912000 0.628145997204 0.209598216957
147916000 0.627988260013 0.209801509622
147920000 0.628123334544 0.209362909974
147924000 0.628308495313 0.209559589133
147928000 0.628263638378 0.209387100489
147932000 0.628287855003 0.209709430862
147936000 0.628428219771 0.209352369556
147940000 0.628476432429 0.209447184378
147944000 0.628457252899 0.209183460261
147948000 0.628538266231 0.209485480641
147952000 0.628524683308 0.209264207187
147956000 0.628506289811 0.209219894067
147960000 0.628824653992 0.209035530557
147964000 0.628922166623 0.209296574373
147968000 0.628900255376 0.209463524301
147972000 0.629049653487 0.2092239829
147976000 0.629025061841 0.209088634668
147980000 0.629153040757 0.20913842337
147984000 0.628952443709 0.209435023963
147988000 0.629073367752 0.209002276063
147992000 0.629059605009 0.209101362658
147996000 0.629098786067 0.209094541077
148000000 0.629142980484 0.209311334618
