! Calibrated averaged scanner-service zoom
# Hz S RI R 50
450000000 0.641026399525 0.00520066098359
450010000 0.641257348729 0.00531211664341
450020000 0.640874360486 0.00584193344339
450030000 0.641344852277 0.00541562551852
450040000 0.641300813475 0.00510318552982
450050000 0.641429974118 0.0057386739296
450060000 0.64224912436 0.00515158944224
450070000 0.641546201664 0.00538277249158
450080000 0.641899222813 0.00521422257996
450090000 0.642451140444 0.0053409028615
450100000 0.642105410771 0.00464742023994
450110000 0.642632523739 0.00487987315407
450120000 0.641836681572 0.00474037062926
450130000 0.642424074273 0.00484427439322
450140000 0.642115343833 0.00497907850532
450150000 0.64166396735 0.00473582025614
450160000 0.641112435453 0.00454207179411
450170000 0.641490846869 0.00471877838439
450180000 0.641477490611 0.0041792798153
450190000 0.641421173887 0.00505116148086
450200000 0.642401112582 0.00565600063519
450210000 0.641834679543 0.00503405650513
450220000 0.641474481749 0.00477749548645
450230000 0.641504591989 0.00447381209209
450240000 0.641687327145 0.00456437174666
450250000 0.642495134635 0.00478160087592
450260000 0.642394181572 0.00455556883561
450270000 0.642083713715 0.00466295185806
450280000 0.642310357658 0.00491948719376
450290000 0.642391084184 0.0044236745366
450300000 0.642534670052 0.0045772850605
450310000 0.642077480123 0.00422054186198
450320000 0.641239650035 0.00251993477152
450330000 0.639341738463 0.00059653618907
450340000 0.637556982901 -0.00283522363001
450350000 0.638089031406 -0.00191771078999
450360000 0.639611115785 0.000904693415629
450370000 0.641867152183 0.00285491140303
450380000 0.642781004906 0.00420887682087
450390000 0.643094187899 0.00498415279622
450400000 0.642836967718 0.00515771243332
450410000 0.64360165161 0.00512115449579
450420000 0.643588816549 0.00443366538133
450430000 0.643574781021 0.00429886706116
450440000 0.643242012453 0.00429132343914
450450000 0.643542639623 0.00492812693944
450460000 0.643825002343 0.00538398671331
450470000 0.643305103286 0.00462476631785
450480000 0.643121534988 0.00482806680134
450490000 0.643357994343 0.00476950874941
450500000 0.643556859418 0.00464530183726
450510000 0.643920179654 0.00520451438065
450520000 0.643509987135 0.0049148959717
450530000 0.6432546583 0.00510425929808
450540000 0.643840641985 0.00492876426404
450550000 0.644032501846 0.0042135590062
450560000 0.642963175085 0.00360239882523
450570000 0.643237083829 0.00394664318177
450580000 0.643214997137 0.00378735374266
450590000 0.643204914928 0.00421675751639
450600000 0.643903869485 0.0042944615457
450610000 0.643744812666 0.00413105195371
450620000 0.643841986269 0.00452499454437
450630000 0.643630675936 0.00407548381155
450640000 0.643802731044 0.00478656732476
450650000 0.643603722656 0.0046638565174
450660000 0.644018732014 0.00483695087609
450670000 0.643484560807 0.00466670087594
450680000 0.643556146809 0.0047682862215
450690000 0.643281507061 0.00494593701353
450700000 0.64348252906 0.00499349297852
450710000 0.644055601089 0.00469381462176
450720000 0.643724372152 0.00397121860977
450730000 0.643764124325 0.00441952100044
450740000 0.644353564586 0.00437409424179
450750000 0.643425473847 0.00410662531499
450760000 0.643767029574 0.00348500356223
450770000 0.642863174847 0.0038640908628
450780000 0.643323616313 0.00324256786982
450790000 0.643705805675 0.00334843169782
450800000 0.643963234627 0.00329847720613
450810000 0.644062306066 0.0033599830548
450820000 0.6443338247 0.00299107048002
450830000 0.644089177602 0.00298817136901
450840000 0.643094060185 0.00303328878703
450850000 0.642729123549 0.00361589695648
450860000 0.642100735908 0.0026925987825
450870000 0.642348159596 0.00403048049564
450880000 0.64353820647 0.00358317478434
450890000 0.644586727383 0.00382962300529
450900000 0.644629130948 0.00320279652011
450910000 0.644734958471 0.00353411323854
450920000 0.645302064063 0.00315975782221
450930000 0.645043578939 0.00349614262773
450940000 0.644361523302 0.00351579783366
450950000 0.64426573673 0.00352694434627
450960000 0.6441608762 0.00380344885959
450970000 0.644161413055 0.0033192468226
450980000 0.644436289873 0.00358472545908
450990000 0.644355335231 0.00388122291742
451000000 0.644534911348 0.00391483656133
451010000 0.644544742246 0.00283376232524
451020000 0.64515026447 0.00264055427328
451030000 0.645337693074 0.00227865950092
451040000 0.645291600079 0.00219159027794
451050000 0.644117785257 0.0021684693574
451060000 0.644884341748 0.00252348266346
451070000 0.645085095309 0.00184926148093
451080000 0.644995850271 0.00290651040849
451090000 0.645091860364 0.00239224573278
451100000 0.644789230592 0.00206015623388
451110000 0.64517180514 0.00147524143797
451120000 0.645424934629 0.00231542249291
451130000 0.645074402929 0.00144823546306
451140000 0.645181554138 0.00212161352784
451150000 0.645291181297 0.00199589014524
451160000 0.64496082235 0.00175165027578
451170000 0.645690365273 0.00150819345609
451180000 0.646004242058 0.0016616712941
451190000 0.646072264283 0.00209136698052
451200000 0.645930170473 0.00157140924504
451210000 0.646499318656 0.00206383668664
451220000 0.64642461604 0.00151736038975
451230000 0.646277990864 0.00164634669125
451240000 0.646574326604 0.00134666418712
451250000 0.646328664626 0.000914129609568
451260000 0.6467317028 0.000459055179788
451270000 0.646247649552 0.000585520505043
451280000 0.646327589986 0.000668102921917
451290000 0.646100333276 0.00107683279298
451300000 0.646923967273 0.00153166221273
451310000 0.646106349332 0.00138211810244
451320000 0.646683498701 0.00186294375119
451330000 0.646240314288 0.00151827087651
451340000 0.646466563938 0.00128359047469
451350000 0.646635049086 0.000710748675188
451360000 0.647656141976 0.00120577206224
451370000 0.647541407187 0.000940771650807
451380000 0.645197557188 -0.000874475612378
451390000 0.64813210389 0.00129579406023
451400000 0.647163109587 0.000957101061762
451410000 0.646694985448 0.00141166017909
451420000 0.646597884363 0.00130787480157
451430000 0.646420426674 0.0015322961844
451440000 0.645200098099 0.000193861950672
451450000 0.645957240102 0.000894578264847
451460000 0.646946591003 0.000316159371875
451470000 0.647013976524 0.000988956535557
451480000 0.647557833507 6.48531590941e-05
451490000 0.646770467782 0.000114719105165
451500000 0.645994664021 -0.000376587108135
451510000 0.646552389855 0.000335762757626
451520000 0.646715800662 0.000263785378813
451530000 0.646550819593 -0.000278127701977
451540000 0.647560087437 0.000824506767373
451550000 0.648105914934 0.000590973039147
451560000 0.648383523761 8.30994629431e-05
451570000 0.647946975541 -0.000178769448106
451580000 0.647563092232 8.03968661267e-05
451590000 0.647775715756 -1.38599774308e-06
451600000 0.646843279636 0.000484995253661
451610000 0.647737721978 -0.000262676217306
451620000 0.647126899866 0.000317129925989
451630000 0.647129628962 0.000131750449822
451640000 0.646874589955 0.00042467866221
451650000 0.647720066307 0.000103556921881
451660000 0.647732554756 0.00039559494434
451670000 0.647917496851 0.000622774639585
451680000 0.647975740105 0.000823893325572
451690000 0.648255183636 0.000455517796336
451700000 0.648396341632 0.000315735440152
451710000 0.648088751851 0.000316975359778
451720000 0.648197828678 -2.86280887349e-05
451730000 0.647970443331 0.000121801678311
451740000 0.647921577025 4.32908425967e-05
451750000 0.647718210618 0.000675136776079
451760000 0.647826501744 0.000160244445633
451770000 0.648739579614 0.000636744973806
451780000 0.648717139554 4.51899450452e-05
451790000 0.648459446794 0.000412929018364
451800000 0.648479980884 0.000518090665064
451810000 0.64830804176 0.00059037396469
451820000 0.648351586806 0.000142973918889
451830000 0.647815652256 0.000372975428679
451840000 0.648477794938 0.000481163211229
451850000 0.648240868365 0.000796724783353
451860000 0.648761118725 -0.00015057561211
451870000 0.64844179664 0.000329916094907
451880000 0.648795378168 0.00031070916074
451890000 0.648408774952 0.00261949678373
451900000 0.648899218525 0.0013073728596
451910000 0.648911806465 0.000811713208347
451920000 0.649070650615 -7.16887842538e-05
451930000 0.648795377392 -0.000731950868665
451940000 0.648686138357 -0.000754592665581
451950000 0.648950890537 -0.000357058236601
451960000 0.648881269478 -0.000388268241205
451970000 0.648721099074 -0.000737365001126
451980000 0.648774769951 -0.000593872259892
451990000 0.648601954005 -0.000423927187136
452000000 0.64943603061 -0.000284619315715
452010000 0.650603251217 -0.00567251722661
452020000 0.650674907988 -0.00587587657266
452030000 0.650404261171 -0.00653462991768
452040000 0.650292335028 -0.00675475166058
452050000 0.650104140813 -0.00651825356876
452060000 0.650525873581 -0.00727834218975
452070000 0.650296339711 -0.00708181237106
452080000 0.650879631831 -0.006782657839
452090000 0.651071794872 -0.00693751984778
452100000 0.65104981126 -0.00690969044794
452110000 0.650677012454 -0.00738818974099
452120000 0.650761118058 -0.00773731321543
452130000 0.650857047381 -0.00768571547992
452140000 0.651351116475 -0.00806011278122
452150000 0.651044862227 -0.00792458967884
452160000 0.651131130844 -0.00867733270478
452170000 0.650525886462 -0.00808288032748
452180000 0.650572406254 -0.00791694316738
452190000 0.650590905503 -0.00845519417093
452200000 0.65052056283 -0.00830428489193
452210000 0.650685027674 -0.0079953524883
452220000 0.650431405217 -0.00815241433471
452230000 0.650694370458 -0.00806186337446
452240000 0.650448031507 -0.0079083289309
452250000 0.650114044566 -0.00771297042387
452260000 0.649691937235 -0.00805641137216
452270000 0.649359019227 -0.00769975521211
452280000 0.649604193587 -0.00829045586672
452290000 0.649967216068 -0.00823580497628
452300000 0.649976770038 -0.00848989560729
452310000 0.649921100477 -0.00861173930099
452320000 0.650128122236 -0.0086648843053
452330000 0.649662963205 -0.00876559677797
452340000 0.648810524846 -0.00822076393774
452350000 0.649156190366 -0.00839250430156
452360000 0.649028074193 -0.00852010860108
452370000 0.649168355123 -0.00910123253158
452380000 0.649084162861 -0.00890642822778
452390000 0.649720318371 -0.00914160617565
452400000 0.649103759984 -0.00913223244727
452410000 0.648609448958 -0.00922172212667
452420000 0.648673652866 -0.00918928067537
452430000 0.648907238771 -0.00969078220147
452440000 0.648728531362 -0.00850931106186
452450000 0.648897397558 -0.00881247972333
452460000 0.64835081024 -0.00883663106974
452470000 0.648537997042 -0.00938307731941
452480000 0.648365387801 -0.00874495108021
452490000 0.648196008534 -0.00929801434376
452500000 0.647856050274 -0.00891537764741
452510000 0.648279764681 -0.00938825460809
452520000 0.64847575562 -0.00860811861511
452530000 0.647862946849 -0.00927867935024
452540000 0.647792527773 -0.00851655422841
452550000 0.647790622044 -0.00882612119161
452560000 0.648138286111 -0.00939190427964
452570000 0.647601003332 -0.00908575711196
452580000 0.647244732487 -0.00801070597692
452590000 0.647906550745 -0.00796278591863
452600000 0.647352832308 -0.00885949234763
452610000 0.647593376286 -0.00831556868556
452620000 0.647231461647 -0.00899889226208
452630000 0.64761902495 -0.00904959792072
452640000 0.647376823209 -0.0089863553688
452650000 0.647537585758 -0.00942988534006
452660000 0.647364369632 -0.00914393553501
452670000 0.647126376291 -0.00849727948331
452680000 0.64776286127 -0.00865437514495
452690000 0.647663593702 -0.00851706707904
452700000 0.647021309839 -0.00819126575751
452710000 0.646581710843 -0.00823772727171
452720000 0.646538587561 -0.00861005383344
452730000 0.646362114361 -0.00909431959425
452740000 0.646865041629 -0.00747929419686
452750000 0.646623309244 -0.00793984640544
452760000 0.646915622256 -0.00806743856097
452770000 0.646032803369 -0.00775334062043
452780000 0.646737783099 -0.00747803399913
452790000 0.6467452237 -0.00759821447476
452800000 0.646918216963 -0.00721831604255
452810000 0.646772100219 -0.00789481622581
452820000 0.646719521082 -0.00791154964654
452830000 0.646282574176 -0.00777956009038
452840000 0.646542134452 -0.00772149877229
452850000 0.645812442033 -0.00792536434659
452860000 0.64601052993 -0.00746552458397
452870000 0.646066724324 -0.00741919762056
452880000 0.645719781403 -0.00719128036726
452890000 0.646959446045 -0.00744830109539
452900000 0.646831070382 -0.00678510944334
452910000 0.646471486506 -0.00719518100509
452920000 0.646540268222 -0.0072386288435
452930000 0.646474340538 -0.00720088059369
452940000 0.64646879831 -0.00714572005549
452950000 0.646870174365 -0.00695213213242
452960000 0.64657063605 -0.00712247965916
452970000 0.646562276627 -0.0075722762422
452980000 0.646519538056 -0.00684618166363
452990000 0.646134786302 -0.00672940354647
453000000 0.646490845585 -0.00678184927055
453010000 0.651498604433 -0.00274695312672
453020000 0.650024897394 0.00183542585001
453030000 0.651716946384 -0.00227962347633
453040000 0.652432526868 -0.00246569862871
453050000 0.65200099478 -0.00288865848733
453060000 0.652234823705 -0.0027520932986
453070000 0.651764991885 -0.00268382462444
453080000 0.651538892273 -0.00232706904923
453090000 0.651588079331 -0.0023942378759
453100000 0.651344279969 -0.00249623869792
453110000 0.651631329583 -0.00207592441847
453120000 0.652399129303 -0.00235528356724
453130000 0.651933296727 -0.00263158509318
453140000 0.652328022952 -0.0022724646427
453150000 0.652110588021 -0.00276363671535
453160000 0.651613286502 -0.00238856380602
453170000 0.651840537111 -0.00271541837028
453180000 0.652387645444 -0.00249328397321
453190000 0.652853202555 -0.00257582776896
453200000 0.652493412533 -0.0023279846513
453210000 0.652472961629 -0.0022513564534
453220000 0.652183915061 -0.00261187869196
453230000 0.65283995685 -0.00302916337204
453240000 0.652389650785 -0.00275500985447
453250000 0.652908965125 -0.00292007602856
453260000 0.653008193412 -0.00240784898005
453270000 0.653415615998 -0.00244764576831
453280000 0.653296373622 -0.00290308426547
453290000 0.653197524381 -0.00204426372868
453300000 0.65291279747 -0.00240599871698
453310000 0.652765133514 -0.00231817740328
453320000 0.653891278854 -0.00174988493674
453330000 0.65380439451 -0.00169494508489
453340000 0.654108197701 -0.00292799576779
453350000 0.654582714788 -0.00408869675853
453360000 0.656578055576 -0.00596385015268
453370000 0.656053558086 -0.00486392633336
453380000 0.654685741375 -0.00393209427783
453390000 0.653675258376 -0.0024845505278
453400000 0.65305043667 -0.00223462543068
453410000 0.652986695261 -0.0022243536721
453420000 0.65307172214 -0.00214028636745
453430000 0.65341266745 -0.00230608871347
453440000 0.653815721172 -0.00240013391908
453450000 0.653292159774 -0.00182856394857
453460000 0.652945154228 -0.00236502591209
453470000 0.652647460897 -0.00247746862293
453480000 0.652866992073 -0.00298208152162
453490000 0.653510365703 -0.00290655086215
453500000 0.652977757199 -0.00232401625002
453510000 0.653276746936 -0.00237794502312
453520000 0.653478720761 -0.00163609572425
453530000 0.653468569347 -0.00151018061349
453540000 0.653395601012 -0.0019452570161
453550000 0.653806645357 -0.00274857136576
453560000 0.65436219597 -0.00249761562891
453570000 0.654186845627 -0.00237922926365
453580000 0.654360146352 -0.00209673302515
453590000 0.654390636782 -0.00188763256677
453600000 0.653635274968 -0.00206982623303
453610000 0.654201471898 -0.00210026117662
453620000 0.653979918176 -0.00247369153094
453630000 0.654012306471 -0.00233872452194
453640000 0.653422118235 -0.00240699389704
453650000 0.6537920118 -0.00234700767686
453660000 0.653233440237 -0.00261758859614
453670000 0.652703993333 -0.00243811195959
453680000 0.652520753307 -0.00277091600694
453690000 0.653548847069 -0.00181652833704
453700000 0.652949574868 -0.0022760102408
453710000 0.652791542538 -0.00160220245935
453720000 0.653765764262 -0.00212330481644
453730000 0.653280535749 -0.00265447036102
453740000 0.6531210653 -0.00264724832595
453750000 0.652745249513 -0.00188106115115
453760000 0.653299705513 -0.00227977280326
453770000 0.652379827312 -0.00153268379792
453780000 0.653022479358 -0.00216465214681
453790000 0.653322079774 -0.00198775724319
453800000 0.653753450965 -0.00221880567724
453810000 0.653239014185 -0.00229123005749
453820000 0.653021558907 -0.00232870778663
453830000 0.653323019689 -0.00212302791924
453840000 0.653417615271 -0.00225108394369
453850000 0.653808823534 -0.00181438552656
453860000 0.653290673586 -0.00225880703611
453870000 0.653870083146 -0.00230875832994
453880000 0.653076289873 -0.00304148994488
453890000 0.653540572105 -0.0026292953526
453900000 0.653018554337 -0.00267130670936
453910000 0.652951206414 -0.00271501985166
453920000 0.653172281551 -0.00209010805859
453930000 0.653675345813 -0.00197311944081
453940000 0.653798321574 -0.00201080837104
453950000 0.653370123101 -0.00258021319584
453960000 0.653109452638 -0.00278803796043
453970000 0.65314584717 -0.0030753630501
453980000 0.653229448403 -0.00267689518533
453990000 0.653166093492 -0.00261995378039
454000000 0.652858223601 -0.00248042633433
454010000 0.642147840109 -0.0122782312366
454020000 0.642503153983 -0.0127243616842
454030000 0.642293445603 -0.0127426606831
454040000 0.642378697946 -0.0130293910687
454050000 0.641863642046 -0.0130999851602
454060000 0.642285703216 -0.0134384819009
454070000 0.642389454385 -0.0126850332042
454080000 0.64243660163 -0.0134901138505
454090000 0.642260047699 -0.0138413116932
454100000 0.642364043495 -0.013642055184
454110000 0.641772863193 -0.0140497752226
454120000 0.64288046092 -0.0143071598771
454130000 0.642954231172 -0.014308752694
454140000 0.643426671165 -0.0144944819419
454150000 0.64299877109 -0.0145844816503
454160000 0.642914375925 -0.0145565305256
454170000 0.642976085805 -0.0151910189179
454180000 0.642785707058 -0.0148501626314
454190000 0.642648672547 -0.0152219116033
454200000 0.643696519863 -0.0160616259686
454210000 0.643217380684 -0.0160565654198
454220000 0.643475293369 -0.0157740054174
454230000 0.643639377035 -0.0160934766891
454240000 0.64321767903 -0.0164006890601
454250000 0.64368076613 -0.0164454682863
454260000 0.644015784647 -0.0170167747706
454270000 0.644188640438 -0.0168930858831
454280000 0.643986441459 -0.0168886278311
454290000 0.643939391943 -0.0175124890531
454300000 0.643773167448 -0.0170856669683
454310000 0.64402415591 -0.0175210740194
454320000 0.644380291687 -0.0178671023544
454330000 0.644331176765 -0.017602780207
454340000 0.643845086333 -0.0177063259837
454350000 0.644681728048 -0.0177115168943
454360000 0.645162898814 -0.0185911470788
454370000 0.645175575947 -0.0188325557712
454380000 0.645112846614 -0.0187600010988
454390000 0.645299640297 -0.0190257283607
454400000 0.645361697616 -0.0188835787131
454410000 0.64485543835 -0.0189120706497
454420000 0.644979212389 -0.0185959786128
454430000 0.644518244163 -0.019044286754
454440000 0.645442562257 -0.0187665005889
454450000 0.645557531752 -0.019242488862
454460000 0.645178508834 -0.0199346190941
454470000 0.645316281795 -0.0204143770698
454480000 0.64507955942 -0.0198366413764
454490000 0.645347405337 -0.0202664800088
454500000 0.644512576661 -0.0209803801401
454510000 0.644883622632 -0.0202787779829
454520000 0.645165002403 -0.0205060108975
454530000 0.644950061943 -0.0206682349574
454540000 0.645925042728 -0.0209544294107
454550000 0.645860486304 -0.0204407575803
454560000 0.645441791013 -0.021286426301
454570000 0.645415094487 -0.0209203036926
454580000 0.646142378398 -0.0210461937261
454590000 0.646132418862 -0.0205448966608
454600000 0.646330152358 -0.0204131972129
454610000 0.646620129118 -0.0211387980029
454620000 0.646668452253 -0.0210542860373
454630000 0.646361992171 -0.0215009894108
454640000 0.646488378934 -0.0215921691238
454650000 0.646720422856 -0.0215101837267
454660000 0.646594306025 -0.0221474064744
454670000 0.646639935195 -0.0220919112415
454680000 0.64669684812 -0.0220016945273
454690000 0.646727043083 -0.0220314536376
454700000 0.646857262584 -0.0220017673156
454710000 0.647424655698 -0.022141992236
454720000 0.647365591793 -0.0220037619837
454730000 0.646789123863 -0.0218989033712
454740000 0.64693665726 -0.0222370220397
454750000 0.646616229028 -0.0228891197066
454760000 0.647477841018 -0.0227795214938
454770000 0.64754169493 -0.0226396992238
454780000 0.647911557992 -0.0226582590652
454790000 0.647484006164 -0.0225642499588
454800000 0.648083543844 -0.0220808551994
454810000 0.647521900318 -0.022245200191
454820000 0.647754782445 -0.0222395047636
454830000 0.647969525336 -0.0228991569473
454840000 0.647949885929 -0.0227441470707
454850000 0.647588771711 -0.0229733453749
454860000 0.647850922049 -0.0225432669772
454870000 0.647690038795 -0.0225072911458
454880000 0.647777601334 -0.0226235404726
454890000 0.647898439792 -0.022892817074
454900000 0.647769118431 -0.0229011650934
454910000 0.647720189381 -0.0227700365712
454920000 0.647848958905 -0.0231100154837
454930000 0.647959807731 -0.0231080452568
454940000 0.648433640111 -0.0235259355574
454950000 0.649168375808 -0.0203418743395
454960000 0.64863128445 -0.0156397120087
454970000 0.64333384988 -0.0214447799688
454980000 0.64786260373 -0.018772948038
454990000 0.636683499353 -0.0393944843686
455000000 0.658757573445 -0.0232010780887
455010000 0.641853235916 0.00316817948201
455020000 0.653019106826 -0.0217567281399
455030000 0.654214717228 -0.0172319769116
455040000 0.652448775126 -0.0159243223777
455050000 0.653391390795 -0.0168851412481
455060000 0.652913642353 -0.0155375394628
455070000 0.652221375266 -0.0159655684811
455080000 0.651764474553 -0.0160021378531
455090000 0.651968575718 -0.0166333303266
455100000 0.652045914403 -0.0163530335193
455110000 0.652662268743 -0.0168857241945
455120000 0.652522063959 -0.0163145514994
455130000 0.6520100425 -0.0162590435421
455140000 0.652139145723 -0.0163967369455
455150000 0.651521892752 -0.016033645553
455160000 0.65234758673 -0.0165103001099
455170000 0.652897915899 -0.0160179744282
455180000 0.653141809388 -0.0161328029481
455190000 0.653058631216 -0.0164121824793
455200000 0.653177904495 -0.0170273978612
455210000 0.652912234433 -0.0169796525346
455220000 0.653606406789 -0.0173229022087
455230000 0.652925021392 -0.0166670240871
455240000 0.653236870842 -0.0167740325509
455250000 0.653112986951 -0.0165036383784
455260000 0.652906537132 -0.0161665194546
455270000 0.652996828764 -0.0163128109053
455280000 0.653144415089 -0.0161921478149
455290000 0.653447794265 -0.0163394118577
455300000 0.653423203421 -0.0160087571531
455310000 0.652611537229 -0.016315881413
455320000 0.653255438811 -0.015835551026
455330000 0.65363286176 -0.0165357995546
455340000 0.653735529585 -0.0159353045225
455350000 0.653100156452 -0.0158344457297
455360000 0.653243510733 -0.0160391360406
455370000 0.653488020697 -0.0156459391585
455380000 0.653281426621 -0.015996861498
455390000 0.653100733791 -0.0157429509903
455400000 0.653243847927 -0.0153805223515
455410000 0.653956467982 -0.0156016743932
455420000 0.653951871358 -0.0156033653777
455430000 0.654311115831 -0.0155369748054
455440000 0.653877586188 -0.0156429806679
455450000 0.654875698898 -0.0159828466378
455460000 0.654171512264 -0.0152844734666
455470000 0.654269142123 -0.0156724098731
455480000 0.655131367121 -0.0161375430817
455490000 0.654914266337 -0.0158994810195
455500000 0.655826209649 -0.0152090902875
455510000 0.655640675338 -0.0159628605189
455520000 0.655767944706 -0.0153072892886
455530000 0.656328606545 -0.015223176488
455540000 0.656082209651 -0.0151145663673
455550000 0.656762197812 -0.0147406338927
455560000 0.656523020387 -0.0153933096892
455570000 0.656918210419 -0.0157595356159
455580000 0.656872895911 -0.0154925276406
455590000 0.656929131986 -0.0158946043697
455600000 0.657540588534 -0.0149965424156
455610000 0.657821344368 -0.015059061875
455620000 0.658287326816 -0.015866810123
455630000 0.6588674747 -0.0150711029531
455640000 0.659195640053 -0.015061982597
455650000 0.659796303306 -0.0152403255479
455660000 0.659732910401 -0.0152079944711
455670000 0.65943057741 -0.0158707661643
455680000 0.659485374612 -0.015298988102
455690000 0.659420584451 -0.0154737806628
455700000 0.659632575382 -0.0156998052632
455710000 0.659970215307 -0.0162376129827
455720000 0.660600491752 -0.0155488586998
455730000 0.660953520749 -0.0157757504656
455740000 0.66119044767 -0.0164347092883
455750000 0.660978449102 -0.016151742722
455760000 0.661126936358 -0.016333205601
455770000 0.662057101214 -0.0154665554605
455780000 0.662474349372 -0.0160952908781
455790000 0.66245458624 -0.0160757279173
455800000 0.662391238654 -0.016320809679
455810000 0.662463955281 -0.0161172321372
455820000 0.663214393971 -0.0164663427458
455830000 0.664126282977 -0.0162916115926
455840000 0.664022066263 -0.0166450827689
455850000 0.663808586159 -0.0171237227005
455860000 0.663840656233 -0.0169921223499
455870000 0.664369294328 -0.0172510525518
455880000 0.664322520111 -0.0173025596355
455890000 0.665324658335 -0.0177691720065
455900000 0.665425343091 -0.0169879868523
455910000 0.665886099732 -0.0167929727616
455920000 0.666140249266 -0.0169134984102
455930000 0.666803053996 -0.016494235398
455940000 0.666297333958 -0.0173812575281
455950000 0.666154136528 -0.0174404645447
455960000 0.667379901011 -0.0174750543078
455970000 0.667809346828 -0.0171333844531
455980000 0.667866345266 -0.0169703344141
455990000 0.668232290795 -0.017302869953
456000000 0.668090311831 -0.0171934290854
456010000 0.656964695195 -0.00947397298007
456020000 0.656523143894 -0.00925301581827
456030000 0.657387256046 -0.00893425499797
456040000 0.656942700116 -0.00813484416389
456050000 0.657309685323 -0.00864389671832
456060000 0.657927854328 -0.00794748609231
456070000 0.657827007959 -0.00834347904259
456080000 0.657573382628 -0.00818150862125
456090000 0.657299173556 -0.00807668274293
456100000 0.657909174638 -0.00758142625438
456110000 0.658340993418 -0.00799644336845
456120000 0.658590379767 -0.00735385724809
456130000 0.65912144805 -0.00763159143039
456140000 0.659845534427 -0.00740698004575
456150000 0.659687556637 -0.00750289579742
456160000 0.659202895029 -0.00696127895935
456170000 0.65977941683 -0.00666764520976
456180000 0.659043599613 -0.0065731911552
456190000 0.65953506454 -0.00721975482371
456200000 0.659405436282 -0.00734439288777
456210000 0.659652823668 -0.00687532162053
456220000 0.660112925609 -0.00687507566549
456230000 0.660472515269 -0.00691290794999
456240000 0.660473415251 -0.00646746677183
456250000 0.660812852857 -0.0066255464874
456260000 0.66094641752 -0.00630839492657
456270000 0.661297493262 -0.00611250737126
456280000 0.661815053469 -0.00632308778249
456290000 0.661661622086 -0.00558156659199
456300000 0.661976246066 -0.00607569235288
456310000 0.662395883354 -0.00530361222284
456320000 0.662721212247 -0.00583696744351
456330000 0.663197142928 -0.00621261745908
456340000 0.662376331698 -0.00543240977067
456350000 0.662025577526 -0.00584824946625
456360000 0.662836671394 -0.00564264770649
456370000 0.662402103319 -0.00526079152207
456380000 0.6632816127 -0.0050407671754
456390000 0.663443260331 -0.00522646462275
456400000 0.663611857772 -0.0053660894395
456410000 0.663598014221 -0.00637961649315
456420000 0.663941740156 -0.00571965690825
456430000 0.663361384649 -0.00502833785231
456440000 0.664578061246 -0.005406625755
456450000 0.664516755325 -0.00558168371929
456460000 0.664775076659 -0.00529512328939
456470000 0.664692404183 -0.00495943032034
456480000 0.664565443714 -0.00462841653228
456490000 0.664767966833 -0.00523665196573
456500000 0.664896271906 -0.0051576271167
456510000 0.664897267551 -0.00524768380424
456520000 0.665726132198 -0.00537961006668
456530000 0.665767789792 -0.00548624008446
456540000 0.665361722496 -0.00634103128879
456550000 0.665965085139 -0.00618955857306
456560000 0.665543497431 -0.00515649733732
456570000 0.666280556299 -0.005570845175
456580000 0.666841024461 -0.00538476353202
456590000 0.666471538154 -0.00516058833446
456600000 0.666204005389 -0.00503252215065
456610000 0.666312418726 -0.00480238800998
456620000 0.667014033002 -0.00486514069292
456630000 0.666894309399 -0.00456996362112
456640000 0.66762981762 -0.00469990289037
456650000 0.667005776849 -0.00463103261727
456660000 0.667233682648 -0.00461047894661
456670000 0.66756125153 -0.00508720178349
456680000 0.668123783273 -0.00542895553511
456690000 0.667605738101 -0.00498716911413
456700000 0.667985878394 -0.0045880818086
456710000 0.668696160498 -0.00515479280777
456720000 0.668285862393 -0.00563868712857
456730000 0.668094062693 -0.00543065104873
456740000 0.668924397607 -0.00592673891611
456750000 0.669202666347 -0.00576552152396
456760000 0.669062217888 -0.00535843890879
456770000 0.669861884556 -0.0052864906045
456780000 0.67017331972 -0.00618955838618
456790000 0.669967234382 -0.00597404464109
456800000 0.669758383465 -0.00586280957923
456810000 0.669794949355 -0.00594422041729
456820000 0.670032945629 -0.00673403067335
456830000 0.670495498413 -0.00586440585473
456840000 0.670726773393 -0.00596745522644
456850000 0.670811016344 -0.00616860415502
456860000 0.671191482858 -0.00634675766638
456870000 0.670560662166 -0.00615570506231
456880000 0.670357003607 -0.00667419949138
456890000 0.671087514837 -0.00651067734133
456900000 0.671094406025 -0.00623566377665
456910000 0.671108181642 -0.00637503519829
456920000 0.671315331358 -0.00750734521165
456930000 0.671699270225 -0.00780193657502
456940000 0.672278311936 -0.00774710536038
456950000 0.672535139499 -0.0080219656883
456960000 0.673144260521 -0.00751058509162
456970000 0.672492367242 -0.00807890367688
456980000 0.672286877377 -0.00845115845363
456990000 0.672316488947 -0.00861732293566
457000000 0.672741301573 -0.00929881171797
457010000 0.668805464953 -0.010033992566
457020000 0.668995201155 -0.01003608344
457030000 0.668223707119 -0.00996516953256
457040000 0.668946401122 -0.00977658835368
457050000 0.668374936334 -0.0104619168274
457060000 0.668309707192 -0.0104915496216
457070000 0.668287937531 -0.0106360298239
457080000 0.668369262882 -0.0106212523028
457090000 0.668004765846 -0.0104407799215
457100000 0.668299132232 -0.0102825982344
457110000 0.668706417987 -0.0107575075927
457120000 0.668228063786 -0.0107253735028
457130000 0.668658964897 -0.0106561849127
457140000 0.668150962892 -0.0108839601238
457150000 0.668544091135 -0.0106032777518
457160000 0.668217488048 -0.0105428857688
457170000 0.668268599777 -0.0107569956584
457180000 0.668610679251 -0.01059544047
457190000 0.668445163813 -0.010630722264
457200000 0.668471888311 -0.0103993779691
457210000 0.669034958728 -0.00977833389336
457220000 0.669140563501 -0.0105867357824
457230000 0.66893210161 -0.00911297134921
457240000 0.668713335276 -0.00980257866645
457250000 0.668858088813 -0.00865972471261
457260000 0.668148974182 -0.0101823669973
457270000 0.669181420979 -0.0111534003128
457280000 0.668566257402 -0.0105596685985
457290000 0.669179305378 -0.0106582156553
457300000 0.669136638904 -0.0101425827684
457310000 0.669345005173 -0.0113930079221
457320000 0.668619236589 -0.0107580285955
457330000 0.669581308885 -0.010556361644
457340000 0.668801511564 -0.0102785862209
457350000 0.668844349765 -0.0100348875181
457360000 0.668163574299 -0.0100795866328
457370000 0.669378966026 -0.0105062430021
457380000 0.669571853609 -0.0106543145284
457390000 0.670106702777 -0.0103509436461
457400000 0.670041900916 -0.0104810600719
457410000 0.669719445331 -0.0104583259246
457420000 0.669989693549 -0.0108300702021
457430000 0.66974987135 -0.010287078926
457440000 0.669933331576 -0.0102324753671
457450000 0.670272399891 -0.0104657507831
457460000 0.670039278546 -0.0105718216689
457470000 0.67052669708 -0.0102253047565
457480000 0.670651531077 -0.00986475887356
457490000 0.669659295419 -0.0109485766039
457500000 0.670522326964 -0.0105830863171
457510000 0.670685074815 -0.0107457901916
457520000 0.671165231171 -0.0113173388469
457530000 0.671131321085 -0.0111521854952
457540000 0.671218223498 -0.0110444366422
457550000 0.671178607095 -0.0112403377981
457560000 0.670904081673 -0.0108346070026
457570000 0.670918475524 -0.00989020129244
457580000 0.671528065307 -0.00963237028241
457590000 0.671312516136 -0.00893335789209
457600000 0.670964297488 -0.00951979446828
457610000 0.671255774852 -0.0102779093109
457620000 0.671286112598 -0.0111201865409
457630000 0.671153579697 -0.011387304556
457640000 0.671503402777 -0.0109684489602
457650000 0.671444597469 -0.0109286269453
457660000 0.671947164656 -0.0113281212482
457670000 0.671884086405 -0.0110290258654
457680000 0.672826440369 -0.0107736765297
457690000 0.672060663915 -0.0115645781419
457700000 0.671962186013 -0.0120400349334
457710000 0.672117752767 -0.0120948509719
457720000 0.671796896718 -0.0124196508766
457730000 0.671870174435 -0.0123778540486
457740000 0.672610363901 -0.0124293251854
457750000 0.672548295799 -0.0126479498284
457760000 0.67239661891 -0.0122136701911
457770000 0.672618740916 -0.0120044992583
457780000 0.672611271933 -0.0117247107607
457790000 0.673148253274 -0.0120130723577
457800000 0.672785721728 -0.0123845859244
457810000 0.672871925129 -0.0123488302924
457820000 0.672544025736 -0.0122614938699
457830000 0.673251796989 -0.0129550691911
457840000 0.673134368553 -0.0127920034946
457850000 0.673617075886 -0.013029734963
457860000 0.67285502704 -0.0125857166475
457870000 0.672990933779 -0.0124696172658
457880000 0.673140534092 -0.0125902756808
457890000 0.673370211621 -0.0132817407178
457900000 0.673708995056 -0.0131500094944
457910000 0.672890523107 -0.013153512157
457920000 0.673513280225 -0.0138178976765
457930000 0.672809018189 -0.0130790662267
457940000 0.672934121938 -0.0129888407073
457950000 0.672900810165 -0.0134013490993
457960000 0.672920274473 -0.0135013974319
457970000 0.67256813941 -0.0134830905515
457980000 0.673196895498 -0.0140412244132
457990000 0.673050198418 -0.0145068308694
458000000 0.672952133178 -0.0139161849952
458010000 0.672022845655 -0.0152674190309
458020000 0.672118926578 -0.0154514059913
458030000 0.672176738507 -0.0151952113153
458040000 0.672885294947 -0.0150235305774
458050000 0.673091482505 -0.015422135378
458060000 0.672235303171 -0.0154753949436
458070000 0.672294856822 -0.0152368238538
458080000 0.671735176297 -0.0147501936379
458090000 0.672479497645 -0.0148497636538
458100000 0.672389242214 -0.0152023310553
458110000 0.672462761514 -0.0147404011317
458120000 0.672029664424 -0.0150487079194
458130000 0.671901022145 -0.0144377142421
458140000 0.671769708266 -0.0148948571254
458150000 0.67176151608 -0.0147109624021
458160000 0.671978592821 -0.0149095154917
458170000 0.672540183124 -0.0150091664091
458180000 0.672220366594 -0.0153626800539
458190000 0.672039399927 -0.0155433143948
458200000 0.672251801432 -0.0156906767919
458210000 0.672317238453 -0.0153994870532
458220000 0.672537924712 -0.0148829116895
458230000 0.672376104495 -0.014981734274
458240000 0.672310679379 -0.0157203881088
458250000 0.672824037876 -0.0153802024777
458260000 0.672262020964 -0.015383672632
458270000 0.672121468593 -0.0155154564343
458280000 0.671271544551 -0.0153897937
458290000 0.671601295278 -0.0156620897545
458300000 0.671635388135 -0.0154249888985
458310000 0.672030631587 -0.0151539055347
458320000 0.672817298868 -0.0143821398177
458330000 0.672204118026 -0.0151132045888
458340000 0.672123805347 -0.0152878281074
458350000 0.673017520133 -0.0153159127355
458360000 0.672800314698 -0.0155473368563
458370000 0.672225507134 -0.0155666704693
458380000 0.672344059516 -0.0149820157847
458390000 0.672325761437 -0.0153437391157
458400000 0.67236413781 -0.014955791818
458410000 0.671709870052 -0.0146727517817
458420000 0.672812593597 -0.0150863636427
458430000 0.672632017913 -0.0153732487103
458440000 0.67255289311 -0.0152757166806
458450000 0.673173479762 -0.0156766322804
458460000 0.672944621659 -0.0156251143764
458470000 0.672876585095 -0.0152862410392
458480000 0.673157805097 -0.0162227926545
458490000 0.673578194571 -0.016266477417
458500000 0.672409471546 -0.0167544521525
458510000 0.673060527205 -0.0166596402915
458520000 0.673099737899 -0.0169246273887
458530000 0.673749257992 -0.0166499832685
458540000 0.673657195643 -0.0165493472856
458550000 0.673859639377 -0.0162614588154
458560000 0.673513419319 -0.0161912052043
458570000 0.673185343894 -0.0157670878637
458580000 0.673057325327 -0.0153878247982
458590000 0.673671299676 -0.0143374341043
458600000 0.672426637875 -0.0143215766589
458610000 0.674131349227 -0.0149792724959
458620000 0.673779390092 -0.0158551000241
458630000 0.673782980653 -0.0160236788172
458640000 0.673653314407 -0.0163498029976
458650000 0.673301542052 -0.0168145372143
458660000 0.67388281924 -0.0170137776783
458670000 0.673525518098 -0.0168093731615
458680000 0.674026402304 -0.0164045170915
458690000 0.674210190025 -0.0158079069288
458700000 0.673478497272 -0.0160462576645
458710000 0.673375964129 -0.0161974421519
458720000 0.674201092395 -0.0162319766503
458730000 0.673455465721 -0.0163701979587
458740000 0.673738890912 -0.0165588884748
458750000 0.673440028561 -0.0162366973155
458760000 0.674083125767 -0.016058984548
458770000 0.674049433583 -0.0168085322979
458780000 0.673203057304 -0.0167546781543
458790000 0.673061280773 -0.0165227000735
458800000 0.673007081466 -0.0167173735236
458810000 0.672633013384 -0.0165720485553
458820000 0.671879066325 -0.0161825824014
458830000 0.672021231521 -0.0168363733139
458840000 0.674172493716 -0.0178085636611
458850000 0.673867688077 -0.0174936143375
458860000 0.674260933479 -0.0177449621634
458870000 0.674181818179 -0.0171537861113
458880000 0.673988851133 -0.0174884763371
458890000 0.674403123247 -0.0171228890214
458900000 0.6744767143 -0.0166885662716
458910000 0.674962259371 -0.0168581360486
458920000 0.674258434206 -0.0163391525739
458930000 0.674390655735 -0.0173370919714
458940000 0.674522583191 -0.0170165200426
458950000 0.674536075227 -0.0170641365792
458960000 0.674461141843 -0.0170076358354
458970000 0.674999563153 -0.017424634944
458980000 0.674567641186 -0.017049270814
458990000 0.674288150729 -0.0168502996947
459000000 0.67484072489 -0.0177293062052
459010000 0.675217445423 -0.017252155976
459020000 0.675218568939 -0.0173506822263
459030000 0.676022798428 -0.0172583593132
459040000 0.675193974133 -0.0172779254013
459050000 0.67535813481 -0.0163671966142
459060000 0.674768704542 -0.0172096663445
459070000 0.674886646639 -0.0177762586164
459080000 0.674969238579 -0.0180883655639
459090000 0.674981423733 -0.017763953863
459100000 0.674778606932 -0.0180908839121
459110000 0.674550250137 -0.0180855289616
459120000 0.675111016925 -0.0179582268045
459130000 0.675328121226 -0.0179941414184
459140000 0.67548979381 -0.0178581069397
459150000 0.675836054542 -0.0177635406494
459160000 0.675533659987 -0.0175350107169
459170000 0.674907378549 -0.0179305659433
459180000 0.675257267216 -0.0178335915978
459190000 0.675510451812 -0.018010491482
459200000 0.675652799713 -0.0178083419425
459210000 0.675829761932 -0.0175832737309
459220000 0.6762903221 -0.0182642668183
459230000 0.676080918526 -0.0181114236889
459240000 0.675789573318 -0.0175256281519
459250000 0.675874942594 -0.0172860227952
459260000 0.676584855165 -0.0174002460588
459270000 0.676068062586 -0.0176910131823
459280000 0.676016498682 -0.0181078143884
459290000 0.676234849308 -0.0183227113688
459300000 0.676436793581 -0.0180859817507
459310000 0.676518157132 -0.019269827537
459320000 0.664094528799 -0.0126781405589
459330000 0.676269248699 -0.0182620366609
459340000 0.676470332855 -0.0179177996011
459350000 0.676467342314 -0.0179481457953
459360000 0.676266081913 -0.0185483776927
459370000 0.676304949832 -0.0180752949934
459380000 0.676434533405 -0.0180822882057
459390000 0.676748025296 -0.0184303944773
459400000 0.676345331712 -0.0182597790697
459410000 0.676934123113 -0.0186506070792
459420000 0.677199063127 -0.0187752759133
459430000 0.676469124279 -0.0183506935791
459440000 0.677296419367 -0.018481246045
459450000 0.67659670507 -0.0184653412416
459460000 0.676801208725 -0.018785813262
459470000 0.677780256511 -0.0187211781918
459480000 0.677356999852 -0.0184150597907
459490000 0.677295813422 -0.0191480314457
459500000 0.677230520605 -0.0186964235844
459510000 0.677556391854 -0.0185808021503
459520000 0.677756829476 -0.0183576100048
459530000 0.677218637484 -0.0187917490639
459540000 0.676789783278 -0.0187998470268
459550000 0.676920563835 -0.018618630906
459560000 0.677019369957 -0.019228444514
459570000 0.677498038685 -0.0197232501967
459580000 0.677092973043 -0.0199318284626
459590000 0.676901321939 -0.0195463805541
459600000 0.676850075855 -0.0190335522778
459610000 0.677227873346 -0.0192661064205
459620000 0.67721193569 -0.0187497897976
459630000 0.676942992868 -0.0189728894903
459640000 0.677931849277 -0.0194810008062
459650000 0.677592481585 -0.0198270629292
459660000 0.677164905542 -0.0203409185858
459670000 0.677529168863 -0.0198476873803
459680000 0.677461862299 -0.019982207407
459690000 0.67792082841 -0.0198716743182
459700000 0.678108763954 -0.0196527728266
459710000 0.677869607462 -0.0193739041125
459720000 0.678360787094 -0.0192916328963
459730000 0.677553198421 -0.0195793613275
459740000 0.677645041054 -0.0198423722585
459750000 0.677409848837 -0.0196275207841
459760000 0.677563565337 -0.019716046577
459770000 0.677773189613 -0.0197167271527
459780000 0.678439025664 -0.0192631413549
459790000 0.678545920691 -0.0182706985825
459800000 0.679002024707 -0.0171725992629
459810000 0.679447206793 -0.0179591252893
459820000 0.678667722272 -0.0192181875483
459830000 0.678259435241 -0.0204077696694
459840000 0.677993145325 -0.0206997932433
459850000 0.677938601292 -0.0203755057507
459860000 0.678004290697 -0.0200368613842
459870000 0.678673162968 -0.0205213817591
459880000 0.678160970735 -0.020486681368
459890000 0.677803139399 -0.0201642604872
459900000 0.678378098861 -0.0205270876353
459910000 0.678551537504 -0.0202732724194
459920000 0.67894927784 -0.0204909736976
459930000 0.678668094043 -0.0202787505297
459940000 0.678964546802 -0.0203355696835
459950000 0.678411240168 -0.0205559315326
459960000 0.678223744843 -0.0207152147609
459970000 0.678484567365 -0.0208794724596
459980000 0.678055116698 -0.020966860145
459990000 0.678477809302 -0.0205809152853
460000000 0.678647570905 -0.0208723095678
460010000 0.678634832754 -0.0202729697769
460020000 0.678791417216 -0.0202586733854
460030000 0.678650975802 -0.0208653064236
460040000 0.678710745795 -0.0211651062212
460050000 0.678284008239 -0.020814561497
460060000 0.678373975955 -0.0212054466283
460070000 0.678179447113 -0.0212005202508
460080000 0.678557479851 -0.0203913015453
460090000 0.678095248931 -0.0203930807051
460100000 0.67796922623 -0.0206799629496
460110000 0.678320749613 -0.0208238914419
460120000 0.678192553759 -0.02107913459
460130000 0.678602586117 -0.0207526893194
460140000 0.678104421061 -0.0205946254762
460150000 0.677874852548 -0.0202588132037
460160000 0.678826322258 -0.0202303750324
460170000 0.679049958567 -0.0206841392845
460180000 0.679224056616 -0.0207283588431
460190000 0.678852592903 -0.0207251145686
460200000 0.678944998007 -0.0208663734074
460210000 0.678849876212 -0.0210329593967
460220000 0.678610892968 -0.0210145912851
460230000 0.678729488744 -0.021379536186
460240000 0.678678312956 -0.0211534647426
460250000 0.67829452221 -0.0212114661601
460260000 0.679301401467 -0.0211348112994
460270000 0.678976071032 -0.0209869392507
460280000 0.678843060512 -0.0212205493925
460290000 0.678735118617 -0.0215889842894
460300000 0.678801764258 -0.0211214184608
460310000 0.680374943336 -0.0210419599175
460320000 0.679270797446 -0.0214677328924
460330000 0.678969223138 -0.0216638764308
460340000 0.678598690966 -0.021958674948
460350000 0.6786445763 -0.0213032020386
460360000 0.679045398004 -0.0217803344287
460370000 0.679272268383 -0.0221253331478
460380000 0.679391480115 -0.0221367494733
460390000 0.680610561908 -0.0233363147839
460400000 0.680700040169 -0.0269657168225
460410000 0.691344600092 -0.0178054784062
460420000 0.680537676186 -0.023223412593
460430000 0.679910762394 -0.0224357657205
460440000 0.679235166321 -0.0218401614247
460450000 0.679563144334 -0.021802205082
460460000 0.67938645244 -0.0220024413067
460470000 0.679312402044 -0.0216167486593
460480000 0.679717280503 -0.0213667393728
460490000 0.679882371616 -0.0216610930512
460500000 0.679369422858 -0.0213082075882
460510000 0.679633954499 -0.0212129835069
460520000 0.67914967667 -0.021190563942
460530000 0.67982099116 -0.0219451356551
460540000 0.679598570113 -0.0220011006947
460550000 0.678883499684 -0.0219950793784
460560000 0.684881581255 -0.0195750823139
460570000 0.677070208498 -0.0173808530295
460580000 0.677875758459 -0.0138972580715
460590000 0.677926510249 -0.0177625697637
460600000 0.679088791998 -0.0203468869724
460610000 0.679948460939 -0.0216855424645
460620000 0.680288855401 -0.0226206770361
460630000 0.680086028701 -0.0219877597914
460640000 0.680144308507 -0.0203718391001
460650000 0.680305501653 -0.0222145713209
460660000 0.681253692476 -0.0215815667638
460670000 0.680834367417 -0.0215028979564
460680000 0.680342655814 -0.0215186037651
460690000 0.680677191946 -0.0213824797398
460700000 0.680537419208 -0.0216488088169
460710000 0.680848085636 -0.0218050095098
460720000 0.68067186026 -0.0216547232428
460730000 0.680775936687 -0.0223334016346
460740000 0.680485643151 -0.0223917879533
460750000 0.68125482745 -0.0223125249876
460760000 0.681086104054 -0.0228103265866
460770000 0.680654787236 -0.0229162879779
460780000 0.68101177838 -0.0234955706561
460790000 0.680783562078 -0.0225829798688
460800000 0.679982921091 -0.0225661322135
460810000 0.679920879205 -0.0221169057579
460820000 0.680172536795 -0.0228393714998
460830000 0.680627456216 -0.0228188381255
460840000 0.68117942795 -0.0235798254888
460850000 0.681227827943 -0.0237716769662
460860000 0.681333999347 -0.0236676802968
460870000 0.681237850197 -0.0236783869957
460880000 0.680334741929 -0.0224748765073
460890000 0.680381940025 -0.0218719238323
460900000 0.679776041086 -0.0217137686095
460910000 0.680289700432 -0.0222412718543
460920000 0.681515094959 -0.0232430900194
460930000 0.681114340943 -0.0232910428327
460940000 0.681269692009 -0.0241506440475
460950000 0.681224334399 -0.0239572920646
460960000 0.681198440131 -0.0238920862106
460970000 0.681157578424 -0.0236215203523
460980000 0.681451438633 -0.0233585977704
460990000 0.681215922969 -0.023436645573
461000000 0.680972830355 -0.0243772965067
461010000 0.682070062448 -0.0242139568992
461020000 0.681398826278 -0.0246487767646
461030000 0.681971022667 -0.0239301148762
461040000 0.681590655291 -0.0244741833795
461050000 0.681640032675 -0.0239582529939
461060000 0.681835689583 -0.0237227346177
461070000 0.682028248325 -0.0239055269498
461080000 0.681679740176 -0.0241286847903
461090000 0.681432105169 -0.0239632210837
461100000 0.681543873181 -0.0240137731391
461110000 0.681790998766 -0.0244397757889
461120000 0.682001614585 -0.0243626928627
461130000 0.681692982054 -0.0241460548718
461140000 0.682043598562 -0.0238617103845
461150000 0.68144565955 -0.0246711639813
461160000 0.681282393146 -0.0247435020613
461170000 0.681888747426 -0.0244578540178
461180000 0.683161386306 -0.0212410597687
461190000 0.682020061695 -0.0241674722946
461200000 0.68173859769 -0.0240687062616
461210000 0.681355717805 -0.0245942583176
461220000 0.681643812511 -0.024474586063
461230000 0.682001798124 -0.0244860499089
461240000 0.682023412918 -0.0241603827686
461250000 0.681818891481 -0.0247751348477
461260000 0.682109150948 -0.0245835153992
461270000 0.681844502099 -0.0249063618536
461280000 0.681626246159 -0.0250919713997
461290000 0.682356602321 -0.0250501257114
461300000 0.68219063373 -0.0249525423038
461310000 0.681827702924 -0.0249696794223
461320000 0.681987924299 -0.0252841605062
461330000 0.682546876213 -0.0247283427269
461340000 0.681991939278 -0.0253518058276
461350000 0.682170553461 -0.0252340738795
461360000 0.682250026375 -0.0252487618806
461370000 0.681986080155 -0.0251499980703
461380000 0.68215252986 -0.0253224630706
461390000 0.681851776479 -0.0253068251108
461400000 0.682181950584 -0.0251807128201
461410000 0.682617049436 -0.0250985339557
461420000 0.683322564474 -0.0245527785075
461430000 0.683516428163 -0.0257312208762
461440000 0.683130874915 -0.0257257922427
461450000 0.682857170025 -0.0258679074093
461460000 0.683270010554 -0.0254582422722
461470000 0.683429941166 -0.0252765894805
461480000 0.683508672445 -0.0257438814342
461490000 0.681271187304 -0.0380420995619
461500000 0.682544057539 -0.0254911773047
461510000 0.682403523214 -0.0256907651997
461520000 0.6822464592 -0.0253746470234
461530000 0.68279867237 -0.0259080739672
461540000 0.682943965402 -0.0255332044721
461550000 0.683230544655 -0.0262379375585
461560000 0.682794011729 -0.025905424154
461570000 0.683114291896 -0.0263311488012
461580000 0.683094347859 -0.0262615699417
461590000 0.683193990545 -0.0257746744963
461600000 0.682985325713 -0.0262291330293
461610000 0.683387516687 -0.0259274850623
461620000 0.682843484292 -0.0259063565068
461630000 0.682836867133 -0.026352026407
461640000 0.683109835785 -0.0262399454198
461650000 0.683008090552 -0.0264591897776
461660000 0.683222504351 -0.0264320075338
461670000 0.682804595185 -0.0263845522061
461680000 0.682620724693 -0.0268192579289
461690000 0.683334669565 -0.0270634608641
461700000 0.683289636138 -0.0263294760375
461710000 0.683349876188 -0.0267740699473
461720000 0.683656712041 -0.0267171534388
461730000 0.683564754414 -0.0263637666489
461740000 0.682588666888 -0.0269457191292
461750000 0.681745085596 -0.0290353331385
461760000 0.682429528522 -0.0269931741836
461770000 0.682204877484 -0.028049614097
461780000 0.683317760091 -0.0275627183665
461790000 0.683640356141 -0.0271276182487
461800000 0.683501136981 -0.0272769539971
461810000 0.68396890047 -0.0272004735676
461820000 0.684178931488 -0.0271242324018
461830000 0.684206136955 -0.0281085650224
461840000 0.684200995079 -0.028001409188
461850000 0.684101903092 -0.0278247072757
461860000 0.684052749132 -0.0268841308485
461870000 0.683716109517 -0.0274525649147
461880000 0.683946174542 -0.0271475444788
461890000 0.683882887697 -0.0272936475348
461900000 0.683964058833 -0.0272317214721
461910000 0.683775819638 -0.0272284117294
461920000 0.683745071502 -0.0271834449824
461930000 0.684290646913 -0.0270271818659
461940000 0.684343232995 -0.0277938178259
461950000 0.683935175423 -0.0274460268476
461960000 0.683672340648 -0.0272939422236
461970000 0.684614280551 -0.0276316290821
461980000 0.683925741688 -0.0281701428571
461990000 0.684411129936 -0.0276398064773
462000000 0.684448286926 -0.0279334340868
462010000 0.683819516018 -0.0272742336375
462020000 0.683603999394 -0.0281008728128
462030000 0.683495296315 -0.0277908952022
462040000 0.683426714001 -0.0274435298197
462050000 0.683808393364 -0.0274267814501
462060000 0.683806428991 -0.0277887690614
462070000 0.683748028733 -0.0279199952092
462080000 0.684040034196 -0.0275926950096
462090000 0.68448590652 -0.0276443796881
462100000 0.684538388223 -0.0280745830138
462110000 0.684522653584 -0.0281088213658
462120000 0.684446781141 -0.0279497476366
462130000 0.684290138568 -0.0276131076089
462140000 0.68427180134 -0.0278328799239
462150000 0.684583623384 -0.0278498829801
462160000 0.684444958157 -0.0279664504702
462170000 0.684804125435 -0.0279733051554
462180000 0.684195926488 -0.0287342964782
462190000 0.685866547244 -0.0284609700581
462200000 0.685708360057 -0.0319522576898
462210000 0.685515054168 -0.0332641427198
462220000 0.687491321674 -0.0349390563084
462230000 0.686570587138 -0.0332958599102
462240000 0.685345232991 -0.0296231083613
462250000 0.68466547791 -0.0278835673872
462260000 0.684468686691 -0.0279614486331
462270000 0.684649129672 -0.0271794081309
462280000 0.684584768378 -0.0286153447804
462290000 0.685331890463 -0.0284093534918
462300000 0.684020161603 -0.027141755821
462310000 0.684549944444 -0.0276649823355
462320000 0.685786016768 -0.0287022207861
462330000 0.6844584863 -0.0279918825001
462340000 0.684296682956 -0.0289010883078
462350000 0.684572106129 -0.0283841310439
462360000 0.685675243893 -0.0287710661497
462370000 0.686376194682 -0.0287198452543
462380000 0.685853768749 -0.0279546279975
462390000 0.685705014202 -0.0294171480591
462400000 0.684617897547 -0.0285744896323
462410000 0.684792476623 -0.0290475689305
462420000 0.683086027955 -0.0291739083931
462430000 0.68378664334 -0.0297287543252
462440000 0.684711122004 -0.0312474302531
462450000 0.685038304029 -0.029605223002
462460000 0.68476625022 -0.0283306658937
462470000 0.684980957494 -0.0303941366367
462480000 0.686475006636 -0.0288839640603
462490000 0.685885680379 -0.0296650660103
462500000 0.685831354836 -0.0300544639346
462510000 0.68372750226 -0.0291186303409
462520000 0.685755959454 -0.0291674469443
462530000 0.6875599622 -0.0287677696293
462540000 0.685184004377 -0.0297997395635
462550000 0.686378373328 -0.0301353165028
462560000 0.685317208618 -0.0296599134875
462570000 0.683590255141 -0.0285165894943
462580000 0.683416244522 -0.0299574988335
462590000 0.685869535288 -0.0302794767413
462600000 0.685743625163 -0.0301141255599
462610000 0.685021518353 -0.0298092202095
462620000 0.685634995899 -0.0295204862009
462630000 0.685207397927 -0.029170297103
462640000 0.684707278049 -0.0311660414723
462650000 0.685950978827 -0.0308666135063
462660000 0.686701504989 -0.0321945357926
462670000 0.686569427153 -0.0294529105095
462680000 0.686077849563 -0.0296122930716
462690000 0.686371120779 -0.0303671833962
462700000 0.686643016005 -0.0304759742457
462710000 0.685984619086 -0.0309922570147
462720000 0.686288599273 -0.0300789895557
462730000 0.685204707922 -0.0302532875289
462740000 0.685751871553 -0.0302813208632
462750000 0.685851091564 -0.0300576986844
462760000 0.685984453224 -0.0304297100483
462770000 0.685782455585 -0.030634122493
462780000 0.685691760467 -0.0302489685461
462790000 0.685738433837 -0.0303761857836
462800000 0.685758672618 -0.0301066029786
462810000 0.686099968031 -0.030960005584
462820000 0.685489024802 -0.0308690906711
462830000 0.686177169493 -0.0304951057346
462840000 0.685663140471 -0.0304162326167
462850000 0.686335344699 -0.0312309226672
462860000 0.68640216263 -0.0308616663787
462870000 0.686592849476 -0.030524409008
462880000 0.68690303887 -0.0303770012773
462890000 0.686712719754 -0.0301649669359
462900000 0.686666676997 -0.0301985922497
462910000 0.686595183686 -0.0308842914574
462920000 0.686189433731 -0.0308515161385
462930000 0.686213265329 -0.0312807891175
462940000 0.685993818138 -0.0313016366504
462950000 0.686492432849 -0.031590979321
462960000 0.686407859592 -0.0319856876453
462970000 0.686541012974 -0.0312636204479
462980000 0.686772435184 -0.0310979010525
462990000 0.686324092866 -0.0302742066738
463000000 0.687004464077 -0.0305168658764
463010000 0.686649722038 -0.0309693344654
463020000 0.686376991766 -0.0306213099152
463030000 0.686844471749 -0.0313932080889
463040000 0.686072947845 -0.0308346274349
463050000 0.686736060691 -0.0304775080204
463060000 0.686904146038 -0.0311820622414
463070000 0.686525574767 -0.0309059618789
463080000 0.687728384376 -0.0312517150425
463090000 0.68684081674 -0.0312455674972
463100000 0.685933648276 -0.031436144125
463110000 0.684860861021 -0.0309867774698
463120000 0.688515366965 -0.0340176415352
463130000 0.686862098756 -0.0317504372822
463140000 0.686447033228 -0.0319559161268
463150000 0.686915713943 -0.0317341406614
463160000 0.687224889015 -0.0316267495213
463170000 0.687185200179 -0.0316509663397
463180000 0.686720235414 -0.0320695511564
463190000 0.686523193513 -0.0321293897188
463200000 0.687026152951 -0.0320464035447
463210000 0.687416832618 -0.0324375002768
463220000 0.688323918019 -0.032136641039
463230000 0.688066787944 -0.0314926975435
463240000 0.687889510927 -0.0315215986749
463250000 0.687607747363 -0.0313547310098
463260000 0.68691201472 -0.0317669174428
463270000 0.687156398612 -0.0314055394365
463280000 0.687166594283 -0.0319606459379
463290000 0.687218728813 -0.0323464538693
463300000 0.686946842874 -0.0324643607106
463310000 0.686831889174 -0.0331738001886
463320000 0.688340238365 -0.0324887814483
463330000 0.687330752405 -0.0324956761615
463340000 0.686628502645 -0.0324401726719
463350000 0.68755488208 -0.0321480396508
463360000 0.687442999059 -0.0322978395105
463370000 0.686955803046 -0.032765414223
463380000 0.686724191046 -0.0327740195538
463390000 0.686987225434 -0.0328969485775
463400000 0.686889492184 -0.0358849852138
463410000 0.687172259067 -0.0329861219627
463420000 0.687560218601 -0.0331421963697
463430000 0.687806918507 -0.0330979309191
463440000 0.687237196545 -0.0330267895994
463450000 0.686871846903 -0.0337392847584
463460000 0.687059602517 -0.0327128353485
463470000 0.68784360839 -0.0331964007377
463480000 0.687307718587 -0.0332733905786
463490000 0.687081323154 -0.0330105939635
463500000 0.687602649897 -0.0329881959963
463510000 0.686974226801 -0.0326244692413
463520000 0.687517582341 -0.0331319821107
463530000 0.687493341362 -0.0329381097767
463540000 0.687949220291 -0.0328082233444
463550000 0.687702660403 -0.0332583457877
463560000 0.68876831095 -0.0332679167352
463570000 0.687520124891 -0.0339196945542
463580000 0.687983484538 -0.0331985695836
463590000 0.688092476328 -0.0337080046299
463600000 0.688230589084 -0.0338022743025
463610000 0.688174575651 -0.0337751063498
463620000 0.688111282832 -0.0333749827803
463630000 0.687223116339 -0.0325840409263
463640000 0.687092679373 -0.0313392934215
463650000 0.68669403118 -0.0302034856498
463660000 0.686552443395 -0.0303588296176
463670000 0.687957510672 -0.0316542354684
463680000 0.688033583958 -0.0330017303921
463690000 0.689035884825 -0.0336231607479
463700000 0.688586359778 -0.0335722208491
463710000 0.688542499436 -0.0336192974239
463720000 0.688910889619 -0.0334458403099
463730000 0.688062378998 -0.033479427935
463740000 0.687728357471 -0.0337294116031
463750000 0.687818841831 -0.0342458695488
463760000 0.687906328096 -0.0345291760799
463770000 0.687665431411 -0.0350711990368
463780000 0.687936143777 -0.0340455363999
463790000 0.688492111843 -0.0347381600886
463800000 0.688408897767 -0.034284156826
463810000 0.68811856898 -0.0344184358057
463820000 0.688490044721 -0.0342148389503
463830000 0.688765971273 -0.0348756464751
463840000 0.688500128715 -0.0343986884089
463850000 0.688215868023 -0.034851844664
463860000 0.688412556667 -0.0344306904991
463870000 0.68856779867 -0.0352523043623
463880000 0.688575271427 -0.035308446712
463890000 0.688542538182 -0.035130700442
463900000 0.688932776672 -0.0346739908835
463910000 0.688315150917 -0.0348289909507
463920000 0.688744269326 -0.034824724486
463930000 0.688762372604 -0.0348954144411
463940000 0.689389654361 -0.034405785436
463950000 0.690324374403 -0.035583715791
463960000 0.692054481454 -0.0373217870818
463970000 0.693972915737 -0.0390182481845
463980000 0.692583149935 -0.0377918197491
463990000 0.690881173572 -0.0364141147445
464000000 0.689254103992 -0.0350197751622
464010000 0.689143638848 -0.0353199813525
464020000 0.688750344796 -0.0351686860084
464030000 0.68865557837 -0.0346435876563
464040000 0.689287431246 -0.0349668220023
464050000 0.689451278306 -0.0352143213362
464060000 0.689596838627 -0.0349189160845
464070000 0.689243353745 -0.0351110142729
464080000 0.689454319965 -0.0353738622396
464090000 0.689140410719 -0.0349764496418
464100000 0.689079519764 -0.0354165801498
464110000 0.690400002734 -0.0365373457432
464120000 0.689101135096 -0.0354362974831
464130000 0.689316833793 -0.0351544865097
464140000 0.688849091862 -0.0352083775303
464150000 0.689429876682 -0.0348473120515
464160000 0.689530736029 -0.0351844065052
464170000 0.689358609583 -0.0349698508687
464180000 0.688871313432 -0.0357718378305
464190000 0.689167794946 -0.0353086661841
464200000 0.688915431703 -0.0354906914885
464210000 0.689034437366 -0.0357203691022
464220000 0.689521500977 -0.0353933752567
464230000 0.689477358164 -0.0360620560599
464240000 0.688964098054 -0.035779400827
464250000 0.689021804498 -0.0362444706566
464260000 0.688671244409 -0.0362462947131
464270000 0.689291669638 -0.0356589011385
464280000 0.689681159507 -0.03534214284
464290000 0.689982880902 -0.0355620886298
464300000 0.689754803602 -0.0355376117713
464310000 0.690164653658 -0.0354493535395
464320000 0.689789635993 -0.0358900510786
464330000 0.689302281392 -0.0360141658432
464340000 0.689839032575 -0.0361853038238
464350000 0.689225179433 -0.0358327165463
464360000 0.690182379966 -0.0357180875627
464370000 0.690003132303 -0.0365104268948
464380000 0.690131849075 -0.0361737066173
464390000 0.689433790892 -0.0363933622177
464400000 0.689721284176 -0.0358480241234
464410000 0.689835347713 -0.0363239640974
464420000 0.689698980483 -0.0359775204314
464430000 0.690172885276 -0.036503187765
464440000 0.690057443241 -0.0366513219387
464450000 0.689741864061 -0.036300130432
464460000 0.689657586517 -0.0368738846154
464470000 0.69067012771 -0.037069197675
464480000 0.690370504763 -0.0372682723871
464490000 0.690142880097 -0.0363448520883
464500000 0.690835493913 -0.0365649735153
464510000 0.69051139057 -0.0365894764268
464520000 0.690277732085 -0.0369995671276
464530000 0.690626893351 -0.0384483154566
464540000 0.690340949077 -0.0403551188932
464550000 0.690046113504 -0.0397980324331
464560000 0.689501533913 -0.0391149754687
464570000 0.69005871217 -0.0375600972681
464580000 0.690260239787 -0.0368552031775
464590000 0.690490447167 -0.0370505563653
464600000 0.691082087436 -0.0369379386422
464610000 0.690891776974 -0.0370021261399
464620000 0.690653709784 -0.0344074758754
464630000 0.690431219903 -0.0371755571373
464640000 0.690974477859 -0.0367447301392
464650000 0.690974377608 -0.0371448231831
464660000 0.690648034572 -0.0374557862024
464670000 0.691165503926 -0.0376475209133
464680000 0.691815283862 -0.0380119503721
464690000 0.691375086526 -0.037367849834
464700000 0.691766350319 -0.036944593153
464710000 0.691126861304 -0.0372110957782
464720000 0.691283834004 -0.037144340558
464730000 0.690906448902 -0.0373387148377
464740000 0.690772191252 -0.0373179908945
464750000 0.690690611605 -0.0367802276005
464760000 0.690834065502 -0.037485508531
464770000 0.690686723443 -0.0373961331292
464780000 0.691047360664 -0.0379119055067
464790000 0.691010524941 -0.0377623487698
464800000 0.69118018795 -0.0379566191053
464810000 0.691387396076 -0.0378726928388
464820000 0.691376676921 -0.0378048452028
464830000 0.691277492073 -0.0375696522629
464840000 0.690745888799 -0.0373891180787
464850000 0.69111182375 -0.0384444818369
464860000 0.690697348071 -0.0375008639046
464870000 0.690222080559 -0.0374654810549
464880000 0.690285464208 -0.0376329411145
464890000 0.690569968203 -0.0378109828543
464900000 0.691022882643 -0.0378003961814
464910000 0.690648216096 -0.038222968877
464920000 0.690822299566 -0.0389005740789
464930000 0.690427442332 -0.0383605636518
464940000 0.690589478273 -0.0383029047337
464950000 0.690205703804 -0.0386319080086
464960000 0.690434792764 -0.0382810871168
464970000 0.690970879625 -0.0385132407137
464980000 0.69098110881 -0.0386463815252
464990000 0.691530771345 -0.0382866761611
465000000 0.691103801335 -0.0384152603155
465010000 0.690962224217 -0.0387850044688
465020000 0.691403773365 -0.0384042872976
465030000 0.691235266381 -0.0384922107803
465040000 0.691643303497 -0.0387963255436
465050000 0.691799802321 -0.0381304944394
465060000 0.691546372411 -0.0386581739373
465070000 0.691752231677 -0.0390648191126
465080000 0.6912239065 -0.0389981278138
465090000 0.691505121014 -0.0394030892532
465100000 0.69149953506 -0.0394875539438
465110000 0.691987856995 -0.0388858597971
465120000 0.691710759923 -0.0393669537964
465130000 0.691733748606 -0.0390833145435
465140000 0.691482870056 -0.0387955949282
465150000 0.691798151426 -0.0396426722491
465160000 0.691537847743 -0.0398724608243
465170000 0.691919521195 -0.0391247099836
465180000 0.692049697754 -0.0391250855145
465190000 0.691950979773 -0.0397429604587
465200000 0.692111805541 -0.0392703450595
465210000 0.691709265697 -0.0396102778418
465220000 0.691951778387 -0.0397441796181
465230000 0.691277344796 -0.0397474351056
465240000 0.691371489671 -0.0397846689981
465250000 0.691080276452 -0.0394536406379
465260000 0.692709848378 -0.0402182692445
465270000 0.692642388801 -0.0401530488509
465280000 0.692007462305 -0.0397085128537
465290000 0.692324588134 -0.0392423689671
465300000 0.691889431996 -0.0392545213238
465310000 0.692041388514 -0.03982562054
465320000 0.692047045724 -0.040049287293
465330000 0.692242182262 -0.0402182464562
465340000 0.693426685284 -0.0401830906243
465350000 0.694043698145 -0.0398883048008
465360000 0.693142245303 -0.0398803296053
465370000 0.692761009112 -0.0400597793028
465380000 0.691740461003 -0.0401802385224
465390000 0.691916037318 -0.0401428993702
465400000 0.692211329526 -0.0400489284887
465410000 0.692306280563 -0.0400126028482
465420000 0.692380149332 -0.0405765010687
465430000 0.691802514807 -0.0405129800774
465440000 0.692308118044 -0.0405740294902
465450000 0.692098172984 -0.0400666566458
465460000 0.692162415195 -0.039848221744
465470000 0.691810530537 -0.0400631701213
465480000 0.692422517323 -0.0402767286843
465490000 0.692606096573 -0.0406038651192
465500000 0.692897412899 -0.0403972530209
465510000 0.69252413898 -0.0408756745437
465520000 0.692397637018 -0.0411730313352
465530000 0.692511745746 -0.0408118977888
465540000 0.692467054315 -0.0404161590844
465550000 0.692501793332 -0.040898437692
465560000 0.692752558022 -0.0408526808467
465570000 0.692742745537 -0.0410557088826
465580000 0.692774772329 -0.0410908120925
465590000 0.692954961647 -0.0410524559456
465600000 0.692694361771 -0.0406873028529
465610000 0.692614592618 -0.0410729559939
465620000 0.692734545319 -0.0407289392277
465630000 0.692655203133 -0.0408950924846
465640000 0.693312256444 -0.0412408802286
465650000 0.693458208573 -0.0411242025101
465660000 0.693305706439 -0.0407168210469
465670000 0.692806176477 -0.0417353395386
465680000 0.693089525597 -0.0410312266216
465690000 0.693214234776 -0.0414104802761
465700000 0.693859702031 -0.0418161665214
465710000 0.6937768788 -0.0415485456137
465720000 0.693300794808 -0.0411518669145
465730000 0.693481414083 -0.0410232140698
465740000 0.693619087903 -0.0414373335909
465750000 0.693340140504 -0.0419176330561
465760000 0.693608915882 -0.0416766317385
465770000 0.693421294212 -0.0414716747847
465780000 0.693919672184 -0.0424501802669
465790000 0.682742608555 -0.0147447261852
465800000 0.66525933201 0.0186246148417
465810000 0.643873753587 0.0508138669821
465820000 0.658688140749 0.028342675319
465830000 0.67539908918 -0.00875817788204
465840000 0.694242674538 -0.0415382354727
465850000 0.694748867757 -0.0417894423799
465860000 0.694139248021 -0.0418429743887
465870000 0.693921932526 -0.0419243054285
465880000 0.693363746617 -0.0429288862747
465890000 0.693126670036 -0.0424758094866
465900000 0.69352967888 -0.0424476716633
465910000 0.693292152559 -0.0427619149762
465920000 0.694260508487 -0.0422543927764
465930000 0.694243183924 -0.0418565817063
465940000 0.693917998977 -0.0426424784793
465950000 0.693161256396 -0.042263482979
465960000 0.693132481486 -0.0421343658455
465970000 0.693235248398 -0.0415463829934
465980000 0.692906022383 -0.0424085252003
465990000 0.693494941446 -0.0426723311951
466000000 0.693931992255 -0.0430375461279
466010000 0.694131012243 -0.0436667371006
466020000 0.696783680704 -0.0444514322398
466030000 0.694774482929 -0.0430072748341
466040000 0.694580622904 -0.042835203675
466050000 0.692964792644 -0.0416010218643
466060000 0.692159586284 -0.0465288508025
466070000 0.695243175745 -0.0426089152331
466080000 0.694500251905 -0.0431381234895
466090000 0.696642678925 -0.045400176852
466100000 0.695906765326 -0.0465608588958
466110000 0.694371204514 -0.0433347476228
466120000 0.694518710974 -0.0430030371067
466130000 0.691919319071 -0.0466299121403
466140000 0.693685512471 -0.0433941193002
466150000 0.694011570032 -0.043540686639
466160000 0.696748559732 -0.0442002347839
466170000 0.696410727149 -0.036615268154
466180000 0.695444190663 -0.0414187826123
466190000 0.693364262618 -0.0437791962419
466200000 0.69326850606 -0.0445775301236
466210000 0.69446259711 -0.042650852609
466220000 0.684508516552 -0.0383054388168
466230000 0.696736535385 -0.0477204004635
466240000 0.694331967255 -0.0421112810072
466250000 0.688344022422 -0.0458658363717
466260000 0.700287744238 -0.043874955018
466270000 0.69758088647 -0.0459060255885
466280000 0.696360812484 -0.0406942632438
466290000 0.691891495762 -0.036176910294
466300000 0.69478100994 -0.0425516373373
466310000 0.696915712928 -0.049787783494
466320000 0.685810878829 -0.0489901153804
466330000 0.693661885269 -0.0425233268136
466340000 0.695840710046 -0.0465820432188
466350000 0.693989850815 -0.0410679470013
466360000 0.696019139123 -0.048516695994
466370000 0.690783987111 -0.0486005273513
466380000 0.695328360112 -0.046714638923
466390000 0.698537640063 -0.0525079505097
466400000 0.690236666285 -0.0478707660527
466410000 0.702720014762 -0.031427526061
466420000 0.696205055748 -0.0413790961092
466430000 0.703178427296 -0.0468848781199
466440000 0.688158026855 -0.0426683098665
466450000 0.699044795932 -0.0419780608777
466460000 0.69075284761 -0.0349011009783
466470000 0.695444470855 -0.049051292397
466480000 0.698526783158 -0.0421895955719
466490000 0.698625936155 -0.0489358667059
466500000 0.699086060544 -0.0454392471663
466510000 0.684795978181 -0.0400119056054
466520000 0.691030371234 -0.0425153254598
466530000 0.689305460017 -0.0355024275438
466540000 0.694687562871 -0.0452861429526
466550000 0.700296882544 -0.0401074803443
466560000 0.700999533502 -0.0484800125071
466570000 0.694765270108 -0.0455313496477
466580000 0.689427415603 -0.0371745385479
466590000 0.6976823215 -0.0459622450407
466600000 0.700029794842 -0.0564403132219
466610000 0.688985566867 -0.0397555042002
466620000 0.695533188577 -0.043655954172
466630000 0.689900526472 -0.0462361950445
466640000 0.690871226511 -0.0403818408679
466650000 0.692637742844 -0.0368750137392
466660000 0.694199342862 -0.0486029305017
466670000 0.700599407773 -0.0528835782091
466680000 0.69439443607 -0.0492554032167
466690000 0.691661698399 -0.0483705757314
466700000 0.697023290596 -0.0436836707206
466710000 0.699832169639 -0.0469677519596
466720000 0.69754258737 -0.0442916832728
466730000 0.695511598101 -0.0447050314377
466740000 0.69612751483 -0.0464444527008
466750000 0.693882859062 -0.0462889686018
466760000 0.695927257113 -0.0454032665446
466770000 0.694661630788 -0.0461243566341
466780000 0.69576830323 -0.0462478323017
466790000 0.695189254802 -0.0461300845012
466800000 0.689827153864 -0.0503521030198
466810000 0.695317138052 -0.0442379963697
466820000 0.694801314263 -0.0466327803958
466830000 0.692665740862 -0.0533960284132
466840000 0.694880022215 -0.0460916235774
466850000 0.694649626503 -0.0476702895511
466860000 0.696734333306 -0.0462441592142
466870000 0.695955952383 -0.0467372884051
466880000 0.695956743792 -0.0465656987685
466890000 0.695606501456 -0.0462944233601
466900000 0.696144305867 -0.0461495576803
466910000 0.694692488417 -0.048768669212
466920000 0.694806541486 -0.0433085807424
466930000 0.695048725213 -0.0466184000356
466940000 0.693674922828 -0.0473939222011
466950000 0.695702847971 -0.0470874022729
466960000 0.695977140654 -0.0470506201059
466970000 0.696009597054 -0.0476726874349
466980000 0.695851223408 -0.0472907802544
466990000 0.695868770879 -0.0474528826112
467000000 0.696280812378 -0.0470207607571
467010000 0.69579032977 -0.0477512775168
467020000 0.696267502319 -0.0475624701295
467030000 0.695985544269 -0.0475347253696
467040000 0.696211307265 -0.0474033063879
467050000 0.695697634416 -0.0473872304907
467060000 0.695927227281 -0.047237587006
467070000 0.696146766287 -0.0476700367271
467080000 0.695646473679 -0.0477582217948
467090000 0.695736537019 -0.0476684310272
467100000 0.696377199734 -0.0473519148363
467110000 0.697070500346 -0.047788058797
467120000 0.696924076883 -0.047749622634
467130000 0.696430821031 -0.0479682151745
467140000 0.696855200813 -0.0482720154226
467150000 0.697003263484 -0.0480386570388
467160000 0.695890254085 -0.0481941851006
467170000 0.696084519011 -0.0477683279994
467180000 0.695497539054 -0.0478601315452
467190000 0.696153250994 -0.047500871034
467200000 0.69676588339 -0.0476853659796
467210000 0.696430504639 -0.0480567829703
467220000 0.69628431155 -0.0480780438054
467230000 0.696499021011 -0.048206990998
467240000 0.696681776912 -0.0481415897397
467250000 0.696235601353 -0.0481585472865
467260000 0.696654793512 -0.0481967761824
467270000 0.696644605326 -0.0481768119658
467280000 0.696471833506 -0.0480612250473
467290000 0.695976270578 -0.0479967836133
467300000 0.696280767199 -0.0482541021191
467310000 0.696163553211 -0.0488044847074
467320000 0.696523949221 -0.0489011523077
467330000 0.69608305588 -0.048576556958
467340000 0.696585392921 -0.0487452780305
467350000 0.696892200168 -0.0493992327501
467360000 0.69721225217 -0.0492406932205
467370000 0.698055110477 -0.0487989296295
467380000 0.697174673824 -0.0490557177473
467390000 0.697034470268 -0.0493920362124
467400000 0.697586049207 -0.0491331033248
467410000 0.697342374679 -0.0496475820687
467420000 0.697550000243 -0.0495827873387
467430000 0.696973949175 -0.0497193804068
467440000 0.696840754711 -0.0495810256665
467450000 0.696808119148 -0.0497476587001
467460000 0.696849999142 -0.0500503415523
467470000 0.697229950595 -0.0500448163274
467480000 0.697006067791 -0.0492466301163
467490000 0.697235667711 -0.0495069993624
467500000 0.697636528364 -0.0488516267231
467510000 0.697986386129 -0.0495488227798
467520000 0.697343762112 -0.0496355901668
467530000 0.696597187436 -0.0499787206276
467540000 0.696852259078 -0.0503118447038
467550000 0.696711434812 -0.050021170061
467560000 0.696628954648 -0.0502757300868
467570000 0.696747980454 -0.0501584971027
467580000 0.696702513852 -0.0496855737562
467590000 0.697016280682 -0.0500016703998
467600000 0.697284379459 -0.0499702015498
467610000 0.697286639108 -0.0495399442313
467620000 0.697064158378 -0.0497061926682
467630000 0.697030930429 -0.0496397398941
467640000 0.69737108015 -0.0497997832823
467650000 0.697034229798 -0.0499139902045
467660000 0.697372776713 -0.0496841309079
467670000 0.697031550758 -0.0507633229407
467680000 0.697286130438 -0.0500775944833
467690000 0.69743140468 -0.0508185020926
467700000 0.697680159675 -0.0505907017964
467710000 0.697783085535 -0.0506515767868
467720000 0.6970370518 -0.051090720666
467730000 0.697435143016 -0.051175746659
467740000 0.697484124396 -0.0511341845447
467750000 0.697588487663 -0.050937312099
467760000 0.697461596716 -0.0515239457676
467770000 0.697722356997 -0.0505519845093
467780000 0.697626598133 -0.0511201271988
467790000 0.69738078096 -0.0506020019314
467800000 0.697120234853 -0.0514515883548
467810000 0.697568597166 -0.0507281173061
467820000 0.69747711935 -0.0507206179395
467830000 0.697545352917 -0.0507451975589
467840000 0.698304655806 -0.0515550014331
467850000 0.698200685232 -0.051723320372
467860000 0.698656342134 -0.0517599667731
467870000 0.698376658757 -0.0510522335293
467880000 0.698811612398 -0.0509264519018
467890000 0.69764996537 -0.0511807970941
467900000 0.697900476763 -0.0514185550699
467910000 0.698171438478 -0.0512118669029
467920000 0.697754189712 -0.0513130658287
467930000 0.697548888837 -0.0513104051516
467940000 0.697616014178 -0.0515702197117
467950000 0.697291225455 -0.0518122193077
467960000 0.697256114135 -0.0512329888959
467970000 0.697017582996 -0.0513688322792
467980000 0.697887262031 -0.049214620212
467990000 0.694402737533 -0.0208917613128
468000000 0.694826460108 -0.0423385987388
468010000 0.69850892705 -0.050454883363
468020000 0.697909047499 -0.0511499395239
468030000 0.697672286415 -0.0515048846044
468040000 0.698279598469 -0.051180913376
468050000 0.69820013609 -0.0513549628993
468060000 0.69880986186 -0.0514250469881
468070000 0.698044121859 -0.0515018543432
468080000 0.698063455162 -0.0519897748882
468090000 0.698098199973 -0.0524519568337
468100000 0.698604315405 -0.0522781173012
468110000 0.69904396608 -0.0525660974493
468120000 0.698885439341 -0.0523262834117
468130000 0.698085318178 -0.0525220356084
468140000 0.697871552426 -0.0521038771104
468150000 0.697932262132 -0.0526081939623
468160000 0.697862718408 -0.0530753339265
468170000 0.697663964576 -0.0530668955529
468180000 0.697381708773 -0.0528098169537
468190000 0.697842297303 -0.0528980459777
468200000 0.697401840097 -0.0524529631154
468210000 0.697998594153 -0.0523034541997
468220000 0.698398952913 -0.0528672534148
468230000 0.698756590567 -0.0526195436312
468240000 0.69827731778 -0.0530252850129
468250000 0.697988609342 -0.0530102192285
468260000 0.698124869536 -0.0525710878027
468270000 0.698369930908 -0.0526773004003
468280000 0.69805887643 -0.0528589072258
468290000 0.697569731237 -0.0528879592049
468300000 0.698121584782 -0.0533693584717
468310000 0.698271672837 -0.0533882076293
468320000 0.698993505195 -0.0542335461101
468330000 0.698070153742 -0.0551988397948
468340000 0.698265253827 -0.0541212523374
468350000 0.698142234151 -0.0541094950876
468360000 0.698052775628 -0.0541574640537
468370000 0.697168280504 -0.0532458345722
468380000 0.697854212427 -0.05417241613
468390000 0.69781394503 -0.0540248052174
468400000 0.697881124213 -0.0544160918556
468410000 0.698134501429 -0.054044245531
468420000 0.697667965197 -0.0542365289516
468430000 0.698025148239 -0.054366645878
468440000 0.697959317645 -0.054225155175
468450000 0.698489345009 -0.0534266536807
468460000 0.69870744825 -0.0533774806182
468470000 0.698345084185 -0.053972628061
468480000 0.697852225855 -0.0543122432176
468490000 0.698113727621 -0.0542015173928
468500000 0.698422099129 -0.0543226430081
468510000 0.698409760663 -0.0544963388431
468520000 0.698885277359 -0.0540310566316
468530000 0.698390299917 -0.0546696748697
468540000 0.699040657754 -0.0544283635852
468550000 0.698471534375 -0.0548295796572
468560000 0.699233862673 -0.054706709311
468570000 0.699032830698 -0.0552971417445
468580000 0.698946450855 -0.0550051937885
468590000 0.698504157848 -0.0545858104837
468600000 0.698530202724 -0.054595657647
468610000 0.698872982207 -0.0547278158608
468620000 0.69828830871 -0.0551365395441
468630000 0.69908634034 -0.0546885514042
468640000 0.698868741833 -0.0552346667014
468650000 0.69869108371 -0.0549936206
468660000 0.698277801994 -0.0548663591795
468670000 0.698564128805 -0.0547778417587
468680000 0.698222809251 -0.0552276666118
468690000 0.698832675414 -0.0548648348096
468700000 0.698754604042 -0.0555821071757
468710000 0.69829275445 -0.0527387194086
468720000 0.69876624658 -0.0553180916004
468730000 0.698730809012 -0.0556522597756
468740000 0.698190256517 -0.0559306095736
468750000 0.698439926384 -0.0553348755832
468760000 0.698945275924 -0.055915660326
468770000 0.698415142572 -0.0553115129675
468780000 0.69839176811 -0.0554433520506
468790000 0.698679403741 -0.0555703443488
468800000 0.69876759158 -0.0556956803201
468810000 0.698990732008 -0.055826522542
468820000 0.699251476078 -0.0558554133084
468830000 0.698623938134 -0.0553829367195
468840000 0.699139621493 -0.05671475966
468850000 0.699020160964 -0.0559083316862
468860000 0.699626750142 -0.0560683389632
468870000 0.698718254138 -0.0561214124202
468880000 0.698929776184 -0.0560009230361
468890000 0.698104838109 -0.0566649558228
468900000 0.698734912438 -0.0565575303912
468910000 0.699702173626 -0.0571428015941
468920000 0.699244730271 -0.057061419235
468930000 0.700071446575 -0.0566387147846
468940000 0.699570855974 -0.0568396900001
468950000 0.699539276125 -0.0563866502864
468960000 0.699159535742 -0.0564039353391
468970000 0.698789064692 -0.0561361754988
468980000 0.6981512701 -0.0560151973806
468990000 0.698672267157 -0.0560637945252
469000000 0.698899206029 -0.0564899827347
469010000 0.698302354384 -0.0563518015223
469020000 0.699107270396 -0.0567541223432
469030000 0.699347809562 -0.0567846022624
469040000 0.698818784734 -0.0569530469704
469050000 0.698929699777 -0.0568644631912
469060000 0.698990929847 -0.0565945058508
469070000 0.699111371601 -0.0573384895937
469080000 0.698864147173 -0.0576978548998
469090000 0.698550873742 -0.0578538348243
469100000 0.698905569535 -0.0583307213137
469110000 0.69879279457 -0.0584842112029
469120000 0.69950551094 -0.0585888537301
469130000 0.699107896898 -0.0583185988119
469140000 0.699074006829 -0.0578361688921
469150000 0.698574569123 -0.0574991676693
469160000 0.699292813378 -0.0579257175222
469170000 0.697358292141 -0.0592243137155
469180000 0.699226700088 -0.0583939703982
469190000 0.69908911907 -0.0577572907395
469200000 0.698958953735 -0.0582138379063
469210000 0.698928064353 -0.0578517608219
469220000 0.698805168225 -0.0578057536124
469230000 0.698906633857 -0.0580002784281
469240000 0.698830764193 -0.0577286281065
469250000 0.698849973481 -0.0576572945191
469260000 0.698994004591 -0.0576383529381
469270000 0.698986986663 -0.0579963495657
469280000 0.699144502064 -0.0580436597888
469290000 0.698864072407 -0.057884024483
469300000 0.698797564905 -0.0580977378361
469310000 0.699429734084 -0.0580080106147
469320000 0.69909174428 -0.0586733558794
469330000 0.698924287752 -0.0585104602486
469340000 0.698982816259 -0.0581017524962
469350000 0.698777395931 -0.0584563456968
469360000 0.698821732773 -0.0587361304217
469370000 0.698815208494 -0.0590821627802
469380000 0.698576059176 -0.0592341764732
469390000 0.698549925187 -0.0587231860688
469400000 0.700001063343 -0.0589610166345
469410000 0.697843581084 -0.0580780106994
469420000 0.693324084402 -0.0557088832141
469430000 0.688979187984 -0.0584233582487
469440000 0.691927406567 -0.0535238132851
469450000 0.694510390749 -0.0568952331932
469460000 0.699061480585 -0.0586737423496
469470000 0.699840765709 -0.05873444593
469480000 0.699638889189 -0.0591253377563
469490000 0.699735181168 -0.059142106493
469500000 0.699191734428 -0.0588989308807
469510000 0.699476265346 -0.0588604856976
469520000 0.699861171559 -0.0590768874435
469530000 0.699092316861 -0.0586663223968
469540000 0.698995796018 -0.0597789277042
469550000 0.699016138131 -0.0607179339802
469560000 0.699197321629 -0.0592452419273
469570000 0.699942369465 -0.0595743844655
469580000 0.699469431826 -0.0594930262856
469590000 0.699499389509 -0.0596859263519
469600000 0.700207071395 -0.0596530003418
469610000 0.699057497071 -0.0598704655562
469620000 0.699280948908 -0.0591808078201
469630000 0.699334259921 -0.0597312840897
469640000 0.699243431316 -0.059815472272
469650000 0.700097222093 -0.0595459233171
469660000 0.698693217019 -0.0608043363314
469670000 0.69938877283 -0.059745279027
469680000 0.699852111824 -0.059762235038
469690000 0.699982609874 -0.0592334780543
469700000 0.699359339527 -0.059362072909
469710000 0.69936076232 -0.0591984349857
469720000 0.699584672547 -0.0598880259061
469730000 0.699653558832 -0.0600286228513
469740000 0.699630831501 -0.0609020602151
469750000 0.699722035408 -0.0606087755013
469760000 0.700514198277 -0.0604917111345
469770000 0.699314186123 -0.060818611216
469780000 0.699330323143 -0.0607257791562
469790000 0.700128225414 -0.0607339690763
469800000 0.699581274079 -0.0606811575325
469810000 0.700051580038 -0.0611664361229
469820000 0.699738004021 -0.0606336904195
469830000 0.699586623321 -0.060728275357
469840000 0.699575035166 -0.0606891254231
469850000 0.699695233172 -0.0613864236738
469860000 0.699813896933 -0.0610269155259
469870000 0.69996041435 -0.0609815371174
469880000 0.699984145977 -0.0610430333387
469890000 0.700249408214 -0.0611801462244
469900000 0.699563385114 -0.0617094784195
469910000 0.699244826362 -0.0611581744038
469920000 0.699869645069 -0.0609982465042
469930000 0.69913126604 -0.0610049263838
469940000 0.699241983456 -0.0612727040171
469950000 0.699236124995 -0.0604767313041
469960000 0.699259398445 -0.0611064404657
469970000 0.699956607213 -0.0614403102785
469980000 0.699510055327 -0.0616821037878
469990000 0.699927406582 -0.0615397534293
470000000 0.699676502526 -0.0621884539301
