! Calibrated averaged scanner-service zoom
# Hz S RI R 50
150000000 0.662612623522 0.189247402708
150012000 0.661744943682 0.18886988647
150024000 0.662817774726 0.189227791504
150036000 0.662137956055 0.188681120001
150048000 0.66320167941 0.188717098244
150060000 0.662354239476 0.188011289982
150072000 0.663982776349 0.188436981231
150084000 0.663090182209 0.187753281235
150096000 0.663715410658 0.18788573818
150108000 0.662994394459 0.187103491476
150120000 0.664437776941 0.187521774368
150132000 0.663831778072 0.187094992174
150144000 0.66439230194 0.187208699786
150156000 0.663768423025 0.186545105793
150168000 0.665044286158 0.186856405005
150180000 0.664819866299 0.186373977084
150192000 0.665093585343 0.18632532799
150204000 0.664793927472 0.185807699675
150216000 0.665061984718 0.185885093704
150228000 0.665425141437 0.18562194042
150240000 0.665230980763 0.185643119059
150252000 0.66527327514 0.184984615849
150264000 0.665595063632 0.1844761583
150276000 0.666369071522 0.184744524513
150288000 0.665549962617 0.184674938676
150300000 0.666001877729 0.184579003276
150312000 0.665733759723 0.184231614645
150324000 0.666959754508 0.184067814311
150336000 0.665935401941 0.183788842711
150348000 0.666976435135 0.183640036098
150360000 0.66577931812 0.183177637476
150372000 0.667666401587 0.183415903623
150384000 0.666754438359 0.183120793076
150396000 0.667558885964 0.183160931738
150408000 0.666429853976 0.182502976059
150420000 0.668021818361 0.182490727807
150432000 0.66745915048 0.182311587806
150444000 0.668096086336 0.182180095997
150456000 0.667410642583 0.181654405378
150468000 0.668672182529 0.181722757549
150480000 0.668409187341 0.181235201888
150492000 0.66856181012 0.18119718488
150504000 0.668293788923 0.180742884137
150516000 0.668648035067 0.180538997248
150528000 0.669085269375 0.180445292444
150540000 0.668816746324 0.180593622838
150552000 0.668934814296 0.180078403789
150564000 0.668805680144 0.179905487345
150576000 0.66984927767 0.179432664797
150588000 0.669058061089 0.179431953978
150600000 0.669434366994 0.178903265173
150612000 0.668593097655 0.178807273342
150624000 0.669997334096 0.178551547183
150636000 0.668912008273 0.178586170728
150648000 0.669918584501 0.178300024017
150660000 0.668934269378 0.178115005871
150672000 0.670735208658 0.177809338767
150684000 0.66985168544 0.177772779528
150696000 0.670455933082 0.177429665474
150708000 0.669164959545 0.177173023988
150720000 0.670761690868 0.176883790033
150732000 0.670248580603 0.176949833229
150744000 0.67090558577 0.176791139842
150756000 0.670107096332 0.176131371184
150768000 0.671269297838 0.175922631151
150780000 0.671012961012 0.175775985984
150792000 0.671336076739 0.17575687887
150804000 0.67097633422 0.175508418959
150816000 0.671217645635 0.175348427847
150828000 0.67149643321 0.174886074749
150840000 0.671155288446 0.175154963172
150852000 0.671381571197 0.174689082831
150864000 0.671318258251 0.174538528513
150876000 0.672019080505 0.174051045888
150888000 0.671140086375 0.174137593851
150900000 0.671694903064 0.173619104323
150912000 0.670810966242 0.173937082262
150924000 0.672285249003 0.173353784954
150936000 0.671131552326 0.173601388759
150948000 0.671938940385 0.173177498766
150960000 0.670807551149 0.1730627868
150972000 0.672489983657 0.172349137906
150984000 0.671511666775 0.172645926931
150996000 0.672241998645 0.172175631826
151008000 0.671214127315 0.172333775754
151020000 0.67286576997 0.171746043847
151032000 0.672085457539 0.172035507194
151044000 0.672558551056 0.171607968338
151056000 0.671963650363 0.171465688901
151068000 0.673078429959 0.170906737525
151080000 0.672736607485 0.170682446593
151092000 0.673837771206 0.170017829341
151104000 0.675273925028 0.168823438786
151116000 0.677442665611 0.167189208602
151128000 0.676679880218 0.171308392655
151140000 0.672967501762 0.169886058048
151152000 0.672690866199 0.169739682744
151164000 0.672440612046 0.169791553192
151176000 0.673459368329 0.169151790005
151188000 0.67244664721 0.16934512761
151200000 0.672897145692 0.168804037616
151212000 0.673173338411 0.16873156338
151224000 0.672824030405 0.16854467736
151236000 0.673180004404 0.168458098295
151248000 0.672816374079 0.168304219864
151260000 0.67320276175 0.167996116451
151272000 0.672861647318 0.167834644617
151284000 0.673565095146 0.167526006205
151296000 0.672902293846 0.167670696609
151308000 0.672921098143 0.16732584437
151320000 0.673024953344 0.167238844799
151332000 0.673408330404 0.16697895355
151344000 0.672738462241 0.167199891041
151356000 0.673223299172 0.166775154892
151368000 0.673700034688 0.166465716604
151380000 0.67401660315 0.166238282564
151392000 0.673129918871 0.166307635659
151404000 0.673358208903 0.165908695874
151416000 0.673594650829 0.165423374716
151428000 0.673664496778 0.165281156536
151440000 0.673216634713 0.165245078272
151452000 0.673550736356 0.165187657541
151464000 0.673757565723 0.164776736795
151476000 0.673454181721 0.164698653564
151488000 0.673597254311 0.164335899843
151500000 0.673712010118 0.164346911128
151512000 0.673624499865 0.164115765079
151524000 0.673318134273 0.164292574078
151536000 0.673601033179 0.163767927755
151548000 0.673777020659 0.163969304097
151560000 0.673810592995 0.163537472133
151572000 0.673445444032 0.163474508779
151584000 0.673991073916 0.163064597547
151596000 0.673186445791 0.163344487508
151608000 0.673508753504 0.163030898469
151620000 0.6735524454 0.162833497495
151632000 0.673834487999 0.162602039101
151644000 0.672988148881 0.163066664709
151656000 0.671478604859 0.163168097469
151668000 0.673243957504 0.161793851592
151680000 0.673959365834 0.16183560354
151692000 0.673280242124 0.162123641763
151704000 0.673373766471 0.161806958605
151716000 0.673374156995 0.161353635925
151728000 0.67361601569 0.161387641563
151740000 0.673377593746 0.161381381004
151752000 0.673800122095 0.161232076169
151764000 0.6740027016 0.160816887694
151776000 0.67383213565 0.160805565014
151788000 0.673739787252 0.160476979236
151800000 0.673694719996 0.16052044494
151812000 0.673725733159 0.160215629113
151824000 0.673214330185 0.160431062976
151836000 0.673722607483 0.160030056114
151848000 0.673535547124 0.160249606056
151860000 0.673669048097 0.159755049515
151872000 0.67324021977 0.159914905254
151884000 0.673627136919 0.159279049664
151896000 0.673101411157 0.159793632528
151908000 0.672970049567 0.159410277872
151920000 0.673213489364 0.159336579715
151932000 0.673623675801 0.15921829157
151944000 0.672928669047 0.159992514953
151956000 0.673181437648 0.15924674323
151968000 0.673424943344 0.158654203617
151980000 0.673597552773 0.15825432997
151992000 0.672948758267 0.158741482948
152004000 0.673160762653 0.158396475378
152016000 0.673421209453 0.158181073144
152028000 0.673652501477 0.157982385882
152040000 0.673190396339 0.158238946614
152052000 0.673383674262 0.157988914833
152064000 0.67374481924 0.157620478803
152076000 0.673388449799 0.157512528279
152088000 0.673193700419 0.157176347821
152100000 0.673113733377 0.157123775411
152112000 0.673097518941 0.156826166885
152124000 0.672871797543 0.157146488246
152136000 0.673255236445 0.156930294452
152148000 0.673272136448 0.157211146678
152160000 0.673021668397 0.156760885473
152172000 0.672868732923 0.156822335184
152184000 0.673284832496 0.156168065485
152196000 0.672639307003 0.156771990433
152208000 0.672414787684 0.156279834147
152220000 0.672883838962 0.156277615903
152232000 0.673164591956 0.155980289368
152244000 0.672699462429 0.156736684358
152256000 0.672663255771 0.1560056695
152268000 0.672896808335 0.155618970351
152280000 0.673008332527 0.155290397346
152292000 0.6724406278 0.155791818119
152304000 0.672648654939 0.155280097581
152316000 0.672693547618 0.155066783572
152328000 0.672995400288 0.154946594087
152340000 0.672428975381 0.155174024976
152352000 0.672713255555 0.154692589735
152364000 0.672575196262 0.154456478493
152376000 0.67235838513 0.154563143196
152388000 0.672384997269 0.154399983121
152400000 0.672406386901 0.154380481595
152412000 0.672383094471 0.154449563533
152424000 0.672380645927 0.154108969306
152436000 0.672697632226 0.154077187418
152448000 0.672222287799 0.154514756891
152460000 0.672059265905 0.154365744809
152472000 0.672413409485 0.153679405815
152484000 0.672293939011 0.153963825695
152496000 0.672004020527 0.153777346515
152508000 0.671956381871 0.153908449456
152520000 0.672247464718 0.153198097613
152532000 0.672008314603 0.154035373438
152544000 0.67200872507 0.153391256186
152556000 0.671915965123 0.153846750879
152568000 0.672209802575 0.152932376034
152580000 0.671697341056 0.153986309614
152592000 0.671966454109 0.153054683543
152604000 0.671602429802 0.15358969191
152616000 0.671832117284 0.152395149549
152628000 0.671447189822 0.153308689814
152640000 0.671753184491 0.152637105818
152652000 0.671422786138 0.153573245723
152664000 0.671384311591 0.152635740457
152676000 0.671418553729 0.152956248385
152688000 0.671631658688 0.152489737067
152700000 0.671262208543 0.15317540125
152712000 0.671401775065 0.152557992943
152724000 0.671227311462 0.152253166924
152736000 0.672156869759 0.152724803717
152748000 0.670013422242 0.152616196302
152760000 0.671227516889 0.152648730151
152772000 0.671218433191 0.1518645679
152784000 0.671394174152 0.152163969143
152796000 0.671035319668 0.151847772308
152808000 0.67103176138 0.152016169159
152820000 0.670823188263 0.151332766958
152832000 0.670848665932 0.15206461926
152844000 0.670504515554 0.151465717263
152856000 0.67090267922 0.151954032964
152868000 0.670774147489 0.151138146532
152880000 0.670743184863 0.152183900143
152892000 0.670878339933 0.151287752657
152904000 0.670503081098 0.15179495064
152916000 0.670403510578 0.15080762258
152928000 0.670267202715 0.151533641833
152940000 0.670473894477 0.151148246959
152952000 0.670477766959 0.152038977633
152964000 0.670281745199 0.151092118098
152976000 0.670263559883 0.151266317125
152988000 0.67024224023 0.15092758915
153000000 0.669844996992 0.151789641893
153012000 0.669734187712 0.151052469336
153024000 0.669906096514 0.150676257988
153036000 0.670222363919 0.150716528881
153048000 0.669887706274 0.151183264314
153060000 0.669932763546 0.151269312082
153072000 0.669880963353 0.150650640104
153084000 0.669616803383 0.150910481368
153096000 0.669522190681 0.150811408936
153108000 0.669380070301 0.150928687656
153120000 0.669030757325 0.150456276159
153132000 0.669302158249 0.151362147024
153144000 0.669580732787 0.150316403317
153156000 0.669097149727 0.150894019338
153168000 0.669144044646 0.150019217558
153180000 0.669037589379 0.15109923417
153192000 0.668922673803 0.150352362987
153204000 0.666049256463 0.151405890408
153216000 0.668889334921 0.149613406322
153228000 0.66869710086 0.150840691584
153240000 0.668542808891 0.150188877919
153252000 0.668662674264 0.151154843174
153264000 0.668315344151 0.150321072059
153276000 0.668362261721 0.150441615072
153288000 0.668523505111 0.15032861768
153300000 0.668385933517 0.151173890912
153312000 0.668197727845 0.150632265636
153324000 0.668032729539 0.150295278159
153336000 0.668040461869 0.150423715611
153348000 0.668023420787 0.150814559255
153360000 0.667958081402 0.15102712564
153372000 0.667767696985 0.150313185547
153384000 0.667854094132 0.150834550111
153396000 0.667448181866 0.150526758308
153408000 0.667361839574 0.150827888868
153420000 0.667171652761 0.150062518654
153432000 0.66740985431 0.151108547862
153444000 0.667145509301 0.15036145125
153456000 0.666985045288 0.151006573261
153468000 0.666922628606 0.150062972245
153480000 0.667092207236 0.151368245016
153492000 0.666942315181 0.150602904684
153504000 0.66690302693 0.151244546382
153516000 0.666614204979 0.150212135073
153528000 0.666709975492 0.151011244241
153540000 0.666550884991 0.150621980976
153552000 0.665999261723 0.151652760639
153564000 0.668833445718 0.150568383098
153576000 0.666570724575 0.150969517185
153588000 0.666561993346 0.150916568175
153600000 0.66633478404 0.151663767609
153612000 0.66622802861 0.151728626471
153624000 0.665994715572 0.151190425658
153636000 0.665926770183 0.151228080044
153648000 0.666018370345 0.150878658376
153660000 0.666065858116 0.151710920577
153672000 0.665973892646 0.151188619274
153684000 0.665818364238 0.151386129656
153696000 0.665785854427 0.151420949084
153708000 0.665540529176 0.151706986397
153720000 0.665580080507 0.151501307944
153732000 0.66544120287 0.151886768974
153744000 0.665168367436 0.151961268273
153756000 0.665022830688 0.151765739804
153768000 0.665262836392 0.151810133208
153780000 0.665199400323 0.152231320456
153792000 0.665185315111 0.152499174546
153804000 0.665005195851 0.151883725955
153816000 0.665187098037 0.152389057133
153828000 0.66516141919 0.152741784705
153840000 0.664824440377 0.15270537347
153852000 0.664581464915 0.152322929809
153864000 0.664785116407 0.153046213905
153876000 0.664461691322 0.152874665416
153888000 0.664495938748 0.15280553557
153900000 0.664423576993 0.152564923714
153912000 0.66465790482 0.153637425051
153924000 0.664292149896 0.153028021519
153936000 0.66396385182 0.153540647786
153948000 0.663652254819 0.153122025362
153960000 0.664282099601 0.154029732495
153972000 0.663922273936 0.153380165034
153984000 0.663927546026 0.153625165158
153996000 0.663810100491 0.153665400692
154008000 0.663762695701 0.154199588012
154020000 0.663671745917 0.154055984824
154032000 0.663443016336 0.154578309935
154044000 0.663700952638 0.154650123665
154056000 0.663403539877 0.154595739278
154068000 0.663530164422 0.154667092181
154080000 0.663659274499 0.155248483614
154092000 0.663835002541 0.155560221504
154104000 0.663133887017 0.154903940014
154116000 0.66349907683 0.155297980518
154128000 0.663268335816 0.155755179272
154140000 0.663396187594 0.155651056425
154152000 0.662735877932 0.155640147196
154164000 0.663388258441 0.156217036217
154176000 0.662717596668 0.156315297555
154188000 0.662457145144 0.156268507246
154200000 0.662459252774 0.156332637112
154212000 0.663212388537 0.157035462416
154224000 0.662962050426 0.15678959527
154236000 0.663311690084 0.156964965689
154248000 0.662963842994 0.156768179975
154260000 0.663191026964 0.15768181182
154272000 0.662526260045 0.157263684757
154284000 0.663008745244 0.157517464973
154296000 0.662680539545 0.157623048992
154308000 0.66280668744 0.158127040429
154320000 0.662713741981 0.15801138178
154332000 0.66294991569 0.158632632622
154344000 0.663026767071 0.159597874317
154356000 0.663098321176 0.160782688207
154368000 0.663035467642 0.16077791563
154380000 0.663252358546 0.160380947459
154392000 0.66315430497 0.159550105955
154404000 0.662902707226 0.159239118816
154416000 0.663169172775 0.159589864147
154428000 0.66313721865 0.160311335294
154440000 0.662975148273 0.160246535486
154452000 0.662545213681 0.160364629736
154464000 0.663246061415 0.160659338727
154476000 0.663069176826 0.160881476215
154488000 0.6631734069 0.160704358932
154500000 0.6628294495 0.160863911792
154512000 0.663654046381 0.161520869076
154524000 0.663164594379 0.161502122236
154536000 0.663520698741 0.161553717975
154548000 0.663079000151 0.161866591387
154560000 0.663468566488 0.162294617535
154572000 0.662968881352 0.16229692391
154584000 0.663301647614 0.162390151068
154596000 0.662440090323 0.162968411085
154608000 0.66289877587 0.163095825275
154620000 0.663347106105 0.16319454287
154632000 0.663613877619 0.163608384435
154644000 0.663375079671 0.163938747227
154656000 0.663450653497 0.163842315676
154668000 0.663287581359 0.164143215473
154680000 0.663968542663 0.164467899141
154692000 0.6637198457 0.164835805062
154704000 0.663654157156 0.164576501868
154716000 0.664285695037 0.16481338427
154728000 0.664288798273 0.165678521598
154740000 0.663970946597 0.165552140174
154752000 0.664187511472 0.165688728381
154764000 0.664479918662 0.166150834631
154776000 0.664190954808 0.166366729615
154788000 0.664140717086 0.166326039699
154800000 0.664276813931 0.166548095046
154812000 0.665014882667 0.167256640253
154824000 0.664422831192 0.167186259828
154836000 0.664523575536 0.167586136861
154848000 0.664655707556 0.167364584774
154860000 0.66527392285 0.167887905016
154872000 0.665121633279 0.168199006912
154884000 0.665254376373 0.168537600602
154896000 0.665109852838 0.168393501362
154908000 0.665600532716 0.168813012442
154920000 0.665633028861 0.169220829071
154932000 0.665594847698 0.169552900397
154944000 0.665778351175 0.16939829866
154956000 0.665905940197 0.169766848504
154968000 0.665914858783 0.170050458065
154980000 0.665445657533 0.170252925299
154992000 0.665872887255 0.170298130828
155004000 0.666351502034 0.170661342588
155016000 0.666668038688 0.171202098546
155028000 0.666063225902 0.17131844366
155040000 0.666790943746 0.171454721221
155052000 0.666871474005 0.171636755964
155064000 0.66744793378 0.172197612007
155076000 0.666894923663 0.172245601741
155088000 0.667217540696 0.172529215322
155100000 0.667721363766 0.172636730828
155112000 0.668561954355 0.173349428078
155124000 0.667694564317 0.173369211869
155136000 0.668033599291 0.173523640743
155148000 0.668049143856 0.17347628152
155160000 0.668803611372 0.174255687983
155172000 0.668870842165 0.174436689167
155184000 0.668923567663 0.174784983484
155196000 0.668907292624 0.174484453939
155208000 0.669379866483 0.174896499294
155220000 0.669360451533 0.175079608212
155232000 0.669203895383 0.175449163854
155244000 0.669363073834 0.175256543948
155256000 0.669907896134 0.175907470886
155268000 0.670176976356 0.176019882369
155280000 0.669876037105 0.176360692734
155292000 0.670464524688 0.175963773613
155304000 0.67094332589 0.176642807368
155316000 0.671233700127 0.176688928943
155328000 0.670190950003 0.176957604615
155340000 0.671360900343 0.177264127908
155352000 0.671866210107 0.177636929997
155364000 0.672642901002 0.177842762877
155376000 0.671732213042 0.178273111494
155388000 0.672106129657 0.178261638851
155400000 0.672189618388 0.178430699614
155412000 0.673092470975 0.178747843038
155424000 0.672607566184 0.179017463076
155436000 0.673137812183 0.179050303717
155448000 0.673086971734 0.179175030027
155460000 0.673984515607 0.179511724029
155472000 0.673978247597 0.17989488663
155484000 0.674268811426 0.180154253886
155496000 0.674251468362 0.18010421083
155508000 0.674804771507 0.180241474756
155520000 0.674972619525 0.180584620112
155532000 0.675094056935 0.180942012818
155544000 0.675196298812 0.180772150655
155556000 0.675766000204 0.181422039199
155568000 0.676155700202 0.181737784972
155580000 0.675931591033 0.181940418892
155592000 0.676187756327 0.181830259518
155604000 0.676663894325 0.18196937326
155616000 0.677084179197 0.182268840599
155628000 0.676646534849 0.182684146608
155640000 0.677445710279 0.182803116267
155652000 0.677299026741 0.183145496151
155664000 0.678160144713 0.183108561507
155676000 0.677742756701 0.183702984458
155688000 0.67836646619 0.183440483206
155700000 0.678784864402 0.183702693856
155712000 0.679497723828 0.184046498153
155724000 0.679395778182 0.184339626137
155736000 0.679957359536 0.184287595315
155748000 0.680021123251 0.184431433401
155760000 0.680927471298 0.184657310447
155772000 0.68084243535 0.185064632637
155784000 0.681080121135 0.185193478334
155796000 0.681151100155 0.185124955081
155808000 0.681879669892 0.185277988259
155820000 0.682147275721 0.185766751199
155832000 0.682277575708 0.185948390536
155844000 0.682423383132 0.185834389356
155856000 0.682966324315 0.185952651513
155868000 0.68328502941 0.186235001766
155880000 0.683123098 0.18632719293
155892000 0.68353962717 0.186318775102
155904000 0.684112134469 0.186328088116
155916000 0.684608700283 0.186702176983
155928000 0.684404721092 0.187180941141
155940000 0.684878410173 0.187077444416
155952000 0.685472448948 0.18736356353
155964000 0.686358637304 0.187624213806
155976000 0.690168258518 0.18278706895
155988000 0.685768599986 0.192558042453
156000000 0.689786920931 0.189482965341
156012000 0.689032972519 0.183465052997
156024000 0.686960705772 0.188602372141
156036000 0.687715407902 0.188514032727
156048000 0.687908684589 0.188411595165
156060000 0.688444553919 0.188576077084
156072000 0.688713746756 0.18885448096
156084000 0.688757379829 0.189186916709
156096000 0.689340823034 0.188923526202
156108000 0.689644423808 0.189111962376
156120000 0.690154427183 0.189279664331
156132000 0.68987922776 0.189638389248
156144000 0.69058004084 0.189326888244
156156000 0.690889788012 0.189483921426
156168000 0.692347626253 0.189571789594
156180000 0.691295410791 0.190017095744
156192000 0.69225415244 0.189910141356
156204000 0.69250164883 0.190002922224
156216000 0.693447178048 0.190125630767
156228000 0.692836818363 0.190576775349
156240000 0.693722496468 0.190325521645
156252000 0.693703934866 0.190581580524
156264000 0.694537091252 0.190695322164
156276000 0.694205962458 0.190949645024
156288000 0.695287378226 0.190895042295
156300000 0.695150864335 0.190810923849
156312000 0.695869973163 0.191052208125
156324000 0.695776655723 0.191283371313
156336000 0.696176614974 0.191052609254
156348000 0.696546840957 0.191061653667
156360000 0.697238056377 0.191284608272
156372000 0.697584609335 0.191447876845
156384000 0.697545842349 0.19179548704
156396000 0.698101618974 0.191413544907
156408000 0.698651910538 0.19169372035
156420000 0.69941124677 0.191643881948
156432000 0.698934797087 0.192047738359
156444000 0.699464014769 0.191827550371
156456000 0.699822191735 0.192102283314
156468000 0.701100605102 0.19183782241
156480000 0.700087745987 0.192480433799
156492000 0.70089888284 0.192092396041
156504000 0.701400247159 0.192295616365
156516000 0.702615426024 0.192212415024
156528000 0.701929559078 0.192724967542
156540000 0.702772522876 0.192276585268
156552000 0.702624139267 0.192532608883
156564000 0.703774096214 0.192346063494
156576000 0.703552722526 0.192754146879
156588000 0.704385265604 0.192625578437
156600000 0.704161914686 0.192569834263
156612000 0.705137275081 0.192743059251
156624000 0.705078993322 0.192933713855
156636000 0.705773586846 0.192801849776
156648000 0.705893625458 0.192702249253
156660000 0.706643453223 0.19279900878
156672000 0.707258376146 0.192658983939
156684000 0.707289929337 0.193017934388
156696000 0.706959957344 0.192696168646
156708000 0.708072130132 0.193181611931
156720000 0.708926422327 0.192803767365
156732000 0.708440827128 0.193234205912
156744000 0.709100041536 0.193015387095
156756000 0.709484376504 0.193041821198
156768000 0.710648678979 0.192552804726
156780000 0.709935043288 0.1933774139
156792000 0.71053938176 0.19286293056
156804000 0.710774853496 0.192963190492
156816000 0.711907549288 0.192571830258
156828000 0.711554221522 0.193304430931
156840000 0.712364396692 0.192851431567
156852000 0.71217105664 0.192948252291
156864000 0.713229871155 0.192765654835
156876000 0.713038319298 0.193130745144
156888000 0.713881151331 0.192725697912
156900000 0.713723964266 0.19282691497
156912000 0.714590096797 0.192737107785
156924000 0.714696506496 0.192988011932
156936000 0.71507938354 0.192803677733
156948000 0.715190088988 0.192778897503
156960000 0.716083939968 0.192902503853
156972000 0.716401255565 0.19270841526
156984000 0.71668881557 0.19298012076
156996000 0.716930607578 0.192590301318
157008000 0.717517204403 0.192734906505
157020000 0.718004812143 0.192240455384
157032000 0.717860301922 0.192796968664
157044000 0.718235358249 0.192476563588
157056000 0.718892290531 0.192562967631
157068000 0.719832405842 0.191934475494
157080000 0.719339242802 0.192998582854
157092000 0.720028111822 0.192192744679
157104000 0.719944858473 0.192418412099
157116000 0.72080538716 0.191811954401
157128000 0.720718881197 0.192497917927
157140000 0.721526607894 0.19206955636
157152000 0.721353530078 0.192211909687
157164000 0.722694861605 0.192155695054
157176000 0.722333298832 0.192660408836
157188000 0.723055996863 0.1920826496
157200000 0.723104264848 0.192105414234
157212000 0.723761801624 0.191963679704
157224000 0.724014109653 0.191972826078
157236000 0.72417472027 0.191870079579
157248000 0.724943099812 0.191568538822
157260000 0.725053224188 0.191918543518
157272000 0.725471713044 0.191891238383
157284000 0.725825413469 0.191876168916
157296000 0.726526476778 0.191604188672
157308000 0.726459558047 0.19179455454
157320000 0.726872515111 0.191756428485
157332000 0.727141329879 0.191541845185
157344000 0.727417905142 0.191466788609
157356000 0.727871965663 0.191270099546
157368000 0.728246898717 0.191246516168
157380000 0.728229393094 0.191044733927
157392000 0.729711852263 0.190905068205
157404000 0.729488923917 0.191022036497
157416000 0.730039917822 0.191014352772
157428000 0.730227767436 0.190730611563
157440000 0.730598345069 0.191059832438
157452000 0.730916038896 0.190536645862
157464000 0.730981957838 0.190305985548
157476000 0.731313328008 0.190319664412
157488000 0.731744193951 0.190381522117
157500000 0.73248485618 0.189978498401
157512000 0.732569442642 0.190240106463
157524000 0.732915216075 0.19014632335
157536000 0.733217808347 0.190047793709
157548000 0.733887761166 0.189604162078
157560000 0.733986884184 0.189877046026
157572000 0.734453873847 0.18989866955
157584000 0.734579984406 0.189845085008
157596000 0.735029789274 0.1894571762
157608000 0.735375352437 0.18958707257
157620000 0.735999083411 0.189400696565
157632000 0.736256223291 0.189215479834
157644000 0.73668656161 0.18924474095
157656000 0.736743852551 0.188989028117
157668000 0.737095882218 0.188924030864
157680000 0.737341337675 0.188554207676
157692000 0.737600357942 0.188617180262
157704000 0.73803725355 0.188436208671
157716000 0.738635355992 0.188109991446
157728000 0.73889012179 0.188018139179
157740000 0.738950807037 0.188231467024
157752000 0.739233160971 0.187920599947
157764000 0.739816637125 0.187675789984
157776000 0.740073158657 0.187657142491
157788000 0.740230678409 0.187709484141
157800000 0.740829953156 0.187238685145
157812000 0.741135010019 0.187476359113
157824000 0.741470626762 0.187333549196
157836000 0.741791915743 0.187239404325
157848000 0.742033224103 0.186807906071
157860000 0.742295748064 0.186923919158
157872000 0.742681230941 0.186717919007
157884000 0.742694361427 0.186777306172
157896000 0.743178226712 0.186377178624
157908000 0.743652298543 0.186529041296
157920000 0.743952772384 0.18640295083
157932000 0.744065159895 0.186270328795
157944000 0.744430183113 0.18615627907
157956000 0.744631169288 0.186074255903
157968000 0.745133585377 0.185795854678
157980000 0.745496908297 0.185649056574
157992000 0.745762819956 0.185748231425
158004000 0.746232275108 0.185507068388
158016000 0.746632268721 0.185260122249
158028000 0.74668009553 0.185103080206
158040000 0.746673815071 0.185012728081
158052000 0.747688953976 0.185074878704
158064000 0.747622389781 0.184832485349
158076000 0.74791712867 0.184855306718
158088000 0.748354908437 0.184766310803
158100000 0.748614675643 0.184236966959
158112000 0.748840315197 0.184168261661
158124000 0.749097915303 0.184139902759
158136000 0.749416704579 0.183976067849
158148000 0.749805402566 0.183687926949
158160000 0.74998603576 0.183772953563
158172000 0.75068417156 0.183714977152
158184000 0.750835155929 0.183520757435
158196000 0.751120673451 0.183382715391
158208000 0.751591803368 0.183367761966
158220000 0.75192479136 0.183218220672
158232000 0.752135339095 0.182835074149
158244000 0.75227790912 0.182768084135
158256000 0.752660408652 0.182553914601
158268000 0.752911470446 0.182445771808
158280000 0.753162955109 0.182282530158
158292000 0.753451804203 0.182454112114
158304000 0.753733819773 0.182116319947
158316000 0.754006314477 0.181857478699
158328000 0.754273697556 0.181602876575
158340000 0.754635669849 0.181627968229
158352000 0.754736674066 0.181302657364
158364000 0.75553333272 0.181039394052
158376000 0.755346598694 0.181029285357
158388000 0.756207015045 0.18092779457
158400000 0.756077556858 0.180616106643
158412000 0.756733429388 0.180708062554
158424000 0.757123293739 0.179702461816
158436000 0.755775874958 0.18064333732
158448000 0.757115836609 0.1800742741
158460000 0.757745355572 0.179866670136
158472000 0.757743204182 0.179819628054
158484000 0.758050211537 0.179656724444
158496000 0.758293246733 0.179397230708
158508000 0.758460792517 0.17919358899
158520000 0.758781798869 0.179046582722
158532000 0.759322143787 0.179146792163
158544000 0.759476332633 0.17888159114
158556000 0.75969087192 0.178536359303
158568000 0.759796168683 0.178525044231
158580000 0.760452011695 0.178444120348
158592000 0.760495612727 0.178223842951
158604000 0.760479960955 0.178152629452
158616000 0.760994903801 0.177803926954
158628000 0.76111149395 0.177682542764
158640000 0.761462449567 0.177579161843
158652000 0.761736524066 0.177618386607
158664000 0.762072152222 0.177330810815
158676000 0.762173647345 0.177153428255
158688000 0.762505021919 0.177187075336
158700000 0.762871988966 0.176926757784
158712000 0.763075283538 0.176938987879
158724000 0.763263107775 0.176582475127
158736000 0.76353122705 0.176575606912
158748000 0.763655389979 0.17628828062
158760000 0.763962071679 0.176072738972
158772000 0.762418507362 0.175897813411
158784000 0.765839355522 0.176065620604
158796000 0.764996897809 0.175717755272
158808000 0.765065763546 0.175536855719
158820000 0.765286395148 0.175419870553
158832000 0.766011899631 0.17557402918
158844000 0.765469255596 0.174969433498
158856000 0.766027601208 0.174964298707
158868000 0.766591664075 0.175214548296
158880000 0.766903116122 0.174696220954
158892000 0.766665640739 0.174528817156
158904000 0.766883974849 0.17443547129
158916000 0.767623435321 0.174389743183
158928000 0.767743367826 0.174099497536
158940000 0.767882012582 0.174022442653
158952000 0.768343070686 0.173881982297
158964000 0.768705504789 0.173625808573
158976000 0.768788830537 0.173484761724
158988000 0.769161184801 0.173403441752
159000000 0.769433645723 0.173217213991
159012000 0.769590519768 0.173055612096
159024000 0.769624323169 0.172862143187
159036000 0.770086995522 0.172787295216
159048000 0.770187323277 0.17248013606
159060000 0.770484808242 0.172377665179
159072000 0.770747118309 0.172284655961
159084000 0.771368263821 0.172309375401
159096000 0.771646405749 0.172045616102
159108000 0.77188293651 0.171783745345
159120000 0.771933653588 0.171594180623
159132000 0.772224125243 0.171407437831
159144000 0.772108577062 0.171172565125
159156000 0.772478066953 0.170948273264
159168000 0.772831613947 0.170840200252
159180000 0.773109429638 0.1706240527
159192000 0.773181714316 0.170513056004
159204000 0.773650361785 0.170360489769
159216000 0.773825693788 0.170257380977
159228000 0.774191838512 0.170060754283
159240000 0.775120731882 0.170204747063
159252000 0.776000514993 0.169647611058
159264000 0.774902655703 0.169581914399
159276000 0.775067885718 0.169399802957
159288000 0.775245147163 0.169428017332
159300000 0.775569645356 0.169304124282
159312000 0.775740846211 0.169169249638
159324000 0.775600717704 0.168856827442
159336000 0.776264439178 0.168770938313
159348000 0.776322112914 0.16863449633
159360000 0.776368024205 0.168457828418
159372000 0.776532637225 0.16831090462
159384000 0.776972570804 0.168180603165
159396000 0.777225283451 0.167850629878
159408000 0.77745837635 0.167795370006
159420000 0.777800052948 0.167685510457
159432000 0.778131480787 0.167445530349
159444000 0.778229827053 0.167342859844
159456000 0.778567874648 0.167249822289
159468000 0.778799594643 0.167070776164
159480000 0.779020556483 0.166765475019
159492000 0.77941178617 0.166912164846
159504000 0.779588879535 0.16692440148
159516000 0.779872845257 0.166603250513
159528000 0.77996389816 0.166241925437
159540000 0.780289167847 0.166215076296
159552000 0.780451423194 0.166032293138
159564000 0.78079794115 0.165871578962
159576000 0.781021112861 0.165684466248
159588000 0.781051070863 0.165677757031
159600000 0.781319476593 0.165434555513
159612000 0.781640636761 0.165412727066
159624000 0.781591091697 0.165325955855
159636000 0.782137655038 0.16499402887
159648000 0.782430639969 0.164909820448
159660000 0.782633121796 0.164898941077
159672000 0.782842443376 0.165059617968
159684000 0.782835733708 0.164631450876
159696000 0.783480255607 0.164330323897
159708000 0.78358801493 0.164167388383
159720000 0.783787926265 0.164186384726
159732000 0.78394324759 0.163647103261
159744000 0.784303550931 0.163616420769
159756000 0.78454914904 0.163650627113
159768000 0.784802750235 0.163669859959
159780000 0.78501451053 0.163225685643
159792000 0.785332116808 0.162992047515
159804000 0.785913329197 0.162853960279
159816000 0.785989784959 0.162850636362
159828000 0.786102749248 0.162655677187
159840000 0.786395263202 0.162379570712
159852000 0.786748087429 0.162290233827
159864000 0.786961908256 0.162224861451
159876000 0.786955822189 0.162131704586
159888000 0.787329996483 0.161665095202
159900000 0.787699203933 0.161521546099
159912000 0.787962978084 0.161411393887
159924000 0.787968036059 0.161467261612
159936000 0.788111524178 0.160911130112
159948000 0.788524672838 0.160747730498
159960000 0.788915621967 0.160958111813
159972000 0.789050249041 0.160942268073
159984000 0.78916984992 0.160227692864
159996000 0.789778204128 0.160130901537
160008000 0.789842956244 0.160058451932
160020000 0.790080877041 0.160164195104
160032000 0.790044866005 0.159666493924
160044000 0.790558156703 0.159420525214
160056000 0.790956177002 0.159320044854
160068000 0.791172575164 0.159456604912
160080000 0.791043850329 0.159043616832
160092000 0.79138353474 0.158793641061
160104000 0.791596997914 0.158602674121
160116000 0.792041915034 0.158660314481
160128000 0.792129471495 0.158424384068
160140000 0.792555373595 0.157917011282
160152000 0.792808496972 0.157854107431
160164000 0.792840777655 0.157801646028
160176000 0.793023012378 0.157776419639
160188000 0.79329453853 0.157327733265
160200000 0.793585450988 0.15704109158
160212000 0.794125871556 0.157151125416
160224000 0.794185898112 0.157200045361
160236000 0.794208378281 0.15682818934
160248000 0.794551830878 0.156440182684
160260000 0.794739607021 0.156391567476
160272000 0.794857330743 0.156432970468
160284000 0.794886182734 0.155815394292
160296000 0.795351586538 0.155597016722
160308000 0.795532616368 0.155688355985
160320000 0.796347770349 0.155602891859
160332000 0.797113214429 0.155789752545
160344000 0.796292911045 0.15515960414
160356000 0.796869399041 0.155029320866
160368000 0.797032465508 0.154953739562
160380000 0.79702267544 0.154707648273
160392000 0.797378162254 0.154402571069
160404000 0.797929906814 0.154259490903
160416000 0.797954897502 0.154243451258
160428000 0.798070575517 0.154146496284
160440000 0.798375540825 0.153604479436
160452000 0.798764621379 0.153268017818
160464000 0.798979416189 0.153241632135
160476000 0.798877927912 0.153383524396
160488000 0.798968610611 0.153000054809
160500000 0.799402766649 0.152805830934
160512000 0.799788159558 0.152744415302
160524000 0.79984558312 0.152866482973
160536000 0.799962111365 0.152448737652
160548000 0.800622056857 0.152185179827
160560000 0.800896831194 0.152170069097
160572000 0.801066522512 0.152286930303
160584000 0.801116588137 0.15174952081
160596000 0.801540737705 0.15156932447
160608000 0.800970847089 0.151810741257
160620000 0.799652780004 0.152680461014
160632000 0.798367712699 0.152740851756
160644000 0.800434824773 0.151557969696
160656000 0.802528722033 0.150690557189
160668000 0.803058146175 0.150494883293
160680000 0.803182414719 0.150186486112
160692000 0.80342331492 0.149852501751
160704000 0.803966495111 0.149777801634
160716000 0.804298525517 0.149850738207
160728000 0.804277126574 0.149535033584
160740000 0.804290706606 0.149131325092
160752000 0.804895042894 0.148817190518
160764000 0.805294216707 0.148857579338
160776000 0.805550919548 0.148981458471
160788000 0.805451485506 0.148267609319
160800000 0.805811606918 0.14788339275
160812000 0.805765153673 0.147804205041
160824000 0.806029892445 0.147592657264
160836000 0.806258746303 0.146940150606
160848000 0.805765156507 0.145725653438
160860000 0.804135775624 0.143643067959
160872000 0.806677108098 0.14572411304
160884000 0.807243043992 0.146114806827
160896000 0.807587969718 0.146560254557
160908000 0.807779166393 0.146250344476
160920000 0.808159710801 0.145965435061
160932000 0.808547105928 0.145752657052
160944000 0.80871200465 0.145742542683
160956000 0.808506541732 0.14551351165
160968000 0.808747197809 0.145272904713
160980000 0.809144965257 0.144964870214
160992000 0.809206378216 0.144969832482
161004000 0.809356776806 0.14467858105
161016000 0.809680526628 0.144229743595
161028000 0.810004028474 0.143964285213
161040000 0.810242416078 0.143976460209
161052000 0.810374827873 0.143830909442
161064000 0.810428075788 0.14348362768
161076000 0.81075069434 0.143208875694
161088000 0.811073999447 0.143231903112
161100000 0.811316026388 0.143023864641
161112000 0.811143222764 0.142773086887
161124000 0.811528002854 0.142554474657
161136000 0.81205605392 0.142350846751
161148000 0.811932795916 0.142133924389
161160000 0.812155682068 0.142014480499
161172000 0.812566593886 0.141595386756
161184000 0.813016888318 0.141450515814
161196000 0.813202254322 0.141451712406
161208000 0.813133230692 0.141163398575
161220000 0.813101310794 0.140948322798
161232000 0.813481081817 0.140791671876
161244000 0.813828507809 0.140561902161
161256000 0.813797978711 0.140421207731
161268000 0.814263745939 0.140017558123
161280000 0.814578261909 0.139750809826
161292000 0.814774494635 0.139871399771
161304000 0.815000462149 0.139572540531
161316000 0.815234089943 0.139157780624
161328000 0.815546947103 0.138851736771
161340000 0.815900257808 0.138768960347
161352000 0.815982030656 0.138562438725
161364000 0.816069271804 0.138251242241
161376000 0.816410696968 0.137957575584
161388000 0.816527075887 0.137922167513
161400000 0.816758054842 0.137697075979
161412000 0.816683399434 0.137424100244
161424000 0.817052992273 0.137186530189
161436000 0.817590652111 0.137056051689
161448000 0.817875014467 0.136950996872
161460000 0.817966161798 0.136694733086
161472000 0.818458133348 0.136571199751
161484000 0.818780941167 0.136344533538
161496000 0.818647307573 0.135951964574
161508000 0.818632394014 0.135651711522
161520000 0.819186953897 0.135293957825
161532000 0.819205112092 0.134897118802
161544000 0.819507674113 0.134883720119
161556000 0.819416730245 0.134608532944
161568000 0.819830945153 0.134379922827
161580000 0.820051593123 0.134096717571
161592000 0.820308016759 0.134181448093
161604000 0.820448154336 0.133852098548
161616000 0.820698324568 0.133363541839
161628000 0.820693325687 0.133065258802
161640000 0.821236430887 0.132933248759
161652000 0.821083807462 0.132828386936
161664000 0.821310854661 0.132475553373
161676000 0.821434508988 0.13220654885
161688000 0.822473667289 0.132143160357
161700000 0.82216408515 0.131907266647
161712000 0.822131399093 0.131404812058
161724000 0.821971643944 0.131047203446
161736000 0.822889254797 0.130912116382
161748000 0.822925098179 0.130916781764
161760000 0.822897025367 0.130694742592
161772000 0.823202434632 0.130236531701
161784000 0.823394462562 0.130075735313
161796000 0.823556113064 0.129894529635
161808000 0.823731509623 0.12975993275
161820000 0.823937743572 0.129342896287
161832000 0.82427612297 0.129072955
161844000 0.824483015722 0.12908483246
161856000 0.82444471548 0.128844013748
161868000 0.82486001429 0.128315361822
161880000 0.824933398584 0.128218563711
161892000 0.825282221623 0.128242046036
161904000 0.825319537395 0.127979447346
161916000 0.825534793348 0.127593124539
161928000 0.825698628377 0.127239775411
161940000 0.826131915716 0.127178221785
161952000 0.82610518669 0.127072972223
161964000 0.826245776801 0.126700674308
161976000 0.826285797911 0.126253589188
161988000 0.826829320448 0.126318434862
162000000 0.826630317203 0.126213585866
162012000 0.827038567148 0.125903195447
162024000 0.827245209049 0.125793475037
162036000 0.827179723989 0.125295416567
162048000 0.82742726001 0.125185775056
162060000 0.82790030376 0.124920092731
162072000 0.828159383945 0.124657116643
162084000 0.82844058204 0.124439372331
162096000 0.828571987191 0.124096236893
162108000 0.828586371283 0.123979082462
162120000 0.828740579145 0.123839827829
162132000 0.828807052009 0.123659426079
162144000 0.829076577104 0.123326318222
162156000 0.829329755529 0.122942200534
162168000 0.829533585345 0.122778962114
162180000 0.829682736939 0.122375575266
162192000 0.829444224034 0.122347059975
162204000 0.830242613419 0.122076450206
162216000 0.83045919439 0.121831679192
162228000 0.830627951235 0.121501294727
162240000 0.83060012485 0.121157682243
162252000 0.830925855147 0.121074309732
162264000 0.831102957843 0.120755216824
162276000 0.831370035492 0.120383440093
162288000 0.831551580873 0.120228452264
162300000 0.831797480574 0.12013222113
162312000 0.83172820814 0.119834706107
162324000 0.831931204797 0.119613928448
162336000 0.832337221569 0.119182811947
162348000 0.832436341499 0.118949674064
162360000 0.83244181423 0.1185899842
162372000 0.832581544318 0.118461089712
162384000 0.832853003536 0.118181245789
162396000 0.832916084296 0.118029500302
162408000 0.832994098587 0.117768204743
162420000 0.833168105552 0.117490606774
162432000 0.833552454929 0.117313613172
162444000 0.833707990189 0.116903838563
162456000 0.834893501572 0.117048221196
162468000 0.836179846722 0.117197057248
162480000 0.835260251006 0.116592032284
162492000 0.830433620536 0.117802471713
162504000 0.829911339539 0.114019562912
162516000 0.83460482234 0.115564739948
162528000 0.834787055256 0.115171476466
162540000 0.834922270104 0.114923639421
162552000 0.835219557997 0.114764037647
162564000 0.835342843705 0.114332846643
162576000 0.835567906721 0.114001421307
162588000 0.835700535173 0.113879118096
162600000 0.835732706259 0.113772106804
162612000 0.83601963892 0.113459026217
162624000 0.835997931544 0.113253891277
162636000 0.836275625325 0.11310205146
162648000 0.836437408081 0.112756106581
162660000 0.836501772214 0.112515913443
162672000 0.836589974934 0.112343365711
162684000 0.836843064627 0.112093124223
162696000 0.837030535157 0.111796208754
162708000 0.837008764553 0.111418405826
162720000 0.83717089885 0.111185861495
162732000 0.837286899802 0.111024395196
162744000 0.837350186876 0.110795385437
162756000 0.837671950326 0.110463471705
162768000 0.837905544765 0.110338193826
162780000 0.838139399528 0.110219624172
162792000 0.838164939791 0.109968957498
162804000 0.838343806914 0.109612483341
162816000 0.838668368835 0.109403430942
162828000 0.838754684168 0.109070754483
162840000 0.838822230021 0.108812420869
162852000 0.838862269 0.108736282818
162864000 0.839023610754 0.108403331193
162876000 0.839030320622 0.108171030872
162888000 0.839477339722 0.107927466837
162900000 0.839699470762 0.107698442939
162912000 0.839881903101 0.107383042253
162924000 0.83989683823 0.10717264094
162936000 0.840325918528 0.106936421141
162948000 0.840419336683 0.106613272816
162960000 0.840292671649 0.106446520857
162972000 0.840451670944 0.106116672793
162984000 0.840740455513 0.105928812229
162996000 0.840844266579 0.105663806291
163008000 0.840989113684 0.105248919866
163020000 0.841214795522 0.105091673142
163032000 0.841415284302 0.104809294335
163044000 0.841505229185 0.104484144496
163056000 0.841745258824 0.104270217608
163068000 0.8417689395 0.104138309254
163080000 0.842540276049 0.103830617564
163092000 0.842050649509 0.104416966826
163104000 0.842402091338 0.103380339117
163116000 0.842626316438 0.102976755425
163128000 0.8427041522 0.102656630888
163140000 0.842565313151 0.102350365918
163152000 0.842468811018 0.102120183835
163164000 0.84249451226 0.101809276684
163176000 0.842855846111 0.101432720929
163188000 0.84352412799 0.101138764867
163200000 0.843602019974 0.100923420739
163212000 0.843610273706 0.100784714407
163224000 0.84393278954 0.100479562835
163236000 0.84417743544 0.100348363855
163248000 0.844187116806 0.100224212999
163260000 0.843947801579 0.0998186011277
163272000 0.844130591983 0.0993125715222
163284000 0.844325850368 0.0992876501883
163296000 0.844578752815 0.0992358628609
163308000 0.84461647324 0.0987154829011
163320000 0.844640462916 0.0983375218334
163332000 0.844778141899 0.0981946925357
163344000 0.845111836488 0.098139343834
163356000 0.844904857591 0.0977724832608
163368000 0.845252144798 0.0973102634966
163380000 0.845571189834 0.0971125210819
163392000 0.845796883334 0.0970256461915
163404000 0.84546931989 0.0968020554117
163416000 0.845771884463 0.096629764366
163428000 0.845369775938 0.0959776577243
163440000 0.845865018451 0.0960430233769
163452000 0.845716513946 0.0958277701271
163464000 0.846089215705 0.0953753995865
163476000 0.846434572649 0.0950635578755
163488000 0.846688633309 0.0949430716526
163500000 0.84673052062 0.0949484815716
163512000 0.846585202654 0.0944249201736
163524000 0.846824644557 0.0940682821197
163536000 0.84710868485 0.0941254959878
163548000 0.847452708007 0.093794294422
163560000 0.847428742098 0.0934621533858
163572000 0.846727404934 0.0932104560139
163584000 0.847659506828 0.0932642177148
163596000 0.847907896417 0.0929256195442
163608000 0.847687455048 0.0925056887976
163620000 0.84791413291 0.0919366386746
163632000 0.848183062748 0.0918186542539
163644000 0.84843989224 0.091767752597
163656000 0.848253556494 0.091453876111
163668000 0.84826939165 0.0909295766965
163680000 0.848755555037 0.0907482597058
163692000 0.849023567956 0.0906789029384
163704000 0.848887246056 0.090417077451
163716000 0.84914924883 0.089905682829
163728000 0.849238584575 0.0896026227539
163740000 0.849554352256 0.0895311188365
163752000 0.849374253641 0.0893852915138
163764000 0.849448552948 0.0888882514844
163776000 0.849643112029 0.0884654111387
163788000 0.850220397524 0.0885544334969
163800000 0.850002057269 0.0883536782838
163812000 0.849928800253 0.0879076015945
163824000 0.849989289569 0.0874123388018
163836000 0.850503183968 0.0874328375983
163848000 0.850717808003 0.0874022506352
163860000 0.850465521473 0.0868158111377
163872000 0.850747235879 0.0861379194731
163884000 0.850889515448 0.0859949508123
163896000 0.850969577534 0.0860375282289
163908000 0.850673117481 0.0856533792745
163920000 0.8511096383 0.0852445023165
163932000 0.851269510381 0.0851302277221
163944000 0.852089805292 0.0854086674976
163956000 0.852455498659 0.0853970215018
163968000 0.852918429529 0.0851178808983
163980000 0.852678913639 0.0842938045255
163992000 0.852419904341 0.0835884237613
164004000 0.851813791828 0.0835249328335
164016000 0.851840585652 0.0831417043152
164028000 0.852100093619 0.0829112299502
164040000 0.852393436305 0.0827855952443
164052000 0.852080766769 0.0825793804655
164064000 0.852239936419 0.0822526202054
164076000 0.852507439781 0.081791155839
164088000 0.852638340539 0.0816661564744
164100000 0.852518014111 0.0814956582138
164112000 0.852874250316 0.0810907548732
164124000 0.85178948703 0.0812193866472
164136000 0.852867789364 0.0806743108138
164148000 0.853217996397 0.0804362080618
164160000 0.852914297782 0.0799183131671
164172000 0.853067917285 0.0795238208418
164184000 0.853584743594 0.0794514823508
164196000 0.853805913135 0.0793158130363
164208000 0.853347460556 0.0789937241952
164220000 0.853478718451 0.0785339086867
164232000 0.853812871695 0.0784818512581
164244000 0.854140947533 0.0783732435526
164256000 0.853864070917 0.0780325383461
164268000 0.854163719911 0.077674119941
164280000 0.854241387643 0.0774434670431
164292000 0.854566857442 0.0773527847689
164304000 0.854498608764 0.0772507789046
164316000 0.854433632997 0.076639381361
164328000 0.854433129629 0.0761894962406
164340000 0.854896812117 0.076231288024
164352000 0.854750568759 0.0760876592532
164364000 0.854867545005 0.0756944979665
164376000 0.85493604498 0.0753412804339
164388000 0.855412995494 0.0752623159919
164400000 0.855314337256 0.0750468445786
164412000 0.854956139715 0.074594608287
164424000 0.855646121047 0.0743828979345
164436000 0.855480295548 0.074223240707
164448000 0.85577821058 0.0738335413994
164460000 0.855732665551 0.073676068908
164472000 0.856187421879 0.0732107805643
164484000 0.855897900957 0.0730943988829
164496000 0.856211237824 0.0727755433801
164508000 0.856113912905 0.0723108666671
164520000 0.856330880737 0.0715772047293
164532000 0.856827618015 0.0719935184973
164544000 0.857248301686 0.0718044245908
164556000 0.856982228953 0.0712883626459
164568000 0.856661588315 0.0707085329634
164580000 0.856686175695 0.0706626037155
164592000 0.856774336183 0.0704288935464
164604000 0.85671777338 0.0699929363509
164616000 0.857528711738 0.0698156734364
164628000 0.857175863001 0.0696046008556
164640000 0.856057747258 0.069435823275
164652000 0.855286432753 0.0689382145887
164664000 0.856233169953 0.0688120792866
164676000 0.857266502224 0.0684549046789
164688000 0.857477830434 0.0683726477718
164700000 0.85758567329 0.0677773573371
164712000 0.857676590772 0.0675053251991
164724000 0.858109011961 0.0674475385161
164736000 0.857681617896 0.0671382463559
164748000 0.857978444982 0.0666448396909
164760000 0.857977852011 0.0663871029619
164772000 0.858611350993 0.066090075752
164784000 0.858177241849 0.0661595420541
164796000 0.858211130227 0.0659139491858
164808000 0.858227270491 0.0654080249452
164820000 0.858545320157 0.0651370717318
164832000 0.858325293644 0.0650102232852
164844000 0.858432850195 0.0647454793366
164856000 0.858196445839 0.0641148764209
164868000 0.858442950372 0.0640471219069
164880000 0.858726503963 0.0639420685852
164892000 0.858863788172 0.0638105186048
164904000 0.858629157652 0.0633123381363
164916000 0.859023436944 0.063068660404
164928000 0.859318186756 0.0628805963937
164940000 0.858903053729 0.0626065894787
164952000 0.859043719487 0.0621217882883
164964000 0.859280827534 0.0619156401314
164976000 0.859594902231 0.0618769339413
164988000 0.859297082316 0.0616261114548
165000000 0.859328975191 0.0610985014725
165012000 0.859275331815 0.0610478016294
165024000 0.859986853673 0.0607478307627
165036000 0.859589536909 0.0606368625803
165048000 0.859805618656 0.0602471968008
165060000 0.859761192534 0.0599259379273
165072000 0.860129389505 0.0594753583546
165084000 0.859855402637 0.0594115446167
165096000 0.860076478954 0.0591444965475
165108000 0.859971621261 0.0588303792584
165120000 0.860387619771 0.0586357611021
165132000 0.860352084756 0.0584035758802
165144000 0.860494997607 0.0581638396847
165156000 0.860173602565 0.0576354236227
165168000 0.860447852709 0.057130233414
165180000 0.860544710411 0.0571119445294
165192000 0.860751256013 0.0570822651071
165204000 0.860768363539 0.0566554578736
165216000 0.860874770722 0.0564375185767
165228000 0.86086453968 0.0561179786662
165240000 0.860572981166 0.0559115519415
165252000 0.860546786803 0.0552084134438
165264000 0.860738976317 0.0551354326398
165276000 0.861347275474 0.054793723099
165288000 0.861220460896 0.0547458302938
165300000 0.861445392515 0.0543263601202
165312000 0.861316743949 0.054046433203
165324000 0.861876057061 0.0536688899388
165336000 0.861567939507 0.0536450768094
165348000 0.86150128562 0.0531223931671
165360000 0.861624727983 0.0528473070668
165372000 0.86212638608 0.0524097839778
165384000 0.861629157881 0.0524602125574
165396000 0.861679770462 0.0521156086353
165408000 0.861671279623 0.0519292657376
165420000 0.86193644435 0.0514343223037
165432000 0.861996757967 0.0514039762284
165444000 0.862193673733 0.0512117028729
165456000 0.861979454066 0.0508549058263
165468000 0.862289768275 0.0502876574052
165480000 0.862300400921 0.0502668375644
165492000 0.862101359462 0.0499371006642
165504000 0.861799079027 0.0495571010275
165516000 0.861893770022 0.0492485183522
165528000 0.862403916756 0.049107625292
165540000 0.862200705048 0.0490263882916
165552000 0.862194104213 0.0485687310303
165564000 0.862190595743 0.048296948587
165576000 0.862595873414 0.0479051508947
165588000 0.862329939727 0.0480029940119
165600000 0.862261142257 0.0475314526587
165612000 0.862123201443 0.0470513822298
165624000 0.862235603212 0.0469015411079
165636000 0.862465975961 0.0467012638672
165648000 0.862460449595 0.0466893277533
165660000 0.862510280002 0.0463515600202
165672000 0.862633256657 0.0460884965645
165684000 0.863213010485 0.0457378193994
165696000 0.862809984307 0.0457770016028
165708000 0.862703421164 0.0450774589152
165720000 0.862642653866 0.0447984082657
165732000 0.863250512288 0.0442040979975
165744000 0.861117761373 0.0429900023817
165756000 0.861115434695 0.04342398289
165768000 0.863189836284 0.0440183793007
165780000 0.863495046973 0.0434110177356
165792000 0.863032813631 0.0435484993759
165804000 0.863098861115 0.0429646068346
165816000 0.862945654331 0.0429256727124
165828000 0.863424069786 0.0423899184738
165840000 0.863171400969 0.0424467741085
165852000 0.863489005216 0.0420820628022
165864000 0.863652317717 0.0417094376493
165876000 0.863901372771 0.0411432823324
165888000 0.863679832053 0.041292807751
165900000 0.863799050564 0.04091765396
165912000 0.863437248879 0.0404873483963
165924000 0.863667435794 0.0402974546527
165936000 0.863929414668 0.0401212115564
165948000 0.863777234203 0.0400297557501
165960000 0.863635531524 0.0394950565514
165972000 0.863721661437 0.0392964713975
165984000 0.864237429974 0.0388399718926
165996000 0.864140849525 0.0388918543087
166008000 0.863866175614 0.0383758747703
166020000 0.863869251169 0.0382166969645
166032000 0.864494894922 0.0378575571085
166044000 0.864003862391 0.0379389308419
166056000 0.864255499316 0.0371874664148
166068000 0.864133953362 0.0371575660168
166080000 0.864355383211 0.0364578275072
166092000 0.864088806437 0.036523495866
166104000 0.864265519651 0.0361157185633
166116000 0.863967224019 0.0360168323934
166128000 0.864518328339 0.035534342245
166140000 0.864156384439 0.0357134827365
166152000 0.864157285606 0.0352368175099
166164000 0.864004435887 0.0349076032586
166176000 0.864209851291 0.0344804579763
166188000 0.864189032046 0.034287537255
166200000 0.86470892759 0.0340349050803
166212000 0.864108136169 0.0335693571146
166224000 0.864415184845 0.0333141205592
166236000 0.864838345193 0.0330561796827
166248000 0.864461580982 0.0331539912238
166260000 0.864165106452 0.0327978308662
166272000 0.86422449935 0.0324787832306
166284000 0.864968473269 0.0318849645764
166296000 0.864550940298 0.0321453949061
166308000 0.864286311138 0.0314564549121
166320000 0.864444118883 0.0313408004915
166332000 0.86483926475 0.0308450435414
166344000 0.86462354293 0.0308855418876
166356000 0.864723507713 0.0301556781255
166368000 0.864661654876 0.0303417466892
166380000 0.86476697679 0.0296786101334
166392000 0.864570598458 0.0299861185483
166404000 0.864662848232 0.0293911441289
166416000 0.864568133264 0.0294144123633
166428000 0.86481448246 0.0288699422713
166440000 0.864611973546 0.0290178550255
166452000 0.864837686482 0.0286561210912
166464000 0.864372141058 0.0283575229263
166476000 0.86455523587 0.0278558183585
166488000 0.864697557638 0.0279269953002
166500000 0.864726827369 0.0277866443604
166512000 0.864562765336 0.0272228078131
166524000 0.864993919872 0.0268420746778
166536000 0.864900669491 0.0265602102325
166548000 0.864664907884 0.0267289377916
166560000 0.864518194049 0.0262612868622
166572000 0.864825650899 0.0258021649956
166584000 0.865003513882 0.0252971316116
166596000 0.864750461704 0.0253976348774
166608000 0.864691287986 0.0246361231864
166620000 0.864748445024 0.0248532207083
166632000 0.865287514469 0.0242497540814
166644000 0.864853065314 0.0245606181616
166656000 0.864716614839 0.0240022849387
166668000 0.86467834255 0.0239566618274
166680000 0.865037679956 0.0232369205331
166692000 0.864982491031 0.0236208969449
166704000 0.865077665202 0.0229173481738
166716000 0.864907840031 0.0229806379092
166728000 0.865235279426 0.022303146178
166740000 0.864913561206 0.0225346814971
166752000 0.86491989701 0.0219395978076
166764000 0.864873187909 0.0217716904994
166776000 0.864841516025 0.0213325943633
166788000 0.864989480192 0.0212067317401
166800000 0.865103944854 0.0209894279391
166812000 0.864823919517 0.0206820968385
166824000 0.864752586263 0.0203822300014
166836000 0.865083864977 0.0197172178203
166848000 0.864939891875 0.0197073354932
166860000 0.865145544094 0.0194654055365
166872000 0.865368755503 0.0194175086176
166884000 0.865280932495 0.0190055831114
166896000 0.864965126027 0.0187492012882
166908000 0.865053196563 0.0182842444951
166920000 0.865052807589 0.0181619860585
166932000 0.864724091232 0.0179813036149
166944000 0.864699856139 0.0174927939895
166956000 0.86460282611 0.017269233515
166968000 0.864839253668 0.0170128788128
166980000 0.864896639232 0.0168388748941
166992000 0.864869532563 0.0165144309273
167004000 0.864843221179 0.0162107353285
167016000 0.864767245995 0.0157605286056
167028000 0.864579703405 0.0157496745562
167040000 0.86456765022 0.0151388527893
167052000 0.864698408453 0.0151137268191
167064000 0.864759490341 0.0151053138855
167076000 0.864357614359 0.0151761523354
167088000 0.864599381527 0.0145217315538
167100000 0.864451787499 0.0143954651082
167112000 0.864365699852 0.0139522283909
167124000 0.864312616633 0.0137624495225
167136000 0.864344528759 0.0132529415729
167148000 0.864570419145 0.0132845471536
167160000 0.864614918636 0.0129100174042
167172000 0.864368148172 0.0130725609257
167184000 0.864588878326 0.0126160144613
167196000 0.864139295347 0.012398946101
167208000 0.864613700368 0.0119767533457
167220000 0.864501494597 0.0118699057103
167232000 0.864254715847 0.0115077596466
167244000 0.864265899748 0.0112616661794
167256000 0.864602332167 0.0110956922886
167268000 0.864433950538 0.0107251832591
167280000 0.864239527222 0.0106778747884
167292000 0.864295954024 0.0103270688581
167304000 0.864333262185 0.010145889601
167316000 0.864212566798 0.00976312440783
167328000 0.863976137001 0.0096929629089
167340000 0.864084519393 0.00919120346958
167352000 0.864234475134 0.00922060992354
167364000 0.863341853193 0.00869327821882
167376000 0.864221669153 0.00876224517793
167388000 0.864227941768 0.00816473493386
167400000 0.864257706224 0.00810494269901
167412000 0.864294283564 0.00772231590113
167424000 0.86426011014 0.00795417798807
167436000 0.864240504209 0.00736458896919
167448000 0.864073934353 0.00721165503169
167460000 0.863977445606 0.00684816400885
167472000 0.863780212862 0.00680323778791
167484000 0.863972077918 0.00630664261437
167496000 0.864119439714 0.00608959960733
167508000 0.864138424567 0.00576638442563
167520000 0.863966885238 0.00571227071535
167532000 0.863831480595 0.00558769042049
167544000 0.863590905934 0.0054202091276
167556000 0.863850060197 0.00497405690572
167568000 0.863968887698 0.00460950929887
167580000 0.863790907004 0.00452935601536
167592000 0.86378047581 0.00392440142416
167604000 0.864071039005 0.00370318267841
167616000 0.863911410948 0.00333722134795
167628000 0.863718738574 0.00330208094452
167640000 0.863749816767 0.00281764602228
167652000 0.863738226357 0.00278739500082
167664000 0.863826324211 0.00240257944539
167676000 0.863386110506 0.00239973156822
167688000 0.86358914648 0.00175931304769
167700000 0.863559915792 0.00163140451364
167712000 0.86357345408 0.00130935311626
167724000 0.863586427659 0.00134874372272
167736000 0.863418667455 0.000727268050934
167748000 0.86330877156 0.000884928042114
167760000 0.863375896512 0.000571132186436
167772000 0.863304824684 0.000534369663741
167784000 0.863111368085 -3.53942416607e-06
167796000 0.863041110558 -0.000163071365546
167808000 0.862964195745 -0.000607528279414
167820000 0.863044528391 -0.000649987696301
167832000 0.862917065584 -0.000846963460939
167844000 0.862759265039 -0.00117257819895
167856000 0.863053450329 -0.00163410222512
167868000 0.862921221291 -0.001614428602
167880000 0.862573095973 -0.00172936896116
167892000 0.862387938619 -0.00207550738726
167904000 0.862402227127 -0.0025115489865
167916000 0.862409432563 -0.00238600834385
167928000 0.862422334608 -0.00267035153364
167940000 0.862428774292 -0.00311033735
167952000 0.862351915935 -0.00308794520416
167964000 0.862504393592 -0.00362672048831
167976000 0.862398230925 -0.00343548168344
167988000 0.862319419986 -0.00400860264906
168000000 0.862263086001 -0.00404000307578
168012000 0.862416026191 -0.00459730358648
168024000 0.862237598715 -0.00449179489444
168036000 0.861889945462 -0.00489566754513
168048000 0.862088610036 -0.00535889677131
168060000 0.862229999736 -0.00556393234521
168072000 0.861782722091 -0.00530086204283
168084000 0.861765689517 -0.00553285081316
168096000 0.861935940856 -0.0063286159472
168108000 0.862301016357 -0.00623221264494
168120000 0.862130222792 -0.00643458158309
168132000 0.861736892883 -0.00635800791727
168144000 0.861630166236 -0.0071247709476
168156000 0.861802147614 -0.00721283153039
168168000 0.861802953459 -0.00747689868311
168180000 0.861730222128 -0.0073674985625
168192000 0.861689495495 -0.0080353821986
168204000 0.861726231265 -0.00817851581274
168216000 0.861737869865 -0.00841367521335
168228000 0.861398122197 -0.00809420693538
168240000 0.86105368606 -0.00883550287789
168252000 0.861251491561 -0.0090282884151
168264000 0.861462948133 -0.00939070261576
168276000 0.861244704175 -0.00926870806109
168288000 0.860981069153 -0.00989117848817
168300000 0.861365824995 -0.00994228550949
168312000 0.861247231012 -0.0103278081766
168324000 0.8611818994 -0.0101727671597
168336000 0.861047660312 -0.0105764327061
168348000 0.861061717324 -0.011167297333
168360000 0.86107023642 -0.0113923073272
168372000 0.860648333607 -0.0112101022878
168384000 0.860819262665 -0.0114490902294
168396000 0.86050817548 -0.0119244348294
168408000 0.860894157578 -0.0120047074216
168420000 0.860478826044 -0.0122975125093
168432000 0.860367975897 -0.0123192636497
168444000 0.860304663962 -0.0130458439447
168456000 0.860505536938 -0.0130661648752
168468000 0.8603571378 -0.0133594514146
168480000 0.860304368288 -0.0132758574183
168492000 0.860189878795 -0.0138005716678
168504000 0.860269002739 -0.0139069947783
168516000 0.860238068568 -0.0143176015841
168528000 0.860085060612 -0.0141322395458
168540000 0.859651765888 -0.0148128317605
168552000 0.859870668625 -0.0148828367267
168564000 0.859972970053 -0.0151967531382
168576000 0.859778318823 -0.0150301502942
168588000 0.859413434651 -0.0155176524376
168600000 0.859406840736 -0.0157478691156
168612000 0.85964424244 -0.0161836395242
168624000 0.859398944659 -0.0159355722852
168636000 0.858982685509 -0.0163369231008
168648000 0.858866868263 -0.0169294714354
168660000 0.859209197806 -0.0170594493505
168672000 0.859138722448 -0.0168226241943
168684000 0.859120228206 -0.0169259831071
168696000 0.859067659942 -0.0176970892715
168708000 0.859452906208 -0.0175351149865
168720000 0.858986000915 -0.0178205356318
168732000 0.85873791457 -0.017845215504
168744000 0.85804819242 -0.0184925552564
168756000 0.858529966803 -0.0187495371295
168768000 0.858643200028 -0.0189127490653
168780000 0.858395849227 -0.0187580090206
168792000 0.858058249195 -0.0194466448906
168804000 0.85820357159 -0.0193174653673
168816000 0.858260864287 -0.0197148328987
168828000 0.858162111044 -0.0195887312918
168840000 0.858023395104 -0.0199103459716
168852000 0.857941525355 -0.019992344655
168864000 0.85802638708 -0.0203720049241
168876000 0.857926401622 -0.0202683564381
168888000 0.857660787068 -0.0207183880284
168900000 0.857788965304 -0.0212193771992
168912000 0.857893334272 -0.0214947210593
168924000 0.857762710614 -0.0210822328975
168936000 0.857624503543 -0.0214680177154
168948000 0.857256186358 -0.0221117321334
168960000 0.857204326091 -0.0224011090606
168972000 0.856791925886 -0.0221689481365
168984000 0.85688724351 -0.0228505100957
168996000 0.855505056886 -0.0224815580119
169008000 0.856744446887 -0.0231011928613
169020000 0.856675343432 -0.02325221394
169032000 0.856825542398 -0.0230896744804
169044000 0.856479012299 -0.023695537332
169056000 0.856697602725 -0.0239781275935
169068000 0.856718763259 -0.0240635761508
169080000 0.856462778673 -0.0238600035339
169092000 0.856273452092 -0.0245578848588
169104000 0.856452988062 -0.0246764198229
169116000 0.856438393441 -0.0249167306185
169128000 0.856310274551 -0.0248238584408
169140000 0.855825862871 -0.025174312508
169152000 0.855857526375 -0.025395258313
169164000 0.855941857709 -0.0257855765993
169176000 0.855726438156 -0.0255833891712
169188000 0.855862234818 -0.0259975976755
169200000 0.855832718279 -0.0266274603643
169212000 0.855627819921 -0.0264867852942
169224000 0.855388321684 -0.0268294014245
169236000 0.855602854712 -0.0269953766343
169248000 0.855527329909 -0.0273553629154
169260000 0.855407615621 -0.0273257106328
169272000 0.854893395649 -0.0278356436038
169284000 0.855064153732 -0.0279828659346
169296000 0.854862705276 -0.0281262227342
169308000 0.854819686005 -0.0280202812859
169320000 0.85478704694 -0.0286194135801
169332000 0.854694034881 -0.028684574417
169344000 0.854399250179 -0.0288185738116
169356000 0.853452104515 -0.0292483123433
169368000 0.852643366398 -0.0301304698929
169380000 0.852970412841 -0.0299811103983
169392000 0.853635825576 -0.0295888500012
169404000 0.853843743972 -0.0293862604647
169416000 0.853711755357 -0.0300803778403
169428000 0.853868509682 -0.0302446781837
169440000 0.853829927658 -0.0301562539528
169452000 0.853420265321 -0.03008977599
169464000 0.853505574376 -0.0304268113235
169476000 0.853306994098 -0.030673866424
169488000 0.853332223106 -0.0309209531722
169500000 0.852839204183 -0.0310100037382
169512000 0.852716501449 -0.031216714327
169524000 0.852556511193 -0.0314993433017
169536000 0.852602935195 -0.031637749262
169548000 0.85272446025 -0.032025329711
169560000 0.85247778756 -0.0319251838612
169572000 0.852177319409 -0.0323419375568
169584000 0.852645763607 -0.0322633884155
169596000 0.852366190819 -0.0324974036861
169608000 0.852221128945 -0.0323193986637
169620000 0.852032815689 -0.0330626611466
169632000 0.852035947592 -0.0332444764191
169644000 0.85187894114 -0.0334018728829
169656000 0.851846613415 -0.033188730719
169668000 0.851687359276 -0.0336759465318
169680000 0.851769722207 -0.0337829948534
169692000 0.85164774255 -0.0338554064947
169704000 0.851571585788 -0.0339622719788
169716000 0.851343813158 -0.0344421608273
169728000 0.851471033935 -0.0346813902609
169740000 0.851276040729 -0.0345191071222
169752000 0.850606419938 -0.0348368097848
169764000 0.850811664732 -0.0350735659078
169776000 0.850191870262 -0.0351176304999
169788000 0.848665665431 -0.0355950106977
169800000 0.846851912979 -0.0358356359992
169812000 0.84787606559 -0.0357726632708
169824000 0.849124698567 -0.0361586822047
169836000 0.85004214931 -0.0360475628172
169848000 0.850128840117 -0.0362793704105
169860000 0.850001116622 -0.0362624694247
169872000 0.849920624461 -0.0365674724651
169884000 0.849804725948 -0.0366563270202
169896000 0.849611300457 -0.0368792181823
169908000 0.849648748169 -0.0369424538028
169920000 0.849450640151 -0.037466392551
169932000 0.849367037606 -0.0375928567875
169944000 0.849256939807 -0.0378044287143
169956000 0.849075131482 -0.0376135248653
169968000 0.848894429746 -0.0381713869274
169980000 0.848806831593 -0.038259527292
169992000 0.848640471902 -0.0382475318735
170004000 0.848617698135 -0.038254705737
170016000 0.848318633873 -0.0385764909086
170028000 0.848274114745 -0.0389154367663
170040000 0.848455843744 -0.0389636765072
170052000 0.848285053093 -0.0390180000149
170064000 0.848266117121 -0.0392154257346
170076000 0.848004221295 -0.0393232616872
170088000 0.847704098274 -0.0394131020669
170100000 0.847724417267 -0.0395552609767
170112000 0.847416291651 -0.0396306290032
170124000 0.847101683875 -0.0401168328584
170136000 0.847681072522 -0.0401666212004
170148000 0.847372088237 -0.0404073946835
170160000 0.847149194111 -0.0403205033263
170172000 0.84674054474 -0.0405673842679
170184000 0.846942688291 -0.040734926685
170196000 0.846661384487 -0.0409927762221
170208000 0.846620066823 -0.0407727770145
170220000 0.84615795685 -0.0412458351833
170232000 0.846453568951 -0.0412300312372
170244000 0.846261680577 -0.0414276666816
170256000 0.846222352893 -0.0413423841064
170268000 0.846181588052 -0.041836512567
170280000 0.845951426219 -0.0417659040947
170292000 0.845956496916 -0.041601342815
170304000 0.84576694201 -0.0417035177089
170316000 0.845530955631 -0.0422116511692
170328000 0.845561106318 -0.0422800068136
170340000 0.845361278107 -0.0423275117477
170352000 0.845387095086 -0.0422806115789
170364000 0.845293796417 -0.0424871013032
170376000 0.845173687612 -0.0427015290887
170388000 0.845188201047 -0.0427947867544
170400000 0.84485585104 -0.0427582531768
170412000 0.844672733329 -0.0427486075385
170424000 0.844512829806 -0.0431670285865
170436000 0.844782796835 -0.0431943549452
170448000 0.844509854015 -0.0432689946961
170460000 0.844658976579 -0.0433468936852
170472000 0.844101082826 -0.0437779595095
170484000 0.844326110408 -0.0438006725639
170496000 0.844134382747 -0.0439952820691
170508000 0.84389221392 -0.0437652677467
170520000 0.843786938714 -0.0443898081298
170532000 0.843726314181 -0.0444516314881
170544000 0.843724842089 -0.044576122707
170556000 0.84354429731 -0.0444540920795
170568000 0.843226359882 -0.0448576388389
170580000 0.84330479339 -0.0449138861558
170592000 0.843303537323 -0.0448834508611
170604000 0.8431011437 -0.0447720916602
170616000 0.843443162333 -0.0456918341823
170628000 0.83994210431 -0.0440925828689
170640000 0.843045496435 -0.0455313027363
170652000 0.842744052093 -0.0453754102907
170664000 0.84244853867 -0.0457006722387
170676000 0.842452541396 -0.0459671178556
170688000 0.842620918072 -0.0458504060555
170700000 0.842377288704 -0.0457283381495
170712000 0.842139278369 -0.0460252274301
170724000 0.841910943629 -0.0463617896074
170736000 0.841967259186 -0.0463773599504
170748000 0.841830612989 -0.0464491404982
170760000 0.841847010531 -0.0464773623107
170772000 0.841336476214 -0.0469837450262
170784000 0.84142689786 -0.0470107614257
170796000 0.841380055625 -0.0469573914833
170808000 0.841354979703 -0.0467966606031
170820000 0.840658779583 -0.0471241485786
170832000 0.84082573747 -0.0474731860007
170844000 0.840663520837 -0.0474344408547
170856000 0.840628153266 -0.0470806915219
170868000 0.840474897608 -0.0476631203417
170880000 0.84031404844 -0.0478055706556
170892000 0.84034304593 -0.0479331819845
170904000 0.840247464252 -0.0477266614512
170916000 0.839708574345 -0.0478900177322
170928000 0.839643905037 -0.0481986945573
170940000 0.839889517357 -0.0480963920543
170952000 0.839829562834 -0.0478501006454
170964000 0.839691178407 -0.0480977012412
170976000 0.83949584089 -0.0484624330061
170988000 0.839657371436 -0.0483587671146
171000000 0.839456590654 -0.0483414311815
171012000 0.839053590969 -0.0484821564801
171024000 0.838929264329 -0.0486360844248
171036000 0.839376491699 -0.0488283108739
171048000 0.839009577602 -0.0486099737634
171060000 0.838806613309 -0.0484387110983
171072000 0.838202541321 -0.0488736493069
171084000 0.838526661822 -0.0488660028531
171096000 0.838488256562 -0.0491802914747
171108000 0.838456968997 -0.0488978991571
171120000 0.837997509679 -0.0493872879473
171132000 0.838438107995 -0.0495105830545
171144000 0.838303399325 -0.0494225943599
171156000 0.83825895782 -0.0490224873525
171168000 0.839237996945 -0.0495463858423
171180000 0.838101242849 -0.0497446384589
171192000 0.838044501323 -0.0499147754894
171204000 0.837874416741 -0.0498138049437
171216000 0.837610748512 -0.0499071329953
171228000 0.837718417637 -0.0501440946186
171240000 0.837777613703 -0.0501982113616
171252000 0.837572563413 -0.0498181041436
171264000 0.837237179559 -0.0499917296201
171276000 0.837201058411 -0.0502393376421
171288000 0.837643964316 -0.0504741211762
171300000 0.837388822571 -0.0503634570487
171312000 0.837211937901 -0.0505449341103
171324000 0.836810357509 -0.0509771323161
171336000 0.837176240913 -0.0509210954312
171348000 0.836975531619 -0.0507517408699
171360000 0.836904074038 -0.0505298833916
171372000 0.836414115067 -0.051022877393
171384000 0.83667934546 -0.0509861046954
171396000 0.836532790972 -0.0509586430539
171408000 0.836465692413 -0.0507956338437
171420000 0.83580418694 -0.0512176481175
171432000 0.836042282748 -0.0515530052979
171444000 0.835982322349 -0.0516490161385
171456000 0.836094053013 -0.0512644337728
171468000 0.835679502405 -0.0515998665248
171480000 0.835701275371 -0.0518332697417
171492000 0.835532422545 -0.0518817671593
171504000 0.835489017388 -0.0514378828464
171516000 0.835385412959 -0.051726853528
171528000 0.835426533077 -0.0519505554061
171540000 0.835495597267 -0.0520148263033
171552000 0.835358993812 -0.0518024124849
171564000 0.835216208177 -0.0520012141984
171576000 0.835012472489 -0.0521207082596
171588000 0.83544877642 -0.0523790532548
171600000 0.835357257055 -0.0522529010423
171612000 0.834442305336 -0.0529002874199
171624000 0.834852047911 -0.0526538393345
171636000 0.834945541287 -0.0522169641169
171648000 0.834787660192 -0.052312496351
171660000 0.834429994039 -0.0528779416391
171672000 0.834654492613 -0.0529632219039
171684000 0.834743149485 -0.0526079080437
171696000 0.834120574943 -0.0525181180902
171708000 0.833856671587 -0.0532241792316
171720000 0.833985571516 -0.0531068815923
171732000 0.834348803635 -0.0528001707464
171744000 0.833809170263 -0.0524995686809
171756000 0.833947102027 -0.0530081371156
171768000 0.833646863054 -0.0533898747075
171780000 0.834140614207 -0.0531532477694
171792000 0.833645704436 -0.0527875027355
171804000 0.833783554626 -0.053029720567
171816000 0.833437673312 -0.0534785447901
171828000 0.834066077354 -0.0532803175578
171840000 0.833408820269 -0.0530044396647
171852000 0.833497118993 -0.0532837636015
171864000 0.833136458426 -0.0538208033568
171876000 0.833729178596 -0.0536719307313
171888000 0.833603820045 -0.0531899594915
171900000 0.833458946317 -0.0532076102789
171912000 0.832784211006 -0.053922145733
171924000 0.83337909237 -0.0539023844755
171936000 0.833336102258 -0.0534826054032
171948000 0.833183798988 -0.0534550744555
171960000 0.832675228003 -0.0542489722236
171972000 0.833038208357 -0.05435033705
171984000 0.833122694403 -0.053886776226
171996000 0.832897733028 -0.0536981189528
172008000 0.83272431372 -0.0540663106976
172020000 0.832798178056 -0.0543954422657
172032000 0.833209433165 -0.0542401816158
172044000 0.83279792522 -0.0540075252051
172056000 0.832582807589 -0.0544067319774
172068000 0.832495859667 -0.0547252744378
172080000 0.833104795867 -0.0545516408637
172092000 0.832702898129 -0.0542370896755
172104000 0.832565961544 -0.0543719972443
172116000 0.832206560343 -0.0549974348875
172128000 0.83278015365 -0.054774629092
172140000 0.832296385244 -0.0545505667676
172152000 0.832210512744 -0.0545977231266
172164000 0.831739834334 -0.0553938427925
172176000 0.832212682952 -0.0552089957498
172188000 0.832442014644 -0.0547894257675
172200000 0.832196882781 -0.0549299323334
172212000 0.831513345573 -0.0554827896082
172224000 0.832304921702 -0.0555418687685
172236000 0.832314899066 -0.0542078465272
172248000 0.83202277799 -0.0553844746945
172260000 0.831290480222 -0.0556891561535
172272000 0.831630968597 -0.055816661407
172284000 0.831946316793 -0.0554326242987
172296000 0.831720889043 -0.0551384400164
172308000 0.83143054002 -0.0557645573878
172320000 0.831446657129 -0.0559452019552
172332000 0.831871128062 -0.0557073147041
172344000 0.831515340857 -0.055375551316
172356000 0.831236700906 -0.0559238329341
172368000 0.831165430023 -0.0561390838848
172380000 0.83166286957 -0.0560487378868
172392000 0.831384631125 -0.0557639624698
172404000 0.83121424722 -0.0560602395877
172416000 0.83088957455 -0.0564301173705
172428000 0.831622336771 -0.0564214171872
172440000 0.831261190795 -0.0561151310643
172452000 0.831185115948 -0.0560962393008
172464000 0.830375902634 -0.056528207045
172476000 0.831157821424 -0.056627972998
172488000 0.831011552934 -0.0560664727543
172500000 0.830794900541 -0.0562788606121
172512000 0.830302129353 -0.0566890470552
172524000 0.830858438398 -0.0568245223889
172536000 0.830987695983 -0.0562473358429
172548000 0.830905517151 -0.0561899896756
172560000 0.830266969533 -0.0567096685188
172572000 0.830749395284 -0.0570165493377
172584000 0.831393433831 -0.0566996330369
172596000 0.831139473912 -0.0563605201701
172608000 0.830567653297 -0.0569470263129
172620000 0.830699578942 -0.0571777903339
172632000 0.831380587471 -0.0569906981742
172644000 0.831030610658 -0.056663168394
172656000 0.830575195175 -0.0569504993203
172668000 0.830587188927 -0.0572652349073
172680000 0.831017755767 -0.0572427040905
172692000 0.830873175654 -0.0569758584894
172704000 0.830567800301 -0.0571721329511
172716000 0.829805456515 -0.0566216140908
172728000 0.830869316523 -0.0575940193927
172740000 0.830665034181 -0.0572004535726
172752000 0.830485963743 -0.0573469064403
172764000 0.829834849941 -0.0578002323725
172776000 0.830745693277 -0.0579159263911
172788000 0.830792743822 -0.0574889284423
172800000 0.830578282237 -0.0575191845367
172812000 0.830298553234 -0.0573289775806
172824000 0.830697434809 -0.0577576434946
172836000 0.82973796016 -0.0579794675621
172848000 0.830891955254 -0.0580441907225
172860000 0.830238599368 -0.0577077943361
172872000 0.830461214697 -0.0579828900189
172884000 0.830126934439 -0.058384623163
172896000 0.830764346121 -0.0583148175144
172908000 0.830296955473 -0.0581868444801
172920000 0.83045713829 -0.0584250631211
172932000 0.8301091885 -0.0586171514384
172944000 0.830146414583 -0.0584783388616
172956000 0.830486773638 -0.0585189364081
172968000 0.830110276359 -0.0584211608173
172980000 0.830153971161 -0.0589005643275
172992000 0.830123611352 -0.0588887021491
173004000 0.830487181604 -0.0590014438995
173016000 0.829949417375 -0.0588151250567
173028000 0.830531839682 -0.0593480226636
173040000 0.830231717547 -0.0591941199479
173052000 0.830853333868 -0.0597456175122
173064000 0.829210634673 -0.0592957553081
173076000 0.83005009455 -0.059353604191
173088000 0.829376561179 -0.0593443964089
173100000 0.830495921515 -0.0596110250182
173112000 0.829945443464 -0.0592784323222
173124000 0.830334514686 -0.0597963883963
173136000 0.82916293008 -0.0599322104147
173148000 0.830169217083 -0.0597625533384
173160000 0.829861947418 -0.059479186639
173172000 0.829921929906 -0.0597224423086
173184000 0.829175929007 -0.0599941370852
173196000 0.830119319635 -0.0599279015472
173208000 0.82972358488 -0.0599463953716
173220000 0.829719519503 -0.0599406197832
173232000 0.829472434187 -0.0602498801853
173244000 0.830129595842 -0.0601188233965
173256000 0.829894388661 -0.0601520057029
173268000 0.829565246325 -0.0600779372668
173280000 0.829741770203 -0.0604595569145
173292000 0.829711357991 -0.0603204648944
173304000 0.829759582826 -0.0605831109956
173316000 0.829463193975 -0.0601823720587
173328000 0.829780810729 -0.060678039015
173340000 0.829677723283 -0.060390249387
173352000 0.830088680248 -0.0608211635323
173364000 0.829575684349 -0.0603459480662
173376000 0.830113613183 -0.0607572742547
173388000 0.829209812291 -0.0607139575373
173400000 0.830186859492 -0.0609957349783
173412000 0.829770958892 -0.0606403786658
173424000 0.830054028703 -0.0611225278112
173436000 0.829441888364 -0.0609437372292
173448000 0.830232778374 -0.0615306276661
173460000 0.83004286381 -0.0610083769159
173472000 0.829933263903 -0.0612177500787
173484000 0.82910715896 -0.0613121848254
173496000 0.830483054605 -0.0613175852475
173508000 0.830886272168 -0.0609110479885
173520000 0.830409055271 -0.0611233952308
173532000 0.829603137189 -0.0616659025014
173544000 0.830090236413 -0.0617160134966
173556000 0.830210436589 -0.0616474597379
173568000 0.830015351132 -0.0616633723414
173580000 0.829826113502 -0.0620206841994
173592000 0.82978615577 -0.0620488842687
173604000 0.829958809686 -0.0621627953536
173616000 0.829622639041 -0.0620049558193
173628000 0.829938206019 -0.0624486580397
173640000 0.829718747826 -0.0622686425626
173652000 0.830299645984 -0.0626414630109
173664000 0.829750745268 -0.0622261013457
173676000 0.829820643946 -0.0626544630123
173688000 0.829255717978 -0.062461864563
173700000 0.830200129346 -0.0630334326749
173712000 0.829963712354 -0.0626343266095
173724000 0.830044769424 -0.0630373959568
173736000 0.829286315715 -0.0631232416696
173748000 0.830311063064 -0.0631217753106
173760000 0.829862778883 -0.062973688146
173772000 0.82963052151 -0.0632273527771
173784000 0.829181195195 -0.0633288642691
173796000 0.830096101926 -0.0635294413058
173808000 0.830190267372 -0.0633170591864
173820000 0.830030376038 -0.0635776171973
173832000 0.829664614273 -0.0637807452624
173844000 0.830146015882 -0.0638538605491
173856000 0.830030635097 -0.0638828282445
173868000 0.829532859696 -0.0636867963239
173880000 0.829485637958 -0.0641208664492
173892000 0.829597239783 -0.0640184038629
173904000 0.829768105745 -0.0644236194139
173916000 0.82936590874 -0.0639218282513
173928000 0.829580284774 -0.0643349785659
173940000 0.829224906569 -0.0643065127913
173952000 0.829752602833 -0.0647634050655
173964000 0.829543104138 -0.0642725241081
173976000 0.829815066398 -0.0646987649504
173988000 0.828912652714 -0.0645398791819
174000000 0.829684786123 -0.0650207896323
