! Calibrated averaged scanner-service zoom
# Hz S RI R 50
406100000 0.320860756457 -0.43372267423
406106950 0.320389921019 -0.434399247222
406113900 0.320676681636 -0.433934621077
406120850 0.320599881511 -0.434212410261
406127800 0.320624897771 -0.434491046313
406134750 0.32067057885 -0.434081630264
406141700 0.32093968521 -0.434438056169
406148650 0.32111496676 -0.434248338453
406155600 0.321265125533 -0.434802202678
406162550 0.321445806889 -0.435504834887
406169500 0.32137440112 -0.435177525678
406176450 0.321847281587 -0.435037297938
406183400 0.321544050502 -0.434589288541
406190350 0.321933499266 -0.435158026638
406197300 0.322096992282 -0.435314862959
406204250 0.322219671978 -0.435959027157
406211200 0.32198960201 -0.435611492293
406218150 0.322686904056 -0.436429611544
406225100 0.323711699006 -0.436635266394
406232050 0.322425692149 -0.438265698946
406239000 0.33172119516 -0.440928176591
406245950 0.32398072788 -0.436769311644
406252900 0.327854528423 -0.437147460811
406259850 0.323671794188 -0.437152094931
406266800 0.323588270382 -0.436670072789
406273750 0.322677796564 -0.436749030887
406280700 0.323307365659 -0.436832983963
406287650 0.323943301002 -0.437564256817
406294600 0.324343577304 -0.437493859748
406301550 0.324825453949 -0.437358495595
406308500 0.324467412742 -0.437676968869
406315450 0.324111245951 -0.437351528417
406322400 0.324444529135 -0.43704513345
406329350 0.323801614749 -0.437271296765
406336300 0.324743858359 -0.437152851477
406343250 0.32415782638 -0.436780404519
406350200 0.324038998403 -0.437201999892
406357150 0.324329345657 -0.43673261914
406364100 0.324603227776 -0.437235664761
406371050 0.324438072102 -0.437784571662
406378000 0.324514686996 -0.437217665525
406384950 0.324850134109 -0.43509880186
406391900 0.324767885376 -0.437992212163
406398850 0.324460038097 -0.438446334168
406405800 0.325143346596 -0.438789783023
406412750 0.324872510985 -0.438509312793
406419700 0.324261165814 -0.437959703514
406426650 0.325007574655 -0.438156956298
406433600 0.325933584729 -0.439063058789
406440550 0.325724286337 -0.437961785053
406447500 0.325929056875 -0.437930776328
406454450 0.326047741458 -0.43883647614
406461400 0.325985762584 -0.438922558956
406468350 0.326269047445 -0.439360870171
406475300 0.326052079547 -0.439447255867
406482250 0.325810948218 -0.438902785426
406489200 0.326332072849 -0.439462219284
406496150 0.326466699678 -0.439765214359
406503100 0.326363513678 -0.439756877916
406510050 0.326425876613 -0.439549975233
406517000 0.326500037643 -0.440812741009
406523950 0.325702220216 -0.440023324315
406530900 0.326159371938 -0.440106940832
406537850 0.326212545028 -0.440084287996
406544800 0.326101798472 -0.439875945264
406551750 0.327000058239 -0.440587904421
406558700 0.326799467719 -0.440485112622
406565650 0.327197535993 -0.44076962285
406572600 0.327678344901 -0.441307315585
406579550 0.328173693374 -0.441419730417
406586500 0.328287289821 -0.44180087329
406593450 0.32759865149 -0.440959961911
406600400 0.328310440463 -0.440670682966
406607350 0.328251031752 -0.441035202933
406614300 0.328577289429 -0.441501211631
406621250 0.328874401671 -0.441341440749
406628200 0.327952046535 -0.441206793117
406635150 0.32862986772 -0.442059658269
406642100 0.328901562991 -0.442679941239
406649050 0.328255877352 -0.441282412036
406656000 0.328268418725 -0.441894790867
406662950 0.327874766277 -0.442230413165
406669900 0.328143040979 -0.44198993356
406676850 0.328511959539 -0.441861855248
406683800 0.329389155613 -0.442171236547
406690750 0.329030484288 -0.442565387784
406697700 0.329550015836 -0.44204194898
406704650 0.329967167208 -0.442365725769
406711600 0.329727881878 -0.442815289718
406718550 0.330411442418 -0.443066251225
406725500 0.329435221563 -0.444371984353
406732450 0.329372407548 -0.443887447022
406739400 0.329291949014 -0.443639429162
406746350 0.329863675408 -0.44341626012
406753300 0.329579011687 -0.443249397823
406760250 0.328850710184 -0.443019396584
406767200 0.330186488829 -0.443551285002
406774150 0.329786849339 -0.443674102801
406781100 0.330752511075 -0.444136624188
406788050 0.330391166427 -0.444540953639
406795000 0.330650863122 -0.444550387192
406801950 0.329974874339 -0.446427241797
406808900 0.33017738184 -0.446834915193
406815850 0.32937295739 -0.44578872649
406822800 0.329516656661 -0.445586645227
406829750 0.329539057382 -0.446519075472
406836700 0.330153426796 -0.446964395064
406843650 0.330188486844 -0.447489239284
406850600 0.329948609739 -0.447226412374
406857550 0.330102798527 -0.447444984584
406864500 0.32993976082 -0.446869527033
406871450 0.330211934933 -0.446448582957
406878400 0.330310457002 -0.446985504946
406885350 0.330181890633 -0.447518269656
406892300 0.330632164051 -0.447667663535
406899250 0.330030329289 -0.447426724765
406906200 0.330164657009 -0.447812003592
406913150 0.330610726847 -0.448214156511
406920100 0.331117296581 -0.446904520881
406927050 0.330315236345 -0.447331086815
406934000 0.330742239234 -0.447479243156
406940950 0.330984088217 -0.447710378892
406947900 0.330540775828 -0.44781498593
406954850 0.330476307031 -0.448128157342
406961800 0.330792846794 -0.448588199778
406968750 0.330862561253 -0.448546468077
406975700 0.331290656757 -0.448813418869
406982650 0.331011805507 -0.448781637986
406989600 0.331800314181 -0.448766209123
406996550 0.331331974879 -0.448522685375
407003500 0.331716204083 -0.448729286406
407010450 0.333081564338 -0.449792551887
407017400 0.331210646329 -0.449319761635
407024350 0.332036008002 -0.449119114512
407031300 0.331299466313 -0.449216350769
407038250 0.331396561352 -0.449416817785
407045200 0.331195665048 -0.449488501664
407052150 0.331229301869 -0.449760842992
407059100 0.331374407958 -0.448927764699
407066050 0.331804515709 -0.45021262484
407073000 0.33212479146 -0.450401841207
407079950 0.331270801679 -0.449387048591
407086900 0.332146804873 -0.450133839958
407093850 0.331962422192 -0.449883356118
407100800 0.331936102643 -0.450529960271
407107750 0.331936148792 -0.450494475155
407114700 0.331221712662 -0.449995570275
407121650 0.331876180348 -0.450079745062
407128600 0.332334962965 -0.450287949444
407135550 0.332290312916 -0.450624476029
407142500 0.332295847404 -0.450776572658
407149450 0.332708966691 -0.450635632915
407156400 0.33253477767 -0.451739821841
407163350 0.332352280026 -0.451598789077
407170300 0.332548009178 -0.45164131139
407177250 0.333076214505 -0.451571604718
407184200 0.332484989049 -0.451924785148
407191150 0.332782709471 -0.451214039963
407198100 0.33339246674 -0.451335726682
407205050 0.333256040257 -0.451204383796
407212000 0.333056851172 -0.452115791412
407218950 0.333337234588 -0.452010268389
407225900 0.333643080599 -0.451854848141
407232850 0.333274090182 -0.451722281226
407239800 0.333501299225 -0.452267176813
407246750 0.333213828564 -0.452128263227
407253700 0.333946290754 -0.45272576269
407260650 0.333538508573 -0.45152586857
407267600 0.333591973902 -0.452426214873
407274550 0.333498457904 -0.451020595466
407281500 0.333915354775 -0.451965867599
407288450 0.334254578774 -0.452778766303
407295400 0.333830256795 -0.452419283425
407302350 0.333803183916 -0.452580767799
407309300 0.333771366892 -0.452862669148
407316250 0.334730623076 -0.45325991113
407323200 0.332338493837 -0.452096957921
407330150 0.333311143179 -0.453738593516
407337100 0.334416461595 -0.453501526905
407344050 0.33361891329 -0.453034198617
407351000 0.334646821587 -0.453862282309
407357950 0.33516873184 -0.453114367158
407364900 0.334935364868 -0.453704257275
407371850 0.334771188511 -0.453219586921
407378800 0.335458509496 -0.45314370636
407385750 0.334651305614 -0.454294287315
407392700 0.331337826784 -0.45596582094
407399650 0.334739341569 -0.453551475908
407406600 0.335501530989 -0.453772540978
407413550 0.335569207942 -0.455109024162
407420500 0.335932225225 -0.454405271592
407427450 0.334859053954 -0.453655119667
407434400 0.334509790124 -0.455498759021
407441350 0.335443844301 -0.454827231907
407448300 0.335303009619 -0.454668855393
407455250 0.334922140991 -0.454738216328
407462200 0.336290168418 -0.454007573429
407469150 0.33660887221 -0.454662349845
407476100 0.33656920967 -0.455778888026
407483050 0.33612875794 -0.454922658893
407490000 0.335968063037 -0.455857406907
407496950 0.336895333651 -0.453757471125
407503900 0.336273084958 -0.454964109784
407510850 0.336491703946 -0.454768107373
407517800 0.336866850724 -0.454382358058
407524750 0.336842251347 -0.454957445448
407531700 0.337594245024 -0.454262264151
407538650 0.336737564989 -0.455609061045
407545600 0.336265798473 -0.455879314442
407552550 0.336596908193 -0.454887536304
407559500 0.337693298196 -0.455364162856
407566450 0.337776836936 -0.455035926862
407573400 0.337488578613 -0.456538148348
407580350 0.337807771045 -0.45591752438
407587300 0.33762037345 -0.456137723034
407594250 0.338248433675 -0.456111033957
407601200 0.337796307818 -0.455776754195
407608150 0.337693036638 -0.455740162074
407615100 0.337282728228 -0.456419961402
407622050 0.337173857851 -0.456031036266
407629000 0.337486536798 -0.456269189053
407635950 0.337913877132 -0.456638514629
407642900 0.337851354974 -0.456432772594
407649850 0.338652385554 -0.456347767145
407656800 0.33827536656 -0.456220387125
407663750 0.338929041741 -0.456599232313
407670700 0.338250748091 -0.45685441683
407677650 0.33795899739 -0.456962698014
407684600 0.338238585292 -0.457426722822
407691550 0.338553114339 -0.457337476388
407698500 0.33871410016 -0.457334304411
407705450 0.337504651885 -0.457002831142
407712400 0.338642552396 -0.457207558088
407719350 0.339460802466 -0.457366672572
407726300 0.339495342092 -0.457187501184
407733250 0.339675371054 -0.456671386691
407740200 0.339919083341 -0.457603929076
407747150 0.339605495132 -0.457433083281
407754100 0.339629673488 -0.457717413471
407761050 0.339786028648 -0.458055690656
407768000 0.33966036523 -0.457840283258
407774950 0.339658940349 -0.45791908743
407781900 0.340004261597 -0.458233409507
407788850 0.33992557105 -0.458334348932
407795800 0.340265731192 -0.458591776916
407802750 0.340440661628 -0.458263263374
407809700 0.340136740519 -0.458968464056
407816650 0.340315050993 -0.458441730015
407823600 0.340090114399 -0.459189880129
407830550 0.340802194681 -0.457636530587
407837500 0.340071728749 -0.458928237082
407844450 0.340874599256 -0.459289075586
407851400 0.341060267924 -0.459237156072
407858350 0.341288824641 -0.459705980336
407865300 0.34155141161 -0.459505038275
407872250 0.341112715551 -0.459673628536
407879200 0.340586373699 -0.460328148328
407886150 0.341920004522 -0.45981364385
407893100 0.341662122847 -0.460387912504
407900050 0.341910616097 -0.459851655219
407907000 0.342098486452 -0.459938076518
407913950 0.341819205608 -0.460784190225
407920900 0.341718240166 -0.459999705182
407927850 0.341976068472 -0.460616889048
407934800 0.342098126827 -0.46039918869
407941750 0.341693005089 -0.460472226039
407948700 0.342314273935 -0.460725180795
407955650 0.342473631689 -0.460420833826
407962600 0.34210918053 -0.459883403194
407969550 0.341793404559 -0.460323349303
407976500 0.341932791007 -0.460806486813
407983450 0.341756993356 -0.461309784947
407990400 0.341824284447 -0.460953022434
407997350 0.342543229629 -0.460749473112
408004300 0.342733313561 -0.461332372251
408011250 0.343311580361 -0.462182641005
408018200 0.342347484516 -0.461388747721
408025150 0.342463941769 -0.461658344987
408032100 0.341708324623 -0.462694850453
408039050 0.342079919939 -0.462337832767
408046000 0.341629871557 -0.462563472609
408052950 0.342443090435 -0.462418242428
408059900 0.342941191592 -0.461990243405
408066850 0.342944396213 -0.463224397531
408073800 0.342369290592 -0.461933099887
408080750 0.343254629794 -0.46301055452
408087700 0.343900471189 -0.463553255828
408094650 0.34358175366 -0.463381932963
408101600 0.343546510428 -0.463512845468
408108550 0.34423257412 -0.463906833731
408115500 0.343879498896 -0.464444922577
408122450 0.343646256741 -0.463385466422
408129400 0.343826573844 -0.462709992769
408136350 0.343869887046 -0.46299401356
408143300 0.343883865007 -0.463049347897
408150250 0.344292214771 -0.463145158704
408157200 0.343904243478 -0.463410909404
408164150 0.343611780727 -0.462860583644
408171100 0.343840180122 -0.464066113778
408178050 0.344838363592 -0.464226669763
408185000 0.344530637867 -0.464328598875
408191950 0.345279363092 -0.463093686429
408198900 0.345928575684 -0.463703168871
408205850 0.345291268579 -0.464397836534
408212800 0.344948039776 -0.463574467147
408219750 0.345246283779 -0.464004839396
408226700 0.345328165895 -0.463652230586
408233650 0.344411011928 -0.464320257153
408240600 0.344811041564 -0.465198340802
408247550 0.345610851893 -0.464971429862
408254500 0.345223981853 -0.464658210074
408261450 0.345723735134 -0.465207629841
408268400 0.345776731385 -0.464278781315
408275350 0.34576038095 -0.464508396239
408282300 0.345924834182 -0.463579596549
408289250 0.345067499462 -0.464305623478
408296200 0.346255137867 -0.463576000246
408303150 0.345803839644 -0.465066424449
408310100 0.346533327503 -0.466049084313
408317050 0.346466756786 -0.465884609884
408324000 0.346501795828 -0.466273993433
408330950 0.346144966611 -0.466158991273
408337900 0.345917552692 -0.466158012452
408344850 0.346058885361 -0.465685575713
408351800 0.346761711923 -0.465832118833
408358750 0.346469966676 -0.466505595209
408365700 0.346388573169 -0.466873711263
408372650 0.347246825319 -0.466608079276
408379600 0.347263392284 -0.46668015016
408386550 0.346438585324 -0.466254634928
408393500 0.346104656609 -0.467358603643
408400450 0.346332828967 -0.467575637254
408407400 0.346547143692 -0.46666437673
408414350 0.34713451319 -0.466917314892
408421300 0.347470889339 -0.46706446504
408428250 0.347671712606 -0.467422173178
408435200 0.347334349905 -0.467354462713
408442150 0.347829298163 -0.466918702344
408449100 0.347697307516 -0.468001319191
408456050 0.34847680196 -0.467146439671
408463000 0.347657755753 -0.467198244831
408469950 0.347617299466 -0.467768190119
408476900 0.347595572204 -0.468172109912
408483850 0.347217243223 -0.468509725443
408490800 0.348258497252 -0.468946376304
408497750 0.347910296362 -0.468711101695
408504700 0.348625778506 -0.468224196334
408511650 0.348114262892 -0.46832384343
408518600 0.348519367258 -0.468277832111
408525550 0.348395190534 -0.468988239051
408532500 0.348283566622 -0.469235839082
408539450 0.347750583364 -0.469304846586
408546400 0.348226622889 -0.470001382019
408553350 0.348459248974 -0.470408223421
408560300 0.349254564149 -0.469853566859
408567250 0.348615802667 -0.469769041973
408574200 0.349202025804 -0.469978453497
408581150 0.348941517931 -0.470220488818
408588100 0.348422183469 -0.470532203125
408595050 0.348828956797 -0.470455375086
408602000 0.348577931655 -0.4701094345
408608950 0.349158465419 -0.470006369769
408615900 0.349030802449 -0.470232686527
408622850 0.349016421454 -0.470303008691
408629800 0.349318244292 -0.470864659209
408636750 0.348805655724 -0.470651485918
408643700 0.349141358821 -0.470501433133
408650650 0.349301802511 -0.47103215267
408657600 0.349021808012 -0.471625773144
408664550 0.349255822965 -0.471573464512
408671500 0.349394045655 -0.471256528741
408678450 0.349083876131 -0.471215678975
408685400 0.349595213054 -0.471585616023
408692350 0.351688737999 -0.470067946908
408699300 0.349717404362 -0.472112553018
408706250 0.349768838371 -0.471601837905
408713200 0.349915585789 -0.471881002449
408720150 0.350263308773 -0.472342417392
408727100 0.350792459025 -0.471841611433
408734050 0.3513679371 -0.472890593654
408741000 0.351164216431 -0.472644279775
408747950 0.351235536913 -0.472522962544
408754900 0.351279150503 -0.472961918109
408761850 0.351110701776 -0.473203543292
408768800 0.350794034446 -0.472745245164
408775750 0.350625200491 -0.472596131903
408782700 0.351581762227 -0.472900227037
408789650 0.351074173645 -0.472466348882
408796600 0.350406241833 -0.472613598675
408803550 0.350617922744 -0.472995884121
408810500 0.35078200286 -0.473447308631
408817450 0.351352929846 -0.473749533755
408824400 0.351612734862 -0.47441905485
408831350 0.351513804264 -0.474441964298
408838300 0.351811472584 -0.474551114493
408845250 0.352134288335 -0.474750349954
408852200 0.351988268371 -0.474588987523
408859150 0.35205661116 -0.47345954749
408866100 0.351668890009 -0.474281850604
408873050 0.352172619856 -0.474412431437
408880000 0.351380083395 -0.473892215802
408886950 0.351990094998 -0.47265752656
408893900 0.352150241695 -0.472438685457
408900850 0.353101761692 -0.472805591926
408907800 0.353211605227 -0.472616774357
408914750 0.353013930475 -0.472396097419
408921700 0.352335827943 -0.473236443068
408928650 0.351491779464 -0.474328343442
408935600 0.350814829459 -0.475083058498
408942550 0.348707300518 -0.476152685448
408949500 0.350037377309 -0.476299413039
408956450 0.351177127168 -0.47498356949
408963400 0.352018682777 -0.474473864711
408970350 0.35279151009 -0.473927205623
408977300 0.353209389733 -0.473023212471
408984250 0.353864093403 -0.473605420396
408991200 0.354266577349 -0.473976562654
408998150 0.353873441025 -0.474304679783
409005100 0.353550037054 -0.473659946893
409012050 0.354565124914 -0.473780764436
409019000 0.354481055209 -0.474459788068
409025950 0.354659665684 -0.473641113317
409032900 0.354673867571 -0.474466794039
409039850 0.354772240044 -0.473353314027
409046800 0.354636246785 -0.474230809233
409053750 0.354959398364 -0.473726372948
409060700 0.354711306012 -0.473386297067
409067650 0.354847664568 -0.474456948296
409074600 0.354473620373 -0.474428185703
409081550 0.354839181267 -0.474884136101
409088500 0.354628539538 -0.474375320699
409095450 0.355426421296 -0.475042708391
409102400 0.355326434026 -0.474501228418
409109350 0.355964577782 -0.474320749672
409116300 0.355668001288 -0.474104331637
409123250 0.356371169288 -0.473999099999
409130200 0.356613280244 -0.474100860116
409137150 0.356441896235 -0.474781619052
409144100 0.357142531603 -0.474466971284
409151050 0.356254354168 -0.47375592887
409158000 0.356889244649 -0.474469053801
409164950 0.357264000503 -0.474608208247
409171900 0.356784204825 -0.474430998975
409178850 0.357101107692 -0.474446927821
409185800 0.356292282822 -0.474220410463
409192750 0.356775528371 -0.4747839402
409199700 0.356847686957 -0.474596046355
409206650 0.357009644666 -0.474585245022
409213600 0.356528653403 -0.474378626821
409220550 0.35710924233 -0.474051780964
409227500 0.357432035038 -0.473801468796
409234450 0.357140427533 -0.473806231381
409241400 0.357426632434 -0.474070927261
409248350 0.351776450374 -0.466989472936
409255300 0.357336905553 -0.474018096182
409262250 0.357588856562 -0.474122734384
409269200 0.357499102979 -0.47389565374
409276150 0.357335360018 -0.47442459082
409283100 0.357600164223 -0.474877862427
409290050 0.357565242608 -0.474918368577
409297000 0.357927532858 -0.474825457985
409303950 0.358039467558 -0.474269783897
409310900 0.358471005541 -0.47436603238
409317850 0.358541745902 -0.473543826445
409324800 0.358180084215 -0.473574064516
409331750 0.35842960908 -0.473818393935
409338700 0.358271912147 -0.472875506979
409345650 0.358859540715 -0.473861147081
409352600 0.357242105798 -0.472242627826
409359550 0.355955968517 -0.471101705982
409366500 0.354688304596 -0.469909130793
409373450 0.350681657081 -0.467568023692
409380400 0.354084625992 -0.469286328339
409387350 0.355272043306 -0.470303713001
409394300 0.357399079938 -0.471200394439
409401250 0.360087456554 -0.472393492995
409408200 0.359756805378 -0.472417730301
409415150 0.360080490623 -0.472090873572
409422100 0.360104488425 -0.472430694894
409429050 0.360189869491 -0.471875590813
409436000 0.360607018683 -0.471488689183
409442950 0.360291534346 -0.471966265584
409449900 0.360780193057 -0.472091934219
409456850 0.361175813993 -0.471646360372
409463800 0.362301783737 -0.473231644851
409470750 0.363135007942 -0.478478286668
409477700 0.364577887953 -0.483377693984
409484650 0.3672394056 -0.488472868805
409491600 0.367757802905 -0.491639799027
409498550 0.365547472855 -0.485805189769
409505500 0.364894025712 -0.480251545161
409512450 0.362847445339 -0.476392833983
409519400 0.361594345605 -0.471192192246
409526350 0.360806381912 -0.471492434288
409533300 0.362061755157 -0.471015030062
409540250 0.36115287516 -0.471102261479
409547200 0.361496757849 -0.470442202951
409554150 0.362114354318 -0.47040300557
409561100 0.362531740831 -0.471033678402
409568050 0.361907543094 -0.470166407397
409575000 0.363217716358 -0.47020486219
409581950 0.365291657771 -0.447659587038
409588900 0.365297938312 -0.447498773799
409595850 0.365367575755 -0.446978739099
409602800 0.364321343895 -0.44719964082
409609750 0.364502267755 -0.447486092314
409616700 0.365568703598 -0.447991043709
409623650 0.365169791492 -0.447594993767
409630600 0.365334280398 -0.447866971647
409637550 0.365402595816 -0.448285178153
409644500 0.365111106783 -0.447916773432
409651450 0.365566382782 -0.448217510027
409658400 0.365866167043 -0.448186026907
409665350 0.365383904556 -0.447599789118
409672300 0.364579704678 -0.447793965272
409679250 0.365101281809 -0.447862194076
409686200 0.364856653646 -0.448243963099
409693150 0.364742100157 -0.448125023732
409700100 0.365287914084 -0.447849195297
409707050 0.365029551604 -0.447826609866
409714000 0.364721956104 -0.448977987895
409720950 0.365096242641 -0.448311400643
409727900 0.365572276769 -0.448536997962
409734850 0.364484059741 -0.44943528906
409741800 0.365456033314 -0.450599904495
409748750 0.365102541946 -0.450872687647
409755700 0.365095289868 -0.449802262288
409762650 0.364401255969 -0.449941453573
409769600 0.365597816956 -0.449911771507
409776550 0.36617694436 -0.450471838353
409783500 0.366518302569 -0.450804626363
409790450 0.366551797111 -0.450262074067
409797400 0.364643999331 -0.450268920237
409804350 0.366249756874 -0.450822128264
409811300 0.365452236634 -0.450050698664
409818250 0.366035068226 -0.450678734366
409825200 0.366431204077 -0.451259699418
409832150 0.366013305832 -0.450922653222
409839100 0.3660352749 -0.451272505163
409846050 0.366008647234 -0.451236122094
409853000 0.365606659974 -0.451897095425
409859950 0.36661945604 -0.451439150102
409866900 0.366166486899 -0.451800833735
409873850 0.367059252762 -0.452273314791
409880800 0.366052124308 -0.452716705648
409887750 0.366379438297 -0.452456318759
409894700 0.367054965752 -0.452914745942
409901650 0.366832455711 -0.452812565725
409908600 0.366676392126 -0.45315054592
409915550 0.366580613492 -0.453313596997
409922500 0.365671036572 -0.454010813762
409929450 0.366273663679 -0.454278848262
409936400 0.366611122511 -0.453925300107
409943350 0.366045475939 -0.455345339498
409950300 0.366641731095 -0.454998827336
409957250 0.36657018272 -0.455268364647
409964200 0.366527142884 -0.453865056897
409971150 0.366872245809 -0.454630660479
409978100 0.366295743211 -0.454809299281
409985050 0.36654429511 -0.455426488928
409992000 0.367109196566 -0.455581450494
409998950 0.367147844925 -0.456220490345
410005900 0.36757187932 -0.456499637648
410012850 0.366691402091 -0.456560990801
410019800 0.366906633888 -0.457554840061
410026750 0.366985805725 -0.456972900893
410033700 0.366485100798 -0.457171699293
410040650 0.366637311797 -0.457647018164
410047600 0.36684360335 -0.457066785945
410054550 0.36750132605 -0.458522940297
410061500 0.367301247226 -0.457909514858
410068450 0.367492708082 -0.458332110381
410075400 0.367409703875 -0.458769551737
410082350 0.367393630898 -0.458347793062
410089300 0.366830291638 -0.458945393721
410096250 0.367171674731 -0.459851599248
410103200 0.367291178633 -0.459106267522
410110150 0.367514862521 -0.459894652358
410117100 0.367320061279 -0.45976046038
410124050 0.367259843285 -0.460713967892
410131000 0.367057843496 -0.460949977866
410137950 0.367941908263 -0.460684960591
410144900 0.367667552582 -0.460725627002
410151850 0.367482402463 -0.461108151493
410158800 0.367696629443 -0.460723085612
410165750 0.367425543458 -0.461007543859
410172700 0.367799532001 -0.460500662862
410179650 0.367688063439 -0.460944727497
410186600 0.36767304677 -0.460713598425
410193550 0.368276116531 -0.461864086376
410200500 0.368633462169 -0.46254071877
410207450 0.368859689536 -0.462978604985
410214400 0.368833529651 -0.463509402696
410221350 0.368531697381 -0.462795501094
410228300 0.368977430492 -0.462627594003
410235250 0.36882073696 -0.462243013648
410242200 0.368585764742 -0.462501684353
410249150 0.368672517913 -0.462633117903
410256100 0.368274741032 -0.463103909249
410263050 0.369392922573 -0.464412765841
410270000 0.368607984648 -0.463494649095
410276950 0.36408887515 -0.457461140645
410283900 0.36384407849 -0.457370594506
410290850 0.36424606105 -0.45708789112
410297800 0.36424050402 -0.457278778327
410304750 0.363838478146 -0.459032661079
410311700 0.364570328629 -0.459161044162
410318650 0.364251030782 -0.458968685192
410325600 0.363839917802 -0.458323105747
410332550 0.364281076428 -0.459481691129
410339500 0.364022649473 -0.459297247485
410346450 0.364323390941 -0.459415226503
410353400 0.364404778824 -0.459814390894
410360350 0.364280216555 -0.460012477443
410367300 0.364113422934 -0.459863519679
410374250 0.364446294177 -0.460006700721
410381200 0.363323695492 -0.459197015932
410388150 0.364104264241 -0.459614894948
410395100 0.364378615484 -0.459807554895
410402050 0.363801636526 -0.460129076738
410409000 0.363519084258 -0.459752067338
410415950 0.364293543181 -0.460515050456
410422900 0.364329615947 -0.460770982462
410429850 0.364675058722 -0.460830716014
410436800 0.364371388862 -0.460974070771
410443750 0.364315424983 -0.461357913998
410450700 0.364213598016 -0.460640335789
410457650 0.364513230112 -0.461006708427
410464600 0.364510695767 -0.46158617207
410471550 0.364527432033 -0.461085343327
410478500 0.364737963161 -0.461710381379
410485450 0.364132466925 -0.461953466763
410492400 0.365186151479 -0.462424118227
410499350 0.364954619366 -0.461747517522
410506300 0.364569262725 -0.46271866877
410513250 0.366279729179 -0.462030909998
410520200 0.365703969302 -0.465707827777
410527150 0.364187944491 -0.462756693098
410534100 0.364310114525 -0.46311587225
410541050 0.364601800663 -0.464015652262
410548000 0.364977540482 -0.463451687823
410554950 0.365445030644 -0.463355832286
410561900 0.365651835002 -0.462675936195
410568850 0.365185151812 -0.463037520177
410575800 0.3654375729 -0.463916511745
410582750 0.366471078459 -0.463807033169
410589700 0.365675026183 -0.46414185324
410596650 0.365668997377 -0.465073844624
410603600 0.365742633449 -0.464170603891
410610550 0.366351079726 -0.463662015521
410617500 0.36578112798 -0.464374316991
410624450 0.365918036448 -0.464401006079
410631400 0.3662274311 -0.464328595179
410638350 0.36615951811 -0.465376803811
410645300 0.36607806712 -0.465533827558
410652250 0.365428490389 -0.464717680273
410659200 0.366313488712 -0.465277253858
410666150 0.366322211584 -0.465518543303
410673100 0.365915957651 -0.465795438422
410680050 0.367048719373 -0.465934938251
410687000 0.366272889203 -0.465937855818
410693950 0.366323436197 -0.466780839417
410700900 0.36671802323 -0.466647952744
410707850 0.366446400845 -0.466056659224
410714800 0.366533575905 -0.46684127561
410721750 0.366547085322 -0.466941317344
410728700 0.36633319093 -0.467110800589
410735650 0.36682487043 -0.467829462652
410742600 0.367707702946 -0.467251712639
410749550 0.367239825984 -0.468204311141
410756500 0.36729362805 -0.467989017947
410763450 0.367344940322 -0.468431725738
410770400 0.367024109781 -0.468227819369
410777350 0.368051542003 -0.46883854433
410784300 0.367026981329 -0.46894103535
410791250 0.367934621639 -0.46817389766
410798200 0.367771446786 -0.468538856277
410805150 0.36777266372 -0.468637997836
410812100 0.367751497843 -0.467912034544
410819050 0.36845458077 -0.468783237964
410826000 0.368219419735 -0.468708095602
410832950 0.368098945126 -0.469016092573
410839900 0.368342054801 -0.469692886657
410846850 0.367910908349 -0.470018517339
410853800 0.369021652775 -0.47020093033
410860750 0.368598272698 -0.469760615355
410867700 0.368195780402 -0.470519393753
410874650 0.368682699034 -0.47059670538
410881600 0.368313789904 -0.471466187743
410888550 0.368897214071 -0.471359202003
410895500 0.369316137975 -0.471509578253
410902450 0.368698754941 -0.471787600648
410909400 0.36949493496 -0.471397909991
410916350 0.368820073149 -0.47158109019
410923300 0.369039112129 -0.471548186335
410930250 0.369155892239 -0.471167824339
410937200 0.36929476972 -0.47227654151
410944150 0.369805288251 -0.472108339954
410951100 0.369438906742 -0.472052492008
410958050 0.369647331931 -0.472391257782
410965000 0.369762607777 -0.473112321406
410971950 0.368816456564 -0.47612759607
410978900 0.36864937667 -0.47631460963
410985850 0.367983272478 -0.476445547017
410992800 0.369010659023 -0.477044939691
410999750 0.368927091396 -0.47673492773
411006700 0.368806554677 -0.477680462474
411013650 0.368636670933 -0.47694553866
411020600 0.368634912927 -0.476666686314
411027550 0.368746807458 -0.476863474947
411034500 0.36899746889 -0.476921983831
411041450 0.369239661744 -0.476185208399
411048400 0.369211010532 -0.477119695792
411055350 0.369083828531 -0.477423261548
411062300 0.369486638455 -0.479285160655
411069250 0.36894097318 -0.478565570099
411076200 0.369239761254 -0.478640285224
411083150 0.369645987521 -0.478459395896
411090100 0.369575986267 -0.478333875475
411097050 0.37002741096 -0.479220874426
411104000 0.369999211508 -0.479542395214
411110950 0.369773103606 -0.479077547991
411117900 0.369489869227 -0.479560452583
411124850 0.369517171126 -0.479537972944
411131800 0.369637743031 -0.479269105218
411138750 0.369797796488 -0.479802059251
411145700 0.370222479445 -0.480025303861
411152650 0.369662356666 -0.480144827133
411159600 0.369944833189 -0.479761936107
411166550 0.369782922472 -0.480212393969
411173500 0.369500112751 -0.479872383933
411180450 0.369004904608 -0.479622334918
411187400 0.368650803744 -0.47939937344
411194350 0.368928591434 -0.480145177549
411201300 0.369286495417 -0.480738049546
411208250 0.370162765632 -0.481143915346
411215200 0.370392734249 -0.481250957728
411222150 0.370212372117 -0.481029033683
411229100 0.370591658942 -0.480858795617
411236050 0.370783990732 -0.481325064884
411243000 0.370800889682 -0.48091332146
411249950 0.370929417854 -0.481214871544
411256900 0.37061471083 -0.481559307329
411263850 0.371133676234 -0.482223297978
411270800 0.371340459878 -0.481662691686
411277750 0.371230843315 -0.482878415053
411284700 0.371886370925 -0.482583480767
411291650 0.373254519598 -0.482909977479
411298600 0.371317928273 -0.482732858908
411305550 0.37172550992 -0.482865192492
411312500 0.371289153933 -0.483240019231
411319450 0.371854525143 -0.483240679497
411326400 0.371547886104 -0.483525442696
411333350 0.371882776662 -0.483780593957
411340300 0.371209765948 -0.482793462581
411347250 0.371619515401 -0.483067778436
411354200 0.371646479337 -0.483845783209
411361150 0.371621162574 -0.4843749998
411368100 0.371625623549 -0.483199634112
411375050 0.371746353954 -0.484133760505
411382000 0.371869929741 -0.483843934195
411388950 0.371680210593 -0.484400256351
411395900 0.372117369648 -0.48466977828
411402850 0.372139785208 -0.484496191997
411409800 0.372311009044 -0.484867508687
411416750 0.372529179635 -0.485062284818
411423700 0.37256305069 -0.485104452066
411430650 0.372214550758 -0.485238742514
411437600 0.372686960255 -0.485349184255
411444550 0.372429343929 -0.486298527972
411451500 0.372505274454 -0.486204503454
411458450 0.373012959568 -0.486935705678
411465400 0.372074259558 -0.487177859421
411472350 0.372628440415 -0.486039725994
411479300 0.372903857534 -0.486276066517
411486250 0.373160317907 -0.486660823096
411493200 0.372796403695 -0.486679568967
411500150 0.373590078865 -0.486935626318
411507100 0.373263775429 -0.486819345891
411514050 0.373431047132 -0.487027509404
411521000 0.373451415531 -0.487123841624
411527950 0.373743534047 -0.487366623267
411534900 0.373298629029 -0.487264771628
411541850 0.373527861733 -0.487418163084
411548800 0.373666588579 -0.488247755558
411555750 0.373511247264 -0.488168654188
411562700 0.373703045651 -0.487720688109
411569650 0.373741347776 -0.48806040346
411576600 0.373522971532 -0.487868731815
411583550 0.373144818787 -0.488068729075
411590500 0.373357393562 -0.488179837926
411597450 0.373502382352 -0.487463478972
411604400 0.373568261431 -0.48829638988
411611350 0.372177791274 -0.487302479912
411618300 0.371214370221 -0.488210966046
411625250 0.371339249198 -0.486137023068
411632200 0.37138856303 -0.487805883756
411639150 0.362407935921 -0.489305752759
411646100 0.372909377059 -0.499591118609
411653050 0.34189721831 -0.497421175612
411660000 0.318998266531 -0.523491980273
411666950 0.287855932268 -0.521800625274
411673900 0.265202780287 -0.557247806348
411680850 0.275421263735 -0.542800087265
411687800 0.306104505523 -0.524905154364
411694750 0.339848948868 -0.514667881258
411701700 0.368196667414 -0.495943959638
411708650 0.375781159328 -0.491767160024
411715600 0.374946267088 -0.490865079449
411722550 0.37512338005 -0.490978695251
411729500 0.375693326524 -0.49127277528
411736450 0.375339603795 -0.490747003948
411743400 0.375544094602 -0.49131374982
411750350 0.376031356878 -0.490966012636
411757300 0.376530513731 -0.492143288516
411764250 0.37601025433 -0.492230474728
411771200 0.376896897852 -0.492561428307
411778150 0.376539215274 -0.492583453609
411785100 0.376777391409 -0.492698579805
411792050 0.376712105828 -0.492495137506
411799000 0.377170910468 -0.492625000981
411805950 0.376616156181 -0.493092748453
411812900 0.376601692886 -0.49322297058
411819850 0.376958749521 -0.493505050635
411826800 0.376826770197 -0.493605575498
411833750 0.376857200496 -0.493735912595
411840700 0.376691984615 -0.494182470469
411847650 0.37674067893 -0.495179113764
411854600 0.37729560759 -0.495144574063
411861550 0.377050256342 -0.49521525612
411868500 0.376911968022 -0.49442117764
411875450 0.376372312555 -0.494704263334
411882400 0.376593136961 -0.495012649665
411889350 0.377367774876 -0.49498358186
411896300 0.376972801182 -0.494721360728
411903250 0.377152994841 -0.494889247376
411910200 0.377426993831 -0.495018380133
411917150 0.377859292314 -0.495059106818
411924100 0.377770290658 -0.495634166359
411931050 0.377727623515 -0.495490915245
411938000 0.377538616831 -0.495668927487
411944950 0.378596786903 -0.496315613422
411951900 0.377835612279 -0.496152285566
411958850 0.378132550589 -0.496407533204
411965800 0.377764450796 -0.496755643871
411972750 0.37808250664 -0.497493467089
411979700 0.378022712749 -0.496500799125
411986650 0.377911315192 -0.496330885252
411993600 0.37836992094 -0.496717331414
412000550 0.378482450816 -0.497250917255
412007500 0.377926063965 -0.497463621431
412014450 0.3777313004 -0.497330266647
412021400 0.377389960035 -0.497749883001
412028350 0.377676773275 -0.497741173569
412035300 0.378283605304 -0.497852092608
412042250 0.378291985421 -0.49810647129
412049200 0.378391586193 -0.498523996667
412056150 0.378319774618 -0.498653871855
412063100 0.377634629227 -0.497283124175
412070050 0.378857726034 -0.498162834906
412077000 0.378513225986 -0.497936476047
412083950 0.378756906504 -0.498616358562
412090900 0.378391803831 -0.499186938499
412097850 0.378018995725 -0.499436920822
412104800 0.377908366002 -0.499848687506
412111750 0.378126229767 -0.500441150526
412118700 0.378071404218 -0.499490262961
412125650 0.378647258939 -0.499083567192
412132600 0.378110516055 -0.499721703833
412139550 0.378530299029 -0.499049522397
412146500 0.378246395707 -0.499467651818
412153450 0.378664409446 -0.50048598154
412160400 0.378727595469 -0.499856836412
412167350 0.378466014786 -0.49964134571
412174300 0.378868394844 -0.500848450222
412181250 0.378450161195 -0.501023941949
412188200 0.378315525466 -0.501261222672
412195150 0.378088875594 -0.501280437442
412202100 0.378833662603 -0.501606080615
412209050 0.378686097481 -0.501378561748
412216000 0.378361322389 -0.502065982244
412222950 0.378527003464 -0.502328192382
412229900 0.378785973926 -0.50273425054
412236850 0.379378760499 -0.502309383872
412243800 0.379538445591 -0.502505044791
412250750 0.379504594758 -0.50252207705
412257700 0.378497862147 -0.502384958922
412264650 0.379264256435 -0.502720427649
412271600 0.379665885724 -0.503132403167
412278550 0.379663810645 -0.503455298046
412285500 0.379340786737 -0.502932713903
412292450 0.379457072099 -0.50376248796
412299400 0.378793145124 -0.503590255145
412306350 0.378725657212 -0.503549440207
412313300 0.378523423051 -0.50346197715
412320250 0.378795591205 -0.503543901002
412327200 0.379178835671 -0.503151517765
412334150 0.38034481114 -0.503849484233
412341100 0.379345439802 -0.50445557989
412348050 0.379981489397 -0.50440315077
412355000 0.379709837748 -0.504200059298
412361950 0.379490850298 -0.506164930863
412368900 0.379795336079 -0.50582931927
412375850 0.379651111988 -0.505404990294
412382800 0.379999079704 -0.506123613512
412389750 0.38075864956 -0.506692585114
412396700 0.380779184639 -0.50603548664
412403650 0.38033053451 -0.506750752977
412410600 0.379768966244 -0.506244624766
412417550 0.379808413682 -0.506696770841
412424500 0.380173569177 -0.506552950738
412431450 0.379896501355 -0.506585692376
412438400 0.380895365906 -0.506832189908
412445350 0.37998018792 -0.506863805627
412452300 0.380817362983 -0.507983081838
412459250 0.380533482762 -0.507651487242
412466200 0.38087006024 -0.5083417748
412473150 0.381078074496 -0.507837336279
412480100 0.381219114294 -0.508814796087
412487050 0.38043609732 -0.507771315
412494000 0.380310592045 -0.508455423662
412500950 0.379316806623 -0.509013168185
412507900 0.379865275201 -0.508928634931
412514850 0.38038474044 -0.508176476905
412521800 0.379668560931 -0.507843571819
412528750 0.380397655554 -0.507849884205
412535700 0.380732607281 -0.507700263816
412542650 0.380975664757 -0.508035474229
412549600 0.380913615733 -0.510063178399
412556550 0.380816990598 -0.507724723381
412563500 0.381826695637 -0.508598119644
412570450 0.381678197377 -0.509609842617
412577400 0.381641742452 -0.50994831279
412584350 0.381841223691 -0.509705097838
412591300 0.381613116996 -0.509822744351
412598250 0.381866651634 -0.510340546497
412605200 0.381218188848 -0.510686082727
412612150 0.38157409058 -0.51041900069
412619100 0.381669389472 -0.510653340318
412626050 0.381136625509 -0.510196831593
412633000 0.38162698776 -0.510874104848
412639950 0.381080432191 -0.510286345763
412646900 0.381102381629 -0.510967722621
412653850 0.381787725038 -0.511169883177
412660800 0.381394350249 -0.511280681407
412667750 0.381301659188 -0.512440653056
412674700 0.381696176365 -0.512104185433
412681650 0.381498813675 -0.512814805197
412688600 0.382014054981 -0.512575477564
412695550 0.381931117686 -0.512150143027
412702500 0.38177776941 -0.513039233287
412709450 0.382208138957 -0.513265278124
412716400 0.381978295831 -0.51308377765
412723350 0.38220181246 -0.513531076022
412730300 0.381775798352 -0.513496143887
412737250 0.381909140616 -0.513762384532
412744200 0.382235995235 -0.513348811261
412751150 0.382293037253 -0.514130186621
412758100 0.382172694303 -0.513868951318
412765050 0.382494161059 -0.514059488994
412772000 0.382314998443 -0.51410648105
412778950 0.382012590115 -0.513928417253
412785900 0.382389246537 -0.514880115665
412792850 0.382182457557 -0.514592801441
412799800 0.38158263412 -0.514121505853
412806750 0.382019591916 -0.514973949095
412813700 0.382412994881 -0.514520733016
412820650 0.382439229019 -0.51430365627
412827600 0.382822709514 -0.514832822182
412834550 0.382653286171 -0.514971781139
412841500 0.382268493173 -0.515094909441
412848450 0.383010118189 -0.515321426333
412855400 0.381952911929 -0.514961244989
412862350 0.382125773922 -0.515452820145
412869300 0.382096465422 -0.515655718157
412876250 0.38295007859 -0.515991348
412883200 0.382498876661 -0.515835695336
412890150 0.38253388008 -0.515525072296
412897100 0.382875127837 -0.516891466758
412904050 0.383078054187 -0.516761512087
412911000 0.386193709609 -0.518588718391
412917950 0.382847400282 -0.516415175805
412924900 0.383338964206 -0.517037343518
412931850 0.382706617488 -0.517041876206
412938800 0.382518708265 -0.51678092893
412945750 0.381972111193 -0.517307983543
412952700 0.3820050229 -0.51756140506
412959650 0.382192916059 -0.518363768587
412966600 0.38257861346 -0.518296518152
412973550 0.383204465838 -0.518119134861
412980500 0.382510243627 -0.518667247102
412987450 0.382290121699 -0.517666438604
412994400 0.382863715137 -0.518306001357
413001350 0.383609304104 -0.518796661677
413008300 0.382819311522 -0.517633188933
413015250 0.382598846357 -0.51915099869
413022200 0.382890176641 -0.519756169993
413029150 0.382855741789 -0.519409237707
413036100 0.383488280103 -0.520034326739
413043050 0.383575541481 -0.519953507098
413050000 0.383304991977 -0.521500368758
413056950 0.383261222163 -0.5212603305
413063900 0.384268784956 -0.520913473963
413070850 0.384836967813 -0.521427181261
413077800 0.384254643286 -0.521124409396
413084750 0.384154137453 -0.520946325523
413091700 0.383611153996 -0.521406179599
413098650 0.383571016514 -0.52089295916
413105600 0.383029968498 -0.520916776888
413112550 0.383666253186 -0.520857037352
413119500 0.383537449516 -0.521380623156
413126450 0.383504150437 -0.521273448741
413133400 0.383147133095 -0.521736331416
413140350 0.383971886064 -0.521839532333
413147300 0.383799476642 -0.522139631433
413154250 0.383584188737 -0.521942775516
413161200 0.38438770842 -0.522408512276
413168150 0.384203977239 -0.522205380117
413175100 0.384126505323 -0.521804057885
413182050 0.384058965229 -0.52268168699
413189000 0.383872546866 -0.523473691427
413195950 0.383814552435 -0.523648758437
413202900 0.383391339838 -0.523907697116
413209850 0.383690773119 -0.523834654676
413216800 0.383634694927 -0.52422809374
413223750 0.383944692825 -0.523840349065
413230700 0.383693767154 -0.523774661878
413237650 0.384456145781 -0.524507569514
413244600 0.384321454212 -0.523343103594
413251550 0.38448249724 -0.523359927265
413258500 0.384242033436 -0.523528905362
413265450 0.384262619402 -0.523535871612
413272400 0.384108744797 -0.524031218045
413279350 0.38393668733 -0.524811931519
413286300 0.38339043084 -0.525480617322
413293250 0.384012592112 -0.525324348438
413300200 0.384227526642 -0.525770422919
413307150 0.383927564895 -0.525631317843
413314100 0.383589621834 -0.525451424328
413321050 0.383657166087 -0.525682391983
413328000 0.383250748328 -0.526131319686
413334950 0.383853149315 -0.526477966939
413341900 0.383661743564 -0.526208722293
413348850 0.383745912683 -0.526477882935
413355800 0.384244454494 -0.526390579408
413362750 0.384834070475 -0.526487763546
413369700 0.385308253326 -0.526586242435
413376650 0.385544590844 -0.527155077765
413383600 0.384464253292 -0.527159965547
413390550 0.384093666342 -0.527435055353
413397500 0.38415613619 -0.527358846999
413404450 0.383942909361 -0.527289078753
413411400 0.384000227988 -0.527599430336
413418350 0.384074461252 -0.527878751889
413425300 0.384145081089 -0.527392747762
413432250 0.38420716804 -0.52782492395
413439200 0.38499093201 -0.527949087512
413446150 0.384239798508 -0.528691277066
413453100 0.384469457861 -0.529054597658
413460050 0.384396869803 -0.528247258774
413467000 0.384379417656 -0.528760030121
413473950 0.384838538111 -0.528758877509
413480900 0.384637551409 -0.528637963386
413487850 0.38453466777 -0.529353901058
413494800 0.385258916731 -0.5293113868
413501750 0.384647972707 -0.529918363826
413508700 0.384595410978 -0.529759735386
413515650 0.384270841729 -0.5298841317
413522600 0.383764401734 -0.530521458273
413529550 0.384535866584 -0.529724340074
413536500 0.385013071734 -0.529800478841
413543450 0.384573531095 -0.530178270465
413550400 0.384654113885 -0.530217220233
413557350 0.384200153237 -0.52990319365
413564300 0.384195941755 -0.530464841051
413571250 0.384991463374 -0.530677182651
413578200 0.384933777253 -0.530576359205
413585150 0.38439132308 -0.530844557037
413592100 0.384768521447 -0.531043071508
413599050 0.384268268532 -0.531127265955
413606000 0.385246581771 -0.531586541281
413612950 0.384747964077 -0.531562002452
413619900 0.385074362521 -0.531473120698
413626850 0.384762103691 -0.530881281392
413633800 0.384690205632 -0.531047863214
413640750 0.385510360741 -0.531487760758
413647700 0.385276764957 -0.532777555846
413654650 0.385265229369 -0.532724676845
413661600 0.385784855015 -0.532862616092
413668550 0.385231466276 -0.53330476796
413675500 0.385482760295 -0.5337762997
413682450 0.385132773004 -0.533719089432
413689400 0.386185324216 -0.533560467603
413696350 0.385859241252 -0.533262998607
413703300 0.385206587015 -0.532769500983
413710250 0.384851185474 -0.533123326581
413717200 0.384800693261 -0.539495584578
413724150 0.384902525511 -0.534213388237
413731100 0.385000860348 -0.533695946146
413738050 0.385820243843 -0.534075604692
413745000 0.385677286089 -0.534524350813
413751950 0.386820089332 -0.534714163375
413758900 0.387080719184 -0.534644957227
413765850 0.386205716875 -0.534404591373
413772800 0.386502767298 -0.535223349617
413779750 0.386152250424 -0.534881808808
413786700 0.386194940884 -0.53543453131
413793650 0.386174447082 -0.535816854978
413800600 0.386377101945 -0.535258980344
413807550 0.386192821073 -0.535461043545
413814500 0.386319887284 -0.535491523186
413821450 0.385902955503 -0.535747150328
413828400 0.386173435035 -0.536824539727
413835350 0.385692175634 -0.536154886893
413842300 0.385791457819 -0.535975685723
413849250 0.386117651535 -0.537591535197
413856200 0.386819002399 -0.537351120656
413863150 0.385994249854 -0.537842681272
413870100 0.38621562072 -0.537492554136
413877050 0.386464000126 -0.537933464755
413884000 0.386613184317 -0.537121144208
413890950 0.386552068596 -0.538246440935
413897900 0.38671825325 -0.538410849059
413904850 0.385885281779 -0.538362769396
413911800 0.386305202037 -0.538812643438
413918750 0.386186259699 -0.538350855664
413925700 0.386040571886 -0.538105279622
413932650 0.385831118356 -0.538198525527
413939600 0.386591414038 -0.538457150792
413946550 0.385954237865 -0.538431680213
413953500 0.386570513646 -0.53893974756
413960450 0.386252170815 -0.538741248871
413967400 0.385965745066 -0.538819053352
413974350 0.38664514854 -0.539043650063
413981300 0.385739115669 -0.53886695889
413988250 0.385742543096 -0.539346073462
413995200 0.386600248231 -0.540188017934
414002150 0.386624026018 -0.539823316381
414009100 0.386591403901 -0.539167848014
414016050 0.386402656464 -0.539794570953
414023000 0.387187580309 -0.540389564984
414029950 0.386382397156 -0.540017343061
414036900 0.387024876921 -0.539989887176
414043850 0.387553626234 -0.540407675892
414050800 0.387519137904 -0.541184578417
414057750 0.387761187941 -0.541365784731
414064700 0.387166068242 -0.541329586481
414071650 0.387792438835 -0.541467995879
414078600 0.38768194723 -0.541637284519
414085550 0.388078917304 -0.540712813769
414092500 0.387776569524 -0.541053790446
414099450 0.387162757598 -0.541004369449
414106400 0.387237222003 -0.540984693672
414113350 0.387192347956 -0.540753127898
414120300 0.386494502049 -0.541648074987
414127250 0.386795506346 -0.541038783253
414134200 0.387163290909 -0.541278051211
414141150 0.386480756093 -0.541350617759
414148100 0.387439141489 -0.541683863979
414155050 0.3879992724 -0.540898681075
414162000 0.386707929833 -0.541823326622
414168950 0.386725313275 -0.542514644085
414175900 0.387068373353 -0.542656811475
414182850 0.38680828809 -0.543165662335
414189800 0.386594773241 -0.54262625519
414196750 0.386734586784 -0.542826375615
414203700 0.386818425814 -0.542910220241
414210650 0.386422717526 -0.543397435081
414217600 0.385874365004 -0.542941611498
414224550 0.387154900742 -0.54352224193
414231500 0.387652467817 -0.543385066782
414238450 0.387766821461 -0.543702276872
414245400 0.387065732459 -0.543756444881
414252350 0.386840925412 -0.543793591587
414259300 0.386836081974 -0.543105932254
414266250 0.387373736904 -0.54345943999
414273200 0.387002580667 -0.543515350008
414280150 0.386870268472 -0.544363410023
414287100 0.386982789354 -0.54443003867
414294050 0.386330954569 -0.544786023952
414301000 0.387241614403 -0.544921533195
414307950 0.386478580554 -0.545068115472
414314900 0.386853290806 -0.545485644514
414321850 0.386155757403 -0.5451036888
414328800 0.386541474999 -0.544580563032
414335750 0.38554893749 -0.54351911734
414342700 0.385511397236 -0.544141111329
414349650 0.386386462728 -0.541416828426
414356600 0.38538325853 -0.542959921525
414363550 0.385966222426 -0.545930221932
414370500 0.393280679695 -0.554212681775
414377450 0.386195718425 -0.547165624217
414384400 0.387389162004 -0.546729237204
414391350 0.38693130431 -0.54693927945
414398300 0.3872281715 -0.546266997572
414405250 0.387488518703 -0.546836959865
414412200 0.386843296509 -0.546937144907
414419150 0.387335849657 -0.546722823217
414426100 0.3857268384 -0.546863263927
414433050 0.38685803798 -0.546880237687
414440000 0.387276243144 -0.546938669204
414446950 0.388170453498 -0.547520750721
414453900 0.387787885001 -0.547367789065
414460850 0.387752088949 -0.547641476543
414467800 0.387561470763 -0.54810554989
414474750 0.38751081634 -0.548369937468
414481700 0.387707865282 -0.548769828396
414488650 0.387457714892 -0.547989554951
414495600 0.387995118849 -0.548242717996
414502550 0.387727967547 -0.54888502415
414509500 0.387383100743 -0.548002124501
414516450 0.387405140998 -0.549027404477
414523400 0.388230543808 -0.548895037293
414530350 0.387249571813 -0.54920115208
414537300 0.387288208468 -0.549241003414
414544250 0.386982862761 -0.54938193014
414551200 0.387196348201 -0.549294816846
414558150 0.386868808329 -0.549167289757
414565100 0.387511784817 -0.549797544541
414572050 0.386583241961 -0.549943364193
414579000 0.387569807277 -0.550055928999
414585950 0.387133471443 -0.54976243223
414592900 0.387579277115 -0.550284332318
414599850 0.38731703532 -0.550088520816
414606800 0.387248231611 -0.551076933448
414613750 0.387328612169 -0.5510806067
414620700 0.387403420317 -0.551160618973
414627650 0.387366185052 -0.551884961984
414634600 0.387707534364 -0.552004244681
414641550 0.38761148428 -0.551862665509
414648500 0.387273525864 -0.551506419385
414655450 0.387667199642 -0.551746441726
414662400 0.386999161291 -0.551898078874
414669350 0.387316319216 -0.551859667943
414676300 0.38743839973 -0.551677524195
414683250 0.388096430303 -0.551826197811
414690200 0.387461120415 -0.551484832388
414697150 0.387864098882 -0.551698812384
414704100 0.387417514935 -0.552133248001
414711050 0.387234816321 -0.552094046752
414718000 0.387416852842 -0.552772924925
414724950 0.38709591711 -0.552368648304
414731900 0.386988268293 -0.551477751895
414738850 0.387085617474 -0.550306202401
414745800 0.386085474382 -0.549413692363
414752750 0.381506009951 -0.539825465901
414759700 0.386902921554 -0.550118014688
414766650 0.387256660722 -0.551705867908
414773600 0.387296409356 -0.552729166407
414780550 0.387190712433 -0.553254748154
414787500 0.387698438945 -0.554089145002
414794450 0.387039196194 -0.554224019631
414801400 0.387723075164 -0.554507649324
414808350 0.386860324711 -0.553433776688
414815300 0.387162736328 -0.555352872044
414822250 0.388056179403 -0.554325748731
414829200 0.387167361104 -0.554487968027
414836150 0.387137766238 -0.554395996683
414843100 0.387668256182 -0.554892905168
414850050 0.388180983543 -0.555373729695
414857000 0.387824821805 -0.554742067606
414863950 0.388178182657 -0.55633007652
414870900 0.387293726399 -0.556145044824
414877850 0.387475105326 -0.555959164145
414884800 0.387421131071 -0.556284678209
414891750 0.38688728264 -0.555625379472
414898700 0.387126523362 -0.556273772432
414905650 0.38608293986 -0.560658441497
414912600 0.387022428653 -0.556540381605
414919550 0.387697573406 -0.557062161243
414926500 0.38701964293 -0.55695874148
414933450 0.387734163792 -0.557391992298
414940400 0.387429868717 -0.556857147382
414947350 0.387585991207 -0.557195206732
414954300 0.386978582716 -0.556759573059
414961250 0.387310027549 -0.557772473907
414968200 0.386982153341 -0.557525399357
414975150 0.386908852782 -0.557753734401
414982100 0.386866675289 -0.558302965813
414989050 0.387725215219 -0.559322247339
414996000 0.387420050717 -0.558435513427
415002950 0.387014872176 -0.558183127596
415009900 0.387678867976 -0.558721639657
415016850 0.386391142858 -0.558456999687
415023800 0.387703834255 -0.558873904342
415030750 0.38673202373 -0.558953084342
415037700 0.388046324811 -0.559178549834
415044650 0.387323156218 -0.558970143629
415051600 0.387038858054 -0.559912065119
415058550 0.387508142759 -0.559567605091
415065500 0.387122549641 -0.559175750564
415072450 0.386837116903 -0.558726354801
415079400 0.387546864299 -0.55933892337
415086350 0.387229450566 -0.559434382659
415093300 0.387271337801 -0.559203495358
415100250 0.388060507433 -0.559557387656
415107200 0.38822000592 -0.559995778926
415114150 0.387501340645 -0.560260585743
415121100 0.387203716732 -0.55997743707
415128050 0.388046648049 -0.560736897168
415135000 0.387735340212 -0.560480391115
415141950 0.386061803988 -0.560399481494
415148900 0.385526511637 -0.560613658927
415155850 0.386212719985 -0.560647909709
415162800 0.386215276464 -0.560912982897
415169750 0.385551341721 -0.560825715308
415176700 0.385698895549 -0.560666233851
415183650 0.386259116054 -0.561501484012
415190600 0.385866699136 -0.560569971658
415197550 0.385960328916 -0.561632436302
415204500 0.386288516659 -0.561356851443
415211450 0.386166471714 -0.561681157237
415218400 0.386832700092 -0.561897360745
415225350 0.386149135658 -0.562014331651
415232300 0.385849656502 -0.562005329401
415239250 0.386128637765 -0.562162110351
415246200 0.385673176823 -0.561868891529
415253150 0.3853990881 -0.559992588334
415260100 0.386172367791 -0.55905852023
415267050 0.38609461661 -0.557535769613
415274000 0.386022722429 -0.558887566479
415280950 0.385905079667 -0.559446219536
415287900 0.385573091818 -0.5614763162
415294850 0.385440568718 -0.562426247362
415301800 0.385484750356 -0.562933021173
415308750 0.385493438357 -0.563677837912
415315700 0.38558828939 -0.563417743823
415322650 0.386214156492 -0.563477383456
415329600 0.3860161517 -0.563873269788
415336550 0.386567166886 -0.564053871843
415343500 0.385999747173 -0.564237217318
415350450 0.386121709498 -0.56433532019
415357400 0.385408221761 -0.564376339313
415364350 0.385600563947 -0.564875367037
415371300 0.385665098597 -0.564550342945
415378250 0.385592816492 -0.564722763384
415385200 0.385788184788 -0.564569071666
415392150 0.385581746517 -0.564820383972
415399100 0.385988086455 -0.564469507649
415406050 0.385620671157 -0.564698410172
415413000 0.385526169995 -0.564875958558
415419950 0.386465969024 -0.565580417205
415426900 0.386440784984 -0.567041274399
415433850 0.386996136968 -0.566959566028
415440800 0.386288470606 -0.56631441818
415447750 0.386685323666 -0.56657609588
415454700 0.386068375482 -0.56569247182
415461650 0.385845912721 -0.565782491631
415468600 0.385082092895 -0.566698436398
415475550 0.385193969983 -0.566687164633
415482500 0.385368549532 -0.566640742196
415489450 0.385137419379 -0.566602299954
415496400 0.385250506591 -0.566828061937
415503350 0.385120562207 -0.566600777371
415510300 0.385294038791 -0.567834319677
415517250 0.385376683922 -0.567720283599
415524200 0.386059816623 -0.567953355401
415531150 0.385388644532 -0.567724233372
415538100 0.385035410862 -0.567711033911
415545050 0.384757836861 -0.56789261349
415552000 0.383636505284 -0.568503164078
415558950 0.383911264666 -0.56841692333
415565900 0.384773946797 -0.568348638652
415572850 0.385159100389 -0.568088870972
415579800 0.38600304572 -0.568361205042
415586750 0.385956798253 -0.568607909198
415593700 0.386311884748 -0.565914676813
415600650 0.384828340271 -0.568664241411
415607600 0.384546296129 -0.567948304734
415614550 0.385240031321 -0.569095068677
415621500 0.385092497844 -0.569015959747
415628450 0.384627414319 -0.56837998281
415635400 0.385231282899 -0.568946606474
415642350 0.38540618773 -0.569372332068
415649300 0.384738984432 -0.569047670029
415656250 0.385348294362 -0.570366552834
415663200 0.384979724454 -0.56988708014
415670150 0.385187361962 -0.569853629737
415677100 0.38488511428 -0.569900569906
415684050 0.384867088981 -0.569672269089
415691000 0.384529501895 -0.569787033165
415697950 0.384611648308 -0.570024407756
415704900 0.385349312212 -0.570254530461
415711850 0.384677239718 -0.570565069348
415718800 0.384743987787 -0.570177800182
415725750 0.384847753056 -0.571139108314
415732700 0.385283372424 -0.570655828399
415739650 0.385868973584 -0.571259827032
415746600 0.384658879707 -0.57065496392
415753550 0.385095301864 -0.571337035115
415760500 0.384020217406 -0.572705863256
415767450 0.384927832851 -0.571813321255
415774400 0.385944329892 -0.571168857599
415781350 0.3846562223 -0.572094343561
415788300 0.385049003124 -0.573041401084
415795250 0.384862967897 -0.572180216404
415802200 0.385405116465 -0.571565713365
415809150 0.385206202492 -0.57167178526
415816100 0.384045850006 -0.57159427962
415823050 0.384877290752 -0.571794815727
415830000 0.385507516825 -0.572468926575
415836950 0.386402861252 -0.573789070476
415843900 0.385645144322 -0.574082613602
415850850 0.385006498575 -0.573539944967
415857800 0.385537582654 -0.574097805745
415864750 0.384823358169 -0.574735928555
415871700 0.384843992285 -0.574690331977
415878650 0.385249631217 -0.572916230802
415885600 0.384356367946 -0.573498669603
415892550 0.385434974514 -0.574087261225
415899500 0.385710870028 -0.573363159754
415906450 0.384632918082 -0.574088853995
415913400 0.385313619119 -0.574000707249
415920350 0.385009761322 -0.574037005274
415927300 0.385606409485 -0.574120795833
415934250 0.384479752475 -0.574139293576
415941200 0.384723982013 -0.574019204293
415948150 0.384803247292 -0.574252710792
415955100 0.385264811903 -0.574457831113
415962050 0.385430758617 -0.575658106181
415969000 0.387450666561 -0.576380629937
415975950 0.385194535253 -0.578743190936
415982900 0.391825712608 -0.577932596826
415989850 0.389350876897 -0.57972681515
415996800 0.389065788224 -0.578362565487
416003750 0.387279005587 -0.578131374005
416010700 0.386312153369 -0.577508856057
416017650 0.38487160365 -0.576987042897
416024600 0.384507402971 -0.576573273908
416031550 0.384271602825 -0.576320042827
416038500 0.38537574398 -0.57679270924
416045450 0.385385873246 -0.576667584091
416052400 0.385563182955 -0.576787404492
416059350 0.385002177312 -0.577196595488
416066300 0.385264066932 -0.577354450811
416073250 0.385024972632 -0.57805983675
416080200 0.384223253151 -0.578191973029
416087150 0.384251167692 -0.578511445707
416094100 0.384027047466 -0.578780056686
416101050 0.384400004824 -0.578421997924
416108000 0.384517507885 -0.577993946507
416114950 0.384167868283 -0.57796374827
416121900 0.384598921344 -0.578060811748
416128850 0.384487193301 -0.578024086308
416135800 0.384641251201 -0.578371247747
416142750 0.385301593472 -0.578094229281
416149700 0.384461655523 -0.578025068694
416156650 0.385304341516 -0.577686278534
416163600 0.385293235216 -0.578244798178
416170550 0.385535380654 -0.578437134122
416177500 0.383944712415 -0.57866949748
416184450 0.384178575726 -0.578423521611
416191400 0.38395792491 -0.578843987646
416198350 0.383628115012 -0.579030657548
416205300 0.383450571024 -0.579541701646
416212250 0.384090070906 -0.579803286729
416219200 0.38399387605 -0.579886074385
416226150 0.383348874197 -0.580301021153
416233100 0.383259893492 -0.580843464796
416240050 0.383720203598 -0.58001933431
416247000 0.384187456002 -0.580911907804
416253950 0.384624364095 -0.5800357965
416260900 0.384812427862 -0.580232935589
416267850 0.384393984271 -0.580316163574
416274800 0.385182631042 -0.579544166649
416281750 0.385303143664 -0.579525732931
416288700 0.384529709311 -0.580338785018
416295650 0.383932942644 -0.580670114669
416302600 0.383647508914 -0.58088371513
416309550 0.383798611361 -0.580706076967
416316500 0.383864241323 -0.581015627871
416323450 0.3839528262 -0.581232454515
416330400 0.383575375492 -0.58122810849
416337350 0.383736018503 -0.581338860373
416344300 0.384139147042 -0.580791104201
416351250 0.383749690492 -0.581638616762
416358200 0.383506303586 -0.581855983285
416365150 0.383788199301 -0.581973919103
416372100 0.384147231771 -0.582160086317
416379050 0.383854615065 -0.58173737357
416386000 0.384441885359 -0.582760127397
416392950 0.384340406759 -0.583321015719
416399900 0.384467146304 -0.582448957751
416406850 0.383520106992 -0.583206132102
416413800 0.384544599313 -0.582824524251
416420750 0.38380866487 -0.583667710923
416427700 0.383557467779 -0.582596129098
416434650 0.383984480291 -0.583152273574
416441600 0.383767348462 -0.582482566796
416448550 0.383567768839 -0.584307001125
416455500 0.383453056204 -0.583267026083
416462450 0.383652042542 -0.583754309335
416469400 0.383884036043 -0.585441423524
416476350 0.38321283225 -0.585053339039
416483300 0.382740398462 -0.584364945483
416490250 0.3838428566 -0.584426538278
416497200 0.383942379482 -0.5835008046
416504150 0.383850496943 -0.583897951767
416511100 0.383376432387 -0.584566953686
416518050 0.383206858621 -0.58434840549
416525000 0.383820778093 -0.584242590173
416531950 0.380809612906 -0.585457243883
416538900 0.380716885137 -0.585609372688
416545850 0.380909291751 -0.585492029278
416552800 0.380582061813 -0.585864779048
416559750 0.381076266707 -0.585551625751
416566700 0.380807377994 -0.585598498125
416573650 0.379564974645 -0.586029984584
416580600 0.379949018033 -0.585988946074
416587550 0.379673484603 -0.586705262715
416594500 0.380816756508 -0.587080438556
416601450 0.380370175463 -0.586752778058
416608400 0.380076435407 -0.586152540546
416615350 0.380529459342 -0.58606094429
416622300 0.381580653074 -0.586324715229
416629250 0.380671175237 -0.587004009151
416636200 0.381402223641 -0.58778892108
416643150 0.381489507528 -0.588301603994
416650100 0.380455656749 -0.588305071402
416657050 0.380362050517 -0.588057875133
416664000 0.380797866146 -0.588001808911
416670950 0.38009183495 -0.587999173738
416677900 0.379550008017 -0.587846874374
416684850 0.379796157354 -0.587544336854
416691800 0.380175006759 -0.588261035577
416698750 0.380365048292 -0.588588694163
416705700 0.380664445421 -0.588667590234
416712650 0.380998180151 -0.587866008055
416719600 0.380947467295 -0.589615013328
416726550 0.379976524429 -0.589049753574
416733500 0.379840551838 -0.58928053956
416740450 0.38051379418 -0.588688168387
416747400 0.381011174416 -0.588271327804
416754350 0.380588510986 -0.588332029407
416761300 0.38085029138 -0.58823373481
416768250 0.380322369572 -0.588339698816
416775200 0.380642603835 -0.588721449093
416782150 0.379510540645 -0.589671485359
416789100 0.379519439035 -0.589405245808
416796050 0.380122839264 -0.590026281407
416803000 0.379778987709 -0.589575042725
416809950 0.380151648619 -0.58949621341
416816900 0.379873459332 -0.589640328083
416823850 0.380448068647 -0.589536967685
416830800 0.379692591255 -0.589655655873
416837750 0.38064889731 -0.589152625552
416844700 0.380125463617 -0.590044189707
416851650 0.379870511039 -0.589606823315
416858600 0.379759286795 -0.590417662539
416865550 0.379803557586 -0.589832852683
416872500 0.379519661773 -0.590291823272
416879450 0.379812693766 -0.590475994436
416886400 0.379439610749 -0.590308122508
416893350 0.379274068203 -0.589801046095
416900300 0.37909378895 -0.588933153233
416907250 0.379013595913 -0.589199854135
416914200 0.379175793685 -0.590026696006
416921150 0.380193058807 -0.590487456685
416928100 0.379859448577 -0.590764528367
416935050 0.380401057339 -0.591399969849
416942000 0.380528539815 -0.591442828924
416948950 0.379771028379 -0.591592005126
416955900 0.380109887502 -0.591570815099
416962850 0.379447395958 -0.59169297332
416969800 0.379872560348 -0.592209490504
416976750 0.379506522138 -0.592116728944
416983700 0.379326934556 -0.592234708676
416990650 0.379088945795 -0.592253478801
416997600 0.379615893142 -0.592435541601
417004550 0.379669534235 -0.591949216416
417011500 0.380171711946 -0.592874041265
417018450 0.379936553046 -0.592182882372
417025400 0.38017104634 -0.592560522635
417032350 0.379830243056 -0.592700116344
417039300 0.379738752183 -0.593550983538
417046250 0.37943287575 -0.593216541528
417053200 0.379113824539 -0.593903001475
417060150 0.379503414819 -0.594368700145
417067100 0.379823591444 -0.595039888051
417074050 0.379632740425 -0.59364137708
417081000 0.380563563007 -0.59412620076
417087950 0.380962005851 -0.593395305568
417094900 0.380654459215 -0.59452611934
417101850 0.380000304236 -0.594685637098
417108800 0.379791501052 -0.594536445102
417115750 0.380092870446 -0.594536240605
417122700 0.380327592028 -0.594826509635
417129650 0.379904834581 -0.593811066768
417136600 0.379904818939 -0.594710650264
417143550 0.379640676074 -0.594147993655
417150500 0.380122992075 -0.594535330234
417157450 0.379802238734 -0.594616063405
417164400 0.380167376458 -0.594931596985
417171350 0.379867646088 -0.594241463876
417178300 0.378946809289 -0.595647394334
417185250 0.379417546037 -0.595498903081
417192200 0.37945545145 -0.5959187982
417199150 0.378699666936 -0.596033617186
417206100 0.378692224269 -0.595791729074
417213050 0.378590286986 -0.596442693615
417220000 0.378302142616 -0.595488281449
417226950 0.37774606416 -0.595735115409
417233900 0.377886288835 -0.595737354729
417240850 0.378526966383 -0.595988032114
417247800 0.377997209834 -0.596292570258
417254750 0.378648093501 -0.596010386103
417261700 0.378152469797 -0.596941942822
417268650 0.378716588835 -0.596572006628
417275600 0.378513753388 -0.597177088152
417282550 0.378708036228 -0.596982534439
417289500 0.377956322293 -0.596839340589
417296450 0.37859067528 -0.596810890009
417303400 0.378644303408 -0.596412844034
417310350 0.378244383001 -0.596561749455
417317300 0.378615073599 -0.596386116339
417324250 0.378247939406 -0.596532854689
417331200 0.37823517203 -0.597115876265
417338150 0.37877265615 -0.59731641554
417345100 0.379249287761 -0.59729032308
417352050 0.37804711576 -0.597324499099
417359000 0.378023074395 -0.597274097254
417365950 0.378211800911 -0.59876153653
417372900 0.377838534497 -0.598093937073
417379850 0.37779646526 -0.598420054309
417386800 0.378070788239 -0.598306193418
417393750 0.377785401903 -0.597745330232
417400700 0.378010567744 -0.598322828841
417407650 0.37809296767 -0.598479443749
417414600 0.377852324417 -0.598635588939
417421550 0.378150945646 -0.598716664937
417428500 0.376860006893 -0.598398692797
417435450 0.378652412424 -0.599181445051
417442400 0.378792568331 -0.599494979564
417449350 0.377347533386 -0.599661552346
417456300 0.3783485659 -0.599624835445
417463250 0.377986862403 -0.59961161085
417470200 0.378030217132 -0.599702549957
417477150 0.377979318184 -0.598772173542
417484100 0.37863172291 -0.598699793131
417491050 0.377998913845 -0.598892855221
417498000 0.378268556832 -0.599550134538
417504950 0.377432015469 -0.600054325909
417511900 0.377403498583 -0.5996476903
417518850 0.377941234757 -0.599957419183
417525800 0.377988732188 -0.599639809551
417532750 0.37828653161 -0.599846320061
417539700 0.378805519671 -0.600613017655
417546650 0.377768085539 -0.601109409509
417553600 0.377849206781 -0.600304925734
417560550 0.378139566136 -0.600781846193
417567500 0.377549682964 -0.60188689577
417574450 0.377448664964 -0.601942350245
417581400 0.377689710682 -0.601784918846
417588350 0.377578818057 -0.602252249369
417595300 0.378513108688 -0.602676457605
417602250 0.37736526197 -0.601942359044
417609200 0.377804859569 -0.602966450711
417616150 0.377879992354 -0.602666435551
417623100 0.378546820957 -0.602535093834
417630050 0.378610130313 -0.602590291044
417637000 0.378217697629 -0.60270824782
417643950 0.378392958773 -0.602756876778
417650900 0.378535056148 -0.602316431374
417657850 0.378436066743 -0.602479265206
417664800 0.378224704486 -0.602660197352
417671750 0.377994198841 -0.603057201309
417678700 0.37796686619 -0.603526927918
417685650 0.37776791642 -0.603251781088
417692600 0.377583826227 -0.604621953598
417699550 0.377091946336 -0.603640570951
417706500 0.377459646036 -0.604142242641
417713450 0.377629931707 -0.604095139308
417720400 0.376904454248 -0.604180297671
417727350 0.377181735613 -0.604689800588
417734300 0.377537400696 -0.604556763079
417741250 0.37785913954 -0.60460509321
417748200 0.377463551807 -0.604916286262
417755150 0.376784934253 -0.604732720043
417762100 0.377061882588 -0.604668377418
417769050 0.37710960349 -0.605209231271
417776000 0.377521174874 -0.604193457244
417782950 0.377483842715 -0.604916109666
417789900 0.377213214874 -0.604695950007
417796850 0.377796079798 -0.604842560419
417803800 0.378055809298 -0.604684725025
417810750 0.376940236886 -0.60481766211
417817700 0.377594416468 -0.605584696555
417824650 0.377793818152 -0.60551996739
417831600 0.377808937125 -0.606084701642
417838550 0.377700837794 -0.606031687289
417845500 0.378741349766 -0.604342970341
417852450 0.377045190023 -0.606443821102
417859400 0.377025815282 -0.607147609337
417866350 0.37723363561 -0.60686353068
417873300 0.377866291138 -0.606449611299
417880250 0.376883847883 -0.606614455942
417887200 0.377202900696 -0.60625684208
417894150 0.37740961742 -0.607125627641
417901100 0.377591669791 -0.606106800891
417908050 0.377955639567 -0.606689470632
417915000 0.378380698457 -0.606793373894
417921950 0.376406085444 -0.606605530181
417928900 0.3765176843 -0.606963605776
417935850 0.376355585938 -0.607208857813
417942800 0.375858095744 -0.607252667028
417949750 0.37611661828 -0.607453937629
417956700 0.37567278336 -0.606973374694
417963650 0.375824725203 -0.607408774058
417970600 0.37599055676 -0.607126336864
417977550 0.375099132147 -0.607379957031
417984500 0.375102777199 -0.607730745884
417991450 0.375052866128 -0.607904174465
417998400 0.375255802762 -0.6085244037
418005350 0.375106301563 -0.60783703173
418012300 0.375760789083 -0.60842782582
418019250 0.375842972003 -0.608543022469
418026200 0.376418544617 -0.607930638534
418033150 0.375621618588 -0.608387856519
418040100 0.375126937745 -0.607851839999
418047050 0.375487751615 -0.608780372458
418054000 0.375468429015 -0.608384957131
418060950 0.375402131137 -0.608810636083
418067900 0.37545911692 -0.608815107484
418074850 0.376058148865 -0.608689171287
418081800 0.375120643 -0.60922683705
418088750 0.375247113615 -0.608839411601
418095700 0.374727250528 -0.608334796591
418102650 0.375432238899 -0.608930273733
418109600 0.375096686009 -0.609120108847
418116550 0.375100627221 -0.608974279716
418123500 0.37536009818 -0.609169848719
418130450 0.375679970387 -0.608806029391
418137400 0.375152752346 -0.609755775119
418144350 0.375294961928 -0.610003290845
418151300 0.375095526468 -0.609832890901
418158250 0.375028171574 -0.609812494584
418165200 0.375303502224 -0.610031601204
418172150 0.375146549401 -0.610108578818
418179100 0.375348977704 -0.610260513029
418186050 0.374725342272 -0.610304069895
418193000 0.374584396822 -0.610597366134
418199950 0.37419264783 -0.610504269389
418206900 0.374313013438 -0.610667581601
418213850 0.374252920874 -0.611064838455
418220800 0.374788213722 -0.611428299845
418227750 0.374804677705 -0.610732582094
418234700 0.374755043424 -0.610928596097
418241650 0.374838690336 -0.610526513833
418248600 0.374795969139 -0.611393150537
418255550 0.375384597768 -0.611181901381
418262500 0.375099612724 -0.611281767354
418269450 0.374451171331 -0.61166103638
418276400 0.374943478268 -0.611125412651
418283350 0.374645511555 -0.612154140337
418290300 0.374654938463 -0.612219831502
418297250 0.374347161704 -0.611945221398
418304200 0.374565807612 -0.611920870653
418311150 0.374262433566 -0.612292354073
418318100 0.374403347357 -0.612397305427
418325050 0.37424822317 -0.611966068293
418332000 0.374293448274 -0.612183742262
418338950 0.374186510015 -0.61232943111
418345900 0.374374307585 -0.612564806328
418352850 0.374073667877 -0.613231851407
418359800 0.373612526538 -0.612404648902
418366750 0.373740431483 -0.613150901487
418373700 0.373958300205 -0.613087441161
418380650 0.37376322358 -0.614037337918
418387600 0.374031803408 -0.614029622908
418394550 0.374296961538 -0.613740820722
418401500 0.374001287689 -0.614231099139
418408450 0.374250028504 -0.614646626501
418415400 0.374049872122 -0.614374125911
418422350 0.37416046128 -0.614048579048
418429300 0.37493430099 -0.613245476155
418436250 0.375176448841 -0.613834239738
418443200 0.374770261951 -0.613709388227
418450150 0.374526960111 -0.613933144339
418457100 0.374259971802 -0.613818462161
418464050 0.374695206526 -0.61290797468
418471000 0.374638238699 -0.614858453247
418477950 0.375273572205 -0.614226419306
418484900 0.374939063828 -0.614353248336
418491850 0.375431701117 -0.61439355358
418498800 0.374860548535 -0.614656679381
418505750 0.374704179695 -0.615410331428
418512700 0.374751542138 -0.615031516622
418519650 0.374166385091 -0.615317029518
418526600 0.374307883436 -0.615140387736
418533550 0.374403325835 -0.615298506985
418540500 0.374619102033 -0.615023763472
418547450 0.375102043122 -0.615218377439
418554400 0.374061916701 -0.614967695762
418561350 0.374210867353 -0.615283270649
418568300 0.373703777265 -0.615263658757
418575250 0.373866604749 -0.615222167108
418582200 0.374242916217 -0.615110400476
418589150 0.374059479697 -0.615423187816
418596100 0.374316945984 -0.615569501982
418603050 0.375090846 -0.615194243224
418610000 0.374268523276 -0.615892716296
418616950 0.373848092512 -0.617157156268
418623900 0.374048883148 -0.617706686771
418630850 0.373257614352 -0.618030153363
418637800 0.373190011122 -0.617856217723
418644750 0.373679635453 -0.617505716227
418651700 0.373928740211 -0.617487174391
418658650 0.373209268641 -0.616781159691
418665600 0.373497960377 -0.617343827856
418672550 0.37418351427 -0.617602175961
418679500 0.373534551068 -0.618031818892
418686450 0.373871123539 -0.618481660602
418693400 0.373785739562 -0.618676104776
418700350 0.373950317849 -0.618405722113
418707300 0.373839034138 -0.619208276249
418714250 0.374155555206 -0.619478048769
418721200 0.373814244475 -0.619689218618
418728150 0.373806604811 -0.619626153041
418735100 0.37318448324 -0.619140614995
418742050 0.373365737587 -0.619038289834
418749000 0.373361405961 -0.619199471918
418755950 0.372566565934 -0.619300840847
418762900 0.373090780879 -0.620142407705
418769850 0.373242209781 -0.61986396188
418776800 0.372445910619 -0.620060023648
418783750 0.373017159956 -0.620017469083
418790700 0.373043539099 -0.620300446468
418797650 0.372525760132 -0.62019182065
418804600 0.37330683409 -0.621106506147
418811550 0.372599225736 -0.620787953115
418818500 0.372037311574 -0.620268599793
418825450 0.372356532005 -0.620443229033
418832400 0.372262243811 -0.621117368169
418839350 0.372553382519 -0.620794444635
418846300 0.37223100834 -0.620645760065
418853250 0.372487831573 -0.620363525839
418860200 0.372096394673 -0.621688340587
418867150 0.373073878472 -0.621639408952
418874100 0.371167148198 -0.621139130356
418881050 0.372034230712 -0.621525651732
418888000 0.372680683905 -0.621301178456
418894950 0.372811088746 -0.621483165374
418901900 0.371672357891 -0.621286494534
418908850 0.372216453782 -0.620919564287
418915800 0.37253385179 -0.621029337531
418922750 0.371994005192 -0.621415099268
418929700 0.371971116472 -0.621790027503
418936650 0.371852513177 -0.621289097689
418943600 0.371531149785 -0.621135535219
418950550 0.371873932899 -0.622554508345
418957500 0.372030180673 -0.621969282426
418964450 0.371239086332 -0.622372188045
418971400 0.371629355822 -0.62232287037
418978350 0.371514986107 -0.622140060816
418985300 0.371219184252 -0.622017600955
418992250 0.37115253655 -0.622923635483
418999200 0.371513314793 -0.621553480469
419006150 0.370429308073 -0.623837973229
419013100 0.371453080401 -0.622520022487
419020050 0.371168182026 -0.621839985075
419027000 0.371419317051 -0.622161334754
419033950 0.371542561818 -0.622129163515
419040900 0.370879795645 -0.623219296971
419047850 0.371301973319 -0.623050154841
419054800 0.37098570164 -0.622482730782
419061750 0.370898994976 -0.623452387412
419068700 0.371692646426 -0.623091811048
419075650 0.371587099069 -0.623579309729
419082600 0.370194601897 -0.624522745276
419089550 0.368271666983 -0.623485559587
419096500 0.368999454597 -0.620218318013
419103450 0.371602174791 -0.624206301521
419110400 0.368754048105 -0.622837137028
419117350 0.369424045836 -0.625532740922
419124300 0.371360896876 -0.626659813121
419131250 0.369649331825 -0.623286475286
419138200 0.369729041464 -0.623940307711
419145150 0.370138787599 -0.626678293858
419152100 0.372999414834 -0.624762961454
419159050 0.369914400518 -0.625374211471
419166000 0.371262306489 -0.625020372092
419172950 0.372187184604 -0.6235759404
419179900 0.370407970386 -0.624019263656
419186850 0.372204423538 -0.625470471023
419193800 0.370213482191 -0.624081909769
419200750 0.370478654895 -0.623346631425
419207700 0.371540567657 -0.623417056024
419214650 0.373574606359 -0.624550090364
419221600 0.371104350817 -0.625246030034
419228550 0.371161191724 -0.624517547165
419235500 0.370096428703 -0.625184298554
419242450 0.368900228975 -0.625388992771
419249400 0.36986863844 -0.623426010629
419256350 0.371276417497 -0.623236103085
419263300 0.369548298644 -0.627976205055
419270250 0.370102936665 -0.626639078455
419277200 0.371475613643 -0.625631801705
419284150 0.370377422222 -0.626977691462
419291100 0.36958997977 -0.626951765274
419298050 0.368500360916 -0.625788593565
419305000 0.370562510794 -0.626256670975
419311950 0.371396216546 -0.626614975968
419318900 0.37187592866 -0.6268930019
419325850 0.371346838398 -0.626912160422
419332800 0.371507779361 -0.626514809441
419339750 0.371848926721 -0.627854663205
419346700 0.371999770604 -0.627371450315
419353650 0.371756201047 -0.627655048884
419360600 0.371918364899 -0.62790038801
419367550 0.372420613757 -0.62817941973
419374500 0.372160883164 -0.628602744843
419381450 0.372609880387 -0.62831693308
419388400 0.371828617863 -0.627608905164
419395350 0.371738165203 -0.628762718674
419402300 0.37092465778 -0.628268462511
419409250 0.371686503239 -0.628244968583
419416200 0.371268865977 -0.62825487993
419423150 0.371599146799 -0.6289429728
419430100 0.370966010453 -0.6297639767
419437050 0.371750726237 -0.630061000615
419444000 0.371725630963 -0.629064387727
419450950 0.370930340185 -0.630160048485
419457900 0.37043144635 -0.629979459637
419464850 0.37025441759 -0.62969171099
419471800 0.370424854692 -0.630620499284
419478750 0.370870528912 -0.630502272856
419485700 0.370694344052 -0.630557979107
419492650 0.371874255837 -0.629431594616
419499600 0.371045446759 -0.629863448037
419506550 0.370902969915 -0.630353880597
419513500 0.370003843408 -0.629818919787
419520450 0.369690544246 -0.630155609345
419527400 0.36975932655 -0.630010927554
419534350 0.372754259126 -0.631039868005
419541300 0.369069762329 -0.630634756477
419548250 0.369949098661 -0.630003086334
419555200 0.369542760669 -0.630969200738
419562150 0.370362208693 -0.63127809543
419569100 0.370455567231 -0.631066283501
419576050 0.370383970398 -0.632297736756
419583000 0.370437113447 -0.6315763966
419589950 0.370433663238 -0.631449902336
419596900 0.368813745046 -0.63223575203
419603850 0.370220981617 -0.630492187108
419610800 0.368866038721 -0.630897742838
419617750 0.370293331014 -0.630579152548
419624700 0.369398918263 -0.630308581305
419631650 0.369748185771 -0.631292345272
419638600 0.36883115489 -0.629739231481
419645550 0.369561950848 -0.630621929618
419652500 0.369312539985 -0.630950263452
419659450 0.369486579472 -0.631003019748
419666400 0.370377184411 -0.632059515838
419673350 0.370334701016 -0.631401657572
419680300 0.369545773821 -0.632788935517
419687250 0.369894304733 -0.633237737403
419694200 0.369737377474 -0.632116853826
419701150 0.36933836458 -0.63260704826
419708100 0.369104594138 -0.632367885174
419715050 0.370295932575 -0.632394809539
419722000 0.369876401729 -0.632818838431
419728950 0.369222179594 -0.632942568493
419735900 0.369502650381 -0.631706141625
419742850 0.369825032275 -0.631922566704
419749800 0.368912941571 -0.63237722448
419756750 0.3690665197 -0.633075036386
419763700 0.367335559556 -0.632438305794
419770650 0.367499400415 -0.632336515618
419777600 0.366384917278 -0.631974024456
419784550 0.367049821623 -0.631915179197
419791500 0.367440284297 -0.632411915276
419798450 0.370051826566 -0.632208799403
419805400 0.369651137325 -0.632594509678
419812350 0.369527038791 -0.632545597553
419819300 0.369353684824 -0.633765228925
419826250 0.367815239767 -0.633584539376
419833200 0.368717235652 -0.634104256153
419840150 0.367768245145 -0.635455486042
419847100 0.368459276723 -0.634756011191
419854050 0.369742913193 -0.633618676399
419861000 0.369301738374 -0.634657405803
419867950 0.369024922126 -0.633751273632
419874900 0.369197268979 -0.634997084287
419881850 0.368845932252 -0.635323825433
419888800 0.369165350785 -0.633182395651
419895750 0.367149736403 -0.63578679383
419902700 0.369500446408 -0.635167604679
419909650 0.369393218977 -0.637404156412
419916600 0.367990423327 -0.636520940685
419923550 0.369634002607 -0.63684956725
419930500 0.369806258723 -0.638729131739
419937450 0.369280184861 -0.63720525964
419944400 0.368644417308 -0.633191332528
419951350 0.366055671212 -0.635865009655
419958300 0.36658566463 -0.63322471147
419965250 0.366142458761 -0.638704230226
419972200 0.368647900842 -0.637575972436
419979150 0.367514580322 -0.638653926561
419986100 0.364079762404 -0.63443753711
419993050 0.368830577909 -0.635536595555
420000000 0.367840099869 -0.637083479089
