! Calibrated averaged scanner-service zoom
# Hz S RI R 50
1088000000 -0.0671354269158 -0.359151107316
1088004000 -0.0603542817363 -0.355028462158
1088008000 -0.0610083243098 -0.359276327735
1088012000 -0.0610520413732 -0.360280998281
1088016000 -0.0588067057839 -0.361619356251
1088020000 -0.0612329544325 -0.36011407142
1088024000 -0.0658223579699 -0.361647060835
1088028000 -0.0656795077957 -0.364708245824
1088032000 -0.064593367653 -0.36589489833
1088036000 -0.0689810854141 -0.366425597962
1088040000 -0.0680571670441 -0.361933162367
1088044000 -0.0689703607069 -0.367311670004
1088048000 -0.0704573081566 -0.368664719915
1088052000 -0.071377276478 -0.369095498652
1088056000 -0.0712653150357 -0.363053306062
1088060000 -0.0663330633799 -0.366587225309
1088064000 -0.0686334916577 -0.366323286225
1088068000 -0.0649583130326 -0.366385799578
1088072000 -0.0664244248373 -0.36443598445
1088076000 -0.066041873018 -0.365819469465
1088080000 -0.0662439946815 -0.364286602737
1088084000 -0.067719990212 -0.365878128945
1088088000 -0.0670817495753 -0.367219967423
1088092000 -0.0695934987287 -0.36358936869
1088096000 -0.0693639272577 -0.368507295241
1088100000 -0.0731976215431 -0.369785106284
1088104000 -0.0761057855343 -0.371125100968
1088108000 -0.0723438292327 -0.374929794882
1088112000 -0.073013138306 -0.368679384413
1088116000 -0.0655551785047 -0.371323433281
1088120000 -0.0707291801722 -0.369266267957
1088124000 -0.0707323546607 -0.370721008238
1088128000 -0.071432647871 -0.371400760818
1088132000 -0.0677842063704 -0.371753418631
1088136000 -0.0722628849809 -0.36845562649
1088140000 -0.0707298624922 -0.368402028614
1088144000 -0.079934525338 -0.374047806616
1088148000 -0.0737982503091 -0.368871508532
1088152000 -0.0707896135077 -0.373794747914
1088156000 -0.0704896103668 -0.370126100222
1088160000 -0.0698713082006 -0.372969961769
1088164000 -0.072364057219 -0.370110503974
1088168000 -0.0693660288373 -0.36940752388
1088172000 -0.0724122311684 -0.373559498688
1088176000 -0.0712899277308 -0.376270947331
1088180000 -0.0734111243749 -0.376213064443
1088184000 -0.0707060695891 -0.384294318365
1088188000 -0.0739027959244 -0.380232793354
1088192000 -0.0649397821002 -0.376608042384
1088196000 -0.0728837155386 -0.380161554103
1088200000 -0.0720348662005 -0.377620857145
1088204000 -0.0743233300696 -0.379134445379
1088208000 -0.071841075813 -0.379525785583
1088212000 -0.074525633598 -0.377846693786
1088216000 -0.0764807593175 -0.381573517541
1088220000 -0.0742988499811 -0.379073824927
1088224000 -0.0796574431003 -0.379561748942
1088228000 -0.0754962499495 -0.383080164982
1088232000 -0.0758457560028 -0.380431323083
1088236000 -0.0755080147765 -0.386994627902
1088240000 -0.0784081821622 -0.379735769557
1088244000 -0.0736106362624 -0.385255830612
1088248000 -0.0768495828882 -0.384325745272
1088252000 -0.0818309308398 -0.387374194869
1088256000 -0.0795609039099 -0.385719746962
1088260000 -0.0808991967291 -0.386016649784
1088264000 -0.074008522559 -0.390012657137
1088268000 -0.0800326960393 -0.38933031179
1088272000 -0.076988963634 -0.390158575845
1088276000 -0.0778665899302 -0.386738322011
1088280000 -0.0816438905258 -0.391571897235
1088284000 -0.0754383832712 -0.392920663681
1088288000 -0.0821530502652 -0.391048661171
1088292000 -0.083507768346 -0.388364679969
1088296000 -0.0803875967989 -0.385927305348
1088300000 -0.0853210240961 -0.389951385869
1088304000 -0.0809351573834 -0.386846446035
1088308000 -0.0816507260237 -0.388967586613
1088312000 -0.0833121024562 -0.38437505672
1088316000 -0.092025981975 -0.391694694767
1088320000 -0.0882291219399 -0.395464152807
1088324000 -0.0810374265441 -0.390456552745
1088328000 -0.0837717717872 -0.391731825212
1088332000 -0.0842732514638 -0.394116028023
1088336000 -0.0918354363039 -0.400003012136
1088340000 -0.0878592342113 -0.391383723987
1088344000 -0.0846164953056 -0.395584362668
1088348000 -0.0945701931297 -0.396991568389
1088352000 -0.0769611706481 -0.400381160895
1088356000 -0.0813921429308 -0.395299739276
1088360000 -0.0822255647226 -0.395776813375
1088364000 -0.0824253281516 -0.396000602018
1088368000 -0.0836380400439 -0.392485859642
1088372000 -0.0845488683624 -0.396235346216
1088376000 -0.0786158810561 -0.395502630434
1088380000 -0.0812012663016 -0.398130615085
1088384000 -0.0827730194081 -0.398407716077
1088388000 -0.0861026110731 -0.398541697303
1088392000 -0.0924329301411 -0.394226520576
1088396000 -0.0867664522398 -0.39493812604
1088400000 -0.093712265403 -0.397865677663
1088404000 -0.0913074478101 -0.401681519916
1088408000 -0.0932448467033 -0.406774898858
1088412000 -0.094872883507 -0.391116167004
1088416000 -0.0951884565211 -0.399638226326
1088420000 -0.0901191194229 -0.390182981193
1088424000 -0.0914480975074 -0.392153203326
1088428000 -0.0861969380528 -0.398607893268
1088432000 -0.0894077939132 -0.397628788164
1088436000 -0.0903816279698 -0.396888990698
1088440000 -0.0917125556668 -0.403670020678
1088444000 -0.0944459202508 -0.404566493376
1088448000 -0.0930983972018 -0.395695805878
1088452000 -0.0914413693813 -0.405229584083
1088456000 -0.0975551792318 -0.407881532472
1088460000 -0.0954356623899 -0.407334572671
1088464000 -0.09314769767 -0.39987184827
1088468000 -0.0892705605926 -0.407124566648
1088472000 -0.0958276447798 -0.409447544988
1088476000 -0.0963619765157 -0.405268268807
1088480000 -0.0894752410104 -0.402355795085
1088484000 -0.0918050424819 -0.405029114586
1088488000 -0.0990984290672 -0.405172943607
1088492000 -0.0977109846085 -0.408727503076
1088496000 -0.09498779533 -0.401954448457
1088500000 -0.0988346038278 -0.400155034692
1088504000 -0.0964752968351 -0.407171885463
1088508000 -0.0952162928891 -0.409075408504
1088512000 -0.0985780153569 -0.414515969677
1088516000 -0.094033563144 -0.411880717854
1088520000 -0.0981911028247 -0.407014899139
1088524000 -0.0961186043801 -0.414284754933
1088528000 -0.0933285135481 -0.410998093617
1088532000 -0.0892136718082 -0.409437181364
1088536000 -0.0986224570928 -0.410280594969
1088540000 -0.0943429123749 -0.417875263511
1088544000 -0.0988972357207 -0.40856135046
1088548000 -0.092338418055 -0.408071876359
1088552000 -0.100770699214 -0.413724134608
1088556000 -0.106385039008 -0.407566152858
1088560000 -0.0964159882167 -0.413207016463
1088564000 -0.104901480394 -0.413062618891
1088568000 -0.109916267503 -0.411792064919
1088572000 -0.0956067412162 -0.423696109037
1088576000 -0.102405457999 -0.408823486172
1088580000 -0.100678151528 -0.412766371013
1088584000 -0.108767678793 -0.411673244839
1088588000 -0.10459719904 -0.417813821788
1088592000 -0.10586296611 -0.41092310392
1088596000 -0.106029611693 -0.412872013767
1088600000 -0.111348236518 -0.412705950697
1088604000 -0.109283235518 -0.412722941189
1088608000 -0.113081153845 -0.414845620077
1088612000 -0.109680491738 -0.416165462818
1088616000 -0.112605478572 -0.410023829849
1088620000 -0.115534532903 -0.414742731386
1088624000 -0.105362711076 -0.413040461512
1088628000 -0.112991097296 -0.416987421036
1088632000 -0.112574678517 -0.414056308834
1088636000 -0.116023437132 -0.41701761663
1088640000 -0.103177060898 -0.415909767186
1088644000 -0.107559237052 -0.42003011403
1088648000 -0.109844208585 -0.414421550017
1088652000 -0.113255949297 -0.421991781072
1088656000 -0.114093612567 -0.418152464576
1088660000 -0.108349596854 -0.42303681391
1088664000 -0.112098942557 -0.423208147864
1088668000 -0.111231310537 -0.422615985955
1088672000 -0.113498623343 -0.423156241574
1088676000 -0.114272180789 -0.423039789344
1088680000 -0.11038350586 -0.430202130455
1088684000 -0.108214076587 -0.426540179818
1088688000 -0.110274183328 -0.425044007162
1088692000 -0.11303836317 -0.423117276805
1088696000 -0.110934493016 -0.427968642585
1088700000 -0.111984050382 -0.421823304662
1088704000 -0.117107540662 -0.42982345975
1088708000 -0.10751439864 -0.422399207455
1088712000 -0.113229079896 -0.430802908368
1088716000 -0.112174627151 -0.426947383398
1088720000 -0.113837207729 -0.422130912625
1088724000 -0.112561129306 -0.429075536897
1088728000 -0.116855126027 -0.429797612892
1088732000 -0.117482645003 -0.427269660275
1088736000 -0.1231053097 -0.429230061603
1088740000 -0.114232296804 -0.434683312681
1088744000 -0.115935283992 -0.426995960961
1088748000 -0.1230293448 -0.427294127694
1088752000 -0.116796358155 -0.426776851117
1088756000 -0.122544834462 -0.432265307145
1088760000 -0.123807203201 -0.431987002044
1088764000 -0.127259845928 -0.428160648863
1088768000 -0.120816119364 -0.434101346255
1088772000 -0.127204168424 -0.424228393223
1088776000 -0.120114484008 -0.428241814479
1088780000 -0.121131735462 -0.427325284776
1088784000 -0.122718426954 -0.427727415435
1088788000 -0.123346370757 -0.433350546362
1088792000 -0.122609301849 -0.430066610823
1088796000 -0.12340707988 -0.434598087035
1088800000 -0.121484574614 -0.428536622395
1088804000 -0.124227904732 -0.427674503628
1088808000 -0.130918303178 -0.432951246977
1088812000 -0.128997143672 -0.434442600044
1088816000 -0.12825306139 -0.433318535283
1088820000 -0.126270499416 -0.431047307914
1088824000 -0.127337631891 -0.437647645283
1088828000 -0.123128180811 -0.429541014988
1088832000 -0.124642652532 -0.430430648399
1088836000 -0.128161502849 -0.437056363039
1088840000 -0.122412057905 -0.436492683086
1088844000 -0.124887130826 -0.433826382808
1088848000 -0.129670644864 -0.431733032134
1088852000 -0.127229392385 -0.432514946844
1088856000 -0.125582420096 -0.434323225021
1088860000 -0.12465483742 -0.434088420574
1088864000 -0.129065550322 -0.436042599322
1088868000 -0.122438683764 -0.436043290331
1088872000 -0.129400681307 -0.436601683858
1088876000 -0.133958851028 -0.441679997359
1088880000 -0.12932438927 -0.435574378068
1088884000 -0.129788546391 -0.43685078236
1088888000 -0.126609637821 -0.437597903014
1088892000 -0.132351645642 -0.438988300461
1088896000 -0.128224987299 -0.439698928337
1088900000 -0.131843604946 -0.443927658106
1088904000 -0.12956661469 -0.442847412686
1088908000 -0.130001079961 -0.440304522147
1088912000 -0.128605021778 -0.43797567305
1088916000 -0.136401721798 -0.438599654263
1088920000 -0.135928070718 -0.442477895401
1088924000 -0.134376992823 -0.44528082687
1088928000 -0.133691552121 -0.443713531633
1088932000 -0.137616538449 -0.447094624045
1088936000 -0.136289757655 -0.444568046135
1088940000 -0.138018420976 -0.444487917736
1088944000 -0.137778029484 -0.438305869982
1088948000 -0.138062734057 -0.446305536053
1088952000 -0.137377986184 -0.445946049929
1088956000 -0.135379743696 -0.444112691115
1088960000 -0.140258644017 -0.440311656707
1088964000 -0.137431678667 -0.442681362155
1088968000 -0.13525807871 -0.440662793835
1088972000 -0.1410722082 -0.4375764989
1088976000 -0.139058600646 -0.445976212619
1088980000 -0.138136392613 -0.448178538976
1088984000 -0.144031314215 -0.444155694481
1088988000 -0.141220542385 -0.451351869005
1088992000 -0.143414900887 -0.445533817421
1088996000 -0.140718870039 -0.452109925057
1089000000 -0.135579287267 -0.449442358664
1089004000 -0.143396929722 -0.450291120144
1089008000 -0.144311043461 -0.448998876379
1089012000 -0.144070108682 -0.4515155156
1089016000 -0.144701768364 -0.452539139183
1089020000 -0.1410334967 -0.451375125879
1089024000 -0.1456661869 -0.451933346329
1089028000 -0.14551821728 -0.450729278556
1089032000 -0.148545509157 -0.45138011044
1089036000 -0.15010970022 -0.453735431563
1089040000 -0.151042723488 -0.451293912459
1089044000 -0.153346218769 -0.45063135052
1089048000 -0.150430751734 -0.449540873295
1089052000 -0.150449433522 -0.449510758166
1089056000 -0.155543719394 -0.45182101907
1089060000 -0.152089765249 -0.448734205364
1089064000 -0.150797996482 -0.451172861717
1089068000 -0.151266633238 -0.453345799968
1089072000 -0.154602978543 -0.454003859464
1089076000 -0.14693858015 -0.450487726384
1089080000 -0.151067138231 -0.451461192374
1089084000 -0.152105405471 -0.452261334306
1089088000 -0.153547619976 -0.450785573429
1089092000 -0.14936544173 -0.454284243591
1089096000 -0.150537316242 -0.454473495924
1089100000 -0.150534929681 -0.45036041427
1089104000 -0.152975434306 -0.453570745504
1089108000 -0.153395151028 -0.451620141261
1089112000 -0.152255289557 -0.453578979028
1089116000 -0.15598404174 -0.454272284401
1089120000 -0.154968066554 -0.452501820531
1089124000 -0.151485835684 -0.451475332715
1089128000 -0.153233901857 -0.458293300428
1089132000 -0.156944563667 -0.458745486599
1089136000 -0.155572979048 -0.454204004298
1089140000 -0.157745950612 -0.458524941937
1089144000 -0.15785020614 -0.456404190511
1089148000 -0.156459874162 -0.457729014657
1089152000 -0.158775275385 -0.458983213827
1089156000 -0.163383834316 -0.458249853278
1089160000 -0.159165253363 -0.455028767726
1089164000 -0.159847837605 -0.460714748682
1089168000 -0.161407431557 -0.460513368732
1089172000 -0.159812911198 -0.457557100058
1089176000 -0.159850071622 -0.458161747208
1089180000 -0.158956701893 -0.4595533967
1089184000 -0.163800940118 -0.459807615456
1089188000 -0.163468663436 -0.462476380422
1089192000 -0.161268271689 -0.459894953262
1089196000 -0.158900895029 -0.45518871498
1089200000 -0.164543116177 -0.459156891363
1089204000 -0.157672739508 -0.462448878818
1089208000 -0.163951262461 -0.463391616986
1089212000 -0.163234537167 -0.463014839375
1089216000 -0.161144572812 -0.460429354952
1089220000 -0.160019083076 -0.455063851051
1089224000 -0.167032909064 -0.456115114174
1089228000 -0.164844556444 -0.460376880503
1089232000 -0.163399983096 -0.459645065633
1089236000 -0.170015902893 -0.46351386486
1089240000 -0.165696601925 -0.46309809581
1089244000 -0.164194448471 -0.462064127306
1089248000 -0.171515553175 -0.457102965681
1089252000 -0.170936826459 -0.455414414391
1089256000 -0.173344610394 -0.458217215982
1089260000 -0.166515952013 -0.462287724291
1089264000 -0.172283040241 -0.459819185222
1089268000 -0.169798595659 -0.461541961946
1089272000 -0.172265782093 -0.457104305601
1089276000 -0.169779449463 -0.458237879441
1089280000 -0.167240573112 -0.456784589862
1089284000 -0.164853927728 -0.456893617717
1089288000 -0.170073732298 -0.460163441024
1089292000 -0.169910821246 -0.4621169449
1089296000 -0.170218455605 -0.455231998651
1089300000 -0.178217707063 -0.464769476353
1089304000 -0.1738658398 -0.462493254537
1089308000 -0.17461798776 -0.465899658607
1089312000 -0.17807566122 -0.463422280739
1089316000 -0.180457692011 -0.465615670353
1089320000 -0.180728327734 -0.459566073865
1089324000 -0.180269059082 -0.461729141068
1089328000 -0.181749644927 -0.460061122753
1089332000 -0.177564418168 -0.464500548346
1089336000 -0.181540061952 -0.465970761751
1089340000 -0.182473378369 -0.464054425879
1089344000 -0.180932979752 -0.468142840149
1089348000 -0.175914612086 -0.469812913074
1089352000 -0.178378411401 -0.465953325334
1089356000 -0.181304710665 -0.469099441538
1089360000 -0.184128496457 -0.464408717895
1089364000 -0.185989385986 -0.467679258763
1089368000 -0.181023625883 -0.463319940129
1089372000 -0.17916062552 -0.47024219112
1089376000 -0.186188117662 -0.46390673618
1089380000 -0.183215338416 -0.466773251771
1089384000 -0.182959772178 -0.465874351733
1089388000 -0.18363662525 -0.472492882126
1089392000 -0.184612981191 -0.470740684173
1089396000 -0.181367497923 -0.465914918588
1089400000 -0.180509186672 -0.468683556385
1089404000 -0.18255860176 -0.469078006298
1089408000 -0.181423593775 -0.476922572858
1089412000 -0.184443411451 -0.473885121193
1089416000 -0.181344512727 -0.474287205064
1089420000 -0.187368124908 -0.469302453978
1089424000 -0.181353436847 -0.465109471607
1089428000 -0.182294693758 -0.469501393365
1089432000 -0.189519453744 -0.467918716108
1089436000 -0.192214836352 -0.471766256031
1089440000 -0.188870550911 -0.469307956157
1089444000 -0.190434587671 -0.471887132498
1089448000 -0.187855870627 -0.47290245628
1089452000 -0.191504884926 -0.470012181363
1089456000 -0.194499431231 -0.472183712431
1089460000 -0.196579203995 -0.468782603977
1089464000 -0.194309651861 -0.470692984166
1089468000 -0.202495156254 -0.47877930106
1089472000 -0.195053982948 -0.475618503373
1089476000 -0.194733737397 -0.477746330262
1089480000 -0.197915467495 -0.482261945461
1089484000 -0.202482783012 -0.485323532366
1089488000 -0.197948242313 -0.489052338421
1089492000 -0.202170405192 -0.476199620055
1089496000 -0.199306962572 -0.475276265697
1089500000 -0.201568979018 -0.485553800074
1089504000 -0.200042339567 -0.478595934421
1089508000 -0.19800503817 -0.472294576691
1089512000 -0.201357323948 -0.475740593664
1089516000 -0.198620170135 -0.471531956872
1089520000 -0.199212424539 -0.472845080995
1089524000 -0.194117404573 -0.476642087527
1089528000 -0.198128176495 -0.469377285638
1089532000 -0.195755286802 -0.471155141242
1089536000 -0.201720700847 -0.475156919679
1089540000 -0.199129401765 -0.464942972538
1089544000 -0.201271458431 -0.479131394665
1089548000 -0.195642636001 -0.478326773529
1089552000 -0.197647141558 -0.478691462153
1089556000 -0.199983325166 -0.471051301898
1089560000 -0.199407497922 -0.47220411279
1089564000 -0.198738536425 -0.472958839508
1089568000 -0.200200156153 -0.478764513513
1089572000 -0.19644130538 -0.481762210397
1089576000 -0.202813293273 -0.474801383061
1089580000 -0.203342785219 -0.476203848337
1089584000 -0.199179634112 -0.472096785951
1089588000 -0.201260863542 -0.479087720001
1089592000 -0.197373593724 -0.473580531551
1089596000 -0.200274815418 -0.470330571457
1089600000 -0.199631523424 -0.475287005646
1089604000 -0.20955262721 -0.480784547543
1089608000 -0.207501650266 -0.479198082512
1089612000 -0.213953969924 -0.476118740402
1089616000 -0.208756808167 -0.475985318317
1089620000 -0.209103632916 -0.477383354965
1089624000 -0.208513945337 -0.479580449539
1089628000 -0.211561545798 -0.48530680367
1089632000 -0.209507467927 -0.481898174318
1089636000 -0.205949739273 -0.486471433993
1089640000 -0.214786324794 -0.485487163717
1089644000 -0.208660893773 -0.480412019663
1089648000 -0.20759426608 -0.486848533461
1089652000 -0.208874449115 -0.485662724361
1089656000 -0.206896955594 -0.48269239948
1089660000 -0.205930985058 -0.488589435973
1089664000 -0.215327606869 -0.486823143011
1089668000 -0.213382662532 -0.489998946981
1089672000 -0.214460667286 -0.486962220424
1089676000 -0.213335690816 -0.481676784875
1089680000 -0.214218137616 -0.482962431404
1089684000 -0.211834162667 -0.475311746032
1089688000 -0.218558281301 -0.476208881953
1089692000 -0.220764211359 -0.476988531803
1089696000 -0.222274084478 -0.485395360531
1089700000 -0.218812732386 -0.482635859306
1089704000 -0.220414684332 -0.481838082582
1089708000 -0.218102428577 -0.49049219917
1089712000 -0.216745468027 -0.488364505589
1089716000 -0.219264316215 -0.485456058148
1089720000 -0.224153301501 -0.488933358778
1089724000 -0.219512559556 -0.485393188497
1089728000 -0.225453731677 -0.484552726841
1089732000 -0.219532627096 -0.485989696042
1089736000 -0.218239008303 -0.487411564738
1089740000 -0.223006976236 -0.490098376059
1089744000 -0.212664847137 -0.488150055158
1089748000 -0.22163581788 -0.487094884523
1089752000 -0.222611601261 -0.489317461179
1089756000 -0.219600311854 -0.480635623165
1089760000 -0.221813548059 -0.488006359657
1089764000 -0.222328660502 -0.486364476454
1089768000 -0.227760975477 -0.481983042208
1089772000 -0.21866532856 -0.480617795434
1089776000 -0.221625240052 -0.483745118431
1089780000 -0.225044998492 -0.485322104682
1089784000 -0.218837413733 -0.4849141706
1089788000 -0.223334421139 -0.48817830244
1089792000 -0.224065162034 -0.485178159178
1089796000 -0.225053937046 -0.4887935318
1089800000 -0.229790420032 -0.489349336689
1089804000 -0.220203500111 -0.482318782282
1089808000 -0.223247935717 -0.488608250723
1089812000 -0.224313255941 -0.490119866874
1089816000 -0.227684965454 -0.485729780739
1089820000 -0.224601133578 -0.483541336286
1089824000 -0.224596366673 -0.484538785082
1089828000 -0.233663430714 -0.482871114831
1089832000 -0.232656999567 -0.486334646576
1089836000 -0.229502478268 -0.485008162811
1089840000 -0.233175086616 -0.48477848729
1089844000 -0.233093959585 -0.483127684204
1089848000 -0.232382499347 -0.485083796719
1089852000 -0.232846094455 -0.480536563123
1089856000 -0.229439195971 -0.479516824426
1089860000 -0.235023128525 -0.486022255886
1089864000 -0.23728666828 -0.483565347005
1089868000 -0.235923668261 -0.483063417353
1089872000 -0.232611589698 -0.483007496748
1089876000 -0.243853947735 -0.488537864441
1089880000 -0.23970842531 -0.484914069693
1089884000 -0.232737741358 -0.49013538019
1089888000 -0.235461596575 -0.488552323979
1089892000 -0.243217516984 -0.488446395151
1089896000 -0.239145028697 -0.489043403464
1089900000 -0.238595853537 -0.487858848523
1089904000 -0.235403112303 -0.490029158547
1089908000 -0.23811176842 -0.494571920399
1089912000 -0.242876693867 -0.489282329713
1089916000 -0.235474112752 -0.49225005245
1089920000 -0.242518948875 -0.492590695702
1089924000 -0.23876736685 -0.496869830753
1089928000 -0.238332963314 -0.491709170295
1089932000 -0.233412367302 -0.495414836479
1089936000 -0.236607168098 -0.494413810524
1089940000 -0.237146560206 -0.498294655862
1089944000 -0.241990741564 -0.494805545553
1089948000 -0.237977832319 -0.495798117823
1089952000 -0.248535286401 -0.500634377307
1089956000 -0.240826164224 -0.493709415454
1089960000 -0.245592936829 -0.492808527993
1089964000 -0.247838537195 -0.496817138633
1089968000 -0.24442067666 -0.497730974313
1089972000 -0.246039570768 -0.497777810141
1089976000 -0.244405819184 -0.496372470072
1089980000 -0.246948426133 -0.493981384369
1089984000 -0.250008489484 -0.4924034836
1089988000 -0.251490003524 -0.491402093851
1089992000 -0.249482326051 -0.492654524682
1089996000 -0.24831387577 -0.494898020439
1090000000 -0.250023383957 -0.490688671214
1090004000 -0.253991485108 -0.493999444155
1090008000 -0.248270897757 -0.491376684211
1090012000 -0.248527744118 -0.49642063766
1090016000 -0.250480142887 -0.490950425174
1090020000 -0.25479063925 -0.49594823753
1090024000 -0.250941637395 -0.495869494374
1090028000 -0.252895593374 -0.495193080088
1090032000 -0.249769567944 -0.496007550554
1090036000 -0.256462660825 -0.494578125441
1090040000 -0.252459718226 -0.493523461158
1090044000 -0.249537656479 -0.494966236943
1090048000 -0.252771329104 -0.491970762925
1090052000 -0.260314908758 -0.48918900868
1090056000 -0.258842401018 -0.492085109404
1090060000 -0.257908760953 -0.491730731305
1090064000 -0.254957088756 -0.488752433829
1090068000 -0.257522758344 -0.494564437391
1090072000 -0.255951776575 -0.488593568183
1090076000 -0.258694386687 -0.4888363993
1090080000 -0.259151040711 -0.487609079871
1090084000 -0.255758036426 -0.492972611514
1090088000 -0.258648223344 -0.495007344264
1090092000 -0.26143136803 -0.498232834784
1090096000 -0.258707839167 -0.495207987203
1090100000 -0.26078219116 -0.494937140994
1090104000 -0.262360505984 -0.49224038455
1090108000 -0.261601496048 -0.494213425684
1090112000 -0.26453352921 -0.495234786832
1090116000 -0.265517536137 -0.490771361076
1090120000 -0.267079186114 -0.493063217039
1090124000 -0.262628568673 -0.490416632394
1090128000 -0.263535768128 -0.488957385992
1090132000 -0.267209691437 -0.49520339753
1090136000 -0.264011312282 -0.495208747927
1090140000 -0.267135160591 -0.500140978521
1090144000 -0.262808307748 -0.498622592338
1090148000 -0.267975990174 -0.497504928777
1090152000 -0.268136613219 -0.499514925231
1090156000 -0.263007479426 -0.494030388095
1090160000 -0.270299491782 -0.498586958082
1090164000 -0.270014648918 -0.494251357866
1090168000 -0.271100716546 -0.497860399368
1090172000 -0.275815662757 -0.496694557711
1090176000 -0.276437319809 -0.497414566551
1090180000 -0.271712845228 -0.497929775347
1090184000 -0.279877669602 -0.496460276923
1090188000 -0.275162497473 -0.495619788811
1090192000 -0.271700243137 -0.496099396477
1090196000 -0.272370006695 -0.49742396169
1090200000 -0.27611611205 -0.495505101859
1090204000 -0.274814570784 -0.501012810048
1090208000 -0.272968158261 -0.494460063674
1090212000 -0.273291158933 -0.497924275314
1090216000 -0.275160525555 -0.498779523022
1090220000 -0.273781739573 -0.49989294847
1090224000 -0.276351700376 -0.496319054188
1090228000 -0.27936132276 -0.499483225969
1090232000 -0.27658147808 -0.499434270384
1090236000 -0.279277305068 -0.498663514783
1090240000 -0.27362926705 -0.501490244389
1090244000 -0.275733475446 -0.504428419493
1090248000 -0.273560506607 -0.496776863081
1090252000 -0.277673274314 -0.500101560052
1090256000 -0.277966533897 -0.500063378061
1090260000 -0.276032545496 -0.501872735414
1090264000 -0.280902606218 -0.505474381453
1090268000 -0.281208596443 -0.505039662904
1090272000 -0.279876645952 -0.499790219455
1090276000 -0.285986847697 -0.501429015891
1090280000 -0.279061934132 -0.499395858562
1090284000 -0.282971174682 -0.493093540677
1090288000 -0.286673738175 -0.496211633916
1090292000 -0.283672192108 -0.49797827953
1090296000 -0.290497865494 -0.496678845075
1090300000 -0.290726613648 -0.495961033912
1090304000 -0.285896845853 -0.499284275829
1090308000 -0.287361591183 -0.495741892218
1090312000 -0.281940832635 -0.495753368209
1090316000 -0.286965945169 -0.493204099366
1090320000 -0.284488665444 -0.498276522096
1090324000 -0.28958828303 -0.501277638875
1090328000 -0.287489066034 -0.498459382785
1090332000 -0.290266624489 -0.500222837707
1090336000 -0.286236691641 -0.492349062557
1090340000 -0.290985359722 -0.50061120406
1090344000 -0.291657890114 -0.497030968232
1090348000 -0.289513858053 -0.501124788139
1090352000 -0.286267408386 -0.502005282611
1090356000 -0.288609489551 -0.500414536521
1090360000 -0.290730861674 -0.499225880955
1090364000 -0.294276162257 -0.499319082351
1090368000 -0.294768578789 -0.496945956542
1090372000 -0.294442793291 -0.49831649657
1090376000 -0.298504679713 -0.49775726624
1090380000 -0.298960298233 -0.497872557688
1090384000 -0.289170781841 -0.499624155553
1090388000 -0.29222955133 -0.496855961068
1090392000 -0.293597305097 -0.500559722806
1090396000 -0.292963255812 -0.50014622403
1090400000 -0.292163307442 -0.497664206815
1090404000 -0.296521514992 -0.500440341116
1090408000 -0.291371847114 -0.49815085674
1090412000 -0.295306686148 -0.50088015983
1090416000 -0.292753422207 -0.502134433271
1090420000 -0.300547084059 -0.497258722236
1090424000 -0.29876923868 -0.495860619536
1090428000 -0.301632523224 -0.498925407719
1090432000 -0.30134563379 -0.502307517883
1090436000 -0.302514729502 -0.493907342567
1090440000 -0.298652976366 -0.495037025267
1090444000 -0.299771946063 -0.494531625635
1090448000 -0.302648893337 -0.492680619253
1090452000 -0.297699045964 -0.494893579999
1090456000 -0.298759112824 -0.493249872671
1090460000 -0.299010217005 -0.492021828816
1090464000 -0.297920549349 -0.494933122124
1090468000 -0.298049616956 -0.490126522097
1090472000 -0.299081208844 -0.49323671417
1090476000 -0.299858468858 -0.496771024185
1090480000 -0.301664038396 -0.496771185768
1090484000 -0.298575967853 -0.497969502815
1090488000 -0.301876922341 -0.50307547796
1090492000 -0.303149058541 -0.497184902831
1090496000 -0.303728789538 -0.499312892646
1090500000 -0.305423787128 -0.504485188286
1090504000 -0.308643040028 -0.504881198208
1090508000 -0.312230372022 -0.506631886131
1090512000 -0.306837501936 -0.505196349824
1090516000 -0.308297493117 -0.501108444069
1090520000 -0.30909299655 -0.50538941795
1090524000 -0.31342778457 -0.510058952609
1090528000 -0.306816357587 -0.500880191183
1090532000 -0.305504232168 -0.506173684203
1090536000 -0.31399721994 -0.506857113406
1090540000 -0.311783090305 -0.502581851933
1090544000 -0.306811683524 -0.500420501233
1090548000 -0.312278720251 -0.506181066176
1090552000 -0.310568871473 -0.500556079669
1090556000 -0.310703788946 -0.502898203698
1090560000 -0.309766532892 -0.507386655313
1090564000 -0.31559580052 -0.498327103487
1090568000 -0.31352102499 -0.502415934431
1090572000 -0.317322266788 -0.503781949028
1090576000 -0.312418485603 -0.508617176578
1090580000 -0.316320771996 -0.505263442457
1090584000 -0.318426236638 -0.501860092268
1090588000 -0.321276826209 -0.501247712653
1090592000 -0.316197061597 -0.500581791723
1090596000 -0.316751024551 -0.496801996589
1090600000 -0.317897243354 -0.49840236231
1090604000 -0.315110102313 -0.49315736456
1090608000 -0.313640624281 -0.498528788622
1090612000 -0.316256347873 -0.49643451395
1090616000 -0.31436178485 -0.501031396666
1090620000 -0.318494909305 -0.499925028274
1090624000 -0.320966204803 -0.496963011025
1090628000 -0.316996214415 -0.49924237823
1090632000 -0.310060635316 -0.506147117942
1090636000 -0.324257027247 -0.51073037867
1090640000 -0.315161261661 -0.50416816548
1090644000 -0.318714517879 -0.49819958496
1090648000 -0.328327984919 -0.500284980646
1090652000 -0.325462347547 -0.505260261652
1090656000 -0.330633117079 -0.49663104311
1090660000 -0.335329135852 -0.501958026445
1090664000 -0.330355581956 -0.507279789819
1090668000 -0.334308203524 -0.50680752158
1090672000 -0.330323492699 -0.505565990909
1090676000 -0.329158904527 -0.515326136468
1090680000 -0.324869647606 -0.501338071991
1090684000 -0.331324553428 -0.497667862126
1090688000 -0.339461062715 -0.502123613735
1090692000 -0.336366452378 -0.505814552023
1090696000 -0.329829028742 -0.503030112024
1090700000 -0.335024331146 -0.494209810457
1090704000 -0.328098380511 -0.50592221821
1090708000 -0.327219202019 -0.497686750378
1090712000 -0.331761632137 -0.502941172324
1090716000 -0.327950779129 -0.49620856218
1090720000 -0.333563558826 -0.496415899891
1090724000 -0.326510868275 -0.500943124359
1090728000 -0.326025692968 -0.493485925234
1090732000 -0.337271160665 -0.492097104004
1090736000 -0.332219952831 -0.493958262124
1090740000 -0.334757264827 -0.496232575601
1090744000 -0.341135494531 -0.495666255911
1090748000 -0.325810786606 -0.485986694962
1090752000 -0.335177085159 -0.500249709852
1090756000 -0.335629264992 -0.494246626849
1090760000 -0.337426909009 -0.501137945016
1090764000 -0.338383313234 -0.491752095523
1090768000 -0.343077411008 -0.499213753278
1090772000 -0.334299632135 -0.493324684096
1090776000 -0.340098209414 -0.496159402998
1090780000 -0.332484794617 -0.494881053159
1090784000 -0.34023997671 -0.498591695536
1090788000 -0.338939574572 -0.498907016463
1090792000 -0.343741715491 -0.508022850278
1090796000 -0.340896046829 -0.497016167332
1090800000 -0.345339738259 -0.50593465516
1090804000 -0.342521093976 -0.498289282811
1090808000 -0.342929460149 -0.501939835736
1090812000 -0.348761638268 -0.497101210734
1090816000 -0.345778950421 -0.49734487275
1090820000 -0.343066705478 -0.495408263985
1090824000 -0.340759854732 -0.49656312164
1090828000 -0.345262921382 -0.491296221317
1090832000 -0.346993418351 -0.500595233693
1090836000 -0.343297276061 -0.496237643244
1090840000 -0.343718665642 -0.490722695068
1090844000 -0.343621569921 -0.498862725253
1090848000 -0.343039117763 -0.511571318638
1090852000 -0.353826380321 -0.483852347537
1090856000 -0.349638661347 -0.504961385342
1090860000 -0.352581472699 -0.492821175328
1090864000 -0.356681141446 -0.499925274549
1090868000 -0.357069556482 -0.502088144687
1090872000 -0.350231968387 -0.492079466141
1090876000 -0.35504921303 -0.499439865046
1090880000 -0.358142234778 -0.500994459728
1090884000 -0.347803182399 -0.508105009753
1090888000 -0.349440137321 -0.500294048032
1090892000 -0.356914931913 -0.505592662191
1090896000 -0.345340224005 -0.490488883242
1090900000 -0.345064895293 -0.500769042135
1090904000 -0.346387352985 -0.493409953385
1090908000 -0.350114951695 -0.504003609686
1090912000 -0.35132458225 -0.50318191422
1090916000 -0.355544901057 -0.500325445647
1090920000 -0.354955936726 -0.503826092908
1090924000 -0.359674090807 -0.504763932596
1090928000 -0.351402845203 -0.505096262534
1090932000 -0.347095317301 -0.495322017463
1090936000 -0.359638508442 -0.503205551328
1090940000 -0.35669320065 -0.500318855479
1090944000 -0.345560500921 -0.495000619493
1090948000 -0.352340485943 -0.502940248872
1090952000 -0.356321425381 -0.501084609729
1090956000 -0.347246791821 -0.505169054465
1090960000 -0.358576325835 -0.502141575466
1090964000 -0.358206333597 -0.499894520492
1090968000 -0.35785587549 -0.503108959867
1090972000 -0.358495916527 -0.503950969553
1090976000 -0.359848439576 -0.496708165602
1090980000 -0.356605708227 -0.493204029798
1090984000 -0.368215766937 -0.496060792569
1090988000 -0.357711772777 -0.494960548611
1090992000 -0.362444780637 -0.496843306904
1090996000 -0.364774337089 -0.500982889459
1091000000 -0.365320293282 -0.494462304121
1091004000 -0.361738991096 -0.496489625478
1091008000 -0.356306325671 -0.504682636971
1091012000 -0.359460821949 -0.502206348606
1091016000 -0.370377479526 -0.499008832051
1091020000 -0.377940735245 -0.494026604641
1091024000 -0.366412309366 -0.496977651486
1091028000 -0.370679153482 -0.497133323749
1091032000 -0.370714769883 -0.49752490618
1091036000 -0.365897629087 -0.502015567862
1091040000 -0.366030656079 -0.500018139554
1091044000 -0.37183391335 -0.498432393314
1091048000 -0.371812918861 -0.488908633232
1091052000 -0.373626916158 -0.491473288614
1091056000 -0.370370422398 -0.504633427728
1091060000 -0.377810420168 -0.491617743939
1091064000 -0.379531546298 -0.499040870322
1091068000 -0.372919327317 -0.489601494388
1091072000 -0.377210372022 -0.491524597409
1091076000 -0.368532476122 -0.488589861704
1091080000 -0.377702428769 -0.491545645119
1091084000 -0.379298886184 -0.497635875599
1091088000 -0.384795657053 -0.496814220713
1091092000 -0.374442711917 -0.500296193022
1091096000 -0.379269180554 -0.493939727982
1091100000 -0.380126383101 -0.498283034023
1091104000 -0.375551350494 -0.50144284745
1091108000 -0.379453366474 -0.496283856063
1091112000 -0.376524948318 -0.501310844686
1091116000 -0.377062934602 -0.493549119412
1091120000 -0.37493240049 -0.494966374783
1091124000 -0.373336508239 -0.498441130199
1091128000 -0.376809545655 -0.496981950654
1091132000 -0.371738215124 -0.496344445448
1091136000 -0.374665888388 -0.489668878053
1091140000 -0.376328237477 -0.492576621169
1091144000 -0.369244363461 -0.492193523482
1091148000 -0.37595665489 -0.487996298529
1091152000 -0.368159369992 -0.494274352874
1091156000 -0.376913686941 -0.491366945244
1091160000 -0.375371370264 -0.494349524069
1091164000 -0.380177246362 -0.490661909006
1091168000 -0.379429187744 -0.490823520918
1091172000 -0.379291875523 -0.499223864746
1091176000 -0.38016897442 -0.486271013813
1091180000 -0.389236482658 -0.490696268164
1091184000 -0.386432929727 -0.488826816034
1091188000 -0.393103688791 -0.493794635121
1091192000 -0.383919024834 -0.487737870467
1091196000 -0.386150084073 -0.494304001243
1091200000 -0.379786913161 -0.490764416802
1091204000 -0.383635353053 -0.494714750312
1091208000 -0.390432654091 -0.49167680387
1091212000 -0.389395152068 -0.489711958089
1091216000 -0.385087525463 -0.49109824724
1091220000 -0.383339676203 -0.491397409886
1091224000 -0.386369137994 -0.492899305263
1091228000 -0.385836798314 -0.492469908255
1091232000 -0.391057626422 -0.49620299148
1091236000 -0.391800607967 -0.48987718481
1091240000 -0.392169451332 -0.48949174041
1091244000 -0.39117974784 -0.492201690503
1091248000 -0.395860197694 -0.490836905554
1091252000 -0.38681919923 -0.492811196853
1091256000 -0.394816734129 -0.48987763145
1091260000 -0.390119816936 -0.487639034705
1091264000 -0.392701511683 -0.487516500469
1091268000 -0.390262561968 -0.493332380619
1091272000 -0.393239922756 -0.492805191857
1091276000 -0.398149214568 -0.488681467234
1091280000 -0.395040393193 -0.493961001507
1091284000 -0.394792026612 -0.496859932215
1091288000 -0.392486402617 -0.492085860379
1091292000 -0.389802061481 -0.487121313061
1091296000 -0.394405291182 -0.491311060902
1091300000 -0.3993030404 -0.490069453869
1091304000 -0.394744971163 -0.48854342842
1091308000 -0.395802835378 -0.493868371131
1091312000 -0.399071896323 -0.486027698138
1091316000 -0.399378664364 -0.487460104361
1091320000 -0.400889443304 -0.48968482107
1091324000 -0.395161018305 -0.490039345947
1091328000 -0.395041746358 -0.491892529709
1091332000 -0.396913226571 -0.486315148235
1091336000 -0.402073767903 -0.487793810945
1091340000 -0.399580268234 -0.486263000815
1091344000 -0.397474242845 -0.488234194323
1091348000 -0.401910593227 -0.488316493876
1091352000 -0.39752116243 -0.483263952997
1091356000 -0.404932975514 -0.480384281215
1091360000 -0.402727161995 -0.487421918093
1091364000 -0.402658341741 -0.485650383712
1091368000 -0.400344445049 -0.488929953371
1091372000 -0.401887986395 -0.491473105276
1091376000 -0.400801753636 -0.485053553194
1091380000 -0.405236012166 -0.493534161206
1091384000 -0.408070999682 -0.486905899989
1091388000 -0.400645610359 -0.48844270964
1091392000 -0.401746383359 -0.484106833062
1091396000 -0.403034130587 -0.477259364451
1091400000 -0.409537187819 -0.482828296187
1091404000 -0.40458731386 -0.483136838256
1091408000 -0.407956076072 -0.483018752711
1091412000 -0.405962540006 -0.479357601115
1091416000 -0.408829364342 -0.48397118793
1091420000 -0.407880630905 -0.483684420223
1091424000 -0.406463604118 -0.478504465786
1091428000 -0.405461464707 -0.47946850034
1091432000 -0.408636031724 -0.480891055085
1091436000 -0.407152416534 -0.485730457042
1091440000 -0.404716778657 -0.478592649399
1091444000 -0.407080376594 -0.477511207043
1091448000 -0.409412933255 -0.485270264801
1091452000 -0.413257176868 -0.485317184261
1091456000 -0.410502229908 -0.484702510196
1091460000 -0.40992956319 -0.480968851087
1091464000 -0.411589266664 -0.483038919402
1091468000 -0.407448399242 -0.480894878632
1091472000 -0.413333838658 -0.485158748422
1091476000 -0.416868955236 -0.488251015139
1091480000 -0.413929358085 -0.489068722245
1091484000 -0.415187606963 -0.488925273413
1091488000 -0.412122822965 -0.489285665687
1091492000 -0.419746561892 -0.488472277613
1091496000 -0.419151855498 -0.484878125578
1091500000 -0.419753122187 -0.489142799452
1091504000 -0.416994211402 -0.483389015091
1091508000 -0.413010403068 -0.487972766498
1091512000 -0.41649529868 -0.483082219598
1091516000 -0.414714874385 -0.482857446325
1091520000 -0.417008605643 -0.483568325757
1091524000 -0.421033652414 -0.47732427685
1091528000 -0.420385835716 -0.484449887446
1091532000 -0.419359586148 -0.483187912502
1091536000 -0.418618807826 -0.473600307831
1091540000 -0.416299928724 -0.48143986875
1091544000 -0.418984154158 -0.486594179328
1091548000 -0.429112431049 -0.480311815744
1091552000 -0.428779271266 -0.483763833115
1091556000 -0.427702769099 -0.492061750094
1091560000 -0.429900853478 -0.481467528695
1091564000 -0.423977641938 -0.482857654308
1091568000 -0.425063304133 -0.484662058489
1091572000 -0.426785346662 -0.477453488795
1091576000 -0.425945384858 -0.47717036916
1091580000 -0.427905592997 -0.479023428195
1091584000 -0.42866454084 -0.480584886538
1091588000 -0.423281910463 -0.480657973314
1091592000 -0.423884888326 -0.479969928113
1091596000 -0.423074779463 -0.47634829563
1091600000 -0.425920477982 -0.477696644666
1091604000 -0.422790456266 -0.48006993791
1091608000 -0.427439630911 -0.479151675299
1091612000 -0.433620704175 -0.478263050653
1091616000 -0.420576732767 -0.474300587582
1091620000 -0.429182518616 -0.477367767999
1091624000 -0.4268342131 -0.475595224208
1091628000 -0.431824499898 -0.478809675988
1091632000 -0.427778464806 -0.470747287953
1091636000 -0.430688378048 -0.468515853105
1091640000 -0.433249236091 -0.470043593076
1091644000 -0.430623258004 -0.470276506469
1091648000 -0.436976304533 -0.474968562188
1091652000 -0.435433963558 -0.46776271666
1091656000 -0.430250832821 -0.476446802693
1091660000 -0.434779454432 -0.467949348627
1091664000 -0.438193932068 -0.468737673514
1091668000 -0.433228319304 -0.474776379927
1091672000 -0.439254364072 -0.47411179424
1091676000 -0.436522261646 -0.476481169527
1091680000 -0.435436468848 -0.476993302669
1091684000 -0.437250429886 -0.475356967265
1091688000 -0.440827064102 -0.479582919902
1091692000 -0.431295852839 -0.468997459762
1091696000 -0.439211276057 -0.476215277276
1091700000 -0.427028789156 -0.476617562083
1091704000 -0.439565687597 -0.46632145494
1091708000 -0.435960355285 -0.469536368386
1091712000 -0.4370341812 -0.474179280164
1091716000 -0.439285578826 -0.468040167724
1091720000 -0.437846116303 -0.468803143481
1091724000 -0.437687758463 -0.467366697674
1091728000 -0.445633285205 -0.470400587869
1091732000 -0.44676353727 -0.482594196199
1091736000 -0.444549187847 -0.475288603267
1091740000 -0.438189294171 -0.478225419508
1091744000 -0.448569462795 -0.478798048785
1091748000 -0.441695425679 -0.46847248227
1091752000 -0.438684037031 -0.471793984737
1091756000 -0.45217181181 -0.466166801284
1091760000 -0.450376275509 -0.473407789313
1091764000 -0.451563013758 -0.475639174724
1091768000 -0.447400615234 -0.476486528653
1091772000 -0.445625942929 -0.477982874202
1091776000 -0.442322346337 -0.465901730846
1091780000 -0.4510750728 -0.484245804056
1091784000 -0.446618729538 -0.467880845821
1091788000 -0.451102416119 -0.470142417488
1091792000 -0.443196290198 -0.465146505704
1091796000 -0.445397088391 -0.472850611323
1091800000 -0.453110169966 -0.472489211837
1091804000 -0.443542859973 -0.458107588042
1091808000 -0.450989664071 -0.472852740214
1091812000 -0.442533119167 -0.468161078377
1091816000 -0.442196767779 -0.466946585652
1091820000 -0.444207013657 -0.480949114724
1091824000 -0.445321318067 -0.460884121721
1091828000 -0.444730113931 -0.469450014955
1091832000 -0.435292715257 -0.463736622716
1091836000 -0.44422447556 -0.460684438897
1091840000 -0.441261446027 -0.461815250529
1091844000 -0.446334449694 -0.476384879636
1091848000 -0.458133495435 -0.45127392146
1091852000 -0.455389943503 -0.481737978897
1091856000 -0.442856166074 -0.459075929303
1091860000 -0.438345805188 -0.445834890522
1091864000 -0.460880745127 -0.469960740085
1091868000 -0.458788649084 -0.464169212734
1091872000 -0.462556503666 -0.468555899976
1091876000 -0.461795901548 -0.467272019639
1091880000 -0.454909585645 -0.453924897601
1091884000 -0.44164318644 -0.464731567976
1091888000 -0.459710394695 -0.475262095573
1091892000 -0.444038795444 -0.475327236093
1091896000 -0.461292906446 -0.455769259376
1091900000 -0.432720534052 -0.473892314609
1091904000 -0.360875227962 -0.445353982803
1091908000 -0.434929831792 -0.432406552193
1091912000 -0.44172630999 -0.465406945741
1091916000 -0.471721840958 -0.463854517567
1091920000 -0.48007669394 -0.476520380582
1091924000 -0.461392074578 -0.462408525304
1091928000 -0.459215379037 -0.475154602813
1091932000 -0.461055131327 -0.468092271763
1091936000 -0.455392620953 -0.468181230121
1091940000 -0.442943283217 -0.438194929487
1091944000 -0.426374655682 -0.457933087881
1091948000 -0.477439032039 -0.432344809021
1091952000 -0.462002529714 -0.435624794603
1091956000 -0.437773927865 -0.447805274637
1091960000 -0.455528750531 -0.450716530045
1091964000 -0.446836548954 -0.455676054587
1091968000 -0.471076452757 -0.436393869004
1091972000 -0.447920689105 -0.440236712542
1091976000 -0.453743470443 -0.449335028132
1091980000 -0.461347395252 -0.450939913286
1091984000 -0.466491413673 -0.456717559301
1091988000 -0.456306773776 -0.450543732289
1091992000 -0.474994732547 -0.4478730523
1091996000 -0.480367034319 -0.447843534427
1092000000 -0.452342470938 -0.472940658793
