! Calibrated averaged scanner-service zoom
# Hz S RI R 50
470000000 -0.149285017239 -0.510473476162
470010500 -0.151374665657 -0.509305821504
470021000 -0.153041115592 -0.507848831227
470031500 -0.155210768165 -0.507972069497
470042000 -0.155329984787 -0.508252186293
470052500 -0.156346697924 -0.506451491909
470063000 -0.162455800873 -0.504728100181
470073500 -0.162179962091 -0.502386044679
470084000 -0.164086295745 -0.501503506705
470094500 -0.16706406383 -0.501335710271
470105000 -0.16846930847 -0.500877033173
470115500 -0.168815295983 -0.499929251437
470126000 -0.170461612995 -0.49882178042
470136500 -0.170967047153 -0.496785235133
470147000 -0.175460543689 -0.495978799248
470157500 -0.178571744536 -0.492802737259
470168000 -0.177995281676 -0.494582220549
470178500 -0.182139459761 -0.499694582065
470189000 -0.179838225535 -0.496618133127
470199500 -0.178557341183 -0.492452324368
470210000 -0.184076711672 -0.491250695749
470220500 -0.186911954425 -0.490987956965
470231000 -0.187086818524 -0.487449875369
470241500 -0.186675943626 -0.483637666724
470252000 -0.189702889828 -0.488844745759
470262500 -0.18863135575 -0.487772001528
470273000 -0.192012731456 -0.492837319669
470283500 -0.197580109164 -0.48444132457
470294000 -0.196675314569 -0.481235347619
470304500 -0.201330573969 -0.478919975488
470315000 -0.201462475441 -0.478480755013
470325500 -0.199173170363 -0.468274674384
470336000 -0.208214409303 -0.476439703407
470346500 -0.203061719915 -0.480536338363
470357000 -0.20133444314 -0.481550735493
470367500 -0.205979573432 -0.471299155518
470378000 -0.216987516784 -0.46966486668
470388500 -0.194487690095 -0.461557836036
470399000 -0.216547552313 -0.46379189859
470409500 -0.203062432853 -0.473029001431
470420000 -0.220408733277 -0.46721400126
470430500 -0.22267675823 -0.457286021491
470441000 -0.217648570586 -0.46643088243
470451500 -0.223105805039 -0.477248906215
470462000 -0.217306355852 -0.460440855883
470472500 -0.226305786229 -0.467580108626
470483000 -0.220065186444 -0.456025779277
470493500 -0.20586131613 -0.464279731399
470504000 -0.218814049404 -0.455507295692
470514500 -0.231849419466 -0.454704361448
470525000 -0.227365142982 -0.453868246665
470535500 -0.23501980264 -0.451577393209
470546000 -0.236291400348 -0.444392926906
470556500 -0.233824102641 -0.445917165168
470567000 -0.232253694976 -0.453672115349
470577500 -0.232673040854 -0.445201487775
470588000 -0.242028725963 -0.448724547228
470598500 -0.234610745997 -0.450717458008
470609000 -0.236954512942 -0.449640018546
470619500 -0.24787533062 -0.446330475651
470630000 -0.247071404458 -0.445021919877
470640500 -0.241753130643 -0.437774772716
470651000 -0.255412396511 -0.438850302553
470661500 -0.252079779935 -0.447511411639
470672000 -0.24567242231 -0.43591513398
470682500 -0.245391236638 -0.432830657178
470693000 -0.252327302584 -0.43298547917
470703500 -0.257470648115 -0.428800557865
470714000 -0.253524305452 -0.427687189935
470724500 -0.246357709929 -0.428442902463
470735000 -0.258952988571 -0.428593271877
470745500 -0.259319143859 -0.427169703586
470756000 -0.260740815676 -0.425359029143
470766500 -0.261631188761 -0.422256568464
470777000 -0.267156499266 -0.421354800401
470787500 -0.264280261683 -0.421645885452
470798000 -0.268852252401 -0.41791041492
470808500 -0.267834532415 -0.416525695714
470819000 -0.269318718945 -0.418559814585
470829500 -0.270163974346 -0.41502105156
470840000 -0.271861266114 -0.413158353695
470850500 -0.272912972223 -0.411532237986
470861000 -0.274935049652 -0.411326660249
470871500 -0.275782959439 -0.409474350133
470882000 -0.276842964014 -0.407858330619
470892500 -0.277967529757 -0.407701218352
470903000 -0.278681601914 -0.403403908709
470913500 -0.280407105867 -0.403585446232
470924000 -0.281511342055 -0.401749894387
470934500 -0.282909280788 -0.400566822467
470945000 -0.284225464879 -0.398917948787
470955500 -0.284984787642 -0.397445305269
470966000 -0.286060084968 -0.396841833664
470976500 -0.286836874153 -0.394895810316
470987000 -0.289363627495 -0.392458518394
470997500 -0.28965065297 -0.391172188328
471008000 -0.291208182133 -0.390266488591
471018500 -0.29267434593 -0.388589796918
471029000 -0.293693114695 -0.387117664908
471039500 -0.294432480361 -0.3861148574
471050000 -0.296681282782 -0.382150970136
471060500 -0.296906999176 -0.380407827285
471071000 -0.299030594593 -0.380864651095
471081500 -0.298032012604 -0.378612745971
471092000 -0.301672044051 -0.376374864306
471102500 -0.300687597945 -0.377287452156
471113000 -0.303111787873 -0.375379680184
471123500 -0.304529422887 -0.37239946705
471134000 -0.303829829531 -0.37260271277
471144500 -0.306196041885 -0.369801329132
471155000 -0.305847056267 -0.368980291035
471165500 -0.30650223968 -0.365807390053
471176000 -0.307330174251 -0.365014159316
471186500 -0.311035232754 -0.364264533453
471197000 -0.310650882257 -0.36186445357
471207500 -0.312016281165 -0.36095642923
471218000 -0.311776000975 -0.359679372037
471228500 -0.313522558673 -0.35589664645
471239000 -0.313362941239 -0.356249137208
471249500 -0.314890250793 -0.356367982209
471260000 -0.31798258983 -0.35256106059
471270500 -0.317929792711 -0.350153669832
471281000 -0.3175258513 -0.348391508054
471291500 -0.320606284221 -0.345473771042
471302000 -0.322836138328 -0.346537064856
471312500 -0.321942546102 -0.343098141982
471323000 -0.322435619871 -0.342046715634
471333500 -0.324640993885 -0.33945680407
471344000 -0.323950190169 -0.339096229727
471354500 -0.326016896494 -0.33824677479
471365000 -0.329340705144 -0.335373973937
471375500 -0.32869436445 -0.334096406346
471386000 -0.330294228469 -0.332022678503
471396500 -0.328656865765 -0.331866743404
471407000 -0.328319923736 -0.331226789684
471417500 -0.332561752604 -0.329058291364
471428000 -0.332760519953 -0.325380632413
471438500 -0.333927783194 -0.324147002202
471449000 -0.333648111205 -0.322546382269
471459500 -0.334059040638 -0.322210105516
471470000 -0.337304203732 -0.319856122525
471480500 -0.336479647175 -0.317112838958
471491000 -0.337644733156 -0.315760351972
471501500 -0.337281279388 -0.314483279455
471512000 -0.339902137823 -0.312330978335
471522500 -0.339334386774 -0.309952253148
471533000 -0.340797548048 -0.309877737586
471543500 -0.341627440036 -0.307673314175
471554000 -0.342376825947 -0.305808362976
471564500 -0.343044139294 -0.304443512849
471575000 -0.343878634106 -0.30249082438
471585500 -0.344166428708 -0.300916641586
471596000 -0.345082859953 -0.299217747735
471606500 -0.345945934771 -0.297336093371
471617000 -0.346882842238 -0.295815126101
471627500 -0.347331433389 -0.293769787008
471638000 -0.348135530662 -0.292118424695
471648500 -0.348315837239 -0.290371766083
471659000 -0.349080162987 -0.288584227425
471669500 -0.350021642697 -0.287244688166
471680000 -0.350927728662 -0.285084943827
471690500 -0.351484978195 -0.283552855631
471701000 -0.352304951747 -0.281884778269
471711500 -0.35290874755 -0.280142469022
471722000 -0.354052564166 -0.278278361942
471732500 -0.354828093965 -0.276855851482
471743000 -0.355343881281 -0.275207494884
471753500 -0.356109620989 -0.2736266367
471764000 -0.356351446352 -0.272298246102
471774500 -0.357056235778 -0.270244041339
471785000 -0.358201708597 -0.268187565148
471795500 -0.358508982501 -0.266777072679
471806000 -0.359295493035 -0.26490202324
471816500 -0.360223921966 -0.262715148126
471827000 -0.360451151433 -0.261058298251
471837500 -0.360471453869 -0.259839142984
471848000 -0.361839257622 -0.257975826868
471858500 -0.362323544168 -0.255919403169
471869000 -0.362655966173 -0.254159622759
471879500 -0.363223323723 -0.252326699078
471890000 -0.364035105549 -0.25046949124
471900500 -0.364352783118 -0.249135845715
471911000 -0.364694635127 -0.247193930014
471921500 -0.365040271808 -0.245924409453
471932000 -0.365235287057 -0.244233890314
471942500 -0.365836199575 -0.241975471508
471953000 -0.366922425692 -0.240178969396
471963500 -0.367509060665 -0.238336710615
471974000 -0.368083814631 -0.236822450561
471984500 -0.368710573514 -0.234565477006
471995000 -0.369418781764 -0.233149358919
472005500 -0.369474348411 -0.231290577551
472016000 -0.370142427805 -0.229616395047
472026500 -0.370173280697 -0.228121226852
472037000 -0.37098650913 -0.225883953481
472047500 -0.371631787935 -0.224099954442
472058000 -0.37186903547 -0.22233464246
472068500 -0.371791844046 -0.220748276498
472079000 -0.372442110173 -0.219287148435
472089500 -0.372516300956 -0.217356963652
472100000 -0.375358590355 -0.215767200152
472110500 -0.374145235025 -0.213464392219
472121000 -0.374254440695 -0.211435233356
472131500 -0.37499186512 -0.209695949663
472142000 -0.375237091851 -0.208118962834
472152500 -0.374982186312 -0.206370900527
472163000 -0.375553979404 -0.205147920672
472173500 -0.375863153967 -0.202953022069
472184000 -0.376139990952 -0.201135314412
472194500 -0.37633766092 -0.199311626683
472205000 -0.377048658166 -0.197773820051
472215500 -0.377306989949 -0.19618568517
472226000 -0.378220244941 -0.194042738306
472236500 -0.378366416322 -0.192556210632
472247000 -0.378757993722 -0.190434257355
472257500 -0.379231802949 -0.188731398054
472268000 -0.379401100356 -0.186988444509
472278500 -0.379433520923 -0.185072382624
472289000 -0.379581095951 -0.183000522556
472299500 -0.38024745649 -0.181388809296
472310000 -0.380374525991 -0.179593955921
472320500 -0.380593256353 -0.177610533344
472331000 -0.380669237131 -0.175758981559
472341500 -0.381070590991 -0.174201674559
472352000 -0.381011459962 -0.17234127457
472362500 -0.38109867484 -0.170747586529
472373000 -0.381294011146 -0.169028656284
472383500 -0.381963789654 -0.167373541303
472394000 -0.38188717061 -0.165492257462
472404500 -0.382329700166 -0.16367235984
472415000 -0.382873631527 -0.161811102934
472425500 -0.383303766857 -0.159842389102
472436000 -0.383049212328 -0.157603176567
472446500 -0.383057953645 -0.156452854333
472457000 -0.382958253229 -0.154598330532
472467500 -0.383778769838 -0.15279425992
472478000 -0.383587939402 -0.151197331816
472488500 -0.384169160961 -0.149258345822
472499000 -0.383949955838 -0.147768253893
472509500 -0.384007476466 -0.146153298878
472520000 -0.384291809198 -0.144116680865
472530500 -0.384247640864 -0.142237897651
472541000 -0.384929226739 -0.141092305482
472551500 -0.384534427742 -0.138956366645
472562000 -0.384163472903 -0.137222644505
472572500 -0.384397492262 -0.135201659074
472583000 -0.384731656565 -0.133476279771
472593500 -0.385160075955 -0.131197860583
472604000 -0.384794870529 -0.129619598578
472614500 -0.384878710041 -0.127771921296
472625000 -0.384891153098 -0.126368886055
472635500 -0.385099288948 -0.124163923597
472646000 -0.384757977641 -0.122258584359
472656500 -0.385032062457 -0.120813968104
472667000 -0.384843286128 -0.119152941443
472677500 -0.384769615361 -0.11752250545
472688000 -0.384893206701 -0.115602446332
472698500 -0.384605369554 -0.11383576353
472709000 -0.384815282554 -0.11196031845
472719500 -0.384657624274 -0.110284758572
472730000 -0.384642332036 -0.108645513235
472740500 -0.38454547987 -0.107154931292
472751000 -0.384753673962 -0.105486079712
472761500 -0.384475428458 -0.103460287736
472772000 -0.38455213343 -0.101663664492
472782500 -0.384618845809 -0.0998537509854
472793000 -0.38469877788 -0.0981304293593
472803500 -0.384719783604 -0.0963444689959
472814000 -0.38438652075 -0.0943815128803
472824500 -0.384275865689 -0.0923524641089
472835000 -0.384425800692 -0.0904152942327
472845500 -0.384078944878 -0.0889985305162
472856000 -0.384169274758 -0.0867569448117
472866500 -0.384051201072 -0.0854968339829
472877000 -0.383577321258 -0.0840872442281
472887500 -0.383511696866 -0.082143771587
472898000 -0.383308178556 -0.0803129345548
472908500 -0.383598889277 -0.0787678591844
472919000 -0.383410053511 -0.0771608976436
472929500 -0.383028884939 -0.0753078189629
472940000 -0.382898016278 -0.0739222651941
472950500 -0.382923448835 -0.072355999514
472961000 -0.382690908049 -0.0704147262861
472971500 -0.382325162036 -0.069190059248
472982000 -0.381916024582 -0.0673334118
472992500 -0.381944661085 -0.0657483660945
473003000 -0.381742989867 -0.063710394793
473013500 -0.381762848105 -0.0620096569599
473024000 -0.381376280187 -0.0604301291296
473034500 -0.381525542148 -0.0582359545371
473045000 -0.380368461511 -0.0568352833476
473055500 -0.380462301549 -0.0550625955028
473066000 -0.380403510376 -0.0534234932817
473076500 -0.379839668965 -0.0516523205624
473087000 -0.380122918594 -0.0497986881371
473097500 -0.379723727862 -0.0482923317944
473108000 -0.378952140221 -0.0465090833954
473118500 -0.379031106724 -0.0443378671328
473129000 -0.378841394819 -0.0429007663328
473139500 -0.378644342163 -0.0406932089475
473150000 -0.378469664208 -0.0393656362358
473160500 -0.378021134813 -0.0376677807367
473171000 -0.377754399798 -0.0362296046745
473181500 -0.377506450863 -0.0347944082071
473192000 -0.376778940456 -0.0328671979541
473202500 -0.376655239585 -0.0311627609944
473213000 -0.376589520504 -0.0295111252787
473223500 -0.376022936202 -0.0278318896353
473234000 -0.376471396808 -0.0261208963064
473244500 -0.375718842874 -0.0241998835007
473255000 -0.375201633304 -0.0225180155472
473265500 -0.374916377793 -0.0210029542225
473276000 -0.374200517434 -0.0192738166145
473286500 -0.373774222488 -0.0175849735663
473297000 -0.373645946501 -0.016200223125
473307500 -0.373224883371 -0.0142944662805
473318000 -0.373124730095 -0.0128251634463
473328500 -0.372886570293 -0.0109578612657
473339000 -0.372283369294 -0.00945773666798
473349500 -0.37170010105 -0.00793503137271
473360000 -0.371277145862 -0.00629930605675
473370500 -0.370940217558 -0.00482405246847
473381000 -0.370742277195 -0.0030884883386
473391500 -0.370198517071 -0.00116518653121
473402000 -0.369744965184 0.000597815171907
473412500 -0.36944113659 0.0019398819475
473423000 -0.368961189005 0.00392920001302
473433500 -0.368187063821 0.00519995361091
473444000 -0.368613882928 0.00717108091567
473454500 -0.367744336985 0.00808695954216
473465000 -0.367302930409 0.00959332571989
473475500 -0.366589999224 0.0114469312615
473486000 -0.366127859097 0.0131296085749
473496500 -0.365616737223 0.0148128458306
473507000 -0.365143486442 0.0164091815563
473517500 -0.364490810038 0.0180372909132
473528000 -0.363702571701 0.0194250982499
473538500 -0.363468795666 0.0209473364922
473549000 -0.362840006806 0.0226644521079
473559500 -0.361621009532 0.0243265258477
473570000 -0.361400020225 0.0256005144074
473580500 -0.361395710662 0.0272962235536
473591000 -0.360710738005 0.0289059583758
473601500 -0.360729049836 0.0305036551507
473612000 -0.36000378123 0.0324055753171
473622500 -0.358968209254 0.0341412200071
473633000 -0.358539258085 0.0358179554099
473643500 -0.357997527291 0.0369932718346
473654000 -0.35731369478 0.038234869186
473664500 -0.356875616835 0.0393748584679
473675000 -0.356271991787 0.0411511166374
473685500 -0.35593446423 0.0427254027949
473696000 -0.355339288693 0.0445194662407
473706500 -0.354370407956 0.0461619383528
473717000 -0.35351810879 0.0478969807085
473727500 -0.353191453052 0.0491123818017
473738000 -0.352350847088 0.0506896204475
473748500 -0.351875570084 0.0523075061446
473759000 -0.351381019149 0.0537256074637
473769500 -0.351130979816 0.055164391095
473780000 -0.350670326413 0.0568669696744
473790500 -0.349598137118 0.0584283006923
473801000 -0.348641459449 0.0596823644232
473811500 -0.348285126286 0.0612654525302
473822000 -0.348371953496 0.062069400753
473832500 -0.347421310295 0.0640661859908
473843000 -0.346611378707 0.0656408504266
473853500 -0.345979901514 0.0668086309774
473864000 -0.345180609278 0.0685752265036
473874500 -0.344545077816 0.0698260439262
473885000 -0.34419606543 0.0714945114165
473895500 -0.343300702408 0.0730214775093
473906000 -0.342620008505 0.0746648785961
473916500 -0.34169895392 0.0761118466211
473927000 -0.340985144055 0.0778498262424
473937500 -0.339914797358 0.0801859298942
473948000 -0.338907989502 0.0821291148668
473958500 -0.338549646477 0.0826598273976
473969000 -0.338011905695 0.08326198328
473979500 -0.337398047071 0.0846270852743
473990000 -0.336731681571 0.0860349320066
474000500 -0.335962778274 0.0877598903151
474011000 -0.335389056263 0.0892338692293
474021500 -0.334245474254 0.0906351057895
474032000 -0.333744548039 0.0919739477931
474042500 -0.332843334004 0.0934287979723
474053000 -0.332321624991 0.0951390011375
474063500 -0.331364589214 0.0963944649437
474074000 -0.330539144793 0.0976012666888
474084500 -0.329906207994 0.0992667792955
474095000 -0.329171395874 0.10039644461
474105500 -0.32872497996 0.10201388982
474116000 -0.327298286915 0.103513623219
474126500 -0.326845983736 0.1049022708
474137000 -0.326246564015 0.10632124917
474147500 -0.32549520782 0.107609418607
474158000 -0.324681065041 0.108748605095
474168500 -0.323844476887 0.109692639489
474179000 -0.322841265435 0.111085723804
474189500 -0.322010243553 0.112776692281
474200000 -0.320765522989 0.114046321306
474210500 -0.32073298766 0.115454174423
474221000 -0.31962559406 0.116464294725
474231500 -0.318554861898 0.118181639206
474242000 -0.318550172932 0.119853949209
474252500 -0.317180393998 0.120907338374
474263000 -0.316464634865 0.122789971274
474273500 -0.31488314378 0.124193785178
474284000 -0.314854098407 0.125414297512
474294500 -0.313573181113 0.126827947048
474305000 -0.312536783115 0.127999621971
474315500 -0.311297378495 0.128106844852
474326000 -0.311874406143 0.130472308894
474336500 -0.309875948798 0.131524083141
474347000 -0.309581407731 0.133206517041
474357500 -0.308288237778 0.133754938537
474368000 -0.307074585212 0.135313840213
474378500 -0.307234051504 0.138223336075
474389000 -0.306941573705 0.138329926344
474399500 -0.305187452331 0.138583513583
474410000 -0.304464135658 0.140541063245
474420500 -0.304811463833 0.141358376583
474431000 -0.301621543355 0.142853525174
474441500 -0.301315782441 0.14581596916
474452000 -0.300410525398 0.147523567466
474462500 -0.299371067804 0.146706063165
474473000 -0.298012438483 0.148439938941
474483500 -0.298528596236 0.149992160833
474494000 -0.295749173432 0.149263051173
474504500 -0.295222848303 0.151847231503
474515000 -0.295831619857 0.152890843947
474525500 -0.294279293875 0.15601279053
474536000 -0.291642273539 0.15612348021
474546500 -0.292182826906 0.15746482927
474557000 -0.28971500053 0.157301050499
474567500 -0.29158861808 0.158517548649
474578000 -0.290244193593 0.160891697566
474588500 -0.28920391455 0.161739243479
474599000 -0.287627318799 0.162657341126
474609500 -0.285943075133 0.164940761557
474620000 -0.285582378528 0.165286612008
474630500 -0.284179909215 0.16621878909
474641000 -0.284171384246 0.168046578707
474651500 -0.282497739544 0.168462986177
474662000 -0.280953872947 0.170188667114
474672500 -0.280546561546 0.171119515072
474683000 -0.279414756087 0.172665536074
474693500 -0.27850325309 0.173816348452
474704000 -0.277405389148 0.175093862901
474714500 -0.276709385822 0.17678115191
474725000 -0.27503405288 0.177813063669
474735500 -0.274353753957 0.178511656716
474746000 -0.273164435102 0.179757687286
474756500 -0.272310419046 0.181211840348
474767000 -0.271353305198 0.18227427855
474777500 -0.270274603235 0.183384817024
474788000 -0.268840634928 0.18464376371
474798500 -0.268377634746 0.185824808726
474809000 -0.267830742521 0.186576815517
474819500 -0.266660335154 0.187759100672
474830000 -0.265763997253 0.189078810497
474840500 -0.264666641881 0.190024054012
474851000 -0.263417133246 0.19115748136
474861500 -0.262456573287 0.192393764845
474872000 -0.26132416346 0.193425762535
474882500 -0.2603676313 0.194439449888
474893000 -0.259100387149 0.195795115115
474903500 -0.258160128801 0.196853225618
474914000 -0.256906876173 0.197922617645
474924500 -0.255768833075 0.198801365238
474935000 -0.254638494553 0.200143947192
474945500 -0.254203114969 0.200985189325
474956000 -0.252851788745 0.202217169014
474966500 -0.251807190825 0.203023800687
474977000 -0.250590765264 0.204082509795
474987500 -0.249558759999 0.205346738245
474998000 -0.248299801899 0.206006197555
475008500 -0.247258304514 0.207230930972
475019000 -0.246323973267 0.20835083432
475029500 -0.244776280289 0.208908789849
475040000 -0.244083471703 0.21005029592
475050500 -0.242968148981 0.211081339089
475061000 -0.242033349187 0.211810647038
475071500 -0.241116605155 0.213215132427
475082000 -0.239876648951 0.21386987304
475092500 -0.238664174165 0.214945199717
475103000 -0.237557837513 0.216452207132
475113500 -0.236281817687 0.217465139489
475124000 -0.2351464007 0.218574391927
475134500 -0.234104528271 0.219858412572
475145000 -0.233043536536 0.220588938516
475155500 -0.232410998065 0.221650383746
475166000 -0.231148799406 0.22262858704
475176500 -0.229820987704 0.223900422213
475187000 -0.228690510601 0.224818519626
475197500 -0.227415075538 0.225659827718
475208000 -0.226415257756 0.226562321184
475218500 -0.22504196003 0.227748284228
475229000 -0.224103265028 0.228346281239
475239500 -0.223049402501 0.22947346899
475250000 -0.221806452808 0.230429190427
475260500 -0.220674899713 0.231322391909
475271000 -0.219360182289 0.232149679614
475281500 -0.218095859799 0.233147990856
475292000 -0.217014589298 0.234316053027
475302500 -0.216032101556 0.235225153129
475313000 -0.214817867578 0.235867267411
475323500 -0.213587483254 0.236816510653
475334000 -0.212528802883 0.237707877519
475344500 -0.211605868661 0.238685764955
475355000 -0.210192606806 0.23983141591
475365500 -0.209197870791 0.240743775454
475376000 -0.207946522535 0.241746228052
475386500 -0.206901312937 0.242698329384
475397000 -0.205634570965 0.243611421733
475407500 -0.204556193406 0.244252908214
475418000 -0.203623568603 0.244877777855
475428500 -0.202363162389 0.245747018257
475439000 -0.200929220091 0.246793572715
475449500 -0.200022311657 0.247203085795
475460000 -0.19858895782 0.248248614845
475470500 -0.197157871282 0.248707206305
475481000 -0.196373738445 0.249831991736
475491500 -0.194858250539 0.25094818296
475502000 -0.193323838965 0.251914417877
475512500 -0.192252017078 0.252748453725
475523000 -0.190870595705 0.253144844587
475533500 -0.189853224544 0.25421837855
475544000 -0.188699166988 0.255182543064
475554500 -0.187486630214 0.255763017884
475565000 -0.186244239252 0.256669787104
475575500 -0.184931979657 0.257512538431
475586000 -0.183743922567 0.258257010436
475596500 -0.182426114736 0.259274750747
475607000 -0.181326052658 0.259990059369
475617500 -0.180334855168 0.260812266091
475628000 -0.179141824356 0.261618254287
475638500 -0.178270010651 0.262329468556
475649000 -0.177114864765 0.262974695669
475659500 -0.175722073939 0.263790128127
475670000 -0.174337608219 0.26439615866
475680500 -0.173079915351 0.265335145317
475691000 -0.171338480763 0.266409269985
475701500 -0.170435773273 0.266850557788
475712000 -0.169050277112 0.267517949356
475722500 -0.167650817784 0.268683331112
475733000 -0.166219976179 0.268943998562
475743500 -0.164970247927 0.269915358775
475754000 -0.163995755839 0.270696795834
475764500 -0.162538579872 0.271205150519
475775000 -0.161590105789 0.272211942798
475785500 -0.160221890268 0.272830691338
475796000 -0.1592598634 0.273861318351
475806500 -0.157935819003 0.274408401131
475817000 -0.156533821986 0.275073900395
475827500 -0.155344251718 0.275517900074
475838000 -0.154204706009 0.276336470756
475848500 -0.152980454597 0.276938655614
475859000 -0.151469404089 0.277523825755
475869500 -0.150113711377 0.278075730231
475880000 -0.148710969518 0.278647450108
475890500 -0.147637356103 0.279316257107
475901000 -0.146562929112 0.280165868176
475911500 -0.145310407965 0.280831153889
475922000 -0.144273957908 0.281442596113
475932500 -0.143098058077 0.28231793316
475943000 -0.141547480132 0.283332126349
475953500 -0.140082564344 0.28373799301
475964000 -0.138561547414 0.28432001837
475974500 -0.13750662362 0.285204479122
475985000 -0.136333989146 0.28596856893
475995500 -0.135012373085 0.286436888181
476006000 -0.133702851148 0.287132490714
476016500 -0.132300831446 0.287656249277
476027000 -0.131201981937 0.288135344362
476037500 -0.130161741181 0.289018738336
476048000 -0.128737445626 0.289391741643
476058500 -0.127457008291 0.290306052197
476069000 -0.125941547563 0.290297917241
476079500 -0.124639058915 0.291174762595
476090000 -0.12357755423 0.291822103026
476100500 -0.122832087876 0.292809898816
476111000 -0.121350767868 0.293576348905
476121500 -0.119674074213 0.293457897869
476132000 -0.118290444687 0.293728526801
476142500 -0.117251235406 0.294414582304
476153000 -0.116163674721 0.295269467486
476163500 -0.114922922375 0.295638406173
476174000 -0.113116090688 0.296126452649
476184500 -0.111773564845 0.297122361125
476195000 -0.110473291286 0.297438444046
476205500 -0.10899250799 0.298151438722
476216000 -0.107921050504 0.29878513112
476226500 -0.10647192146 0.299099358355
476237000 -0.105220012484 0.299636249075
476247500 -0.103788744261 0.299936944615
476258000 -0.102366263741 0.300488156734
476268500 -0.101478874215 0.30113803095
476279000 -0.0997931087233 0.301623076507
476289500 -0.0986049580779 0.30225079782
476300000 -0.0970214954189 0.302511585302
476310500 -0.0961329114044 0.302840473714
476321000 -0.0946207770545 0.303560857026
476331500 -0.0936768724302 0.304022540748
476342000 -0.0924062214308 0.304191913144
476352500 -0.0908639139488 0.304566331727
476363000 -0.0892268491135 0.304929122565
476373500 -0.0880473808981 0.305649745459
476384000 -0.0869421675465 0.306332922984
476394500 -0.0857241105433 0.306776724252
476405000 -0.0843619881669 0.307469181414
476415500 -0.0830765824251 0.307876341553
476426000 -0.08157092388 0.308303304998
476436500 -0.0802916444398 0.308486054076
476447000 -0.0787263771018 0.309002985794
476457500 -0.0775704661319 0.309274653453
476468000 -0.0763581802408 0.310015219011
476478500 -0.0754167866459 0.310559645458
476489000 -0.0739528668418 0.310689808731
476499500 -0.0724189339684 0.311184878213
476510000 -0.0710359697949 0.311399903476
476520500 -0.0697399861623 0.312106388725
476531000 -0.0682452378655 0.312324571005
476541500 -0.066682183422 0.312804951857
476552000 -0.0656115268099 0.312800652698
476562500 -0.0640511271581 0.313204816096
476573000 -0.0628681023304 0.31385452077
476583500 -0.0620895027739 0.313980174712
476594000 -0.0606879353979 0.314303752776
476604500 -0.059725856186 0.31477114099
476615000 -0.058040995335 0.31500478564
476625500 -0.0561411687007 0.315944498871
476636000 -0.0537457388454 0.318923229339
476646500 -0.0513926333307 0.316354494354
476657000 -0.0498135956148 0.317464367754
476667500 -0.0504274769539 0.317349989603
476678000 -0.050585447567 0.317339617332
476688500 -0.0488661609534 0.317901405771
476699000 -0.047456660161 0.31820885019
476709500 -0.0459219363842 0.318164831656
476720000 -0.0443662549865 0.318734858449
476730500 -0.0430184832935 0.318919428526
476741000 -0.0413068353283 0.319323696498
476751500 -0.0401536014766 0.319629375057
476762000 -0.0390794869908 0.319748409152
476772500 -0.0377677658363 0.320267903956
476783000 -0.0368696945942 0.320337299696
476793500 -0.0351469006851 0.321020789336
476804000 -0.0336724594756 0.321177643894
476814500 -0.0324016703553 0.32106829178
476825000 -0.0307412177557 0.321328216175
476835500 -0.0294545870319 0.321980528224
476846000 -0.0281822946051 0.322015635275
476856500 -0.0269515150857 0.322424998846
476867000 -0.0254869150563 0.322412602419
476877500 -0.0239633408999 0.322859948983
476888000 -0.0228271349515 0.323215942633
476898500 -0.0215221914375 0.32387914101
476909000 -0.0207520461544 0.324152320375
476919500 -0.0195118964211 0.323952734821
476930000 -0.018049481223 0.324350314535
476940500 -0.0164645846927 0.324596563132
476951000 -0.0152299012697 0.324595552506
476961500 -0.013556893242 0.324795253603
476972000 -0.012424077632 0.324791489549
476982500 -0.0112005731326 0.325301479334
476993000 -0.00951295775585 0.325482806582
477003500 -0.00825329187034 0.325577784641
477014000 -0.00677267600018 0.325622512217
477024500 -0.00523468221436 0.325996083992
477035000 -0.00390093982092 0.326042430082
477045500 -0.00286648430074 0.325901797778
477056000 -0.00165685111558 0.326491677981
477066500 -0.000178979229008 0.326658193929
477077000 0.00107402502636 0.326699637403
477087500 0.00259444979801 0.326946641323
477098000 0.00386633861062 0.327138592116
477108500 0.00533462130321 0.327496432309
477119000 0.00671984292433 0.327426196404
477129500 0.00792074116226 0.32769285106
477140000 0.00928500150084 0.328026709319
477150500 0.0104472459613 0.328268839288
477161000 0.0121883461178 0.328443076514
477171500 0.0134796433671 0.328375765678
477182000 0.0143468418104 0.32858295182
477192500 0.0152093891856 0.328533905096
477203000 0.0168335840976 0.32851856002
477213500 0.0179039483682 0.328659116466
477224000 0.0196578961593 0.329168246246
477234500 0.0211397029976 0.32928403606
477245000 0.0222764513633 0.329336050808
477255500 0.0236552516601 0.329320012088
477266000 0.0250939015096 0.329591470159
477276500 0.0262034236718 0.329768801018
477287000 0.027566484548 0.329795344928
477297500 0.0289642851907 0.329757472298
477308000 0.0304389166306 0.329672023984
477318500 0.0319342672144 0.329793751454
477329000 0.0330007070144 0.329982281757
477339500 0.0344187696124 0.330191287213
477350000 0.036018048831 0.330189932142
477360500 0.037338305819 0.33030177535
477371000 0.0388738807433 0.330181982626
477381500 0.0404022211556 0.330082932848
477392000 0.0414643873879 0.330218631807
477402500 0.0427076629826 0.329992971465
477413000 0.0441377439059 0.330364210365
477423500 0.0452929956159 0.330603948472
477434000 0.046535837019 0.330513150205
477444500 0.0484525642939 0.330325238071
477455000 0.0495551661242 0.330744821142
477465500 0.0508606564657 0.330860957713
477476000 0.0521746580513 0.330377963865
477486500 0.052969514002 0.330305345889
477497000 0.0545988221388 0.330938703544
477507500 0.0552467714611 0.33074188495
477518000 0.056958483375 0.330943883695
477528500 0.0583888134479 0.330828929016
477539000 0.0597739374337 0.330600844612
477549500 0.0612389316887 0.33121457269
477560000 0.0628445845956 0.330788537323
477570500 0.0641497549918 0.330800513482
477581000 0.0647406427113 0.329786268667
477591500 0.0666700118128 0.330382557039
477602000 0.0674285897512 0.329978709348
477612500 0.0695795660467 0.330055244446
477623000 0.0708540597015 0.330557269863
477633500 0.0717472552345 0.330262398596
477644000 0.073429545366 0.330461825708
477654500 0.0745464906522 0.32996543988
477665000 0.0752374042158 0.329797499719
477675500 0.0769898653385 0.32971845382
477686000 0.0786402932848 0.330068189102
477696500 0.0797777564682 0.330026205107
477707000 0.0807792410191 0.329721834444
477717500 0.0818572212615 0.330101185937
477728000 0.0835732814571 0.330026280449
477738500 0.0851655315528 0.330095285298
477749000 0.0866129458158 0.330426686629
477759500 0.0878765722071 0.329971005924
477770000 0.088855268003 0.329844766237
477780500 0.0904043592562 0.329220619367
477791000 0.0920856693492 0.329146036043
477801500 0.0938232217564 0.328852119369
477812000 0.0949987933008 0.328808074339
477822500 0.0962545929273 0.329035759154
477833000 0.0971385575226 0.328698497323
477843500 0.0986214223193 0.328792000246
477854000 0.0997211227494 0.328912187507
477864500 0.100771581527 0.328504319321
477875000 0.102205582341 0.328310045607
477885500 0.104185632728 0.327532836542
477896000 0.105161004967 0.327918767025
477906500 0.106167730534 0.327640810586
477917000 0.10767571119 0.327609616724
477927500 0.108827129343 0.327500025378
477938000 0.110103719433 0.327389892316
477948500 0.111845681169 0.327352831583
477959000 0.112807908543 0.327043480752
477969500 0.11428388186 0.32702246888
477980000 0.115709660495 0.32693020107
477990500 0.11698087964 0.32607693849
478001000 0.118497281791 0.325676656864
478011500 0.11963775477 0.326516917728
478022000 0.120342040714 0.32604096606
478032500 0.121628899356 0.326046394044
478043000 0.122948595368 0.325608686664
478053500 0.124092319066 0.325718838882
478064000 0.125896375619 0.324965266298
478074500 0.125864064544 0.32449086072
478085000 0.128322930772 0.324097669603
478095500 0.12913967605 0.324887078898
478106000 0.130712562235 0.324279904972
478116500 0.131170636372 0.323305893985
478127000 0.133183506987 0.323985054585
478137500 0.136018077591 0.323411712656
478148000 0.135084817954 0.323076579612
478158500 0.138454337942 0.323392954517
478169000 0.140379846222 0.323536663693
478179500 0.139605150442 0.321893588576
478190000 0.142777269643 0.321493116807
478200500 0.142000923413 0.322163848239
478211000 0.147698802265 0.322221353938
478221500 0.146391235716 0.319394208447
478232000 0.147102244828 0.321892415704
478242500 0.14813814571 0.321798154369
478253000 0.149393542625 0.320340131816
478263500 0.149151516423 0.318045101771
478274000 0.151222152478 0.320489969477
478284500 0.152968104455 0.318596347846
478295000 0.152874638206 0.321412422588
478305500 0.15511251466 0.317026686332
478316000 0.158094632596 0.317984582938
478326500 0.158507872772 0.316696135462
478337000 0.155686903286 0.315266711777
478347500 0.15862590917 0.313233766341
478358000 0.159707392978 0.31532132837
478368500 0.161618116132 0.315507494166
478379000 0.162768599723 0.316345083758
478389500 0.166131491811 0.312563324657
478400000 0.173790300685 0.317748235235
478410500 0.167147493801 0.316422730113
478421000 0.176200506615 0.315369992203
478431500 0.167944694823 0.313026092269
478442000 0.183161040214 0.31242799616
478452500 0.175403336764 0.31326693419
478463000 0.175434049324 0.313848759851
478473500 0.176867071518 0.312976077149
478484000 0.178809032377 0.323851671838
478494500 0.181979373 0.311457894604
478505000 0.179767171934 0.314387859462
478515500 0.179573546815 0.306710295497
478526000 0.17947865595 0.311239769811
478536500 0.181808192992 0.316623744648
478547000 0.182909025661 0.310168329277
478557500 0.186936889627 0.308749898288
478568000 0.184621831018 0.312586344958
478578500 0.185259337712 0.313861563253
478589000 0.186388057455 0.31231594601
478599500 0.191442482483 0.307808907232
478610000 0.19051310253 0.308881057733
478620500 0.193231902375 0.308899913196
478631000 0.194493285928 0.309631112334
478641500 0.195835124514 0.312224386902
478652000 0.195429570318 0.308792635644
478662500 0.193381511988 0.306725613509
478673000 0.198865399644 0.305361615305
478683500 0.201280837551 0.306557061128
478694000 0.20169235324 0.30493357782
478704500 0.202387821349 0.304754843565
478715000 0.204002214415 0.304809935314
478725500 0.20470728095 0.304560771547
478736000 0.205920105505 0.300228736466
478746500 0.207146717405 0.295515983568
478757000 0.210345867881 0.300296493415
478767500 0.209423169841 0.301820057563
478778000 0.210303507673 0.303255068618
478788500 0.214449357879 0.300863148636
478799000 0.214168860161 0.300376478793
478809500 0.214886553159 0.301412493919
478820000 0.216914755574 0.30204351148
478830500 0.215542924305 0.299324264932
478841000 0.218314408197 0.30083572465
478851500 0.221922559119 0.299780552206
478862000 0.221499463303 0.299576441201
478872500 0.221891027456 0.297606268811
478883000 0.222842070103 0.298568081303
478893500 0.225374592914 0.301119008255
478904000 0.226491571691 0.296953349934
478914500 0.226542212022 0.295242379022
478925000 0.229055584948 0.294626889344
478935500 0.229685269458 0.294632580984
478946000 0.231086851944 0.294182349089
478956500 0.23103211528 0.293971116208
478967000 0.233462619641 0.292886222046
478977500 0.234345029411 0.293039326271
478988000 0.235489099454 0.291680683259
478998500 0.236650717191 0.291300170053
479009000 0.237572236684 0.290791604348
479019500 0.239279934179 0.290000028775
479030000 0.240346099429 0.289711492922
479040500 0.241582088723 0.289061451906
479051000 0.242857776603 0.288670245117
479061500 0.243475070293 0.287690449709
479072000 0.244987040397 0.287309110484
479082500 0.24642961688 0.286830791023
479093000 0.247196289829 0.285515620788
479103500 0.248665129949 0.285943697685
479114000 0.249341618323 0.284818755392
479124500 0.250244142261 0.284649595212
479135000 0.251766343792 0.284224466544
479145500 0.25285055235 0.283167412134
479156000 0.254499665071 0.282660519552
479166500 0.255426989122 0.282335689327
479177000 0.255995273004 0.281191936047
479187500 0.25769519705 0.280132789009
479198000 0.258958575066 0.280879748946
479208500 0.259824040932 0.280287431748
479219000 0.260564201742 0.279237968597
479229500 0.262337168871 0.278778851637
479240000 0.263659802565 0.277444204878
479250500 0.264585909688 0.276783049747
479261000 0.266085984208 0.276394963512
479271500 0.267008111833 0.275852023412
479282000 0.268321770531 0.275565992711
479292500 0.269467490488 0.275033228198
479303000 0.270518809938 0.274362584906
479313500 0.271390377224 0.274060932271
479324000 0.272977554329 0.2730283725
479334500 0.273541804144 0.272147963555
479345000 0.274648298586 0.271251392585
479355500 0.275787098085 0.270681942768
479366000 0.276906443168 0.269918756395
479376500 0.277760969566 0.269066788553
479387000 0.279741238644 0.268718911832
479397500 0.280224155608 0.267819620574
479408000 0.281740126242 0.266773778288
479418500 0.282891053111 0.266554938302
479429000 0.28379793896 0.266106907173
479439500 0.285115474599 0.265202237467
479450000 0.286649108452 0.265028554793
479460500 0.287459275788 0.264546400034
479471000 0.288066999886 0.263852053508
479481500 0.289184047627 0.263610054015
479492000 0.289669958721 0.261963820316
479502500 0.290893544322 0.261789562364
479513000 0.29184662201 0.260332249379
479523500 0.29338502126 0.259926149432
479534000 0.294268269338 0.259297349571
479544500 0.295620763531 0.258397307264
479555000 0.296513425914 0.257911460419
479565500 0.297601086575 0.25719904379
479576000 0.298370371272 0.25644682857
479586500 0.29950285898 0.255912313954
479597000 0.300986242262 0.254774724861
479607500 0.302058692541 0.254105772404
479618000 0.303316098625 0.252758585578
479628500 0.304092637244 0.252067469391
479639000 0.305126306373 0.251493368659
479649500 0.30595799404 0.25086874108
479660000 0.306949593475 0.250104090427
479670500 0.308122554014 0.249520950449
479681000 0.309066952984 0.248555712784
479691500 0.310530503559 0.247982647254
479702000 0.311794159016 0.246992089448
479712500 0.312496999149 0.246314535289
479723000 0.313516273511 0.245509146671
479733500 0.314169395685 0.244523514935
479744000 0.315297070904 0.243676925573
479754500 0.316545155231 0.243058450473
479765000 0.317608080696 0.242481613611
479775500 0.318392670983 0.241633819837
479786000 0.319896467244 0.241375475447
479796500 0.320851130635 0.240063539744
479807000 0.321675587663 0.239269442291
479817500 0.323074982405 0.238082567164
479828000 0.32399863709 0.237765358984
479838500 0.325032010196 0.236775591791
479849000 0.32610111114 0.236408453518
479859500 0.327038036466 0.23514057918
479870000 0.32782067776 0.234686069221
479880500 0.329357457468 0.233801199248
479891000 0.330454759367 0.233162723649
479901500 0.33160564152 0.232146676114
479912000 0.332934906668 0.231493012313
479922500 0.33370029666 0.230919229782
479933000 0.335021813197 0.229773671021
479943500 0.335486028526 0.228659930138
479954000 0.336331990511 0.227564653707
479964500 0.336855277291 0.226402304783
479975000 0.338188860927 0.225924651909
479985500 0.339068221726 0.225326899996
479996000 0.340316082809 0.224640885402
480006500 0.341256933825 0.223878944341
480017000 0.342086491193 0.222509412491
480027500 0.342983940343 0.221865004051
480038000 0.343882950591 0.221170260531
480048500 0.341291525282 0.221164878471
480059000 0.344806882605 0.219552765891
480069500 0.346195288459 0.218764557223
480080000 0.347622447485 0.21807648749
480090500 0.347723112976 0.216715274737
480101000 0.348851478282 0.216362283837
480111500 0.350675726678 0.214851768727
480122000 0.35179650701 0.21395008999
480132500 0.352981243333 0.212828492282
480143000 0.35367306702 0.212087002032
480153500 0.354576792453 0.210829357038
480164000 0.355239749887 0.210252224615
480174500 0.356175381636 0.209531541082
480185000 0.356830600002 0.208469531015
480195500 0.357728854886 0.207890810059
480206000 0.358807839547 0.207024442103
480216500 0.359741763934 0.206319433197
480227000 0.360302741807 0.205169549571
480237500 0.36096436221 0.20429580219
480248000 0.362080179799 0.20318397864
480258500 0.362802757126 0.202196018425
480269000 0.362161182121 0.200444627349
480279500 0.365350713253 0.200506623262
480290000 0.365954805675 0.199560103853
480300500 0.367173332408 0.198655400917
480311000 0.368195461734 0.197967538547
480321500 0.368665609251 0.196868254093
480332000 0.369838188174 0.195699494419
480342500 0.370633254507 0.194916844855
480353000 0.37168894902 0.193874972192
480363500 0.372516642572 0.192965223012
480374000 0.373719501197 0.192171962695
480384500 0.374813202175 0.190991488119
480395000 0.375508785427 0.190182508213
480405500 0.375868611978 0.188595366137
480416000 0.376586008096 0.187414182311
480426500 0.377784370033 0.186505516988
480437000 0.378472871261 0.185969335483
480447500 0.379696688624 0.185401685866
480458000 0.38081086526 0.184358752837
480468500 0.381759393833 0.183027425056
480479000 0.382239913924 0.182391847455
480489500 0.383390880645 0.181249420627
480500000 0.383574575566 0.180223424446
480510500 0.384927438071 0.179235753116
480521000 0.38604028541 0.177907027645
480531500 0.38700006373 0.176854194521
480542000 0.387696737871 0.175869052383
480552500 0.388291926273 0.175663566055
480563000 0.389210598912 0.174499423108
480573500 0.390335048512 0.173584159377
480584000 0.390932021735 0.172104632689
480594500 0.391872341707 0.171227959238
480605000 0.392651434972 0.170098336294
480615500 0.393196244875 0.16895617911
480626000 0.394260499698 0.168070685591
480636500 0.394850712974 0.167449793532
480647000 0.39561503485 0.167071718011
480657500 0.396695387946 0.165439382245
480668000 0.397400577013 0.164310187189
480678500 0.398143187761 0.162847264585
480689000 0.399334197064 0.162218482294
480699500 0.399787277571 0.16106827001
480710000 0.400786054753 0.160024340256
480720500 0.401475661651 0.159032761187
480731000 0.402569980069 0.157943125131
480741500 0.403348014386 0.156601107576
480752000 0.403405576864 0.155939663285
480762500 0.405864159106 0.156126016497
480773000 0.405719166556 0.154276773982
480783500 0.406073369836 0.152935355982
480794000 0.406690463991 0.152344865902
480804500 0.407697214003 0.150849290844
480815000 0.408326009297 0.149647107691
480825500 0.409095185518 0.148344360532
480836000 0.410266192586 0.147640423523
480846500 0.410923423237 0.146999456545
480857000 0.41156598479 0.145925564995
480867500 0.412350713488 0.144331569613
480878000 0.413177190532 0.142877114694
480888500 0.413773837622 0.142407080473
480899000 0.41420621616 0.140763782562
480909500 0.414792329956 0.139641372501
480920000 0.415730366369 0.138382901158
480930500 0.416461606928 0.136590236445
480941000 0.417291904765 0.136589169867
480951500 0.417873771803 0.135398451902
480962000 0.418610176146 0.134311831243
480972500 0.41904607418 0.132924456288
480983000 0.419402573832 0.131197756623
480993500 0.420174898482 0.130142730023
481004000 0.418939354591 0.129117754666
481014500 0.422296759749 0.128055504682
481025000 0.423179324889 0.126994049621
481035500 0.424114972374 0.126116995082
481046000 0.424725141927 0.125294641748
481056500 0.42551551046 0.123986783358
481067000 0.425667436231 0.122984267963
481077500 0.426495629323 0.122157457108
481088000 0.427052612609 0.121015389845
481098500 0.428155333982 0.119940350811
481109000 0.428969338267 0.118639686864
481119500 0.429409264236 0.117244051469
481130000 0.430454879625 0.116222733885
481140500 0.43077310415 0.114952032064
481151000 0.4313348081 0.113935427447
481161500 0.431758323623 0.112596377654
481172000 0.432579402713 0.111418009818
481182500 0.433283308086 0.110340401724
481193000 0.434042812679 0.109607922183
481203500 0.434428340892 0.107969227593
481214000 0.435272666275 0.10667070321
481224500 0.435881414865 0.105344701587
481235000 0.436682748202 0.104228351714
481245500 0.436974102626 0.102164250441
481256000 0.437398779463 0.101259509574
481266500 0.438309858286 0.0999975693231
481277000 0.439704375998 0.0990070627651
481287500 0.439602056604 0.0984454689289
481298000 0.441153410342 0.0975976275843
481308500 0.440542416002 0.0966584239737
481319000 0.441696016138 0.0953647729323
481329500 0.442511879239 0.0937954387307
481340000 0.443104291966 0.0926718296822
481350500 0.443348208412 0.0913935279274
481361000 0.443640425347 0.090206022062
481371500 0.444318306865 0.0894105982701
481382000 0.445609906715 0.0875205870949
481392500 0.445791402222 0.0873233255939
481403000 0.446694667742 0.0856831870854
481413500 0.44739892401 0.0845328495165
481424000 0.448304666945 0.0836510827523
481434500 0.448277950641 0.0820955404889
481445000 0.448663191655 0.0812205442214
481455500 0.449366001404 0.080391301473
481466000 0.451310655308 0.0779166325717
481476500 0.450648185605 0.0772539442329
481487000 0.452306426077 0.0767982684528
481497500 0.451028104775 0.0746257010938
481508000 0.451475877308 0.0726615686701
481518500 0.452219559476 0.0719815803676
481529000 0.453520048682 0.0706225419274
481539500 0.454005969696 0.0709219916017
481550000 0.454517268249 0.0687912968066
481560500 0.454731758336 0.066268668214
481571000 0.455639208666 0.064069776527
481581500 0.455817214508 0.0626291133562
481592000 0.457279223074 0.0637678215973
481602500 0.456923315205 0.0610775062721
481613000 0.457537202034 0.0607995819731
481623500 0.457868056319 0.0599236856364
481634000 0.458270982701 0.0571067333254
481644500 0.459210089178 0.0568182073687
481655000 0.460252917415 0.0544161458146
481665500 0.460343641375 0.0546633671154
481676000 0.460578684677 0.0525139317253
481686500 0.460855631915 0.0506041088915
481697000 0.461177896908 0.0502428389706
481707500 0.4615334836 0.0481129553234
481718000 0.46228716496 0.0465163507577
481728500 0.463181417061 0.0467110355528
481739000 0.463517295434 0.0444123916111
481749500 0.463412625214 0.0440793069396
481760000 0.463289676498 0.0421506546852
481770500 0.464668057209 0.0425951313831
481781000 0.463630842607 0.0399103357987
481791500 0.463115896543 0.0408637521951
481802000 0.464407187965 0.0365784429129
481812500 0.464252946199 0.0380218978388
481823000 0.466428913464 0.0357435173374
481833500 0.467287490999 0.0341582947192
481844000 0.467546682335 0.0341594805591
481854500 0.468556383356 0.0317745479547
481865000 0.46883551653 0.0300604599723
481875500 0.469680599812 0.0286924614046
481886000 0.469592028023 0.0268483661733
481896500 0.469849695287 0.0254755474273
481907000 0.470774929258 0.0256525432981
481917500 0.470383489723 0.0244618545589
481928000 0.472026856725 0.0239959287948
481938500 0.472345346199 0.0211182806001
481949000 0.470845128007 0.0198558851482
481959500 0.469184373152 0.0196535040805
481970000 0.469357080977 0.0175200406656
481980500 0.47226995536 0.0173392057988
481991000 0.47168186608 0.0144716475571
482001500 0.474068668461 0.0128901911018
482012000 0.474869412641 0.0113029778888
482022500 0.474644255927 0.0100956933458
482033000 0.474440045069 0.00871438462281
482043500 0.476655236275 0.00807978880951
482054000 0.473914165467 0.00427418765963
482064500 0.478494500851 0.0054079514028
482075000 0.475124521111 0.00526406398831
482085500 0.476078328125 0.00189876205142
482096000 0.47703425169 0.00159248448968
482106500 0.481667060174 0.00160620546437
482117000 0.472819188519 0.00179870382375
482127500 0.476960106641 -0.00537328844399
482138000 0.48045323497 -0.00538029510518
482148500 0.4781603193 -0.00661359214778
482159000 0.478608282519 -0.00568892691801
482169500 0.478337021261 -0.005778893027
482180000 0.476814172056 -0.00887042722529
482190500 0.481953593399 -0.012064136666
482201000 0.483516319481 -0.00504332854055
482211500 0.480673175826 -0.0164819774559
482222000 0.483216427273 -0.0153043733786
482232500 0.485898189001 -0.0184573982315
482243000 0.480132583536 -0.0199220658084
482253500 0.479242019365 -0.0201629542916
482264000 0.481160196493 -0.0190536108058
482274500 0.479551022315 -0.0331884893419
482285000 0.482424772172 -0.0216758377099
482295500 0.481712717786 -0.0178089924946
482306000 0.481547937115 -0.0305424626982
482316500 0.482011189756 -0.0273329806435
482327000 0.482846323626 -0.0289515055526
482337500 0.470932211573 -0.0305238527592
482348000 0.485182499396 -0.0277589487294
482358500 0.488947364538 -0.0283381309103
482369000 0.486231439193 -0.038550274788
482379500 0.481772504475 -0.037632555753
482390000 0.494717664467 -0.03461840871
482400500 0.479355308622 -0.0428831038564
482411000 0.486325111713 -0.0386977274963
482421500 0.491569855567 -0.042453927848
482432000 0.490356311997 -0.0446934845622
482442500 0.477979889181 -0.0473212656433
482453000 0.488761852605 -0.0492721342885
482463500 0.485721361109 -0.039495659108
482474000 0.474169691848 -0.0385062794697
482484500 0.479759586602 -0.0503042509232
482495000 0.491778861918 -0.0474054491069
482505500 0.496490497236 -0.0435621145498
482516000 0.493242044076 -0.045234122446
482526500 0.487245412154 -0.0578142961886
482537000 0.485175203279 -0.0544421778693
482547500 0.487380359232 -0.0509147566579
482558000 0.48160734517 -0.0596346157884
482568500 0.487209169291 -0.0533394748316
482579000 0.493569392066 -0.0633985104677
482589500 0.484276169849 -0.0662719903175
482600000 0.481750689166 -0.0621120538704
482610500 0.483293015489 -0.0829615918251
482621000 0.497300146463 -0.0714997774235
482631500 0.489047733234 -0.0656985887921
482642000 0.491653148384 -0.0740859241465
482652500 0.478136018045 -0.0735327273996
482663000 0.487415426905 -0.0729506689034
482673500 0.487649567684 -0.0832653765496
482684000 0.489613252644 -0.0756417034951
482694500 0.492705537871 -0.0800669364297
482705000 0.488674017875 -0.0772302042481
482715500 0.489111507643 -0.0890157538616
482726000 0.493086810914 -0.0732317608319
482736500 0.494128746507 -0.0839410882088
482747000 0.487748664823 -0.0898019367703
482757500 0.484010978238 -0.0838528978993
482768000 0.491813097153 -0.0824972361946
482778500 0.492951042767 -0.0877112033655
482789000 0.488038100132 -0.0894090158943
482799500 0.490256415683 -0.0878067897739
482810000 0.487180247594 -0.0921914864479
482820500 0.485527920601 -0.0971078405321
482831000 0.49039616128 -0.099940079282
482841500 0.491475204809 -0.100959545818
482852000 0.484260816145 -0.0979573045231
482862500 0.492719268668 -0.097375216421
482873000 0.490881401777 -0.102331313605
482883500 0.489287507757 -0.102570215824
482894000 0.490307222653 -0.102857244261
482904500 0.490904738649 -0.105585386369
482915000 0.489220812647 -0.108573344599
482925500 0.493040734691 -0.106402968096
482936000 0.489433770484 -0.111009100797
482946500 0.489748330996 -0.111666670489
482957000 0.48979175305 -0.113348443966
482967500 0.489685167436 -0.11571753224
482978000 0.48972937231 -0.116681518053
482988500 0.490050950168 -0.117621135677
482999000 0.489317959267 -0.119088462077
483009500 0.488759369631 -0.120648638648
483020000 0.490189468132 -0.12280282853
483030500 0.487751614536 -0.125998102202
483041000 0.489335703074 -0.124981902444
483051500 0.48822253917 -0.126407393178
483062000 0.487688961941 -0.129200797841
483072500 0.488164750324 -0.128142892471
483083000 0.488334047735 -0.131825768318
483093500 0.488542722211 -0.134944711004
483104000 0.487482584387 -0.134142543528
483114500 0.488523303762 -0.135451930939
483125000 0.488851074495 -0.135984135708
483135500 0.487571448785 -0.138545645318
483146000 0.48842014725 -0.140565357205
483156500 0.48694296598 -0.141568801395
483167000 0.484443402727 -0.143645820538
483177500 0.488957790658 -0.144394706807
483188000 0.487220680192 -0.144932935309
483198500 0.486464710997 -0.147275042339
483209000 0.486395735933 -0.149364508582
483219500 0.48609379817 -0.14773293711
483230000 0.487868415832 -0.149114574822
483240500 0.48653829566 -0.15151867802
483251000 0.485651591824 -0.153661328429
483261500 0.485057580417 -0.152306774859
483272000 0.485409473214 -0.157954513378
483282500 0.485395700569 -0.159673910617
483293000 0.486523281568 -0.1623543291
483303500 0.484960379738 -0.161980563965
483314000 0.483618277792 -0.163659511559
483324500 0.486886115401 -0.163909407246
483335000 0.484649724903 -0.167372896298
483345500 0.482864802506 -0.167052101722
483356000 0.485525651588 -0.168047840538
483366500 0.484852937978 -0.169657135007
483377000 0.484696707495 -0.168049581676
483387500 0.482544149477 -0.173138126437
483398000 0.481750976103 -0.173613923906
483408500 0.48163269331 -0.176344474855
483419000 0.4840404415 -0.179313926773
483429500 0.482130999378 -0.1814476037
483440000 0.482938692663 -0.179781226986
483450500 0.482180719747 -0.18187637152
483461000 0.481337038209 -0.182906269014
483471500 0.482437880924 -0.185108495041
483482000 0.480267022216 -0.186639929666
483492500 0.480769070554 -0.18821119887
483503000 0.479793824034 -0.18964971339
483513500 0.478404025543 -0.191308526362
483524000 0.480411973117 -0.193091129533
483534500 0.478115579928 -0.192901107447
483545000 0.479473684337 -0.195342635077
483555500 0.477640707857 -0.195977184217
483566000 0.47791700616 -0.198067255056
483576500 0.477545508637 -0.199114521448
483587000 0.477468471585 -0.201659553085
483597500 0.477394950213 -0.202627927391
483608000 0.476761869197 -0.204057215698
483618500 0.476750647956 -0.205108442105
483629000 0.476220386384 -0.206064398856
483639500 0.475699438034 -0.208213226345
483650000 0.474710645947 -0.209400039139
483660500 0.474546247939 -0.210359345672
483671000 0.474073912203 -0.212460306054
483681500 0.474180417582 -0.21363627765
483692000 0.473653128466 -0.215387381651
483702500 0.473319652119 -0.216551867502
483713000 0.472998330854 -0.218372232452
483723500 0.472171322642 -0.219343889032
483734000 0.471825678011 -0.221141667294
483744500 0.471194338187 -0.222363459832
483755000 0.470813015503 -0.223862450997
483765500 0.470575907306 -0.225446247656
483776000 0.470021952639 -0.227266120364
483786500 0.469419421994 -0.22857906919
483797000 0.469577700658 -0.229961306093
483807500 0.468985660305 -0.231515756071
483818000 0.468265052488 -0.232537023313
483828500 0.467614576824 -0.23442826393
483839000 0.46720613996 -0.235686020761
483849500 0.467220781726 -0.237199103157
483860000 0.466382127147 -0.23825108347
483870500 0.465662082416 -0.239899839979
483881000 0.46608690228 -0.242099443928
483891500 0.464957426823 -0.242824308257
483902000 0.464071625005 -0.244590157026
483912500 0.463646369536 -0.24546470973
483923000 0.463595122309 -0.246782661212
483933500 0.462885733884 -0.24818449767
483944000 0.461846246266 -0.249912785737
483954500 0.461124336615 -0.251255755612
483965000 0.461078525681 -0.252884776519
483975500 0.460911551021 -0.254038376802
483986000 0.460692416165 -0.255626867463
483996500 0.459503506343 -0.256801537648
484007000 0.459466713681 -0.258195437917
484017500 0.458603256596 -0.259642587223
484028000 0.457989063092 -0.260615821642
484038500 0.457247399441 -0.262477284624
484049000 0.456368394071 -0.263862652521
484059500 0.455797206748 -0.264240355051
484070000 0.455188876196 -0.265751898575
484080500 0.454979248019 -0.267903357723
484091000 0.454579821019 -0.27009523888
484101500 0.453710209014 -0.271359793169
484112000 0.453614473624 -0.273000179946
484122500 0.452715631377 -0.274111862656
484133000 0.451973973087 -0.275112998751
484143500 0.45156890458 -0.276293064581
484154000 0.450427023734 -0.278155920905
484164500 0.449275615474 -0.27924915254
484175000 0.449104089008 -0.281442090291
484185500 0.448320199385 -0.282339853261
484196000 0.447871029997 -0.283094283508
484206500 0.447235397136 -0.284604573978
484217000 0.446785828849 -0.285687625329
484227500 0.445933996953 -0.287563508534
484238000 0.444642646248 -0.289450779305
484248500 0.442676435516 -0.290863116001
484259000 0.44348425807 -0.291751070775
484269500 0.442252547638 -0.293230965368
484280000 0.442249951982 -0.294271229662
484290500 0.441446415649 -0.295889189873
484301000 0.440362372707 -0.297263323294
484311500 0.440359405753 -0.298710005298
484322000 0.439516299499 -0.299357471661
484332500 0.438309614022 -0.300792351531
484343000 0.437919403206 -0.303255695761
484353500 0.436234249576 -0.304189789495
484364000 0.435938355625 -0.305367431771
484374500 0.435380810573 -0.306898143526
484385000 0.434691020769 -0.307817860475
484395500 0.433793354657 -0.309019337604
484406000 0.433102430246 -0.310554845616
484416500 0.432372521079 -0.311956426854
484427000 0.431732677546 -0.313329542333
484437500 0.431431528796 -0.31483060125
484448000 0.430677492326 -0.315579543755
484458500 0.429630347628 -0.316535505275
484469000 0.428553243175 -0.318129347803
484479500 0.427802089518 -0.319340391261
484490000 0.426903308028 -0.320963088789
484500500 0.426359665513 -0.322683665472
484511000 0.425034136882 -0.324042039953
484521500 0.423850415271 -0.325212042431
484532000 0.423455677053 -0.325949481143
484542500 0.4220790593 -0.327533804226
484553000 0.422167498365 -0.329284264322
484563500 0.420798030582 -0.330705373253
484574000 0.419764617833 -0.331707792415
484584500 0.418383997559 -0.333455715091
484595000 0.41822846815 -0.334438872431
484605500 0.417525151956 -0.336117335896
484616000 0.417065419298 -0.337089177772
484626500 0.415811450914 -0.338386304701
484637000 0.414629250126 -0.339724716792
484647500 0.413933960179 -0.340505309451
484658000 0.413449956457 -0.341991621234
484668500 0.413416920388 -0.3431819571
484679000 0.411143575641 -0.344817856578
484689500 0.410405009942 -0.345738113587
484700000 0.409148275986 -0.346891263763
484710500 0.408598226866 -0.347734998766
484721000 0.407586963162 -0.349647654861
484731500 0.406471043596 -0.350683361293
484742000 0.405598645272 -0.351765989149
484752500 0.405026947889 -0.352909056953
484763000 0.403678286589 -0.35493536852
484773500 0.402337117353 -0.356473093326
484784000 0.401199880201 -0.357587264606
484794500 0.400530337142 -0.358816775816
484805000 0.399426567866 -0.360088812998
484815500 0.399122823407 -0.361007844811
484826000 0.398397519068 -0.36200602776
484836500 0.397605897852 -0.363159673503
484847000 0.396697430695 -0.363464091545
484857500 0.395887623978 -0.36624292895
484868000 0.394966412886 -0.367303505235
484878500 0.393728038032 -0.368233227688
484889000 0.392678181699 -0.369572328595
484899500 0.391770680971 -0.370581109624
484910000 0.390972970105 -0.371969271754
484920500 0.389779248323 -0.372705861526
484931000 0.388459339823 -0.373944805073
484941500 0.386940918023 -0.375242501854
484952000 0.386143786166 -0.376910729784
484962500 0.384692388278 -0.378409999555
484973000 0.384378348233 -0.379206339058
484983500 0.383973952803 -0.38048435327
484994000 0.382301567053 -0.381565237198
485004500 0.380781207786 -0.382786406906
485015000 0.378620090972 -0.383894567717
485025500 0.378135645769 -0.385356046634
485036000 0.377896906863 -0.386217571867
485046500 0.37702841159 -0.387539791111
485057000 0.375361945015 -0.388266325842
485067500 0.374090557797 -0.389503294466
485078000 0.372517767683 -0.390610068677
485088500 0.371457988435 -0.392517935195
485099000 0.370586386232 -0.39461225506
485109500 0.369229171435 -0.395818997909
485120000 0.367278906475 -0.396054518083
485130500 0.367294512196 -0.396794649966
485141000 0.366338177189 -0.397999877208
485151500 0.364972494468 -0.398931271983
485162000 0.363916331504 -0.400163001796
485172500 0.363075327219 -0.400964353053
485183000 0.361446879344 -0.401946484531
485193500 0.360886728626 -0.403318303058
485204000 0.359540974147 -0.404039096537
485214500 0.3582355926 -0.40525097743
485225000 0.35723657439 -0.406625954584
485235500 0.356184050564 -0.408127530615
485246000 0.355221845083 -0.409079033281
485256500 0.353969545081 -0.410084032615
485267000 0.352789722763 -0.411353202903
485277500 0.351071009542 -0.411824959086
485288000 0.350045848267 -0.413364456828
485298500 0.348964378234 -0.414758123342
485309000 0.347888775028 -0.415895660086
485319500 0.346588545775 -0.416297249285
485330000 0.345212255215 -0.417580031575
485340500 0.344471583876 -0.418579806241
485351000 0.342563689715 -0.419689725946
485361500 0.341634556424 -0.420789351089
485372000 0.340548237215 -0.421797254655
485382500 0.339427745889 -0.422771507716
485393000 0.338185000228 -0.423843152453
485403500 0.336601665135 -0.42470806072
485414000 0.33565317028 -0.42562888696
485424500 0.333749099414 -0.427099633532
485435000 0.333189495531 -0.427124263328
485445500 0.331813341911 -0.427322519752
485456000 0.33238915972 -0.431308144112
485466500 0.330769057811 -0.433860653879
485477000 0.327068606465 -0.43211175939
485487500 0.325061194998 -0.432421272327
485498000 0.322859639908 -0.432569702217
485508500 0.32246848552 -0.434119576166
485519000 0.322674315912 -0.438246063111
485529500 0.31884791515 -0.438394982606
485540000 0.3191235685 -0.440849695662
485550500 0.319243109444 -0.437976003396
485561000 0.316727702593 -0.439209255238
485571500 0.316559980751 -0.441365260431
485582000 0.314472094577 -0.441944137529
485592500 0.313626308733 -0.4427561577
485603000 0.31345969579 -0.441100085439
485613500 0.312345390158 -0.442967427666
485624000 0.311684670215 -0.445119269346
485634500 0.309210471559 -0.448091312894
485645000 0.307352631472 -0.450307304283
485655500 0.304842360051 -0.444127395071
485666000 0.301551849928 -0.447056714547
485676500 0.304991207677 -0.45073083893
485687000 0.301603893043 -0.451660642814
485697500 0.297717024895 -0.452140941822
485708000 0.297778445889 -0.454398318854
485718500 0.297156391262 -0.452840791246
485729000 0.295153086685 -0.451488022948
485739500 0.292776812687 -0.458209534493
485750000 0.290416705364 -0.457700686213
485760500 0.290364378098 -0.45610276438
485771000 0.290227786187 -0.458162475346
485781500 0.286785817748 -0.458344107497
485792000 0.288527510488 -0.457496170676
485802500 0.28605277955 -0.460466356441
485813000 0.283795747256 -0.46070741552
485823500 0.282120742789 -0.462353192489
485834000 0.280258636051 -0.462986634287
485844500 0.28018627782 -0.464575147226
485855000 0.280879637427 -0.464529966187
485865500 0.276745756518 -0.464160081522
485876000 0.273301336227 -0.46674592352
485886500 0.275294506568 -0.467121059441
485897000 0.273555602788 -0.467609088381
485907500 0.271314097427 -0.468424900268
485918000 0.269920008002 -0.469906845634
485928500 0.267442336721 -0.470674304642
485939000 0.266399334324 -0.471657186275
485949500 0.264630815007 -0.472696064693
485960000 0.263411168541 -0.473371181521
485970500 0.262330650614 -0.474263174827
485981000 0.260843101625 -0.475079308403
485991500 0.259142138828 -0.475487537621
486002000 0.258009218231 -0.476351956178
486012500 0.256824128358 -0.477821419982
486023000 0.255607876435 -0.477647573457
486033500 0.255451285784 -0.479790694976
486044000 0.252362347088 -0.479763068216
486054500 0.253402970187 -0.479677796344
486065000 0.249233005788 -0.481258964811
486075500 0.242690467839 -0.47956559392
486086000 0.244308493695 -0.481487566654
486096500 0.243967636323 -0.481931300894
486107000 0.245783761501 -0.48444589001
486117500 0.242070328738 -0.484705137191
486128000 0.242195402285 -0.486518076488
486138500 0.238278504308 -0.487071264298
486149000 0.23750251591 -0.485813583955
486159500 0.235337485873 -0.487208329683
486170000 0.229638681986 -0.490658143063
486180500 0.22298986043 -0.4809367434
486191000 0.229982674532 -0.488419823202
486201500 0.22377994857 -0.494865051198
486212000 0.221242371085 -0.486855841392
486222500 0.227395309118 -0.487909247574
486233000 0.226461234677 -0.488946080255
486243500 0.222709838176 -0.49209290658
486254000 0.216596888108 -0.491925530461
486264500 0.220505368953 -0.493480743717
486275000 0.22081820926 -0.487219277364
486285500 0.217422809686 -0.491887932788
486296000 0.214310710552 -0.492362858372
486306500 0.213715903905 -0.495434577902
486317000 0.212155156408 -0.493846569789
486327500 0.204705043281 -0.503169024564
486338000 0.206768876685 -0.509779236702
486348500 0.20129387973 -0.499276107184
486359000 0.204208983677 -0.499748881875
486369500 0.19839288317 -0.500584677724
486380000 0.202869476627 -0.489606835186
486390500 0.196505392931 -0.493328897301
486401000 0.208197629689 -0.493364241664
486411500 0.19891437234 -0.50856883956
486422000 0.200266242287 -0.505890326237
486432500 0.238073752182 -0.528169004977
486443000 0.191945342345 -0.507962678469
486453500 0.18807159084 -0.504508979904
486464000 0.186448859265 -0.500062379572
486474500 0.18697536769 -0.504553329809
486485000 0.181439396299 -0.500975784868
486495500 0.177026337754 -0.514451350515
486506000 0.189013444389 -0.500929739953
486516500 0.178572347291 -0.512674081632
486527000 0.170429621874 -0.500079605284
486537500 0.18299771561 -0.512273498633
486548000 0.173158453939 -0.504663863204
486558500 0.190203407862 -0.510304195262
486569000 0.17877070375 -0.519037382702
486579500 0.178467347699 -0.505157452902
486590000 0.167827511665 -0.510968196077
486600500 0.169479322832 -0.503768920352
486611000 0.168767151023 -0.514071538437
486621500 0.163418472269 -0.511300904794
486632000 0.1683615887 -0.510375613526
486642500 0.168651405244 -0.512129092226
486653000 0.164791156542 -0.500419587219
486663500 0.158311529422 -0.511577791873
486674000 0.15980841826 -0.508150016124
486684500 0.147857144354 -0.51382175277
486695000 0.152788292974 -0.512373411692
486705500 0.15208679477 -0.513912322047
486716000 0.150156994721 -0.512259775472
486726500 0.155475277168 -0.509955335868
486737000 0.144057170294 -0.513174349971
486747500 0.144550085089 -0.514138051545
486758000 0.143472157919 -0.51469134365
486768500 0.141613580416 -0.514661697395
486779000 0.139419895093 -0.516433955482
486789500 0.140084995234 -0.505583718694
486800000 0.135847305257 -0.516973778982
486810500 0.1321189522 -0.513698970436
486821000 0.133225503275 -0.520355876484
486831500 0.130420174277 -0.516671089669
486842000 0.128923975549 -0.517299461347
486852500 0.127341124063 -0.517392499631
486863000 0.131512029975 -0.514987770183
486873500 0.12464996757 -0.517797569843
486884000 0.122585380122 -0.518147540698
486894500 0.120620429468 -0.517967037676
486905000 0.119103876504 -0.517861943485
486915500 0.117278967379 -0.517940382408
486926000 0.115482251337 -0.518299287802
486936500 0.113696901941 -0.519681094772
486947000 0.111768026873 -0.51968217708
486957500 0.109967983723 -0.519053412446
486968000 0.108890763583 -0.518595468024
486978500 0.107126099102 -0.518872892813
486989000 0.105336339784 -0.519227558328
486999500 0.103563334587 -0.519323456613
487010000 0.101886080175 -0.519239206014
487020500 0.100651648443 -0.520182366572
487031000 0.0984518467085 -0.520078211094
487041500 0.0974284326439 -0.520122420256
487052000 0.0949025908061 -0.520189855643
487062500 0.092927390466 -0.520349821997
487073000 0.0914394304581 -0.520736467916
487083500 0.0907059636161 -0.52150116164
487094000 0.08811996884 -0.521558227165
487104500 0.0856485428976 -0.520870447077
487115000 0.0843772421906 -0.521054850858
487125500 0.0826238656043 -0.520829877612
487136000 0.0808967662769 -0.520273936003
487146500 0.079619076158 -0.520772963613
487157000 0.0783032250188 -0.521403399784
487167500 0.0780917735039 -0.521361580178
487178000 0.0755571645461 -0.521348321709
487188500 0.0732001958338 -0.5203502556
487199000 0.0713499369479 -0.522849654925
487209500 0.0710662395557 -0.520552068949
487220000 0.0689406686448 -0.521574526134
487230500 0.0666097535004 -0.523015958562
487241000 0.0649370066293 -0.521961500053
487251500 0.0613960483253 -0.520883087334
487262000 0.0592905257221 -0.520319124866
487272500 0.058363517638 -0.52011512909
487283000 0.0575411129801 -0.520575688665
487293500 0.055405193482 -0.521252145386
487304000 0.0535901144569 -0.520922590779
487314500 0.0510415837521 -0.519829507106
487325000 0.048975951817 -0.519983732989
487335500 0.0480238953477 -0.521420882809
487346000 0.0460889009967 -0.520894374152
487356500 0.0451960749106 -0.521521541543
487367000 0.0445566627238 -0.519797088278
487377500 0.0413316621822 -0.519764842176
487388000 0.0420987286935 -0.520150923163
487398500 0.0376423622932 -0.520202548599
487409000 0.0364153759129 -0.520687896391
487419500 0.0345141926634 -0.518826419126
487430000 0.0291837313759 -0.522962531781
487440500 0.0307162063832 -0.520232175677
487451000 0.0281577871384 -0.520169647283
487461500 0.0281948708952 -0.518961260456
487472000 0.0236603648564 -0.522847704409
487482500 0.0212550259323 -0.523154423707
487493000 0.00203592390991 -0.516524017973
487503500 0.0204422237417 -0.518583841165
487514000 0.018678591282 -0.516439496769
487524500 0.0187638960432 -0.515984021132
487535000 0.016012331359 -0.517201237161
487545500 0.0139559888773 -0.517970804654
487556000 0.0123835747798 -0.518080405937
487566500 0.0100112173821 -0.517611166056
487577000 0.00804973660311 -0.517031522027
487587500 0.00697743188611 -0.516564025995
487598000 0.00539032413318 -0.516655249955
487608500 0.00316082812999 -0.516074682329
487619000 0.00135843572593 -0.516104237923
487629500 -0.000513671222619 -0.515906938343
487640000 -0.00237264736525 -0.515711871709
487650500 -0.00380327844708 -0.515058114463
487661000 -0.00540598137749 -0.514935847252
487671500 -0.00690803261951 -0.51465693435
487682000 -0.0087208417777 -0.513863995077
487692500 -0.0104312419302 -0.513439905486
487703000 -0.0125240094313 -0.513265782207
487713500 -0.0144453233535 -0.513154082747
487724000 -0.0158447027798 -0.512790482954
487734500 -0.0172695469618 -0.512261162946
487745000 -0.0184779081586 -0.511917814545
487755500 -0.0203785474381 -0.511727479532
487766000 -0.0227688709981 -0.511089484564
487776500 -0.0247485494347 -0.510785153372
487787000 -0.0260800004237 -0.510706176224
487797500 -0.0272720197972 -0.510329983292
487808000 -0.0287306024866 -0.510239817547
487818500 -0.0303109562904 -0.509639939716
487829000 -0.0324239069777 -0.509190854111
487839500 -0.0342227940256 -0.508537512767
487850000 -0.0359822550513 -0.508606046398
487860500 -0.0376258194036 -0.508424904805
487871000 -0.0393537348182 -0.507819894089
487881500 -0.041260182999 -0.506964906051
487892000 -0.0431032501936 -0.506265273285
487902500 -0.0444748743914 -0.506339250424
487913000 -0.0458110583316 -0.50566763198
487923500 -0.0474711408518 -0.50511210043
487934000 -0.0493942396907 -0.504384705404
487944500 -0.051192767394 -0.503766792525
487955000 -0.0529025644549 -0.502860127487
487965500 -0.0546680479151 -0.502913414973
487976000 -0.0562539616892 -0.502501712239
487986500 -0.0575719714549 -0.501907284148
487997000 -0.0594017251312 -0.501215243773
488007500 -0.0609711215222 -0.50021779328
488018000 -0.0627540377914 -0.49987870839
488028500 -0.064796259298 -0.499408698608
488039000 -0.0662880691285 -0.498797966069
488049500 -0.0675850156426 -0.498303701229
488060000 -0.0691454052671 -0.497851590184
488070500 -0.0708518866791 -0.497269228754
488081000 -0.0726961339024 -0.496828739823
488091500 -0.0747261999966 -0.495903014652
488102000 -0.0764063239863 -0.495626165688
488112500 -0.0774087013171 -0.495091408105
488123000 -0.0792101164791 -0.494651006028
488133500 -0.0807926859453 -0.494205393665
488144000 -0.0825448285424 -0.493060450061
488154500 -0.0838393538377 -0.492545292672
488165000 -0.0855754068714 -0.492356168452
488175500 -0.0869720400112 -0.492045022875
488186000 -0.0891496069156 -0.491380619918
488196500 -0.0911399414979 -0.490093988871
488207000 -0.0928144304233 -0.489159541353
488217500 -0.0941957619165 -0.488641710688
488228000 -0.0961237166759 -0.488142997591
488238500 -0.0969782685828 -0.487356741641
488249000 -0.0986915769582 -0.486544641504
488259500 -0.100604958133 -0.485936149906
488270000 -0.102426703709 -0.485133609131
488280500 -0.103776128601 -0.48448197529
488291000 -0.105868073326 -0.483884646873
488301500 -0.107603267956 -0.482731151464
488312000 -0.108357990996 -0.482046943951
488322500 -0.110230891998 -0.481113339937
488333000 -0.111775861849 -0.480240326553
488343500 -0.113127008477 -0.479209324718
488354000 -0.114773269949 -0.478653984348
488364500 -0.116191049429 -0.477492144636
488375000 -0.117992565018 -0.476925801356
488385500 -0.119520082367 -0.476483090465
488396000 -0.120586917634 -0.475679379077
488406500 -0.122119521105 -0.474735965352
488417000 -0.123954925064 -0.473863652305
488427500 -0.125250612533 -0.473117957736
488438000 -0.126820852591 -0.472455135135
488448500 -0.128593654015 -0.47180328804
488459000 -0.130355912515 -0.471239653086
488469500 -0.131959765113 -0.470609997229
488480000 -0.13311363808 -0.469762827975
488490500 -0.134297472756 -0.468820427899
488501000 -0.136152748621 -0.467914694773
488511500 -0.137718262368 -0.466831576302
488522000 -0.139208424381 -0.465520077222
488532500 -0.140785351241 -0.465187994182
488543000 -0.142334506613 -0.464127896123
488553500 -0.143942790537 -0.463527626797
488564000 -0.145245113602 -0.462377558454
488574500 -0.146934509111 -0.46180665988
488585000 -0.148405498741 -0.460612934322
488595500 -0.149584920705 -0.459798408273
488606000 -0.150984792258 -0.458301865951
488616500 -0.152359560512 -0.457323372042
488627000 -0.153785232835 -0.456758298428
488637500 -0.155654169773 -0.455775503011
488648000 -0.157151804469 -0.45492346716
488658500 -0.158819932246 -0.454050651446
488669000 -0.160746992894 -0.452986005432
488679500 -0.161743249509 -0.4521301453
488690000 -0.162961875307 -0.451148013126
488700500 -0.164363815606 -0.450225472346
488711000 -0.166018736278 -0.449416360628
488721500 -0.167889546301 -0.448433665856
488732000 -0.168957725621 -0.447109161619
488742500 -0.170730398902 -0.446398310685
488753000 -0.172216272701 -0.444982445205
488763500 -0.173517203219 -0.44421271982
488774000 -0.174865278421 -0.443281168573
488784500 -0.176189785344 -0.442069011523
488795000 -0.177288906543 -0.441293274118
488805500 -0.178633607245 -0.440132151122
488816000 -0.179702510751 -0.439206179221
488826500 -0.181110814953 -0.437853403854
488837000 -0.182749786158 -0.437017744963
488847500 -0.184341660761 -0.435764393403
488858000 -0.185584169605 -0.434861927933
488868500 -0.187067451725 -0.433565515268
488879000 -0.188812687597 -0.432312020592
488889500 -0.189967301564 -0.43134972103
488900000 -0.191489149092 -0.430240794077
488910500 -0.19286531105 -0.428982332553
488921000 -0.193594578275 -0.427961282006
488931500 -0.195013482555 -0.427056409323
488942000 -0.19632241319 -0.425803532031
488952500 -0.197860412539 -0.424968689476
488963000 -0.199503996833 -0.423702369572
488973500 -0.20119828797 -0.422668720902
488984000 -0.202614167406 -0.421523635624
488994500 -0.203578664941 -0.420253721243
489005000 -0.204851063828 -0.419146264828
489015500 -0.206029902002 -0.417889903487
489026000 -0.20693163357 -0.416676234503
489036500 -0.207856114277 -0.415606765525
489047000 -0.209206402535 -0.414399938628
489057500 -0.210963037661 -0.413584120579
489068000 -0.211911278298 -0.412396926109
489078500 -0.213566088603 -0.411180451684
489089000 -0.214867645905 -0.410040734882
489099500 -0.216479829422 -0.408872526496
489110000 -0.217320633649 -0.407727181373
489120500 -0.218412399586 -0.406557624801
489131000 -0.219132453214 -0.405552640689
489141500 -0.220678903528 -0.404030638512
489152000 -0.222331080091 -0.402795822785
489162500 -0.223481502922 -0.401299157585
489173000 -0.224519215885 -0.400296624183
489183500 -0.226129506069 -0.399280327666
489194000 -0.227521993144 -0.397839634564
489204500 -0.228893062467 -0.396422155233
489215000 -0.230265006297 -0.395355891207
489225500 -0.231567102222 -0.394275046143
489236000 -0.2324143081 -0.392921123691
489246500 -0.233213382343 -0.39179279225
489257000 -0.234575413143 -0.390489297682
489267500 -0.235336161303 -0.389307062921
489278000 -0.236468942162 -0.388197374428
489288500 -0.237896825068 -0.386901478911
489299000 -0.239231221192 -0.385569454125
489309500 -0.240467541105 -0.38412581778
489320000 -0.241840476874 -0.383037805057
489330500 -0.24324980195 -0.38192710541
489341000 -0.244308460464 -0.380349316523
489351500 -0.245187157142 -0.378867237261
489362000 -0.24638680529 -0.377566576552
489372500 -0.247452850709 -0.376501932843
489383000 -0.248577487106 -0.374898371213
489393500 -0.24970311271 -0.374065998326
489404000 -0.250829299964 -0.372839826371
489414500 -0.252059880917 -0.370999785026
489425000 -0.252698216268 -0.369664399616
489435500 -0.253595704449 -0.368370444402
489446000 -0.255367174214 -0.366479431394
489456500 -0.254790394582 -0.36601794155
489467000 -0.257993806384 -0.364058970086
489477500 -0.257345130127 -0.362370220614
489488000 -0.258248029364 -0.36237095124
489498500 -0.259256467247 -0.362042830726
489509000 -0.261354395794 -0.359792070839
489519500 -0.26339894596 -0.357292134409
489530000 -0.26429891767 -0.356468342003
489540500 -0.266052661203 -0.353781465096
489551000 -0.266401482698 -0.353036360042
489561500 -0.267539614839 -0.352188926569
489572000 -0.268455497455 -0.351166901932
489582500 -0.268941072641 -0.347745466872
489593000 -0.271055223088 -0.348254683857
489603500 -0.271429716371 -0.346866030603
489614000 -0.272025547452 -0.346400580416
489624500 -0.272399163227 -0.342424960644
489635000 -0.272428863801 -0.341472301083
489645500 -0.273780542296 -0.342296148669
489656000 -0.276259941841 -0.34041773453
489666500 -0.278136972136 -0.336767744889
489677000 -0.276896198304 -0.33590035377
489687500 -0.277992190444 -0.335546275334
489698000 -0.278094951025 -0.333858634425
489708500 -0.27845728161 -0.33100328204
489719000 -0.279626176543 -0.329929177654
489729500 -0.281606839977 -0.329013354582
489740000 -0.282724068601 -0.326849451999
489750500 -0.282310818026 -0.325723593439
489761000 -0.285219717331 -0.325445479911
489771500 -0.285078798804 -0.322627654314
489782000 -0.287813425794 -0.323464472851
489792500 -0.28671888796 -0.319800236569
489803000 -0.286519164335 -0.319641760837
489813500 -0.289939527224 -0.317290200857
489824000 -0.288329773415 -0.315006371472
489834500 -0.290568040823 -0.315806584468
489845000 -0.292398090654 -0.313069852503
489855500 -0.292537079708 -0.312094436441
489866000 -0.291838427463 -0.310752826014
489876500 -0.293420982948 -0.309141061418
489887000 -0.2944645256 -0.30893087284
489897500 -0.295223692392 -0.306547818851
489908000 -0.295463626263 -0.304280084675
489918500 -0.296891146698 -0.302096708505
489929000 -0.297944363834 -0.30174126894
489939500 -0.298874439611 -0.300248104832
489950000 -0.299790426943 -0.299112058045
489960500 -0.301627479651 -0.295622019445
489971000 -0.301640026716 -0.294506150322
489981500 -0.302130473329 -0.293480198942
489992000 -0.302900958133 -0.291896375659
490002500 -0.303449001388 -0.290503206171
490013000 -0.304196767584 -0.289153918847
490023500 -0.304969108513 -0.287531252509
490034000 -0.30568220894 -0.286333163891
490044500 -0.306087077265 -0.284850791685
490055000 -0.30678979992 -0.283669317335
490065500 -0.307777862614 -0.281538672045
490076000 -0.308446396376 -0.28009804553
490086500 -0.309318012258 -0.278004025555
490097000 -0.310103994439 -0.276770438465
490107500 -0.310584630005 -0.275153489497
490118000 -0.31159612131 -0.274327424321
490128500 -0.312366540955 -0.271986659744
490139000 -0.313139342841 -0.270702990841
490149500 -0.314144228285 -0.268268949309
490160000 -0.314067456346 -0.268009030614
490170500 -0.314729607905 -0.265908283503
490181000 -0.315425740911 -0.264921274719
490191500 -0.315112333024 -0.263081584415
490202000 -0.316710344871 -0.261485092917
490212500 -0.317466557466 -0.259860790391
490223000 -0.317619930431 -0.26020007615
490233500 -0.31822230114 -0.256481025687
490244000 -0.319304220298 -0.255704202917
490254500 -0.319378302525 -0.251348195728
490265000 -0.320164385591 -0.251734634199
490275500 -0.31778760701 -0.247244218956
490286000 -0.321243832059 -0.24707373334
490296500 -0.322498273601 -0.247793733206
490307000 -0.322885614452 -0.245502153139
490317500 -0.325978307236 -0.242244443479
490328000 -0.324353164276 -0.241229077722
490338500 -0.32267329301 -0.240284425933
490349000 -0.323293062162 -0.238523056276
490359500 -0.325383681091 -0.238169000257
490370000 -0.330432912948 -0.22822206779
490380500 -0.333237728289 -0.237805189444
490391000 -0.318558731762 -0.230854923522
490401500 -0.327026928083 -0.226396751239
490412000 -0.328752418105 -0.2302254182
490422500 -0.326684879438 -0.221850638281
490433000 -0.325473273386 -0.225013457282
490443500 -0.330723018534 -0.220392136415
490454000 -0.330189908179 -0.22532770241
490464500 -0.325966107173 -0.221136145984
490475000 -0.32758916251 -0.223290306441
490485500 -0.330473080365 -0.219655360196
490496000 -0.328359171571 -0.217968411128
490506500 -0.329062852548 -0.212620067738
490517000 -0.340816207876 -0.214676085731
490527500 -0.326086574581 -0.215468639743
490538000 -0.327572689605 -0.207092269528
490548500 -0.338889055286 -0.204000880484
490559000 -0.330764748987 -0.208339062297
490569500 -0.334817112017 -0.202384240096
490580000 -0.332199318401 -0.20837807512
490590500 -0.336558611557 -0.203611720825
490601000 -0.336331215153 -0.201623122908
490611500 -0.332212204704 -0.20191020209
490622000 -0.335464829092 -0.199772234251
490632500 -0.336311255051 -0.199229671913
490643000 -0.340641815917 -0.194124125504
490653500 -0.337471757596 -0.191517374281
490664000 -0.33751255739 -0.190806118928
490674500 -0.338955881915 -0.188456757999
490685000 -0.337476622552 -0.188862252583
490695500 -0.336239566006 -0.185524228648
490706000 -0.337151996281 -0.184294125393
490716500 -0.339759502526 -0.183970888556
490727000 -0.341061030044 -0.182505010751
490737500 -0.343593994444 -0.182264412925
490748000 -0.341764089334 -0.179447610883
490758500 -0.340242527909 -0.177221546825
490769000 -0.340437052026 -0.17505672264
490779500 -0.340477183718 -0.173519388507
490790000 -0.340899525418 -0.171878163843
490800500 -0.34108110226 -0.170635272779
490811000 -0.341187538744 -0.169127359763
490821500 -0.341953271102 -0.167067250105
490832000 -0.342183567629 -0.165087417927
490842500 -0.34197701649 -0.163127357802
490853000 -0.342140172823 -0.162127424089
490863500 -0.342605909303 -0.160636479075
490874000 -0.342513169573 -0.159438464982
490884500 -0.343131296059 -0.157634885111
490895000 -0.342926622385 -0.156050352104
490905500 -0.343257642167 -0.154032793095
490916000 -0.34323315714 -0.152296118376
490926500 -0.34332836222 -0.151157411946
490937000 -0.343690142259 -0.149399611362
490947500 -0.343495206146 -0.147779947648
490958000 -0.343923411217 -0.145866664384
490968500 -0.344244920965 -0.144415362044
490979000 -0.344223033515 -0.14273388508
490989500 -0.344097457969 -0.140910474868
491000000 -0.343947774726 -0.139283472675
491010500 -0.344828062003 -0.137687323324
491021000 -0.344472132283 -0.136656470289
491031500 -0.344917023381 -0.134450665279
491042000 -0.34464198232 -0.133045383131
491052500 -0.345521420718 -0.133051739291
491063000 -0.34535339372 -0.130276900981
491073500 -0.344728757171 -0.128294170873
491084000 -0.345510597471 -0.127274543632
491094500 -0.34634676873 -0.125918000849
491105000 -0.344824412341 -0.122797471496
491115500 -0.345226784056 -0.121479846358
491126000 -0.345915657994 -0.121252461059
491136500 -0.345712834066 -0.118692135698
491147000 -0.346040762785 -0.116472274216
491157500 -0.346009763547 -0.115935692711
491168000 -0.346212620257 -0.11396390808
491178500 -0.345662138029 -0.113201242095
491189000 -0.345161924478 -0.111169267189
491199500 -0.345482377488 -0.109084285619
491210000 -0.345617160694 -0.108496088816
491220500 -0.345326826059 -0.106256465416
491231000 -0.345469324764 -0.10468208903
491241500 -0.345456629635 -0.102363917162
491252000 -0.345551679895 -0.101543059914
491262500 -0.34593242583 -0.0998166315697
491273000 -0.345654456557 -0.0974651683355
491283500 -0.346226855512 -0.0970431059365
491294000 -0.346045414664 -0.0950227336236
491304500 -0.345240726866 -0.0936486103321
491315000 -0.346184915816 -0.0911787163648
491325500 -0.344844466759 -0.0903374822997
491336000 -0.345275939468 -0.087403923348
491346500 -0.344436571288 -0.0870913388307
491357000 -0.343939671985 -0.0856976599071
491367500 -0.34469377856 -0.0842192590319
491378000 -0.344617185657 -0.081924464253
491388500 -0.344051947855 -0.0814430645615
491399000 -0.344819569659 -0.0798383383224
491409500 -0.345056895972 -0.0776324862724
491420000 -0.343913158206 -0.0761866399555
491430500 -0.343873291321 -0.0743070903823
491441000 -0.343313962939 -0.0720936393843
491451500 -0.343991003292 -0.070806548508
491462000 -0.343406179858 -0.0697473618181
491472500 -0.343452832253 -0.0683226567963
491483000 -0.343834286314 -0.0662292705983
491493500 -0.342647965374 -0.0646016083248
491504000 -0.343302045545 -0.0633777216508
491514500 -0.342490402667 -0.0611269818229
491525000 -0.342867991898 -0.0602605336844
491535500 -0.342838326528 -0.058550605264
491546000 -0.342307925128 -0.0567363692713
491556500 -0.342023224635 -0.0554446775318
491567000 -0.34220089218 -0.054139130114
491577500 -0.341499381035 -0.0521305876734
491588000 -0.341376555932 -0.0503180320745
491598500 -0.340954108006 -0.0490503600345
491609000 -0.340847629363 -0.0476659580579
491619500 -0.340552667685 -0.0462238686854
491630000 -0.340391857726 -0.0447968317994
491640500 -0.340090551805 -0.0430950516797
491651000 -0.339670423987 -0.0414586770118
491661500 -0.339583284219 -0.0400087286113
491672000 -0.339107438293 -0.0385121690529
491682500 -0.339085586282 -0.0370800213386
491693000 -0.338665978603 -0.0354929004158
491703500 -0.338444682148 -0.0339678302555
491714000 -0.337783218013 -0.0329899009333
491724500 -0.338188339259 -0.0308321496421
491735000 -0.337583042416 -0.0297967901392
491745500 -0.337376184198 -0.029009705486
491756000 -0.336877690764 -0.0268293855228
491766500 -0.336488044076 -0.0250980308067
491777000 -0.336339847252 -0.0235843202092
491787500 -0.335977688549 -0.0222551356563
491798000 -0.335380673814 -0.0208936136239
491808500 -0.335054130516 -0.0190294565334
491819000 -0.334912685517 -0.0171272507064
491829500 -0.334581546398 -0.0151974306722
491840000 -0.334455507871 -0.0140527405168
491850500 -0.334223337941 -0.0124671649573
491861000 -0.333896605061 -0.0113053081293
491871500 -0.333289587742 -0.00942140291173
491882000 -0.332905295514 -0.00858527886809
491892500 -0.332395827127 -0.00674561004197
491903000 -0.331970966015 -0.00531756564657
491913500 -0.331160816948 -0.00399020267858
491924000 -0.331083650038 -0.00214739435274
491934500 -0.330869920899 -0.000671701341889
491945000 -0.330151263094 0.000716322442636
491955500 -0.329993302639 0.00205122974183
491966000 -0.32921706683 0.003565111221
491976500 -0.328551354561 0.00494802717558
491987000 -0.328539280522 0.00651344365437
491997500 -0.328251435493 0.00783067264956
492008000 -0.328303068002 0.00951479932004
492018500 -0.327336134426 0.0107692794693
492029000 -0.326846193353 0.012313913886
492039500 -0.326490223644 0.0135277214058
492050000 -0.32579291758 0.0150208233226
492060500 -0.325174824096 0.0167407589932
492071000 -0.324494262078 0.0181773296254
492081500 -0.324229894447 0.019393528409
492092000 -0.323983507241 0.0210897601536
492102500 -0.323604747732 0.0224590737125
492113000 -0.323604640232 0.0239184605826
492123500 -0.323125376617 0.0252858088107
492134000 -0.322591505884 0.0263156850687
492144500 -0.32179069657 0.0282005303602
492155000 -0.321128983112 0.0293774239862
492165500 -0.320643702813 0.0307773489951
492176000 -0.319975681411 0.031864351707
492186500 -0.320010233379 0.0334976927021
492197000 -0.319538332132 0.0350949240954
492207500 -0.318903286914 0.0364372227717
492218000 -0.318192805475 0.0378193329317
492228500 -0.317446021598 0.0393704067675
492239000 -0.316820856467 0.0408253006356
492249500 -0.316426758742 0.0420263577389
492260000 -0.315859307904 0.043337886597
492270500 -0.315531996827 0.0450660212083
492281000 -0.314902135521 0.0463004065464
492291500 -0.314468027535 0.047689751477
492302000 -0.313430555941 0.0488406203076
492312500 -0.312746431487 0.0503672628767
492323000 -0.312207879227 0.0517483666775
492333500 -0.31177876511 0.0532865916562
492344000 -0.311415874597 0.0547579373477
492354500 -0.310723292595 0.0561572880401
492365000 -0.30993462676 0.0573507579394
492375500 -0.309593105654 0.0589201875993
492386000 -0.308745424643 0.0600654606499
492396500 -0.308087339895 0.0617055112243
492407000 -0.307770444252 0.0632721670001
492417500 -0.306844580093 0.0646817530807
492428000 -0.306344214207 0.0656201005871
492438500 -0.305491345745 0.0669342964422
492449000 -0.305065121929 0.0684608798555
492459500 -0.304355150202 0.0696917173158
492470000 -0.303765026577 0.0708675585007
492480500 -0.302986689828 0.0723092941677
492491000 -0.30241723768 0.0734039315977
492501500 -0.301858475758 0.0745442222246
492512000 -0.301297143808 0.0763412033041
492522500 -0.300627820176 0.0774183868955
492533000 -0.299967224753 0.0789173816455
492543500 -0.298889219623 0.0805275659599
492554000 -0.298296690949 0.0816503892828
492564500 -0.297502651333 0.082469354543
492575000 -0.297010968467 0.083878428367
492585500 -0.296378434161 0.0850896560116
492596000 -0.295899045211 0.0867371977862
492606500 -0.295090694536 0.0875713311557
492617000 -0.294717308024 0.0896684724523
492627500 -0.293506278474 0.0904200559527
492638000 -0.292672910723 0.091858285308
492648500 -0.291845144824 0.0931471904808
492659000 -0.291118860919 0.0943290055896
492669500 -0.290472071554 0.0955921504137
492680000 -0.289847504609 0.0968942363684
492690500 -0.289173030032 0.0979887095967
492701000 -0.288165805007 0.0991680916781
492711500 -0.287571910011 0.100253546466
492722000 -0.287009603748 0.101641308858
492732500 -0.286413903389 0.102984978308
492743000 -0.285474638826 0.10436999513
492753500 -0.284489076724 0.105852158198
492764000 -0.283740815678 0.106996789675
492774500 -0.282904641569 0.108030571352
492785000 -0.28225911514 0.109376658689
492795500 -0.281616492711 0.11100116586
492806000 -0.280959983262 0.111809809364
492816500 -0.280089251873 0.113318464875
492827000 -0.279352558458 0.114628167525
492837500 -0.278371222071 0.11573932895
492848000 -0.277552796571 0.116769063967
492858500 -0.276728569866 0.11826144251
492869000 -0.275680839349 0.119467715386
492879500 -0.274933841201 0.120946621659
492890000 -0.274353222265 0.122309587742
492900500 -0.273465977632 0.123301606936
492911000 -0.272993332267 0.124551630142
492921500 -0.272149913153 0.125786226903
492932000 -0.270989005156 0.126996106254
492942500 -0.270144311842 0.128311978012
492953000 -0.269250099976 0.129401886193
492963500 -0.268526426837 0.130314675671
492974000 -0.267726910129 0.131476115164
492984500 -0.267086460414 0.13241920489
492995000 -0.266265002174 0.133406975298
493005500 -0.265362535176 0.134347121785
493016000 -0.26463810761 0.135455715275
493026500 -0.263347105866 0.136906753887
493037000 -0.26266159478 0.137989318958
493047500 -0.26161965025 0.139023869708
493058000 -0.260776510513 0.140502166922
493068500 -0.259745916499 0.141274794337
493079000 -0.259134258244 0.142540677983
493089500 -0.25833525259 0.143765677251
493100000 -0.257572998044 0.144926975729
493110500 -0.256824106894 0.146026573275
493121000 -0.255594689975 0.147352061475
493131500 -0.254652537953 0.148501246016
493142000 -0.254008916321 0.14944834685
493152500 -0.253081944139 0.150571635859
493163000 -0.252020844613 0.151647071225
493173500 -0.251229207468 0.152628001976
493184000 -0.250352187489 0.153692127688
493194500 -0.249383545638 0.155089951692
493205000 -0.248341110766 0.15596155818
493215500 -0.247819797623 0.157007063289
493226000 -0.24660357482 0.158061555524
493236500 -0.245469082714 0.159208999536
493247000 -0.244983591359 0.160195734777
493257500 -0.243390249736 0.161151055568
493268000 -0.242456487991 0.16223505235
493278500 -0.241717127572 0.163276110907
493289000 -0.240702051915 0.164570635857
493299500 -0.239921630162 0.165794173577
493310000 -0.239313771909 0.166671238177
493320500 -0.238344682322 0.167851259032
493331000 -0.237197819671 0.169071768512
493341500 -0.236178883401 0.170024608791
493352000 -0.234957623985 0.171003444825
493362500 -0.234214015447 0.17195171739
493373000 -0.233570358026 0.172979250611
493383500 -0.232595590721 0.173556342758
493394000 -0.231831014718 0.174848815598
493404500 -0.230844981679 0.175822117333
493415000 -0.22976682382 0.177010282064
493425500 -0.228533330082 0.177849303236
493436000 -0.22721235564 0.178477448191
493446500 -0.226065891406 0.17975718899
493457000 -0.226128591352 0.180663967167
493467500 -0.224659943446 0.182038224374
493478000 -0.223181906828 0.1823996563
493488500 -0.222717026664 0.183715276662
493499000 -0.222127193524 0.185291970972
493509500 -0.22111277334 0.186011158473
493520000 -0.219613704866 0.186708247107
493530500 -0.218614826868 0.187940106008
493541000 -0.217634756112 0.188998347281
493551500 -0.21666544776 0.189770780031
493562000 -0.216398360299 0.190415472583
493572500 -0.214806958631 0.191361109568
493583000 -0.214034452 0.192472490234
493593500 -0.212485678604 0.1933942086
493604000 -0.210526240919 0.194625723236
493614500 -0.209119565776 0.194828346079
493625000 -0.209554540094 0.195080468481
493635500 -0.208240702401 0.196924393625
493646000 -0.207855275933 0.198464700683
493656500 -0.206499078591 0.199298797976
493667000 -0.205374315868 0.199949956442
493677500 -0.203802439424 0.20105401113
493688000 -0.204025889026 0.202265993596
493698500 -0.203593468007 0.20268071391
493709000 -0.201545360001 0.20421536922
493719500 -0.200752862205 0.205886740375
493730000 -0.199200150074 0.20546676257
493740500 -0.198326467125 0.20632888641
493751000 -0.197137286806 0.207997854854
493761500 -0.196286646425 0.208084940903
493772000 -0.195186300902 0.208448009504
493782500 -0.193795651108 0.208894995683
493793000 -0.19306004867 0.210646680737
493803500 -0.192461512123 0.211598608321
493814000 -0.190941108017 0.211347630147
493824500 -0.189446224712 0.213246365459
493835000 -0.188625725022 0.213987472097
493845500 -0.18793618558 0.215755195328
493856000 -0.185930460026 0.215879560499
493866500 -0.185285569942 0.216067953211
493877000 -0.184144387214 0.217778162114
493887500 -0.183164204161 0.218477431861
493898000 -0.182401554497 0.219057289891
493908500 -0.180908412005 0.220094766462
493919000 -0.179621437227 0.220815495411
493929500 -0.178433326033 0.222204122937
493940000 -0.177236086333 0.222204482538
493950500 -0.176532523149 0.22317709051
493961000 -0.175535947226 0.224007710329
493971500 -0.173680946281 0.224594647922
493982000 -0.172204026634 0.22597395
493992500 -0.171453549615 0.22617110806
494003000 -0.170477399115 0.225811029129
494013500 -0.170009188134 0.227547364771
494024000 -0.169220764322 0.229308056989
494034500 -0.168246846132 0.229814671346
494045000 -0.166439782413 0.229778610164
494055500 -0.165355806918 0.23139739022
494066000 -0.163071593128 0.231562192482
494076500 -0.163357056899 0.232991789781
494087000 -0.163635862255 0.232095575567
494097500 -0.161319272516 0.231844163084
494108000 -0.159067823035 0.234000797679
494118500 -0.158447732332 0.236789879503
494129000 -0.157904971893 0.236154810914
494139500 -0.154231797066 0.2368311333
494150000 -0.15562070959 0.238299957748
494160500 -0.154324974605 0.238166826984
494171000 -0.15323020181 0.238831078484
494181500 -0.152498046291 0.239265470453
494192000 -0.150678682039 0.239669957992
494202500 -0.149975977629 0.240889801021
494213000 -0.148681979759 0.243185873745
494223500 -0.146985222112 0.242152062523
494234000 -0.146145579449 0.243552009208
494244500 -0.145058267322 0.244114837738
494255000 -0.144827856135 0.244392123152
494265500 -0.141116652294 0.246729925003
494276000 -0.143131206537 0.24624805588
494286500 -0.139953475031 0.246822353574
494297000 -0.138705771811 0.248141542608
494307500 -0.138872972637 0.24717071249
494318000 -0.137707165969 0.252717304899
494328500 -0.136312207251 0.248650704111
494339000 -0.139050438564 0.243814244166
494349500 -0.129914768571 0.246999322354
494360000 -0.130557670557 0.249924278487
494370500 -0.131965690152 0.255417066519
494381000 -0.128606073694 0.251208770622
494391500 -0.126366598082 0.252154466212
494402000 -0.127343035057 0.249690976676
494412500 -0.127611636632 0.250963780917
494423000 -0.12371975383 0.25362095557
494433500 -0.12038350083 0.257612738504
494444000 -0.117483770693 0.252465081972
494454500 -0.128991436089 0.258843707201
494465000 -0.121082820795 0.254463782931
494475500 -0.116084733358 0.258565912047
494486000 -0.120855240489 0.262747131518
494496500 -0.114711307267 0.255582052658
494507000 -0.115536910315 0.257919467424
494517500 -0.115225397017 0.261981107817
494528000 -0.115754769337 0.263628292612
494538500 -0.106131549029 0.260942682832
494549000 -0.104112707706 0.267117122647
494559500 -0.10665282725 0.26504179652
494570000 -0.110005602887 0.266777021
494580500 -0.100462979097 0.260995491048
494591000 -0.104087806447 0.265168868325
494601500 -0.104795226246 0.263598779428
494612000 -0.107056286995 0.26634231061
494622500 -0.104995812048 0.265216586826
494633000 -0.101471445636 0.265365389435
494643500 -0.100833117563 0.264670512888
494654000 -0.098320743751 0.271680732395
494664500 -0.0974548162759 0.271543287234
494675000 -0.0959551031802 0.269961379032
494685500 -0.0961707907136 0.268597298239
494696000 -0.0951855721712 0.271013789423
494706500 -0.0939929755128 0.272315312896
494717000 -0.0948745992903 0.270526085894
494727500 -0.0912645719776 0.268924256343
494738000 -0.0878874173994 0.27293771718
494748500 -0.0921495005568 0.274902765338
494759000 -0.0870189563335 0.27151551887
494769500 -0.0854492293362 0.273365653862
494780000 -0.0843445663792 0.275619802554
494790500 -0.0836397777725 0.275137396809
494801000 -0.0829540785503 0.275819189087
494811500 -0.0813357531468 0.276557359859
494822000 -0.0816695150752 0.276067662505
494832500 -0.0787868627892 0.274779119812
494843000 -0.078438232664 0.276918261778
494853500 -0.076008252961 0.277774380754
494864000 -0.0734811154901 0.278416229702
494874500 -0.0730212562926 0.279439585428
494885000 -0.0721670472773 0.279081926068
494895500 -0.0713041442254 0.279310439704
494906000 -0.0704181895801 0.279621872406
494916500 -0.0690328741918 0.280369892785
494927000 -0.067635879601 0.280607174854
494937500 -0.0663180993907 0.280835405868
494948000 -0.0649468253402 0.281914589271
494958500 -0.0630105988138 0.282121108293
494969000 -0.0623040202314 0.282375222837
494979500 -0.0613280196896 0.283780913122
494990000 -0.0602848974431 0.283871874733
495000500 -0.0580845583963 0.284298851649
495011000 -0.0574343054982 0.284889328123
495021500 -0.0566604427867 0.284831813657
495032000 -0.054664135539 0.285207776103
495042500 -0.0537510451199 0.285640366663
495053000 -0.0524271846328 0.285947387137
495063500 -0.0509464631618 0.284687023087
495074000 -0.0497271929169 0.286150208972
495084500 -0.0488238334789 0.287653600598
495095000 -0.0471323753818 0.28737668168
495105500 -0.0470563968416 0.287922648358
495116000 -0.0451713033943 0.288956086548
495126500 -0.0442994472064 0.288208554466
495137000 -0.0424544194733 0.288638898397
495147500 -0.0414798918478 0.289541192088
495158000 -0.0408567396229 0.289692019758
495168500 -0.0388403264654 0.290953519538
495179000 -0.0372542585817 0.290138379544
495189500 -0.037258718093 0.291213064127
495200000 -0.0349187758399 0.290843890246
495210500 -0.0330437773076 0.291193533296
495221000 -0.0326947815215 0.291714310895
495231500 -0.0317617808126 0.293558477609
495242000 -0.0314149134637 0.290519428796
495252500 -0.0286899942376 0.290751600372
495263000 -0.027267782278 0.292659456834
495273500 -0.0261803254312 0.292858377463
495284000 -0.0245067281256 0.293862813987
495294500 -0.0238559658478 0.295423636136
495305000 -0.023416781708 0.293142674143
495315500 -0.0216587095515 0.294545288315
495326000 -0.0211086392741 0.294416616836
495336500 -0.0188868494546 0.294966825825
495347000 -0.0186551900759 0.294072756823
495357500 -0.0176544093504 0.296276902959
495368000 -0.0151738820661 0.294685412257
495378500 -0.0147129341765 0.297422172682
495389000 -0.0131423894845 0.296772176052
495399500 -0.00929291723959 0.296151437461
495410000 -0.00929565539568 0.29625071351
495420500 -0.00725846160751 0.296907304892
495431000 -0.00721679618083 0.296914257688
495441500 -0.00757024885165 0.297743198262
495452000 -0.00561643583948 0.298003120151
495462500 -0.00461675819374 0.297350333014
495473000 -0.00130045561429 0.298454121603
495483500 -0.000488531024646 0.299237070398
495494000 0.000207972779923 0.299681303724
495504500 0.00222207599109 0.298829304248
495515000 0.00267693660083 0.298152336874
495525500 0.00274050996653 0.299286180907
495536000 0.00462327299991 0.300352433259
495546500 0.00644024200431 0.299939333648
495557000 0.00769228126831 0.300245880865
495567500 0.00908029261854 0.300129399294
495578000 0.0101312493408 0.300149397702
495588500 0.011529588838 0.300155876469
495599000 0.013013694953 0.300091870001
495609500 0.0146588230267 0.300127758545
495620000 0.0157151470074 0.300294632055
495630500 0.0167865219024 0.300682427363
495641000 0.0180754966687 0.300805244344
495651500 0.0190484445106 0.30101158717
495662000 0.02053088 0.301403389228
495672500 0.0216447001696 0.30151237035
495683000 0.0231195514807 0.301496802123
495693500 0.0245865009941 0.301937625877
495704000 0.0255673792821 0.302082502653
495714500 0.0269785401347 0.3022254485
495725000 0.0282616012344 0.302298086501
495735500 0.0295595719695 0.302734579363
495746000 0.031069774329 0.3028108453
495756500 0.0319783911178 0.302633857949
495767000 0.0335455676816 0.302768558783
495777500 0.034562684727 0.302683589358
495788000 0.0358260215054 0.303053752924
495798500 0.0371636979981 0.303157735107
495809000 0.0384955340644 0.303003267631
495819500 0.0397943345257 0.30297402058
495830000 0.0409685886322 0.302849406415
495840500 0.0422917186257 0.30326115993
495851000 0.0437693560172 0.303469449272
495861500 0.0450307796253 0.303399201781
495872000 0.0461631053416 0.303589836752
495882500 0.0473074170323 0.303727330743
495893000 0.0484833342616 0.303803910157
495903500 0.0499225889386 0.303790671699
495914000 0.0516081805933 0.304025456248
495924500 0.0525529236246 0.303890027717
495935000 0.0539699676333 0.303785126264
495945500 0.0548039746929 0.303988050053
495956000 0.0561410733276 0.303809538133
495966500 0.0574045805025 0.303804779367
495977000 0.0584064108169 0.304070100589
495987500 0.0599773614535 0.304186334981
495998000 0.0612868381723 0.304068484904
496008500 0.0626711235707 0.304345318227
496019000 0.0641648103548 0.304533622666
496029500 0.0652556146123 0.304507333758
496040000 0.0667028710744 0.304386798736
496050500 0.0678812560335 0.304324001151
496061000 0.0689094531809 0.304138287579
496071500 0.0701672756344 0.303944070236
496082000 0.0714819946931 0.303944484583
496092500 0.0729840566424 0.303709443117
496103000 0.0742031134787 0.30399543913
496113500 0.0755127057806 0.303836750417
496124000 0.0768918725778 0.303901963003
496134500 0.077833072643 0.303689521443
496145000 0.0788578479251 0.303732818979
496155500 0.0802701921694 0.303946952405
496166000 0.0815435626659 0.304081187273
496176500 0.0823064836726 0.303936871537
496187000 0.0838452814172 0.303768010092
496197500 0.0852827943499 0.303797462356
496208000 0.0862754096183 0.303758198219
496218500 0.088027241659 0.303520948749
496229000 0.0893769510564 0.303429153401
496239500 0.0904112143156 0.303306008151
496250000 0.0915613986711 0.303264505343
496260500 0.0929509406701 0.303100155607
496271000 0.0943677600273 0.303107181453
496281500 0.0957765853783 0.303222949051
496292000 0.0970579384473 0.302982814257
496302500 0.0983524756192 0.302803325395
496313000 0.0994038408394 0.302680879281
496323500 0.100919818536 0.302859869228
496334000 0.102047093923 0.302819636545
496344500 0.103620605169 0.302715162357
496355000 0.104870956495 0.301976929221
496365500 0.106122330225 0.301638152311
496376000 0.107093292923 0.301206680867
496386500 0.108230659278 0.301414120304
496397000 0.109221088078 0.301260947051
496407500 0.110704357508 0.301355400869
496418000 0.111999811101 0.301296301003
496428500 0.113689819591 0.301366724691
496439000 0.114655771763 0.301113048394
496449500 0.115996934385 0.300783780715
496460000 0.117414836952 0.300621947098
496470500 0.118565601614 0.300569202436
496481000 0.119546412326 0.300552210135
496491500 0.120862777158 0.30001285035
496502000 0.122209887708 0.300226200528
496512500 0.123366056648 0.300255871185
496523000 0.124633164368 0.300085110153
496533500 0.125679197358 0.300179847252
496544000 0.126936324738 0.299736633194
496554500 0.128068952806 0.299681810061
496565000 0.12931862221 0.29940598453
496575500 0.130769618591 0.299304945852
496586000 0.132400633237 0.298762906879
496596500 0.133359032684 0.298180309415
496607000 0.13443993961 0.298068440889
496617500 0.135738336056 0.298083168322
496628000 0.136691226551 0.297963459789
496638500 0.137815122762 0.297637414566
496649000 0.13941102608 0.297275885385
496659500 0.140574039428 0.297001785313
496670000 0.141935285158 0.296841515957
496680500 0.143249716105 0.296692302907
496691000 0.144522079975 0.296591265832
496701500 0.145688829927 0.296338667288
496712000 0.147147164719 0.296275745457
496722500 0.14842420063 0.29603692918
496733000 0.149348995778 0.295620556619
496743500 0.150479232709 0.295186767873
496754000 0.152163045852 0.295373133752
496764500 0.153714176943 0.295159927101
496775000 0.154549775362 0.295113536211
496785500 0.156128362879 0.29474185174
496796000 0.156719290171 0.294018285677
496806500 0.158027153117 0.29344721704
496817000 0.159321303589 0.293611775161
496827500 0.160744682083 0.293119159193
496838000 0.161831617656 0.292840600129
496848500 0.163349020149 0.292777585027
496859000 0.16431937797 0.292431102975
496869500 0.165162143679 0.292239531429
496880000 0.166494940264 0.29183235919
496890500 0.167535095651 0.291227905549
496901000 0.168604876217 0.290796212948
496911500 0.169994865958 0.29057517509
496922000 0.171243965574 0.29045521591
496932500 0.172621513919 0.290064008386
496943000 0.174065798979 0.289577233665
496953500 0.175089453411 0.289222451963
496964000 0.176256545173 0.288997909515
496974500 0.177649340298 0.288230826041
496985000 0.178514547681 0.288466967829
496995500 0.179657118856 0.288067623742
497006000 0.180784827039 0.287831112722
497016500 0.18221105234 0.287584911896
497027000 0.183345686619 0.287094931724
497037500 0.18464147525 0.286520568451
497048000 0.185514915302 0.28371095694
497058500 0.186923391314 0.286021690012
497069000 0.18787700505 0.285568131207
497079500 0.188997776614 0.28536809514
497090000 0.190301828778 0.284829800455
497100500 0.191710162349 0.284272008525
497111000 0.192899464008 0.283782389311
497121500 0.194062348115 0.283784387369
497132000 0.195567836044 0.282798090893
497142500 0.196263976091 0.282397122998
497153000 0.197715266315 0.282147988253
497163500 0.198623516499 0.281861844695
497174000 0.200178224823 0.281649933084
497184500 0.201650861647 0.281185513354
497195000 0.202723873515 0.280909083683
497205500 0.204036432107 0.280735822894
497216000 0.204937127984 0.279922590831
497226500 0.206177668019 0.279177392106
497237000 0.204306451606 0.279978516458
497247500 0.20835298367 0.278553605734
497258000 0.209598758983 0.278306018855
497268500 0.21071130459 0.277930481536
497279000 0.211857906496 0.277507616992
497289500 0.212828325485 0.276560241795
497300000 0.213921678787 0.276299422881
497310500 0.215057357564 0.275993041463
497321000 0.216375328655 0.275565476403
497331500 0.217628937689 0.27530118804
497342000 0.218985252367 0.274755063911
497352500 0.220126338658 0.274136036245
497363000 0.220929141253 0.273878605564
497373500 0.221993645265 0.273383787383
497384000 0.223166644968 0.272840805976
497394500 0.224308392835 0.272292173305
497405000 0.225477335664 0.271638788946
497415500 0.226667897996 0.271108367476
497426000 0.227787693437 0.270959572057
497436500 0.228809718891 0.270413961655
497447000 0.230044360306 0.269801520066
497457500 0.23171082028 0.26931510758
497468000 0.232683558341 0.268820092335
497478500 0.233953087887 0.268180823152
497489000 0.234918842442 0.267569711333
497499500 0.235991670806 0.267429904628
497510000 0.237330647128 0.266795352877
497520500 0.238450498039 0.265965473943
497531000 0.239233299453 0.265443877109
497541500 0.241033389642 0.264980504841
497552000 0.241905886585 0.264616344731
497562500 0.242935024641 0.264035621254
497573000 0.243826251228 0.263474055834
497583500 0.244645561352 0.26277476615
497594000 0.24597148172 0.262390982065
497604500 0.247575830659 0.26208335772
497615000 0.248499764332 0.261749274411
497625500 0.249315189586 0.260605495713
497636000 0.250522625731 0.260205982109
497646500 0.251690001092 0.26001306969
497657000 0.252894792726 0.259487379521
497667500 0.254070371059 0.25928760118
497678000 0.255349181243 0.258137054849
497688500 0.256364008801 0.257233378977
497699000 0.25759098994 0.256768082408
497709500 0.258570787415 0.255900107082
497720000 0.259826089097 0.255845253994
497730500 0.260465412074 0.254890340573
497741000 0.261909525974 0.254310561453
497751500 0.262856029117 0.253786558383
497762000 0.263787712676 0.253469449128
497772500 0.26506048217 0.25234008294
497783000 0.266008032153 0.251903839447
497793500 0.267089005853 0.251026038464
497804000 0.2683596767 0.250534740938
497814500 0.269580098364 0.250069947403
497825000 0.271228585657 0.249202697144
497835500 0.272062373362 0.248589235858
497846000 0.27263516571 0.248230929629
497856500 0.27375966695 0.247333110962
497867000 0.274764834248 0.246456560503
497877500 0.276012945275 0.246019849833
497888000 0.276981633647 0.245421626559
497898500 0.277989277011 0.244915652223
497909000 0.279186513821 0.244682485966
497919500 0.280232093059 0.244267948695
497930000 0.281423314894 0.24343645207
497940500 0.282883997946 0.24260390443
497951000 0.283516752974 0.241243838926
497961500 0.284816019546 0.24078135946
497972000 0.285716913927 0.240142596775
497982500 0.28702153683 0.239569895175
497993000 0.287830200038 0.238869017271
498003500 0.289283608224 0.238346141002
498014000 0.289958838272 0.237376026789
498024500 0.291020662699 0.236937298731
498035000 0.291973757342 0.23669664173
498045500 0.292622470666 0.236099074002
498056000 0.293630240009 0.234770108452
498066500 0.294535820069 0.234073907088
498077000 0.29576076537 0.233320660444
498087500 0.296946867218 0.232678365462
498098000 0.29818795938 0.231891779479
498108500 0.298790848454 0.23142249544
498119000 0.300163522691 0.230729041675
498129500 0.301134929732 0.229879257462
498140000 0.302455709174 0.229193430968
498150500 0.302877604988 0.228400680136
498161000 0.304160895483 0.227649929776
498171500 0.304918643895 0.22721245617
498182000 0.305767980659 0.226571212701
498192500 0.307217832502 0.225669861488
498203000 0.308339893904 0.224948652817
498213500 0.309316383158 0.224304043924
498224000 0.310314294502 0.222915962425
498234500 0.311527251283 0.222255578382
498245000 0.312826183725 0.221566135197
498255500 0.313738651957 0.221116873342
498266000 0.314761483571 0.220481374565
498276500 0.316277522427 0.219755171581
498287000 0.316984863444 0.219367287172
498297500 0.317882400517 0.215889859897
498308000 0.317665129795 0.218152237984
498318500 0.329257938664 0.215751957617
498329000 0.315730276289 0.21940347646
498339500 0.315021954347 0.218283264147
498350000 0.319762910855 0.2148766868
498360500 0.323556578532 0.213618123022
498371000 0.324608702642 0.212037046318
498381500 0.325538302561 0.211242286619
498392000 0.326500125952 0.210641397118
498402500 0.327203576544 0.21036959601
498413000 0.328249359993 0.209779507852
498423500 0.328989775311 0.208694419326
498434000 0.32972600608 0.207318016409
498444500 0.33067119564 0.206920373056
498455000 0.331796984526 0.205783551325
498465500 0.332512652356 0.204768299392
498476000 0.333687445474 0.204989435402
498486500 0.334686705093 0.202332578475
498497000 0.336400262175 0.202192352059
498507500 0.337396407116 0.201132335889
498518000 0.338065944261 0.199858657922
498528500 0.340020084576 0.199520815264
498539000 0.339006077012 0.197452434913
498549500 0.340762629473 0.197723580815
498560000 0.341082797901 0.198712557753
498570500 0.341760045271 0.195521492684
498581000 0.343760131567 0.19554308806
498591500 0.346704394119 0.194981055503
498602000 0.345487863079 0.192453086605
498612500 0.345967981263 0.190829845713
498623000 0.346876572268 0.191390620687
498633500 0.348261606873 0.191987503757
498644000 0.348742587718 0.189657824357
498654500 0.349610468712 0.189660265049
498665000 0.350686251681 0.189498551105
498675500 0.351334611216 0.187781440023
498686000 0.352763765771 0.187636288748
498696500 0.355648592006 0.184492404185
498707000 0.355247322546 0.185143375168
498717500 0.354928583963 0.183179052232
498728000 0.356474171312 0.18351916315
498738500 0.35876193958 0.182006139493
498749000 0.358614373612 0.18193669288
498759500 0.358644231089 0.180433062095
498770000 0.360065305123 0.178959243158
498780500 0.361066852653 0.177554620832
498791000 0.361256420611 0.178141979678
498801500 0.362947537457 0.177131401914
498812000 0.363221249403 0.174997283375
498822500 0.363059931916 0.174309006356
498833000 0.363770561262 0.174747510513
498843500 0.366143669971 0.173399955716
498854000 0.366265177073 0.172840380226
498864500 0.366172543597 0.171366391528
498875000 0.369086416388 0.170619822047
498885500 0.369744899156 0.169695220148
498896000 0.369851852835 0.168419643688
498906500 0.370842740729 0.167438892766
498917000 0.372059028997 0.166097473882
498927500 0.372890426456 0.165705509909
498938000 0.373563704041 0.16431734279
498948500 0.374571787363 0.16401847685
498959000 0.375166367126 0.162366630309
498969500 0.375535181265 0.161300458743
498980000 0.377023325278 0.160052294171
498990500 0.377896449371 0.159398743007
499001000 0.379312377201 0.158592228754
499011500 0.379890287601 0.157288604627
499022000 0.380732808009 0.156614073302
499032500 0.382365513792 0.155684958773
499043000 0.380742132782 0.153780919995
499053500 0.38255781824 0.152972234899
499064000 0.38383853275 0.152971567386
499074500 0.384433840117 0.151362179637
499085000 0.384518031661 0.151487725284
499095500 0.385416909177 0.151380278051
499106000 0.38543596394 0.146165226126
499116500 0.387139779622 0.147452955818
499127000 0.388512624253 0.1471443378
499137500 0.385590128503 0.140447293622
499148000 0.390707644306 0.143670654571
499158500 0.394694820958 0.146932475593
499169000 0.392579556551 0.1403872902
499179500 0.393045676552 0.140970399542
499190000 0.39247103375 0.141783394945
499200500 0.393882033178 0.138658603864
499211000 0.394952139754 0.128602231883
499221500 0.397944852161 0.133871931683
499232000 0.399848253669 0.143881463638
499242500 0.397027328407 0.137130511458
499253000 0.397113422685 0.129458299893
499263500 0.394115744538 0.130541402621
499274000 0.399956166144 0.124869356485
499284500 0.405890414744 0.138582051224
499295000 0.39579672348 0.129827105704
499305500 0.399862868742 0.130985416514
499316000 0.400670348221 0.121531073255
499326500 0.407408630323 0.125650245426
499337000 0.403007064619 0.124855835255
499347500 0.409611234735 0.132223100701
499358000 0.407082461588 0.122238318248
499368500 0.409642981532 0.122334716777
499379000 0.416179745788 0.115168748585
499389500 0.403981157586 0.13220148508
499400000 0.409155364967 0.120624768765
499410500 0.406337966565 0.129044358156
499421000 0.408323064114 0.123008348113
499431500 0.40783133185 0.112103871152
499442000 0.418783217408 0.11256460234
499452500 0.410603254712 0.106634396632
499463000 0.415228093856 0.11186088711
499473500 0.412450260148 0.0992531058947
499484000 0.42000611271 0.103716341044
499494500 0.415015095985 0.109468469517
499505000 0.413390968871 0.108769919555
499515500 0.424259693931 0.111894810158
499526000 0.416908941905 0.108610413256
499536500 0.419064838517 0.102486645023
499547000 0.424622900986 0.0960003693362
499557500 0.421324963873 0.099517115073
499568000 0.419181258655 0.103359665081
499578500 0.415539954248 0.100406015035
499589000 0.416500652722 0.0924382444701
499599500 0.426380408237 0.105605217181
499610000 0.426015356549 0.0898586898169
499620500 0.426825904043 0.100115807915
499631000 0.423041823779 0.0988495617704
499641500 0.417810795852 0.0949434375384
499652000 0.407973577564 0.0926596872023
499662500 0.423687929206 0.090011198456
499673000 0.426311492046 0.0917521225773
499683500 0.413959466059 0.0948196033729
499694000 0.426307745604 0.0832434910725
499704500 0.422740739484 0.0892240341064
499715000 0.426571072589 0.0852273138788
499725500 0.429081001807 0.0777373660458
499736000 0.428274287226 0.0821762266081
499746500 0.426982180334 0.0841014312322
499757000 0.437252655461 0.0837735814902
499767500 0.428076719908 0.0855845596707
499778000 0.422091591161 0.0734100521488
499788500 0.426191251995 0.0775824577574
499799000 0.433908508681 0.0806856080575
499809500 0.43113948938 0.0746370802919
499820000 0.434688058121 0.0741887382021
499830500 0.435310578329 0.0733603461494
499841000 0.431312358154 0.0692311022595
499851500 0.432899490491 0.0717898490038
499862000 0.434830565701 0.0690097330172
499872500 0.434495529975 0.0685687524878
499883000 0.434171451503 0.0672700837594
499893500 0.436491775371 0.0648623776771
499904000 0.435831061073 0.0636280962067
499914500 0.435612782033 0.062759157086
499925000 0.437524239986 0.0620461929066
499935500 0.436740122072 0.0603498566483
499946000 0.438130036937 0.0589705425979
499956500 0.438694990543 0.0580848050531
499967000 0.439778343987 0.0557144258018
499977500 0.440388146361 0.0563653103154
499988000 0.440655013424 0.0543902490492
499998500 0.442027900427 0.0532951004633
500009000 0.441594714983 0.0514916786772
500019500 0.441788624693 0.0508843591158
500030000 0.442492458909 0.0491663169088
500040500 0.442408724674 0.048172712314
500051000 0.443170681654 0.0474802907057
500061500 0.444240623099 0.0459108444644
500072000 0.444306377452 0.0441818178586
500082500 0.444942744434 0.0431275074775
500093000 0.444605178024 0.0421931094009
500103500 0.44464003876 0.0408704778033
500114000 0.44616534938 0.0397203294045
500124500 0.446726514731 0.038676095295
500135000 0.447172798016 0.0375982555628
500145500 0.4480994236 0.0354332357399
500156000 0.448379111094 0.0346033687593
500166500 0.448578554022 0.0326392105386
500177000 0.448742620926 0.0318933424811
500187500 0.449467354301 0.0309752917315
500198000 0.448233199434 0.0304921262749
500208500 0.451003414949 0.0272094472571
500219000 0.450336688576 0.0292571663936
500229500 0.450284350822 0.0262150086594
500240000 0.450259250407 0.0250086152798
500250500 0.449732053214 0.0222876514316
500261000 0.452085127182 0.0217567392258
500271500 0.454167189547 0.0210842666731
500282000 0.453090834757 0.0205674242466
500292500 0.453862981833 0.0184578119363
500303000 0.453569280912 0.0167625280378
500313500 0.452857769634 0.0153425948009
500324000 0.452683949864 0.0148481786165
500334500 0.454239003018 0.0141325653862
500345000 0.45561685406 0.0109362968813
500355500 0.455142541118 0.0104453804101
500366000 0.457329458175 0.00825906389775
500376500 0.456040087654 0.0072356239849
500387000 0.45654887992 0.0071104049134
500397500 0.456641219945 0.00545347886006
500408000 0.455825154657 0.00437232291715
500418500 0.456703701458 0.00369049146692
500429000 0.458587822319 0.00157561372561
500439500 0.457502870264 -0.000560026597644
500450000 0.458548808263 -0.00117096841247
500460500 0.459144264116 -0.00262951714845
500471000 0.458497505078 -0.00487005683971
500481500 0.458844940587 -0.00500271830196
500492000 0.459418452701 -0.00607735332126
500502500 0.459413964906 -0.00685632442681
500513000 0.459487093049 -0.00892539980834
500523500 0.460532866681 -0.0109304251774
500534000 0.460756850338 -0.0107406788199
500544500 0.46079789153 -0.0126944088601
500555000 0.461420791671 -0.0138822370575
500565500 0.462110494616 -0.0153968823857
500576000 0.461882185222 -0.0166742445978
500586500 0.462350008751 -0.0182064311892
500597000 0.462001109037 -0.0195034448466
500607500 0.462435614037 -0.0209644175996
500618000 0.462889054437 -0.0217379218056
500628500 0.462847037438 -0.0230168375334
500639000 0.463015822959 -0.0242880116309
500649500 0.462963206573 -0.0256509047448
500660000 0.463358563591 -0.0272597708662
500670500 0.463212812326 -0.0290343727998
500681000 0.462902948612 -0.030159222089
500691500 0.463356717287 -0.0313508668071
500702000 0.464397377342 -0.0328155134714
500712500 0.464460982892 -0.0338539229405
500723000 0.4648874034 -0.034857188647
500733500 0.464853803175 -0.0369047219076
500744000 0.465403944927 -0.0384829983642
500754500 0.465601991739 -0.0394602372815
500765000 0.46557810398 -0.040957204087
500775500 0.465722199958 -0.0415901721411
500786000 0.466195016682 -0.0432242250529
500796500 0.466214109351 -0.0442244666344
500807000 0.466353424581 -0.0454665821481
500817500 0.466335761257 -0.04679282272
500828000 0.467165850185 -0.0484020089812
500838500 0.466834706825 -0.0498819606526
500849000 0.466658761813 -0.0511782420692
500859500 0.466791615268 -0.0515562321546
500870000 0.467812349322 -0.0536763002513
500880500 0.467189918571 -0.0547250828299
500891000 0.467340321238 -0.0561554176967
500901500 0.467901419084 -0.0580763895734
500912000 0.467729664733 -0.0591923382683
500922500 0.467727986481 -0.0602207664929
500933000 0.468117958488 -0.0615235481529
500943500 0.468225060949 -0.0630543677152
500954000 0.468143113705 -0.0642645563263
500964500 0.468167483765 -0.0657935284688
500975000 0.46832820941 -0.0671283038723
500985500 0.468671887306 -0.0688850487856
500996000 0.469274491122 -0.0705938180986
501006500 0.469097744175 -0.0715895989754
501017000 0.469126047996 -0.073454711977
501027500 0.469203197751 -0.0753410634778
501038000 0.469087954483 -0.075725018369
501048500 0.468656772069 -0.0768548305925
501059000 0.468937625855 -0.0775656812509
501069500 0.468656534168 -0.0792219314034
501080000 0.46832021261 -0.0808776853921
501090500 0.46828496428 -0.0819547946937
501101000 0.468973852254 -0.0839296153528
501111500 0.469339010553 -0.0855045329493
501122000 0.469254435089 -0.0863456759475
501132500 0.469458078939 -0.088144610294
501143000 0.468893218305 -0.0888484710969
501153500 0.469139661793 -0.0901405725718
501164000 0.469627635897 -0.0912295260765
501174500 0.469628241824 -0.0928300482407
501185000 0.469873091198 -0.0943684082786
501195500 0.46946723527 -0.0964171617161
501206000 0.469062833284 -0.0978320569784
501216500 0.469278162703 -0.0984587528612
501227000 0.469476390143 -0.099858216893
501237500 0.469817403822 -0.100969100781
501248000 0.469243272477 -0.102669221443
501258500 0.469383903005 -0.103643874058
501269000 0.469299365402 -0.104874502625
501279500 0.468991002136 -0.106579897957
501290000 0.468811641443 -0.108130049446
501300500 0.468765494711 -0.109551237384
501311000 0.469602173527 -0.110796789023
501321500 0.46950606133 -0.11201935332
501332000 0.469106452374 -0.113245122998
501342500 0.468628406989 -0.114361474633
501353000 0.468859953626 -0.116275749571
501363500 0.467584028684 -0.11736842575
501374000 0.468374816809 -0.118255839484
501384500 0.468290267978 -0.120659668122
501395000 0.468023845243 -0.120578594472
501405500 0.46859116047 -0.123568491905
501416000 0.466299755677 -0.123541662116
501426500 0.467910460331 -0.125351671146
501437000 0.46759496057 -0.127105529311
501447500 0.468000150533 -0.128196639506
501458000 0.467093883605 -0.129153918973
501468500 0.467253923612 -0.131358040766
501479000 0.467014553113 -0.132424716255
501489500 0.467288248706 -0.134349802745
501500000 0.46696734872 -0.135736389442
501510500 0.466631990119 -0.137254257227
501521000 0.466732215726 -0.138560870072
501531500 0.466050942695 -0.139575147332
501542000 0.466373003744 -0.141186808469
501552500 0.466587320344 -0.141489658794
501563000 0.466366361453 -0.143532606795
501573500 0.465785835793 -0.144887011099
501584000 0.465876389956 -0.146362793147
501594500 0.465334550526 -0.148273697324
501605000 0.464910216327 -0.149508031893
501615500 0.464971011396 -0.151017604886
501626000 0.464338452589 -0.151804871857
501636500 0.464426797096 -0.153610581984
501647000 0.464412329924 -0.155174802665
501657500 0.464079601745 -0.155913484841
501668000 0.463847346299 -0.157071746573
501678500 0.462732387248 -0.158767476914
501689000 0.462154831976 -0.15889816757
501699500 0.462438000406 -0.160690745096
501710000 0.463062574397 -0.1631745114
501720500 0.462786616101 -0.164508553569
501731000 0.462492010013 -0.166004117884
501741500 0.462712204568 -0.167791203252
501752000 0.46187118464 -0.168495127961
501762500 0.462093059848 -0.169960782975
501773000 0.461907327262 -0.171237810572
501783500 0.461668118554 -0.172319862688
501794000 0.461072609274 -0.17342911417
501804500 0.460624365763 -0.175197892452
501815000 0.460423235761 -0.176566571965
501825500 0.460487887654 -0.178185069504
501836000 0.460039291431 -0.17918233145
501846500 0.460243619706 -0.180796511339
501857000 0.459891930571 -0.181676320134
501867500 0.459646368771 -0.183279524331
501878000 0.459185587631 -0.184598750943
501888500 0.458778549659 -0.186152863833
501899000 0.458232066889 -0.187941997503
501909500 0.458264309162 -0.189598220409
501920000 0.457892103662 -0.190716498218
501930500 0.457326795077 -0.192035385426
501941000 0.456719138594 -0.193046399919
501951500 0.456260788568 -0.194741907398
501962000 0.455761113595 -0.195050780372
501972500 0.455297792506 -0.196665679122
501983000 0.455108099631 -0.19764666167
501993500 0.454908732441 -0.199281165308
502004000 0.454472262868 -0.201259539373
502014500 0.45418048356 -0.202459412977
502025000 0.454109609954 -0.203810136027
502035500 0.453306656377 -0.205086742423
502046000 0.452649942844 -0.205896296111
502056500 0.452273014253 -0.207337066502
502067000 0.452127919785 -0.209308334827
502077500 0.451327748738 -0.210253217339
502088000 0.451151331219 -0.21159209084
502098500 0.451261794453 -0.213291414206
502109000 0.450857192809 -0.214351912186
502119500 0.450590204264 -0.215721091256
502130000 0.449829231729 -0.217644688517
502140500 0.449144200084 -0.218454850889
502151000 0.448612176927 -0.220010190855
502161500 0.448377775534 -0.221101141762
502172000 0.447566995323 -0.222655502159
502182500 0.447417115113 -0.224423420014
502193000 0.447044590721 -0.225691158907
502203500 0.446557972921 -0.226462640198
502214000 0.445793906369 -0.228062128116
502224500 0.44515842566 -0.229260271638
502235000 0.444516932135 -0.230446740509
502245500 0.444457028413 -0.232039960234
502256000 0.443989169531 -0.233004759579
502266500 0.44408584695 -0.23427450276
502277000 0.443726159603 -0.235575590137
502287500 0.442662235456 -0.237064430319
502298000 0.441481531819 -0.238366827356
502308500 0.442134892534 -0.239525017508
502319000 0.441529087144 -0.240878637814
502329500 0.440953272176 -0.241872741527
502340000 0.440448722988 -0.243835719631
502350500 0.439939167119 -0.245637081908
502361000 0.439428037613 -0.246867719608
502371500 0.438993723414 -0.247297476039
502382000 0.438421858397 -0.248494895042
502392500 0.437630676529 -0.249896315383
502403000 0.436771115735 -0.251269350653
502413500 0.436652034672 -0.252728137952
502424000 0.436085823212 -0.254141254155
502434500 0.435151956743 -0.255963535423
502445000 0.435167779349 -0.256803627331
502455500 0.433729930514 -0.258489347542
502466000 0.433951293512 -0.25888806125
502476500 0.43287735081 -0.260498089394
502487000 0.432805142231 -0.26192887249
502497500 0.431914487245 -0.263776316933
502508000 0.43100551918 -0.265054137009
502518500 0.430515534531 -0.266030411711
502529000 0.430129634191 -0.267010757218
502539500 0.429500015888 -0.268504552319
502550000 0.428945331059 -0.269814877726
502560500 0.428345670474 -0.271387708365
502571000 0.427372797395 -0.272089365336
502581500 0.426610820285 -0.274065658209
502592000 0.426175660516 -0.275168849437
502602500 0.42543278082 -0.276429025329
502613000 0.424271876312 -0.277279582148
502623500 0.424201765085 -0.278702341839
502634000 0.423712720929 -0.280255583194
502644500 0.422911268733 -0.281304740203
502655000 0.423655312428 -0.285020835863
502665500 0.421522323397 -0.283934502299
502676000 0.420593059877 -0.285448689334
502686500 0.419787118769 -0.286331968228
502697000 0.419268870681 -0.287468941541
502707500 0.418575061047 -0.288835379375
502718000 0.417974348359 -0.290735660838
502728500 0.417122400488 -0.291729136062
502739000 0.415358501897 -0.292426064606
502749500 0.414866581015 -0.29391488074
502760000 0.414673813672 -0.295004589039
502770500 0.414015325698 -0.296305152583
502781000 0.413392737656 -0.297475681353
502791500 0.413049261413 -0.298525686902
502802000 0.411854158469 -0.300049048349
502812500 0.411100329742 -0.300920954005
502823000 0.410137847044 -0.302507103651
502833500 0.4094953187 -0.303618040811
502844000 0.408310122094 -0.305106056245
502854500 0.407371079631 -0.306552707664
502865000 0.407042304404 -0.307615361582
502875500 0.406486530572 -0.308605064806
502886000 0.405802641527 -0.310225845646
502896500 0.405011438283 -0.312545952405
502907000 0.404254906813 -0.31319926625
502917500 0.4040040526 -0.314248984607
502928000 0.402605958003 -0.315470086517
502938500 0.40105955086 -0.316502374978
502949000 0.400781521991 -0.317878581724
502959500 0.400010678145 -0.318702974902
502970000 0.399919163373 -0.319621456673
502980500 0.398864270725 -0.321228091184
502991000 0.399045534903 -0.323065905979
503001500 0.397346913717 -0.323288852405
503012000 0.396730517724 -0.325379338761
503022500 0.394496789605 -0.325597592981
503033000 0.394780534151 -0.327198965543
503043500 0.393108033499 -0.328001513093
503054000 0.392609210769 -0.328656301397
503064500 0.391961643536 -0.329688090567
503075000 0.389022338347 -0.333211708032
503085500 0.388599849299 -0.334960555534
503096000 0.385694458929 -0.332167635401
503106500 0.387938104855 -0.335800464405
503117000 0.38923827842 -0.335406908412
503127500 0.386726900587 -0.337749286275
503138000 0.386223585521 -0.33734859519
503148500 0.382928984438 -0.337849867674
503159000 0.385043044428 -0.339495444448
503169500 0.382110988564 -0.341606754049
503180000 0.377807302269 -0.341716354753
503190500 0.379550022904 -0.345542198283
503201000 0.38067204281 -0.347698873367
503211500 0.38342572784 -0.343575372503
503222000 0.374762638282 -0.348621594501
503232500 0.375717103054 -0.355975191372
503243000 0.384078473504 -0.357383064401
503253500 0.381764693207 -0.341687318611
503264000 0.37321219698 -0.353250747497
503274500 0.372266901102 -0.356479669493
503285000 0.370467178081 -0.35571834948
503295500 0.366942328366 -0.352226885688
503306000 0.372816507643 -0.356166532745
503316500 0.359439260563 -0.364571744736
503327000 0.3730416714 -0.357004541911
503337500 0.367112677242 -0.361951118483
503348000 0.364352371876 -0.361099919003
503358500 0.359783889875 -0.364838140122
503369000 0.369002397456 -0.36498366633
503379500 0.363128373265 -0.358576627365
503390000 0.35885545903 -0.364483541518
503400500 0.361322296967 -0.375770653058
503411000 0.369462762159 -0.363326078522
503421500 0.358364334188 -0.371923867086
503432000 0.355002815085 -0.365401946117
503442500 0.350658422246 -0.371991901194
503453000 0.354170738602 -0.371245051317
503463500 0.353668673145 -0.370061331602
503474000 0.349319718976 -0.370297867265
503484500 0.343853940141 -0.380292917836
503495000 0.356465139325 -0.376793565536
503505500 0.350963425706 -0.387820426367
503516000 0.347809496102 -0.382001158018
503526500 0.350727283786 -0.369631056265
503537000 0.345506719448 -0.386456212301
503547500 0.352133648882 -0.391464025389
503558000 0.348982504272 -0.383477496876
503568500 0.341597815062 -0.391559872156
503579000 0.343442975358 -0.389095894979
503589500 0.339885016302 -0.382523567231
503600000 0.335558057298 -0.380077478591
503610500 0.337122428191 -0.389562078002
503621000 0.337746305855 -0.390408829011
503631500 0.340461388784 -0.389353565762
503642000 0.337232725584 -0.400909040341
503652500 0.333812460804 -0.400144315225
503663000 0.331790854551 -0.389772172045
503673500 0.333236438799 -0.396748839495
503684000 0.332024852327 -0.399723073111
503694500 0.327262250418 -0.389467244951
503705000 0.334436836092 -0.400036593664
503715500 0.329413746336 -0.403734431689
503726000 0.331860567364 -0.393928068772
503736500 0.330539656104 -0.395367765993
503747000 0.324622851658 -0.400854507307
503757500 0.321772383133 -0.401933243515
503768000 0.323272054918 -0.403647584263
503778500 0.321728642436 -0.401566727051
503789000 0.320466771841 -0.404975606784
503799500 0.319366656815 -0.404395542377
503810000 0.314872042708 -0.405020889274
503820500 0.31512555808 -0.408091614686
503831000 0.312578261047 -0.410504635678
503841500 0.319765991495 -0.412705862127
503852000 0.313115196905 -0.409044157955
503862500 0.311821152274 -0.409668513971
503873000 0.312695624033 -0.413629493811
503883500 0.310446525329 -0.412602559364
503894000 0.308023117096 -0.41519067063
503904500 0.305975226439 -0.414398201263
503915000 0.305383946165 -0.414474632905
503925500 0.30408445463 -0.414325293114
503936000 0.302432494702 -0.416882899764
503946500 0.302745289181 -0.417982528074
503957000 0.299979231954 -0.419857496215
503967500 0.29958808627 -0.420375554793
503978000 0.298442391346 -0.421133440783
503988500 0.297421377877 -0.421980718865
503999000 0.295237207737 -0.422251926065
504009500 0.294227238692 -0.423101991172
504020000 0.293151849979 -0.42436809791
504030500 0.292119373357 -0.425383020076
504041000 0.291168569181 -0.426710808072
504051500 0.289497105706 -0.428074111944
504062000 0.287624879434 -0.427451743115
504072500 0.286870016769 -0.428892356066
504083000 0.285433975016 -0.428518897172
504093500 0.284276021527 -0.429815467165
504104000 0.282642218623 -0.430057066851
504114500 0.280998262162 -0.43121432896
504125000 0.279434220565 -0.432180047649
504135500 0.278404747625 -0.433038881988
504146000 0.277346326266 -0.433917804549
504156500 0.276069701818 -0.434396605528
504167000 0.275237941437 -0.43533727466
504177500 0.273626119098 -0.436567427227
504188000 0.27216316757 -0.436572733965
504198500 0.270716402241 -0.4374570697
504209000 0.269432168961 -0.4380543921
504219500 0.268164850049 -0.438820428308
504230000 0.267805610813 -0.440141722507
504240500 0.266040038301 -0.440180238389
504251000 0.264234223542 -0.441029982102
504261500 0.263111009104 -0.442030506303
504272000 0.261623955628 -0.443296807128
504282500 0.260149671788 -0.443610096892
504293000 0.258621022721 -0.444241018915
504303500 0.257137417402 -0.444794517034
504314000 0.256099478681 -0.445705338804
504324500 0.254393149677 -0.446349699354
504335000 0.253740458472 -0.447179623665
504345500 0.2521968543 -0.447415099715
504356000 0.250604394195 -0.448774635159
504366500 0.249301697293 -0.449394044724
504377000 0.247909465226 -0.44964214837
504387500 0.246735564985 -0.450199394008
504398000 0.244800248378 -0.450770635503
504408500 0.243745713227 -0.451709888628
504419000 0.242070092281 -0.452471885952
504429500 0.24090360911 -0.453220120716
504440000 0.239492782932 -0.454266160305
504450500 0.237645291612 -0.45537574394
504461000 0.236375612222 -0.455477934313
504471500 0.235183876478 -0.456317927167
504482000 0.233547317035 -0.457206680452
504492500 0.232361075208 -0.457930563163
504503000 0.23050828394 -0.459092129072
504513500 0.229449726926 -0.460332355129
504524000 0.227791129233 -0.459592132339
504534500 0.226461292348 -0.45984409714
504545000 0.224881727102 -0.459938607245
504555500 0.223279554283 -0.460563199377
504566000 0.222100088095 -0.460745008502
504576500 0.220396954713 -0.461402543241
504587000 0.218642050872 -0.461899792969
504597500 0.217171934222 -0.462496474687
504608000 0.215931195014 -0.463001699122
504618500 0.214741681749 -0.4631944553
504629000 0.213286758592 -0.463994675267
504639500 0.211718238506 -0.464331597529
504650000 0.210119517487 -0.464741945751
504660500 0.208993157093 -0.465777572213
504671000 0.207322696081 -0.466339543244
504681500 0.206493888706 -0.467182725076
504692000 0.2046379406 -0.467949397664
504702500 0.203113952261 -0.467738994633
504713000 0.201228387552 -0.468352163419
504723500 0.199909627828 -0.469236195081
504734000 0.19880077919 -0.4694345931
504744500 0.197310680164 -0.470165186877
504755000 0.196078750578 -0.470553271696
504765500 0.19425968463 -0.470999735564
504776000 0.192805154586 -0.471622079646
504786500 0.191222116754 -0.471970695496
504797000 0.189933613085 -0.472428691928
504807500 0.187923922411 -0.472947470946
504818000 0.186208073833 -0.473402170513
504828500 0.184622930717 -0.473964697681
504839000 0.183660451392 -0.473937406678
504849500 0.182102800031 -0.474569294448
504860000 0.180830511183 -0.474863928684
504870500 0.179065590192 -0.475425686544
504881000 0.177498516521 -0.476102820162
504891500 0.175743511446 -0.475891703664
504902000 0.174738565464 -0.475725057115
504912500 0.172719395347 -0.476826464511
504923000 0.171850581571 -0.476952691703
504933500 0.170801123875 -0.477449678585
504944000 0.169068430366 -0.477542287901
504954500 0.167182450245 -0.477730189916
504965000 0.165499663518 -0.478228382776
504975500 0.164064946024 -0.478839738228
504986000 0.163065562156 -0.478657960291
504996500 0.161190712062 -0.479857855714
505007000 0.158563439645 -0.479475211612
505017500 0.157485877029 -0.47985162023
505028000 0.155754712545 -0.479860607281
505038500 0.154872429963 -0.481525953841
505049000 0.152707201143 -0.480520845225
505059500 0.151315989024 -0.480969782684
505070000 0.150261426074 -0.481105199002
505080500 0.148812953632 -0.481576222067
505091000 0.147245721637 -0.482385126804
505101500 0.145966166246 -0.482098960037
505112000 0.143869411847 -0.482237378727
505122500 0.142789444699 -0.48256022181
505133000 0.14058917841 -0.48329723538
505143500 0.13867546869 -0.483351648738
505154000 0.137542799341 -0.483453293175
505164500 0.133558836022 -0.48251494151
505175000 0.134660841023 -0.483467505612
505185500 0.132778224495 -0.483895064623
505196000 0.13141820809 -0.483846303947
505206500 0.130256906959 -0.484120279629
505217000 0.128728059647 -0.484607907913
505227500 0.127655086371 -0.484633207537
505238000 0.125826201128 -0.484792380359
505248500 0.123874846686 -0.485059675883
505259000 0.122657166256 -0.485438449654
505269500 0.120966633526 -0.485454275559
505280000 0.119208752175 -0.485671471345
505290500 0.11787356115 -0.486246943121
505301000 0.116453135408 -0.485981330113
505311500 0.114672412494 -0.486456703744
505322000 0.113285760299 -0.486196393405
505332500 0.111542360071 -0.486375752195
505343000 0.109514179904 -0.486502390997
505353500 0.10819337751 -0.486707415607
505364000 0.106554555371 -0.486457741781
505374500 0.104893169523 -0.48669169023
505385000 0.103515689497 -0.486819635478
505395500 0.101798370247 -0.487584398159
505406000 0.100066795949 -0.487722098625
505416500 0.0984972177036 -0.487124658641
505427000 0.097744847254 -0.486587658866
505437500 0.0957585352051 -0.487191709341
505448000 0.0942416434408 -0.487097824304
505458500 0.0923043396393 -0.487080107271
505469000 0.0903421122301 -0.486998786825
505479500 0.0889148374311 -0.486959572242
505490000 0.0875564720976 -0.486756436601
505500500 0.0863960859525 -0.486823605749
505511000 0.0848073019467 -0.487315300553
505521500 0.0833523931784 -0.487498104004
505532000 0.0818161602573 -0.487285854708
505542500 0.0797499541008 -0.487781360133
505553000 0.0782479403611 -0.487644473849
505563500 0.0772321749613 -0.487742501143
505574000 0.0761053330623 -0.487415731925
505584500 0.0741482340355 -0.487323383056
505595000 0.0723393873009 -0.487023206779
505605500 0.0707610068297 -0.487040965807
505616000 0.0686364765725 -0.486922909603
505626500 0.0668638287822 -0.486919503386
505637000 0.0659061976518 -0.486704835858
505647500 0.0641182882394 -0.486868332499
505658000 0.0631173792505 -0.486430848185
505668500 0.0609180724039 -0.486960268388
505679000 0.0595350022396 -0.486868680396
505689500 0.0577991765684 -0.486997492861
505700000 0.0558960582299 -0.486553014832
505710500 0.0549224035622 -0.486858867336
505721000 0.0530713389004 -0.486626998751
505731500 0.052015062645 -0.48677816635
505742000 0.0504584617862 -0.487194909528
505752500 0.0484400418636 -0.485898858647
505763000 0.0469546423863 -0.485758141677
505773500 0.0452816886939 -0.485995999619
505784000 0.0439403899078 -0.485833734741
505794500 0.0420647058508 -0.485552246921
505805000 0.0408477155357 -0.484921345225
505815500 0.0392855765875 -0.485334876577
505826000 0.0378024086102 -0.485116936805
505836500 0.0360066316951 -0.484614375427
505847000 0.0346002765162 -0.484634106721
505857500 0.0329169705905 -0.484553266977
505868000 0.0309972402418 -0.484179458627
505878500 0.0291472431262 -0.483479669083
505889000 0.0278452586153 -0.48263525624
505899500 0.0266461549327 -0.482692792735
505910000 0.0247450156472 -0.48285267518
505920500 0.0232684952843 -0.482404784008
505931000 0.0220548646986 -0.48207232392
505941500 0.0200278612171 -0.48171411803
505952000 0.0187741142129 -0.481606665494
505962500 0.0176105590109 -0.481330932354
505973000 0.0154158005791 -0.481651750576
505983500 0.0139619094645 -0.481349873132
505994000 0.012204564317 -0.480973214689
506004500 0.0104882923738 -0.480579207564
506015000 0.00906373342244 -0.480614315069
506025500 0.00795902127151 -0.480159228454
506036000 0.00626145291557 -0.480380419838
506046500 0.00462605840993 -0.479884913466
506057000 0.00295014193364 -0.479680501168
506067500 0.00133372393277 -0.479385450196
506078000 -8.04721002682e-05 -0.478494846259
506088500 -0.00167895626788 -0.47829289853
506099000 -0.00310568673936 -0.477636488391
506109500 -0.00435488239953 -0.477526100905
506120000 -0.00588797963196 -0.476567665516
506130500 -0.00726214633339 -0.476401224038
506141000 -0.0088010793199 -0.476347731184
506151500 -0.0107266013545 -0.475976632932
506162000 -0.0122152273686 -0.47526032345
506172500 -0.0138086007559 -0.47482717644
506183000 -0.0152060885587 -0.474693565758
506193500 -0.0169895967011 -0.474146278293
506204000 -0.0186885580657 -0.473921523731
506214500 -0.0202275228558 -0.473507302559
506225000 -0.0213812834478 -0.473539686888
506235500 -0.0227242348524 -0.473202526357
506246000 -0.0241114602417 -0.472525539001
506256500 -0.0255889929118 -0.472335724123
506267000 -0.0271038308266 -0.471563025449
506277500 -0.0282474313643 -0.47126881802
506288000 -0.0298943767273 -0.470248879875
506298500 -0.0313479660541 -0.46986654915
506309000 -0.0329854658835 -0.469257072791
506319500 -0.0349517200102 -0.468526412751
506330000 -0.0365492572194 -0.468299089127
506340500 -0.0382596425448 -0.467761317204
506351000 -0.0399038180037 -0.467630206729
506361500 -0.0408476868808 -0.466900417802
506372000 -0.0422772721212 -0.466484333371
506382500 -0.0433442404245 -0.465939544616
506393000 -0.0451093205459 -0.465677416483
506403500 -0.0469224114625 -0.465068276462
506414000 -0.0481648724091 -0.46464377608
506424500 -0.0499057586984 -0.464139358004
506435000 -0.0509790439712 -0.463173079501
506445500 -0.0541838788452 -0.463745588078
506456000 -0.0551106601516 -0.461812770891
506466500 -0.0558394973203 -0.461220322309
506477000 -0.0578474988463 -0.460356892294
506487500 -0.0600882550431 -0.459710298156
506498000 -0.0604238040547 -0.460140041711
506508500 -0.0624402610023 -0.459354211992
506519000 -0.0633897517068 -0.458406931979
506529500 -0.0647942812249 -0.457654412608
506540000 -0.0667607136901 -0.45758117884
506550500 -0.0673622127473 -0.456122027887
506561000 -0.0706157082102 -0.455206785351
506571500 -0.0707825740805 -0.454226124733
506582000 -0.0718292081556 -0.45425079762
506592500 -0.0733123263126 -0.454278734902
506603000 -0.0749028427143 -0.453098761169
506613500 -0.0765764916599 -0.452284496686
506624000 -0.0781083404354 -0.451540826208
506634500 -0.0793717235793 -0.450830427127
506645000 -0.0798535210844 -0.450782708106
506655500 -0.081526238136 -0.450516088315
506666000 -0.0831100991888 -0.448965677746
506676500 -0.0827418167353 -0.44907022848
506687000 -0.0860091234369 -0.447349123712
506697500 -0.0876528233004 -0.44718571711
506708000 -0.0890354660891 -0.447294726221
506718500 -0.0892325731981 -0.445597599051
506729000 -0.0907547014828 -0.444650378375
506739500 -0.0917236986689 -0.444228646693
506750000 -0.0934895869065 -0.442509916423
506760500 -0.0965089437911 -0.443037334551
506771000 -0.0973131099921 -0.442349895639
506781500 -0.0976713968127 -0.441808687427
506792000 -0.0994865507168 -0.441553416499
506802500 -0.100924076294 -0.439508189241
506813000 -0.103250784352 -0.439358007872
506823500 -0.104221566145 -0.438584200479
506834000 -0.106105081479 -0.437914801407
506844500 -0.106629712109 -0.43698848415
506855000 -0.106895423774 -0.436017841219
506865500 -0.110093865857 -0.434843504488
506876000 -0.11062065123 -0.433783478445
506886500 -0.111817264926 -0.432635994024
506897000 -0.113398513123 -0.432618517337
506907500 -0.114825725555 -0.431430106408
506918000 -0.116429965696 -0.431312312494
506928500 -0.117053526824 -0.430578439048
506939000 -0.118769413186 -0.42955484169
506949500 -0.120214324121 -0.428436227458
506960000 -0.121696557716 -0.427688303686
506970500 -0.122519157889 -0.426533151439
506981000 -0.125224292399 -0.425486952094
506991500 -0.125015905712 -0.424816166006
507002000 -0.126983445942 -0.423449602147
507012500 -0.127895508646 -0.422745835358
507023000 -0.131346954728 -0.422615211214
507033500 -0.130302939756 -0.420999481218
507044000 -0.131656366062 -0.421147383188
507054500 -0.133460218783 -0.419247944451
507065000 -0.134513175144 -0.416511865928
507075500 -0.138957269649 -0.417368824693
507086000 -0.139537816182 -0.418612383912
507096500 -0.141476852994 -0.414995667392
507107000 -0.138077105395 -0.417705995597
507117500 -0.139857672664 -0.414602415598
507128000 -0.144311511968 -0.417638544039
507138500 -0.142744995736 -0.416698863166
507149000 -0.144691447078 -0.410162718416
507159500 -0.145795761189 -0.412515040038
507170000 -0.147928646225 -0.409087205526
507180500 -0.149592761875 -0.403257344861
507191000 -0.14899280626 -0.408492150012
507201500 -0.151846914887 -0.408547865302
507212000 -0.151006297663 -0.411384236967
507222500 -0.157236484646 -0.406201221642
507233000 -0.156992647289 -0.403435012142
507243500 -0.154689553666 -0.403744069855
507254000 -0.158503568291 -0.403159356856
507264500 -0.15908469355 -0.405383818014
507275000 -0.157882681071 -0.399115368589
507285500 -0.159882932748 -0.400689813523
507296000 -0.165449474074 -0.398026807304
507306500 -0.16571243353 -0.395746847926
507317000 -0.156601177384 -0.39854473599
507327500 -0.158692315463 -0.392164717025
507338000 -0.163335771168 -0.394861999283
507348500 -0.167722851381 -0.391419405015
507359000 -0.170262480311 -0.392802148439
507369500 -0.165303061549 -0.390830387403
507380000 -0.169560083665 -0.392113828624
507390500 -0.171529982912 -0.38240555972
507401000 -0.17381421375 -0.386336309972
507411500 -0.170476964466 -0.385679999807
507422000 -0.174743559782 -0.391046215257
507432500 -0.175346757822 -0.384443305973
507443000 -0.17739632654 -0.387506679877
507453500 -0.187739655366 -0.387210559232
507464000 -0.185886346015 -0.376775368845
507474500 -0.178219353021 -0.381391446207
507485000 -0.188354194212 -0.377304157509
507495500 -0.181587852142 -0.377425565807
507506000 -0.181656704757 -0.379300102439
507516500 -0.186283300621 -0.372950745802
507527000 -0.188755115093 -0.37409794356
507537500 -0.188104404445 -0.371741718287
507548000 -0.188728125539 -0.368813653171
507558500 -0.186446084251 -0.373300501175
507569000 -0.189265501355 -0.37438963148
507579500 -0.189737105789 -0.376387954358
507590000 -0.195214009842 -0.371468750933
507600500 -0.191239929059 -0.363874230827
507611000 -0.191192769349 -0.369665060909
507621500 -0.198067137579 -0.36655403809
507632000 -0.1983801104 -0.365377672273
507642500 -0.198811117519 -0.359973233527
507653000 -0.199244610455 -0.361731302221
507663500 -0.196064369114 -0.352946937609
507674000 -0.201759089973 -0.360626578529
507684500 -0.200577676893 -0.361093194223
507695000 -0.204140935081 -0.356103789828
507705500 -0.204463332469 -0.355173614396
507716000 -0.204983116946 -0.349355646584
507726500 -0.20596614125 -0.353444699403
507737000 -0.20952556227 -0.353450932588
507747500 -0.206546599268 -0.348872759618
507758000 -0.208146618418 -0.350565050083
507768500 -0.210304275086 -0.348537881133
507779000 -0.211563916246 -0.347767298005
507789500 -0.21214056211 -0.347433511857
507800000 -0.210104945924 -0.34228157592
507810500 -0.217133624421 -0.341362378583
507821000 -0.215121133062 -0.342229431031
507831500 -0.216078908584 -0.341106657722
507842000 -0.216737538657 -0.339960829195
507852500 -0.218985155311 -0.338631624674
507863000 -0.218772973481 -0.337874877779
507873500 -0.219933287011 -0.337573616218
507884000 -0.223140796116 -0.334832655279
507894500 -0.220727142127 -0.335379467758
507905000 -0.222766257315 -0.335322561926
507915500 -0.223668714512 -0.330654809446
507926000 -0.224595701892 -0.329736512665
507936500 -0.225312845949 -0.328468760152
507947000 -0.226305756708 -0.327485268355
507957500 -0.226622555529 -0.326171792821
507968000 -0.227540212399 -0.325322890914
507978500 -0.228701973978 -0.324087483766
507989000 -0.22926222098 -0.322475290662
507999500 -0.230436515265 -0.321844567299
508010000 -0.230964278361 -0.320285418749
508020500 -0.23221188313 -0.318565075754
508031000 -0.232861766178 -0.317602537115
508041500 -0.234267980623 -0.316677678151
508052000 -0.234762430149 -0.314897618199
508062500 -0.2357207124 -0.3138230378
508073000 -0.235876532126 -0.312170233712
508083500 -0.236814607855 -0.31090418253
508094000 -0.238155574781 -0.309503843762
508104500 -0.238891761636 -0.308439372905
508115000 -0.239947560848 -0.307236445178
508125500 -0.240829136076 -0.306435073964
508136000 -0.24124718385 -0.304577518983
508146500 -0.241605818991 -0.303120869927
508157000 -0.24159439625 -0.301123633569
508167500 -0.242945784229 -0.299959284262
508178000 -0.243762160746 -0.299556176029
508188500 -0.245722128395 -0.297774515351
508199000 -0.244379615962 -0.296624649486
508209500 -0.244992512279 -0.296282319018
508220000 -0.246917641949 -0.293595067609
508230500 -0.247933561513 -0.292890028612
508241000 -0.249069582828 -0.291793155754
508251500 -0.249748836304 -0.289244007733
508262000 -0.250606219308 -0.288247139248
508272500 -0.250500578721 -0.285608149929
508283000 -0.251826529403 -0.286226627905
508293500 -0.252313007985 -0.284571941326
508304000 -0.252168604529 -0.282719454211
508314500 -0.252953393594 -0.281536747491
508325000 -0.253148355857 -0.28132942293
508335500 -0.253581867444 -0.279112220922
508346000 -0.254499538745 -0.276996937303
508356500 -0.256133798854 -0.276956826032
508367000 -0.256345443876 -0.27598944911
508377500 -0.257761903602 -0.274582278842
508388000 -0.257360900568 -0.272517141282
508398500 -0.259093301063 -0.271934925991
508409000 -0.258650087057 -0.269583070067
508419500 -0.259821621906 -0.269173048119
508430000 -0.26026308147 -0.267265611411
508440500 -0.260892718402 -0.265617659072
508451000 -0.262161611935 -0.26436782804
508461500 -0.261788230453 -0.262875795794
508472000 -0.262620569385 -0.260932572165
508482500 -0.263620951149 -0.260162888316
508493000 -0.264396076497 -0.258433387651
508503500 -0.265683495601 -0.256942996762
508514000 -0.265315931683 -0.255165713058
508524500 -0.266421250354 -0.254180037956
508535000 -0.2664472964 -0.253360646357
508545500 -0.266912635948 -0.251532552981
508556000 -0.267466326787 -0.250502454084
508566500 -0.267877102942 -0.24896158026
508577000 -0.26865315593 -0.247394297027
508587500 -0.269073700091 -0.245928586355
508598000 -0.26955815825 -0.244641779256
508608500 -0.270237119644 -0.243559491793
508619000 -0.270900225597 -0.24183280284
508629500 -0.271390155118 -0.240760466389
508640000 -0.271836853374 -0.239345885243
508650500 -0.272420878559 -0.23809825704
508661000 -0.273054431719 -0.236542503326
508671500 -0.273358111006 -0.23503115986
508682000 -0.273689022853 -0.233998486596
508692500 -0.274040885964 -0.232374368951
508703000 -0.274557365348 -0.230679744619
508713500 -0.274915366496 -0.229103051016
508724000 -0.275446463832 -0.22799003638
508734500 -0.276086351502 -0.226536716633
508745000 -0.276350065891 -0.225098835181
508755500 -0.276444363593 -0.223604688536
508766000 -0.277279251689 -0.22199116161
508776500 -0.277739470996 -0.220403876296
508787000 -0.278470472092 -0.219517138662
508797500 -0.278783151899 -0.217885644283
508808000 -0.279464299636 -0.21612883977
508818500 -0.279808022221 -0.214665773017
508829000 -0.279980273348 -0.213467258828
508839500 -0.280004847118 -0.212034712197
508850000 -0.280689488508 -0.210503826584
508860500 -0.280724246968 -0.2089558062
508871000 -0.281819982401 -0.207804087379
508881500 -0.281948711047 -0.206360212529
508892000 -0.28209323104 -0.205199762471
508902500 -0.282716291495 -0.203616763845
508913000 -0.282882462447 -0.202232227938
508923500 -0.283399668932 -0.200995671684
508934000 -0.283881422328 -0.1997101577
508944500 -0.28393080166 -0.197798070416
508955000 -0.284281227544 -0.196309848285
508965500 -0.284064967254 -0.194901801759
508976000 -0.284544584426 -0.193809435187
508986500 -0.284921354155 -0.192405321575
508997000 -0.285437734574 -0.191035707907
509007500 -0.285656943928 -0.188945037766
509018000 -0.286093325355 -0.187715441135
509028500 -0.286352597063 -0.186304717744
509039000 -0.286102240063 -0.184512716847
509049500 -0.286593205228 -0.183358463881
509060000 -0.286843869052 -0.181864480969
509070500 -0.287406032845 -0.180843089369
509081000 -0.287599203353 -0.179480918221
509091500 -0.287941168987 -0.177656061749
509102000 -0.2881461004 -0.175870083192
509112500 -0.288100170315 -0.174176398366
509123000 -0.287906492901 -0.173195083093
509133500 -0.288302123911 -0.171828264172
509144000 -0.28944196017 -0.170813138974
509154500 -0.290101168712 -0.168381649113
509165000 -0.290084842267 -0.16902909434
509175500 -0.290190150002 -0.16578635356
509186000 -0.290075724489 -0.164467510582
509196500 -0.28988323031 -0.163814980296
509207000 -0.290019814658 -0.162027954436
509217500 -0.290628115529 -0.160832492552
509228000 -0.290819109904 -0.159120172111
509238500 -0.290822284416 -0.157977967286
509249000 -0.290761889984 -0.156105409555
509259500 -0.291061622853 -0.154836584604
509270000 -0.291536206099 -0.153112228972
509280500 -0.291194314217 -0.151553517478
509291000 -0.291683432783 -0.150090698514
509301500 -0.291899341989 -0.149018021449
509312000 -0.291874764612 -0.147745173051
509322500 -0.292283976215 -0.146425681586
509333000 -0.292028086446 -0.144703241711
509343500 -0.291921937893 -0.143517411318
509354000 -0.292001309964 -0.141756262562
509364500 -0.29177107081 -0.140259387914
509375000 -0.291995606116 -0.13890833056
509385500 -0.292244936832 -0.137273278197
509396000 -0.292492784282 -0.135477150221
509406500 -0.29277480912 -0.133810326872
509417000 -0.292467729511 -0.132993091888
509427500 -0.292619557447 -0.13155893395
509438000 -0.292726240406 -0.129825842758
509448500 -0.292977343577 -0.128335855189
509459000 -0.292850251754 -0.126719963552
509469500 -0.29297106052 -0.12534271273
509480000 -0.29274850925 -0.12390266132
509490500 -0.292731821843 -0.122884839295
509501000 -0.29270165977 -0.12107460401
509511500 -0.292863200688 -0.119668120046
509522000 -0.292696349656 -0.118181157032
509532500 -0.292722787427 -0.11656106352
509543000 -0.292946441139 -0.115234024813
509553500 -0.292888149033 -0.114138192011
509564000 -0.293153686654 -0.112704088409
509574500 -0.292846939851 -0.111437584649
509585000 -0.292925043553 -0.109820038239
509595500 -0.293027884704 -0.108465012842
509606000 -0.292780048111 -0.106847637408
509616500 -0.292683457584 -0.105296041453
509627000 -0.293056039949 -0.104055202314
509637500 -0.292776760202 -0.102496466196
509648000 -0.292536459668 -0.101341246651
509658500 -0.292296362925 -0.0997120539038
509669000 -0.292328035975 -0.0982083182494
509679500 -0.292417286913 -0.0969259689021
509690000 -0.292279666688 -0.0954115986585
509700500 -0.292066916876 -0.0939045406734
509711000 -0.292086769181 -0.0929248788224
509721500 -0.292046319581 -0.0914844627714
509732000 -0.29179475496 -0.0897236914913
509742500 -0.29166167496 -0.0884326940308
509753000 -0.291596113093 -0.0868473140332
509763500 -0.291810241028 -0.0854008628417
509774000 -0.291958377865 -0.0837018311599
509784500 -0.291048275331 -0.0827990667391
509795000 -0.290708004097 -0.0813801094365
509805500 -0.2909112786 -0.0803451867672
509816000 -0.290658535704 -0.0787322413939
509826500 -0.29056739506 -0.0775828808113
509837000 -0.290456352056 -0.0763396194099
509847500 -0.290057623904 -0.0748100978889
509858000 -0.289959477033 -0.0737163091215
509868500 -0.289990262886 -0.0720532034944
509879000 -0.289999391624 -0.0704121807377
509889500 -0.28933540687 -0.0687751145323
509900000 -0.28900104521 -0.0674255926807
509910500 -0.288990253005 -0.0660686956657
509921000 -0.288974909274 -0.0646546271198
509931500 -0.288944918214 -0.0632359350355
509942000 -0.288440784751 -0.0614851096953
509952500 -0.288677274792 -0.0604059185181
509963000 -0.288293554942 -0.0590551329756
509973500 -0.288119181567 -0.0578515925151
509984000 -0.288046888758 -0.0562176157896
509994500 -0.287644935779 -0.0552562650882
510005000 -0.287489045203 -0.0533842825945
510015500 -0.287042562461 -0.052074767873
510026000 -0.286895698973 -0.0513818730953
510036500 -0.286562750929 -0.0497443081476
510047000 -0.2860549458 -0.0483862033628
510057500 -0.285230810407 -0.0470808661087
510068000 -0.284963273512 -0.0456097804595
510078500 -0.285029179085 -0.0442413416611
510089000 -0.284768513416 -0.0425685454358
510099500 -0.284915872028 -0.0413875650905
510110000 -0.28411375687 -0.040483096192
510120500 -0.283884299392 -0.0393844913637
510131000 -0.283539921003 -0.037360566675
510141500 -0.282904441017 -0.0358421245048
510152000 -0.282978178842 -0.0346892147526
510162500 -0.282651994627 -0.0333699488139
510173000 -0.282630357428 -0.0324234894343
510183500 -0.282303650326 -0.0305067373069
510194000 -0.281840853257 -0.0290671198448
510204500 -0.281235357556 -0.0279709422911
510215000 -0.28106932109 -0.0268111247427
510225500 -0.280870291363 -0.0254292386954
510236000 -0.280625690589 -0.0240063761392
510246500 -0.280318455123 -0.0226258968817
510257000 -0.279969699554 -0.0212745599564
510267500 -0.279424888683 -0.0198277746021
510278000 -0.279024558614 -0.0187972330753
510288500 -0.278684418829 -0.017607001257
510299000 -0.278340541728 -0.0160295026788
510309500 -0.277968685525 -0.0151369537199
510320000 -0.277546458308 -0.0133639545863
510330500 -0.277488494165 -0.0120514213
510341000 -0.276739335542 -0.010534805301
510351500 -0.276494087209 -0.00947197277761
510362000 -0.275948238084 -0.00823937386005
510372500 -0.275755989955 -0.00702158330644
510383000 -0.275108492405 -0.00558732719364
510393500 -0.27452639462 -0.00408139909601
510404000 -0.274408730065 -0.00273026361126
510414500 -0.27368971319 -0.00158029823593
510425000 -0.272742283579 -0.000513025092029
510435500 -0.272184408189 0.000637566645037
510446000 -0.271948456524 0.00195102559935
510456500 -0.271603705126 0.0032692610141
510467000 -0.271130162302 0.00442560910964
510477500 -0.270930057601 0.00579813236436
510488000 -0.270323925291 0.00710726861761
510498500 -0.269670513412 0.0081069013018
510509000 -0.269547658515 0.0096636610974
510519500 -0.269115220578 0.0110744610158
510530000 -0.268519981931 0.0123116054899
510540500 -0.268322787446 0.013624086037
510551000 -0.267684186 0.014699348794
510561500 -0.267243333198 0.0159735954516
510572000 -0.266907770761 0.0172007597798
510582500 -0.266376089066 0.0185006795515
510593000 -0.265474417416 0.0199224276043
510603500 -0.264907328762 0.0210991238192
510614000 -0.264472368682 0.0222281710637
510624500 -0.264314528857 0.0232716189104
510635000 -0.263997879965 0.0247465341265
510645500 -0.263215477233 0.0257728917887
510656000 -0.262464822196 0.0268269920154
510666500 -0.262222685968 0.0283143680679
510677000 -0.261267636501 0.0292661953216
510687500 -0.261106825521 0.030627159157
510698000 -0.26034802278 0.0320498735757
510708500 -0.259829893832 0.0334191567092
510719000 -0.25938304103 0.0346982844115
510729500 -0.258717443926 0.035661155415
510740000 -0.257958871019 0.036893750046
510750500 -0.257188741436 0.037944393387
510761000 -0.25661354755 0.0394204602922
510771500 -0.256361943963 0.0403471277499
510782000 -0.256040793793 0.0417329024284
510792500 -0.254819582536 0.0426570284708
510803000 -0.254137315821 0.0442576170194
510813500 -0.253957396714 0.0452745058875
510824000 -0.25308942731 0.0461870069179
510834500 -0.252794228483 0.0476282733889
510845000 -0.25196143409 0.0488426720874
510855500 -0.251066944194 0.050094731097
510866000 -0.250414216047 0.0510551749634
510876500 -0.249849920531 0.0522024917591
510887000 -0.249145006036 0.0530892906296
510897500 -0.248485272998 0.054823391753
510908000 -0.248135624657 0.0557874683608
510918500 -0.247686172181 0.0572008446781
510929000 -0.246941927333 0.0583921955139
510939500 -0.246218475363 0.0592671286532
510950000 -0.245490100552 0.0602928522766
510960500 -0.245052491296 0.0616866776353
510971000 -0.244103549018 0.0626178188891
510981500 -0.243785180548 0.0639101855591
510992000 -0.242864703213 0.0650727468119
511002500 -0.242173803933 0.0662720938839
511013000 -0.241461420567 0.0671112662571
511023500 -0.240570880878 0.0682359820676
511034000 -0.239871481908 0.069164903723
511044500 -0.239680688146 0.070763927975
511055000 -0.23891842836 0.0717807381574
511065500 -0.238003452414 0.0729964847885
511076000 -0.237486526613 0.0739800376844
511086500 -0.236942390719 0.0749338406264
511097000 -0.236149448157 0.0762624226086
511107500 -0.235450639208 0.0770507973326
511118000 -0.234551663511 0.0782857473082
511128500 -0.233965195036 0.0793776090281
511139000 -0.233411094799 0.080199768032
511149500 -0.232755899657 0.0813882401743
511160000 -0.232015576471 0.0821719885573
511170500 -0.231458008033 0.0834595805739
511181000 -0.230563997131 0.0845581041553
511191500 -0.229789320912 0.0853251217278
511202000 -0.228818509956 0.0864614723981
511212500 -0.228323239857 0.0874397772575
511223000 -0.227560213712 0.0885959484682
511233500 -0.226906319218 0.0896420271735
511244000 -0.225904718963 0.090608251373
511254500 -0.225008603625 0.0918849399602
511265000 -0.224070269406 0.0930948296269
511275500 -0.223485884893 0.0939381029294
511286000 -0.222993852731 0.0950023482459
511296500 -0.222529172005 0.0961178526075
511307000 -0.221656613503 0.0971998465495
511317500 -0.220942435093 0.0983723556675
511328000 -0.220032888552 0.0994916610923
511338500 -0.219202056299 0.100521537488
511349000 -0.218039284973 0.101297326011
511359500 -0.21721113816 0.102303419419
511370000 -0.216692720852 0.103795964448
511380500 -0.21591600818 0.104958472803
511391000 -0.214961640292 0.105749099028
511401500 -0.214169458461 0.106551408673
511412000 -0.213298048132 0.107481944874
511422500 -0.212538244634 0.108529471431
511433000 -0.21195495736 0.109831936408
511443500 -0.212039003191 0.109655705357
511454000 -0.20960219801 0.110586732099
511464500 -0.209885055678 0.113262464235
511475000 -0.208689256591 0.112522691669
511485500 -0.208076254454 0.114935568107
511496000 -0.20712932026 0.114688188789
511506500 -0.205948822358 0.116326263226
511517000 -0.205992569015 0.11743224683
511527500 -0.205776571366 0.118683632672
511538000 -0.202617168865 0.120097895799
511548500 -0.202704876063 0.120692673996
511559000 -0.201766956112 0.121783781447
511569500 -0.202252192243 0.122939195036
511580000 -0.200954274716 0.122065752334
511590500 -0.199694751168 0.123747229733
511601000 -0.198496728971 0.124657924377
511611500 -0.197193041127 0.125597854748
511622000 -0.1973352998 0.125572807123
511632500 -0.197236654765 0.127559193558
511643000 -0.193730213705 0.128342139656
511653500 -0.194138336306 0.130079863563
511664000 -0.195049180462 0.130447449288
511674500 -0.192118023573 0.129663557304
511685000 -0.192370488395 0.133185901132
511695500 -0.190332746893 0.133334690243
511706000 -0.188381157571 0.132820255106
511716500 -0.188421041921 0.134563990765
511727000 -0.187957335808 0.13615076465
511737500 -0.187659232528 0.137347729769
511748000 -0.18714506518 0.138221049951
511758500 -0.185242811673 0.138482090904
511769000 -0.184613134662 0.13992854741
511779500 -0.183513274216 0.139965005631
511790000 -0.183140758469 0.141310994388
511800500 -0.18213989838 0.142452509692
511811000 -0.181154772007 0.143384160032
511821500 -0.17998193944 0.142620178983
511832000 -0.179636430378 0.14270909931
511842500 -0.177386691621 0.145092046545
511853000 -0.177633978275 0.145154480609
511863500 -0.176470887249 0.146945493949
511874000 -0.175653590077 0.147836326142
511884500 -0.174717892273 0.147808223158
511895000 -0.173591001966 0.14983385516
511905500 -0.172599454517 0.14997726629
511916000 -0.171279034503 0.151685148207
511926500 -0.170732419251 0.151986190819
511937000 -0.17000892334 0.153356104591
511947500 -0.169704180461 0.15291412694
511958000 -0.16776985667 0.154320041712
511968500 -0.166227665622 0.15580401092
511979000 -0.16445052729 0.157261699463
511989500 -0.164349393719 0.155760982738
512000000 -0.16345763139 0.157947033112
