! Calibrated averaged scanner-service zoom
# Hz S RI R 50
976000000 0.0756290078307 -0.465734894224
976004000 0.066423525722 -0.464680936781
976008000 0.0667734323789 -0.464183355232
976012000 0.0682947126731 -0.466257074247
976016000 0.0694706458991 -0.463136682187
976020000 0.0656141543857 -0.466893490018
976024000 0.0641871789266 -0.465164696831
976028000 0.0664026857776 -0.463846237895
976032000 0.0647840388229 -0.465355270958
976036000 0.0640837979729 -0.464987241342
976040000 0.0638334945945 -0.466201089834
976044000 0.0627104627409 -0.468048860417
976048000 0.0658183136327 -0.469460948271
976052000 0.064044344684 -0.469521265112
976056000 0.06477104822 -0.470452978132
976060000 0.0637402618175 -0.471435668961
976064000 0.0663569675611 -0.47054029136
976068000 0.0644059679725 -0.470414948531
976072000 0.0664765404792 -0.472469274318
976076000 0.0606554184095 -0.472242564011
976080000 0.0633476420632 -0.471247323421
976084000 0.0626359833038 -0.472041386924
976088000 0.0612325239818 -0.474266238952
976092000 0.0597565407432 -0.474394051227
976096000 0.0600806951713 -0.474630203065
976100000 0.0594024202752 -0.472275496434
976104000 0.0574955382454 -0.474909368452
976108000 0.0580031570595 -0.471429164148
976112000 0.0586530087551 -0.473376257405
976116000 0.0575174564475 -0.471454918881
976120000 0.055177523953 -0.474763203738
976124000 0.0536388353753 -0.472206154203
976128000 0.0560214530967 -0.474186076881
976132000 0.0566887039484 -0.473421341561
976136000 0.0576071379469 -0.477897242363
976140000 0.0568853789963 -0.475150881022
976144000 0.0555565733931 -0.479485999949
976148000 0.0556106295586 -0.47786467092
976152000 0.0523963856658 -0.47975952589
976156000 0.0518849965232 -0.479256540323
976160000 0.052849229746 -0.478555802861
976164000 0.0549963501386 -0.480228640833
976168000 0.051673418895 -0.48173454198
976172000 0.0494495235775 -0.481673619212
976176000 0.0515582875746 -0.482032809875
976180000 0.050723674228 -0.482824003387
976184000 0.0509874744971 -0.480562250999
976188000 0.04920746992 -0.48348253444
976192000 0.0513987899449 -0.483787495567
976196000 0.0506984039028 -0.4816871428
976200000 0.0477472319507 -0.48274945352
976204000 0.050581756216 -0.482153209194
976208000 0.0506447077327 -0.486411510518
976212000 0.0521143933675 -0.483684640795
976216000 0.049377719753 -0.485872770536
976220000 0.0497954287717 -0.48589052612
976224000 0.0493678964932 -0.488849783664
976228000 0.0457097920689 -0.488467153951
976232000 0.0480261248632 -0.487080908042
976236000 0.0476801553941 -0.48972797282
976240000 0.0467728641495 -0.4876400216
976244000 0.047635073623 -0.491042506432
976248000 0.0448558922448 -0.488785001852
976252000 0.0464126353801 -0.487733213024
976256000 0.0439240555797 -0.488922068794
976260000 0.0478937629414 -0.488424102657
976264000 0.0446517968265 -0.486666997494
976268000 0.0452854427319 -0.488445796053
976272000 0.0437407071251 -0.486981643524
976276000 0.0449113474214 -0.486146659744
976280000 0.0410455956245 -0.489604648763
976284000 0.0411552778237 -0.489365873879
976288000 0.0429177129873 -0.490336354013
976292000 0.0396822783982 -0.489925442662
976296000 0.0392240902943 -0.489008440574
976300000 0.0386428255457 -0.488154383708
976304000 0.0412807899146 -0.493470930251
976308000 0.0416194619916 -0.493718075901
976312000 0.0381325268384 -0.4890769563
976316000 0.040410050332 -0.491134796987
976320000 0.0371792824212 -0.490873546553
976324000 0.0388497507584 -0.491671460314
976328000 0.0390990255194 -0.491254894838
976332000 0.036073182459 -0.491329706374
976336000 0.0360429309525 -0.492515582565
976340000 0.0365895290745 -0.492242480571
976344000 0.0354652232172 -0.495348200227
976348000 0.0363772186459 -0.493589327899
976352000 0.0368926792091 -0.495565197266
976356000 0.0375347666688 -0.495687764603
976360000 0.0373682450574 -0.495919776029
976364000 0.0343562020994 -0.494411273438
976368000 0.032124571751 -0.492505924932
976372000 0.0313657717796 -0.492491380711
976376000 0.0308106035318 -0.49336948179
976380000 0.0303584459113 -0.490628502924
976384000 0.0287695086746 -0.494442706881
976388000 0.0298876129035 -0.493856151465
976392000 0.031729494113 -0.493015584321
976396000 0.0324024075068 -0.494207439272
976400000 0.0269778645723 -0.496307031072
976404000 0.0279108458384 -0.500109239076
976408000 0.0299980906116 -0.49637896021
976412000 0.0314076894195 -0.498155909035
976416000 0.0317520121406 -0.501134016354
976420000 0.0267838547302 -0.495135430825
976424000 0.0257074917983 -0.500087782822
976428000 0.0259345914739 -0.496308471831
976432000 0.0274449988076 -0.497574114267
976436000 0.0258850752703 -0.502450514559
976440000 0.0227747420625 -0.498936713692
976444000 0.0223698378502 -0.497228984116
976448000 0.0258013052647 -0.499759448532
976452000 0.0242234348241 -0.499929850648
976456000 0.023440552946 -0.503721701261
976460000 0.0250201168956 -0.501037510279
976464000 0.0268322351928 -0.502620507163
976468000 0.0263178385872 -0.502421469957
976472000 0.0245156100871 -0.501210361389
976476000 0.0241167047712 -0.500642241101
976480000 0.0250844219778 -0.502167991432
976484000 0.0232361187614 -0.502900773777
976488000 0.0245331197354 -0.502289538727
976492000 0.0205472086813 -0.499767476802
976496000 0.0222898766287 -0.501169911033
976500000 0.0231287876674 -0.503423609016
976504000 0.0206480193736 -0.506177054744
976508000 0.0201696657967 -0.505017927236
976512000 0.0193798357488 -0.505389320003
976516000 0.0197943479271 -0.504660136619
976520000 0.0191138503843 -0.502776139513
976524000 0.0197709162088 -0.501613836777
976528000 0.0163722976729 -0.506157058043
976532000 0.016799685611 -0.506977684209
976536000 0.0211031266855 -0.504745327945
976540000 0.0195223366332 -0.50639499295
976544000 0.0185722271896 -0.502919344457
976548000 0.0176179841789 -0.506224948181
976552000 0.0153574890006 -0.508172921706
976556000 0.0136557369527 -0.509949081189
976560000 0.0161501328247 -0.509351182468
976564000 0.0173481202203 -0.506537695919
976568000 0.0156250842915 -0.50834834859
976572000 0.0100555320928 -0.504946931866
976576000 0.0116996733661 -0.508090976413
976580000 0.00619163212638 -0.502876179402
976584000 0.0124730204969 -0.50761239786
976588000 0.011487925822 -0.510740359285
976592000 0.0125133509932 -0.509536893664
976596000 0.0129676169447 -0.508139563837
976600000 0.00804703292143 -0.509826677418
976604000 0.00735992862071 -0.509431646278
976608000 0.00856072300636 -0.513002960385
976612000 0.00840521096836 -0.515416964623
976616000 0.00710946380039 -0.514518779947
976620000 0.011037967118 -0.516214960571
976624000 0.00794716801181 -0.515399602276
976628000 0.00455327847943 -0.517308728992
976632000 0.0056343593633 -0.516490226065
976636000 0.00286236335406 -0.51582098814
976640000 0.00805558155607 -0.518630506314
976644000 0.00940712643147 -0.517902704282
976648000 0.0053135850017 -0.515667301318
976652000 0.00654672545209 -0.515957708784
976656000 0.00545070758203 -0.517667605533
976660000 0.00330442066643 -0.515186766136
976664000 0.00229609543781 -0.515335872402
976668000 0.000740967103844 -0.515719326397
976672000 0.0041905357469 -0.516003464928
976676000 -0.00146812857657 -0.514656775119
976680000 0.000982424286144 -0.513224028867
976684000 -8.39068129772e-05 -0.51276681742
976688000 -0.00293948502065 -0.5100449299
976692000 -0.00188674869592 -0.508552627995
976696000 -0.00190848415067 -0.510337068673
976700000 -0.00314584545228 -0.50825557802
976704000 -0.000618810857998 -0.512595561181
976708000 -0.00297486428775 -0.511959077072
976712000 -0.00551380089833 -0.514635626201
976716000 -0.0011864062503 -0.516730922048
976720000 -0.00407085735699 -0.519788043725
976724000 -0.00352956377975 -0.519497019124
976728000 -0.00324955330861 -0.519257854347
976732000 -0.00445022945145 -0.517556992599
976736000 -0.00229914615324 -0.517986286845
976740000 -0.00622637521354 -0.517900862521
976744000 -0.000508998011016 -0.518629803486
976748000 -0.00479650042842 -0.512853867384
976752000 -0.000313823825357 -0.516303658694
976756000 -0.00355871526237 -0.51629136817
976760000 -0.00138591281969 -0.514513954681
976764000 -0.00378460582098 -0.515117675496
976768000 -0.00231020191838 -0.512371654917
976772000 -0.00371852255328 -0.513250929812
976776000 -0.00531542296509 -0.511112527123
976780000 -0.00336250224537 -0.511141867447
976784000 -0.00545200532989 -0.512147614108
976788000 -0.00707946269675 -0.512934137116
976792000 -0.00706631533357 -0.515681541059
976796000 -0.00768925534581 -0.51432238728
976800000 -0.00822688697338 -0.518895498403
976804000 -0.00955872225212 -0.516170690199
976808000 -0.0104480429295 -0.518514296793
976812000 -0.00913091202484 -0.51825857109
976816000 -0.0107085135959 -0.523256967888
976820000 -0.0109251920435 -0.520379020754
976824000 -0.0107974802878 -0.519729107943
976828000 -0.0109839750679 -0.520866531073
976832000 -0.0106668027039 -0.51913851043
976836000 -0.0105435917357 -0.521694866909
976840000 -0.0127721013807 -0.521846286652
976844000 -0.0127072950615 -0.521326960809
976848000 -0.0146868342317 -0.522949320571
976852000 -0.0138500626424 -0.522187473319
976856000 -0.0131960933772 -0.521015643478
976860000 -0.0164930765243 -0.522742675758
976864000 -0.0192821617109 -0.523299935118
976868000 -0.0172313879872 -0.523178403833
976872000 -0.0206126834989 -0.523630937803
976876000 -0.0185038213088 -0.524443860883
976880000 -0.0197543573153 -0.521832695648
976884000 -0.0199772961943 -0.521776556994
976888000 -0.0214167259525 -0.525194609623
976892000 -0.0217409072019 -0.527411385051
976896000 -0.0251775500653 -0.524738018227
976900000 -0.0233760330648 -0.52500778021
976904000 -0.0236558044656 -0.525898055283
976908000 -0.0215113487481 -0.524763007959
976912000 -0.0217365527119 -0.525713577663
976916000 -0.0225624978434 -0.524123974418
976920000 -0.0211563408746 -0.527820422095
976924000 -0.023559351218 -0.524640532354
976928000 -0.0258487764567 -0.525706341402
976932000 -0.0231554382867 -0.527953013592
976936000 -0.0256085109204 -0.521593458876
976940000 -0.0247366682476 -0.525978232488
976944000 -0.0224671241182 -0.52847408089
976948000 -0.0255800185654 -0.528429108525
976952000 -0.0279181402748 -0.529183086357
976956000 -0.0247188737529 -0.52948562076
976960000 -0.0264266213733 -0.526567625192
976964000 -0.0265575524804 -0.526293183004
976968000 -0.0288683962609 -0.529903642823
976972000 -0.0283837705652 -0.529804268118
976976000 -0.0323309105743 -0.531964258113
976980000 -0.0307143868562 -0.530737601369
976984000 -0.0322429619356 -0.529668086804
976988000 -0.030239571654 -0.533263937453
976992000 -0.0344771277342 -0.531268566958
976996000 -0.0324974670059 -0.533516317177
977000000 -0.0324265996313 -0.528727504547
977004000 -0.0319469425789 -0.53080612287
977008000 -0.0316493754786 -0.529981132409
977012000 -0.0320080284107 -0.531107212669
977016000 -0.0321790412501 -0.532715943195
977020000 -0.0342453903725 -0.532945958939
977024000 -0.0325353407266 -0.530695663644
977028000 -0.0349897997086 -0.532164893462
977032000 -0.0360214754735 -0.530807235909
977036000 -0.0357008770862 -0.529312849044
977040000 -0.0359882539956 -0.531647022826
977044000 -0.037034299265 -0.531780559107
977048000 -0.0360750739338 -0.531743390607
977052000 -0.0342774650244 -0.530260319091
977056000 -0.0374688371312 -0.530048674663
977060000 -0.0347626756525 -0.529160387764
977064000 -0.0357950098778 -0.529372221185
977068000 -0.0359156161313 -0.532103520225
977072000 -0.0364036077695 -0.529975935547
977076000 -0.0383690036598 -0.530321747837
977080000 -0.0395191616135 -0.530140052334
977084000 -0.0416443177386 -0.532123531591
977088000 -0.0418254183456 -0.532822739876
977092000 -0.044469126785 -0.53210678867
977096000 -0.0414290936713 -0.533752924937
977100000 -0.0462985243121 -0.533412483192
977104000 -0.0423072864374 -0.53371212832
977108000 -0.0462823104173 -0.533531262823
977112000 -0.0481307243499 -0.53251176409
977116000 -0.0455892754279 -0.535682028869
977120000 -0.0465526765938 -0.536384605905
977124000 -0.0479329539894 -0.535082963536
977128000 -0.0460326419502 -0.532339012907
977132000 -0.0483707690511 -0.53425536375
977136000 -0.0472187249812 -0.533006508669
977140000 -0.0465624548701 -0.53315150457
977144000 -0.045042793151 -0.537445343066
977148000 -0.0497733308065 -0.535285222738
977152000 -0.0492461835699 -0.532590448993
977156000 -0.0506239430657 -0.531852877094
977160000 -0.0468787592832 -0.536689968772
977164000 -0.051911778179 -0.536115809519
977168000 -0.0492995231037 -0.538681235122
977172000 -0.0520117356812 -0.538680897733
977176000 -0.0500814837931 -0.537137127502
977180000 -0.0510776267081 -0.539977471186
977184000 -0.0480746974457 -0.538662099367
977188000 -0.0520738915804 -0.5426051246
977192000 -0.0556236463883 -0.542201431246
977196000 -0.0547561616268 -0.540631622044
977200000 -0.0510801015096 -0.54043039404
977204000 -0.0565907647447 -0.538973009173
977208000 -0.0543374065685 -0.54251320133
977212000 -0.0581895212084 -0.542684842268
977216000 -0.0594126826247 -0.538939229754
977220000 -0.0589588166232 -0.542067000373
977224000 -0.0566461907838 -0.541697542927
977228000 -0.055672526616 -0.539146729367
977232000 -0.0563598468102 -0.537305389337
977236000 -0.0560837821843 -0.539139289931
977240000 -0.0570921427764 -0.535632967851
977244000 -0.0571351087472 -0.542551862252
977248000 -0.0568131623139 -0.538976380975
977252000 -0.0573579217939 -0.540264500778
977256000 -0.0571681402225 -0.536060987625
977260000 -0.0600628135299 -0.538050550152
977264000 -0.061781861903 -0.538861686248
977268000 -0.0620668882231 -0.538556336995
977272000 -0.0597874800718 -0.539310646095
977276000 -0.0637681512551 -0.539121953094
977280000 -0.0616564974293 -0.538881508812
977284000 -0.0613291307072 -0.539984667277
977288000 -0.062253567377 -0.538463021415
977292000 -0.062902762349 -0.539221098052
977296000 -0.0637169973522 -0.536031439653
977300000 -0.0644159598841 -0.537393688603
977304000 -0.064762875544 -0.534556383745
977308000 -0.0661966650627 -0.539080004666
977312000 -0.063871853844 -0.539146274872
977316000 -0.0673956119584 -0.53907625716
977320000 -0.0663118467956 -0.53874351342
977324000 -0.0725014194028 -0.539666683499
977328000 -0.0705150219572 -0.54161355018
977332000 -0.0686790632083 -0.542357313978
977336000 -0.070162466307 -0.544412207183
977340000 -0.068293098545 -0.541288288504
977344000 -0.0691145043187 -0.544276572441
977348000 -0.0700610665658 -0.541502712545
977352000 -0.0696096827002 -0.541755123157
977356000 -0.0689885531074 -0.543215536117
977360000 -0.0698342734183 -0.542285247958
977364000 -0.0701441269506 -0.541897692501
977368000 -0.0746964261595 -0.543437749183
977372000 -0.0697692251094 -0.543970601779
977376000 -0.0720049519559 -0.54433909815
977380000 -0.0746398625396 -0.544777071223
977384000 -0.070442373586 -0.541042743333
977388000 -0.0730357703403 -0.543311193794
977392000 -0.0721334503657 -0.545116410662
977396000 -0.0740758416678 -0.545182294585
977400000 -0.0734953509297 -0.543729662838
977404000 -0.075087649861 -0.541352424789
977408000 -0.0787846969009 -0.542975114147
977412000 -0.0757264955346 -0.542923339638
977416000 -0.0721791326291 -0.545835373084
977420000 -0.0779991117353 -0.543681877172
977424000 -0.0768423428834 -0.544316181152
977428000 -0.0778987839838 -0.54446360714
977432000 -0.0762577240142 -0.544856560349
977436000 -0.0754056026418 -0.547257241891
977440000 -0.079034459425 -0.543192180936
977444000 -0.0790304190101 -0.543117926089
977448000 -0.0783471695824 -0.544803528409
977452000 -0.078206433083 -0.544032541699
977456000 -0.0800268785726 -0.54639273118
977460000 -0.0805891826384 -0.542284242054
977464000 -0.0835638446199 -0.542201585364
977468000 -0.0796170034345 -0.545312713469
977472000 -0.0834823328024 -0.541755833585
977476000 -0.0832832819691 -0.543101539681
977480000 -0.0828383174071 -0.542116657408
977484000 -0.0845717478505 -0.542987759363
977488000 -0.0847353539416 -0.543454675022
977492000 -0.0853984019414 -0.546055548301
977496000 -0.0830598913224 -0.541435562086
977500000 -0.0848109809073 -0.543049568278
977504000 -0.0847241464274 -0.546335985735
977508000 -0.0885042476548 -0.547168205366
977512000 -0.0865494282946 -0.542423190024
977516000 -0.0894343874539 -0.544386480673
977520000 -0.0887915785666 -0.544479618241
977524000 -0.0895637709022 -0.547391562168
977528000 -0.0899595729677 -0.544491756072
977532000 -0.0887468105841 -0.543524253328
977536000 -0.0909809301374 -0.543222436817
977540000 -0.0879701855208 -0.544479745742
977544000 -0.0894006245687 -0.541152913947
977548000 -0.0876760608489 -0.540915592809
977552000 -0.088643606598 -0.543591244278
977556000 -0.0887458666603 -0.542402725481
977560000 -0.0918935994237 -0.541928019326
977564000 -0.0916943944962 -0.546056169842
977568000 -0.0910938376449 -0.543779748293
977572000 -0.0926581163284 -0.542623377315
977576000 -0.0976116164825 -0.548262685836
977580000 -0.100872736 -0.546024402157
977584000 -0.100428853149 -0.544427400285
977588000 -0.098859280887 -0.547750886651
977592000 -0.103122692765 -0.544577919328
977596000 -0.0981730533993 -0.545998850499
977600000 -0.100764813664 -0.545486157418
977604000 -0.0984723362334 -0.544372280624
977608000 -0.0996734243948 -0.547490079304
977612000 -0.101835991374 -0.551328773694
977616000 -0.0999246187922 -0.549801110737
977620000 -0.100876542959 -0.549010547179
977624000 -0.097524724578 -0.547787074526
977628000 -0.10293981215 -0.547151607741
977632000 -0.104743103267 -0.545925748631
977636000 -0.101790006725 -0.547862987227
977640000 -0.107109953966 -0.543664235951
977644000 -0.106399571181 -0.545868622214
977648000 -0.107906291727 -0.547793742578
977652000 -0.107345348487 -0.543036523545
977656000 -0.10629338784 -0.54403654547
977660000 -0.108777398405 -0.547872183916
977664000 -0.106200188831 -0.543623057757
977668000 -0.110832221734 -0.550106299064
977672000 -0.112598021248 -0.549461583346
977676000 -0.107327873179 -0.550368367219
977680000 -0.109720007292 -0.550874545304
977684000 -0.111807656657 -0.548468059975
977688000 -0.106412392771 -0.546102893801
977692000 -0.110603702764 -0.549078619119
977696000 -0.110010318293 -0.549308733383
977700000 -0.108686628957 -0.546009643448
977704000 -0.107054107473 -0.542222763383
977708000 -0.108989412298 -0.54799902858
977712000 -0.110378880432 -0.544913921526
977716000 -0.109127805275 -0.545652751643
977720000 -0.108164470842 -0.553331847099
977724000 -0.111909107603 -0.550390883691
977728000 -0.112402000203 -0.549180156817
977732000 -0.111666592609 -0.550003072818
977736000 -0.114795143127 -0.553020869847
977740000 -0.110392444176 -0.551665392358
977744000 -0.109816559493 -0.551316261847
977748000 -0.114399872364 -0.549187516046
977752000 -0.117572719809 -0.546786611663
977756000 -0.117533256565 -0.545407560996
977760000 -0.112963339465 -0.544279336311
977764000 -0.1109901481 -0.54507344112
977768000 -0.113262677195 -0.544887339283
977772000 -0.116933840227 -0.545354456116
977776000 -0.116335316576 -0.546669960764
977780000 -0.11526560954 -0.550570775978
977784000 -0.114498449743 -0.550956456037
977788000 -0.114959496643 -0.550157069836
977792000 -0.116769151868 -0.551008405892
977796000 -0.118051554882 -0.548909533251
977800000 -0.11987652553 -0.553173351074
977804000 -0.118699097862 -0.548177628827
977808000 -0.120576506825 -0.545025302779
977812000 -0.118632629917 -0.551142821032
977816000 -0.120504234804 -0.545687142026
977820000 -0.12194771651 -0.545223330571
977824000 -0.125887711424 -0.544667558122
977828000 -0.125148566809 -0.545266421607
977832000 -0.124576896551 -0.547349020534
977836000 -0.128511194595 -0.548536104095
977840000 -0.124178874198 -0.550528734488
977844000 -0.125588443369 -0.543331748328
977848000 -0.127592048402 -0.552417457288
977852000 -0.13204264772 -0.550608909932
977856000 -0.127657710319 -0.549041835344
977860000 -0.138756727143 -0.554533010753
977864000 -0.132289732258 -0.550283269665
977868000 -0.130408550674 -0.547751117843
977872000 -0.129836705706 -0.548019768707
977876000 -0.129712032736 -0.548972460052
977880000 -0.133169926591 -0.548123342091
977884000 -0.13362873671 -0.546629607287
977888000 -0.13096681444 -0.549553823733
977892000 -0.131223136841 -0.547750180216
977896000 -0.128882714398 -0.546727989276
977900000 -0.130113643005 -0.546954515469
977904000 -0.134947579825 -0.545753739024
977908000 -0.132126444975 -0.545127439054
977912000 -0.134933186066 -0.543677572122
977916000 -0.130822861477 -0.548862432182
977920000 -0.133315371141 -0.546458175128
977924000 -0.136045680069 -0.548012881162
977928000 -0.135941993455 -0.545795707817
977932000 -0.134714995452 -0.550551685566
977936000 -0.137761639443 -0.547133616638
977940000 -0.135313820143 -0.54830714679
977944000 -0.139095932466 -0.550085850643
977948000 -0.133729392947 -0.5490705375
977952000 -0.137226437331 -0.548309815189
977956000 -0.134742183476 -0.549771757917
977960000 -0.140066325768 -0.551049971832
977964000 -0.137180918349 -0.554963327173
977968000 -0.13833502087 -0.552432740745
977972000 -0.13920857023 -0.551206884542
977976000 -0.137641977776 -0.550243325365
977980000 -0.139512952294 -0.551753977863
977984000 -0.139191129792 -0.54972846669
977988000 -0.140261363843 -0.551349439896
977992000 -0.136181907992 -0.550747877707
977996000 -0.138437281119 -0.546843548
978000000 -0.140020789775 -0.546853996089
978004000 -0.14100737754 -0.548881708992
978008000 -0.143114416544 -0.550584633899
978012000 -0.144590853515 -0.550693618771
978016000 -0.14557320724 -0.552684443647
978020000 -0.145290632025 -0.548629445322
978024000 -0.145400501865 -0.54581453565
978028000 -0.152136878249 -0.548115158542
978032000 -0.147937219677 -0.547345621746
978036000 -0.149960849756 -0.548720218273
978040000 -0.147357553005 -0.547661066866
978044000 -0.151716421794 -0.548460677644
978048000 -0.150244818093 -0.548490040064
978052000 -0.150957090258 -0.544258556993
978056000 -0.151748477564 -0.547559116268
978060000 -0.151654751937 -0.546464345703
978064000 -0.15288484377 -0.546442133316
978068000 -0.152444920913 -0.545585477243
978072000 -0.153162971317 -0.546313777023
978076000 -0.153855487538 -0.545167748901
978080000 -0.155670546609 -0.54832246505
978084000 -0.154269590483 -0.5466637901
978088000 -0.153751049022 -0.547252595478
978092000 -0.154042498694 -0.548602352881
978096000 -0.15303936282 -0.547413928141
978100000 -0.154617476282 -0.546664442671
978104000 -0.153096717719 -0.54758046593
978108000 -0.153833769234 -0.548698449105
978112000 -0.154011004388 -0.546754716945
978116000 -0.156026580725 -0.544648764233
978120000 -0.155017179898 -0.547406855784
978124000 -0.155720406221 -0.547222777422
978128000 -0.154217775745 -0.546890977784
978132000 -0.160671049846 -0.546191005124
978136000 -0.160621978 -0.54684295245
978140000 -0.162123809149 -0.542864080436
978144000 -0.161080991432 -0.548386673823
978148000 -0.159672281196 -0.546084702338
978152000 -0.157792802501 -0.546725151718
978156000 -0.158958252861 -0.54466215043
978160000 -0.157212491439 -0.548043103644
978164000 -0.157035179788 -0.545191264475
978168000 -0.159987909388 -0.547187640016
978172000 -0.157842454469 -0.54691199015
978176000 -0.160045096633 -0.54829927703
978180000 -0.161204639919 -0.546033887602
978184000 -0.160835585968 -0.548600017386
978188000 -0.162170381717 -0.54907227172
978192000 -0.162554346151 -0.545369682328
978196000 -0.160237071025 -0.553769593074
978200000 -0.157561623889 -0.545635988241
978204000 -0.161774091347 -0.543010751568
978208000 -0.16420316197 -0.542247190214
978212000 -0.165510161085 -0.549718000992
978216000 -0.18327086841 -0.538820970003
978220000 -0.179250729543 -0.536232353217
978224000 -0.158261777428 -0.538226710022
978228000 -0.154564762083 -0.535734513504
978232000 -0.158196337388 -0.53496076443
978236000 -0.157994073783 -0.54435341704
978240000 -0.162363346514 -0.541085323579
978244000 -0.163980395889 -0.54248489087
978248000 -0.163246933067 -0.540475435511
978252000 -0.163713696397 -0.542283417788
978256000 -0.170345814249 -0.556651812076
978260000 -0.178827254755 -0.532974196111
978264000 -0.151108284955 -0.540278268549
978268000 -0.155604247742 -0.534206665819
978272000 -0.15807449535 -0.537878414342
978276000 -0.151381829241 -0.536334445377
978280000 -0.153396317603 -0.544449964377
978284000 -0.15723001564 -0.539694804538
978288000 -0.157673415638 -0.538402343075
978292000 -0.160073059501 -0.540234758782
978296000 -0.164891244055 -0.540455715601
978300000 -0.167515257036 -0.545184240739
978304000 -0.170508899092 -0.543926380749
978308000 -0.174869042811 -0.544654598289
978312000 -0.175616188502 -0.546114966757
978316000 -0.178475108607 -0.546410493045
978320000 -0.175030529209 -0.548510989067
978324000 -0.175677233661 -0.542720922162
978328000 -0.178617116639 -0.544368579892
978332000 -0.178587335748 -0.545405930493
978336000 -0.181470846313 -0.545466630324
978340000 -0.179255134009 -0.545856232177
978344000 -0.183015090718 -0.540985907893
978348000 -0.180096499137 -0.547511999548
978352000 -0.18270558804 -0.544396574289
978356000 -0.18093761116 -0.542546243228
978360000 -0.185292445493 -0.546561955106
978364000 -0.187117449828 -0.547227030302
978368000 -0.18544987933 -0.547993009492
978372000 -0.188782036315 -0.544123176557
978376000 -0.184094971953 -0.547248464529
978380000 -0.185651296581 -0.546190647052
978384000 -0.186881625653 -0.542748259822
978388000 -0.186054139433 -0.547157149708
978392000 -0.186888644099 -0.544399491815
978396000 -0.183282105565 -0.543167016989
978400000 -0.184855304064 -0.54360304906
978404000 -0.181798193327 -0.545567253091
978408000 -0.18646565111 -0.545416277549
978412000 -0.187506825465 -0.543499263944
978416000 -0.187513626463 -0.546850059603
978420000 -0.187862014413 -0.544823754327
978424000 -0.18841850799 -0.545549669427
978428000 -0.188434200225 -0.544500742513
978432000 -0.190821782083 -0.546609531662
978436000 -0.190242407493 -0.545715783524
978440000 -0.190717019959 -0.545255686728
978444000 -0.191786156985 -0.546270842088
978448000 -0.190266791718 -0.54633817648
978452000 -0.18939993757 -0.550504597793
978456000 -0.192245008576 -0.544760312076
978460000 -0.191194862324 -0.545942709543
978464000 -0.189703407284 -0.546092956207
978468000 -0.193284390902 -0.546171053657
978472000 -0.193652378615 -0.54684716927
978476000 -0.193926542575 -0.545354851708
978480000 -0.190809405791 -0.548559242068
978484000 -0.193354320403 -0.544983264144
978488000 -0.193176302172 -0.544800839768
978492000 -0.193420851475 -0.545103794484
978496000 -0.192922476058 -0.544003665644
978500000 -0.195531343735 -0.54378951515
978504000 -0.197902962687 -0.545001187608
978508000 -0.19637129434 -0.544338549661
978512000 -0.1968194357 -0.543449749334
978516000 -0.195655732188 -0.544055370299
978520000 -0.196821920865 -0.543299355372
978524000 -0.198820228417 -0.544870701278
978528000 -0.197957866434 -0.541325554967
978532000 -0.201270100313 -0.540642213659
978536000 -0.199752240546 -0.540729203669
978540000 -0.198832116286 -0.546027213064
978544000 -0.199763222018 -0.542654820801
978548000 -0.201697941402 -0.544149311031
978552000 -0.201514803354 -0.541826257817
978556000 -0.201302115531 -0.543307421178
978560000 -0.20110396671 -0.545927851741
978564000 -0.201973304867 -0.54149864554
978568000 -0.200760294606 -0.539846955798
978572000 -0.202067964358 -0.542490273928
978576000 -0.206765295194 -0.542073632563
978580000 -0.207613034112 -0.539861386401
978584000 -0.207956630021 -0.542959195107
978588000 -0.203248662514 -0.542916599638
978592000 -0.199584134693 -0.539026868276
978596000 -0.203396332471 -0.539888274207
978600000 -0.206218311438 -0.54150324316
978604000 -0.205901555071 -0.540432047335
978608000 -0.207226134031 -0.54118173101
978612000 -0.209311554279 -0.541322166129
978616000 -0.208429129065 -0.540318537087
978620000 -0.212372159437 -0.541678668862
978624000 -0.209971272988 -0.540400608156
978628000 -0.210508286543 -0.542478167152
978632000 -0.210934831624 -0.544228193073
978636000 -0.211487830832 -0.544942400988
978640000 -0.213280373843 -0.542669674175
978644000 -0.213523218065 -0.54261246955
978648000 -0.212016945132 -0.542175393023
978652000 -0.217814744338 -0.544136068685
978656000 -0.210969870154 -0.542955334877
978660000 -0.216448084719 -0.542711886509
978664000 -0.212491801746 -0.541524731337
978668000 -0.212357298996 -0.538690437487
978672000 -0.216352561787 -0.538728951452
978676000 -0.217357485441 -0.532474850167
978680000 -0.212767337467 -0.53611792059
978684000 -0.216072215579 -0.534884087812
978688000 -0.214869502316 -0.533861723063
978692000 -0.215276203271 -0.534721186347
978696000 -0.215786085703 -0.535991563862
978700000 -0.215101738333 -0.534960438625
978704000 -0.215417639559 -0.5345972318
978708000 -0.216448724197 -0.537657218737
978712000 -0.216624033153 -0.536460996002
978716000 -0.217573505356 -0.534415473798
978720000 -0.216988373537 -0.536308961525
978724000 -0.215640653045 -0.537772682028
978728000 -0.217376953359 -0.537570780624
978732000 -0.219677777153 -0.537972860501
978736000 -0.221692627391 -0.536776452708
978740000 -0.219854016079 -0.541854411147
978744000 -0.222995177661 -0.534619815254
978748000 -0.219904224498 -0.536821508097
978752000 -0.219094769237 -0.543563294702
978756000 -0.223890106191 -0.54152721859
978760000 -0.223099098868 -0.535258063172
978764000 -0.224239884789 -0.53464295452
978768000 -0.219847523136 -0.538984939274
978772000 -0.2242676551 -0.534662376652
978776000 -0.226387090767 -0.535621957146
978780000 -0.225845447383 -0.539809642184
978784000 -0.224736618055 -0.538178532975
978788000 -0.226253707871 -0.5397120204
978792000 -0.226257521932 -0.535743453411
978796000 -0.227815689738 -0.53739904644
978800000 -0.230547166319 -0.535494809126
978804000 -0.224527336518 -0.537446432916
978808000 -0.226824825687 -0.53508335117
978812000 -0.226548010073 -0.535821367334
978816000 -0.227551517703 -0.535169059133
978820000 -0.225753067406 -0.537731912405
978824000 -0.225216141542 -0.53561106986
978828000 -0.229827449251 -0.535137329572
978832000 -0.226177663814 -0.533148146445
978836000 -0.22789848359 -0.53558045578
978840000 -0.229510872204 -0.534640567733
978844000 -0.230169692272 -0.535724975471
978848000 -0.231332008522 -0.533439292745
978852000 -0.231895373706 -0.537795462095
978856000 -0.231114861174 -0.533401901125
978860000 -0.232786446014 -0.531313283545
978864000 -0.23167189345 -0.533420234878
978868000 -0.230400373439 -0.5325100022
978872000 -0.228311445475 -0.532845899384
978876000 -0.228350055639 -0.536778444145
978880000 -0.232418855926 -0.536692212695
978884000 -0.233685886333 -0.535391271952
978888000 -0.2316849794 -0.536586323868
978892000 -0.235308475963 -0.534035703892
978896000 -0.236927284311 -0.533034560048
978900000 -0.234103219797 -0.534803289526
978904000 -0.237964366293 -0.537830602644
978908000 -0.233298303819 -0.530076215609
978912000 -0.240188418549 -0.532692847251
978916000 -0.232072509514 -0.53772158531
978920000 -0.235122968071 -0.533283487216
978924000 -0.238878747296 -0.53246228856
978928000 -0.237409255884 -0.530221801591
978932000 -0.239856751825 -0.529243415057
978936000 -0.240031373861 -0.535787694886
978940000 -0.237885070516 -0.532580929364
978944000 -0.238629858207 -0.531417005269
978948000 -0.236344400636 -0.53043693589
978952000 -0.23937230209 -0.532930641438
978956000 -0.238349468045 -0.531705297165
978960000 -0.242157256992 -0.531706165838
978964000 -0.237546927975 -0.529155165486
978968000 -0.240287006135 -0.527372006677
978972000 -0.240037120987 -0.526806392371
978976000 -0.241314837454 -0.528962947842
978980000 -0.24591477321 -0.528643640132
978984000 -0.242719504777 -0.53021004088
978988000 -0.244895635232 -0.526589000032
978992000 -0.245992892353 -0.526462192894
978996000 -0.243308816632 -0.526915151566
979000000 -0.246029500821 -0.528233364198
979004000 -0.247660761053 -0.530498904407
979008000 -0.246793604445 -0.528433319399
979012000 -0.247694087638 -0.527731508978
979016000 -0.246514590888 -0.52558661078
979020000 -0.247624744681 -0.524259229814
979024000 -0.248651709142 -0.526793950451
979028000 -0.247180342641 -0.525644182151
979032000 -0.244876182213 -0.528530715199
979036000 -0.246498699212 -0.526444440826
979040000 -0.249882905644 -0.525204134552
979044000 -0.249849844362 -0.525738162796
979048000 -0.247624211979 -0.523624032059
979052000 -0.248007297009 -0.528823140619
979056000 -0.247144523519 -0.52422939829
979060000 -0.250591308527 -0.526865709798
979064000 -0.250989910823 -0.527897346458
979068000 -0.247255300374 -0.523478806178
979072000 -0.249444376419 -0.524726086283
979076000 -0.251799203024 -0.523856486053
979080000 -0.256686563884 -0.52206660061
979084000 -0.256692423782 -0.522551424323
979088000 -0.257999507414 -0.521465111375
979092000 -0.257239727678 -0.525965324314
979096000 -0.255050818155 -0.520373863748
979100000 -0.260606559245 -0.523146172936
979104000 -0.259385088946 -0.503930963158
979108000 -0.261973345093 -0.523501296924
979112000 -0.259511870653 -0.52824095959
979116000 -0.259369616962 -0.524954306492
979120000 -0.259807324457 -0.524704380333
979124000 -0.256229311857 -0.523956221979
979128000 -0.257033496889 -0.521535855288
979132000 -0.257137665743 -0.522495430982
979136000 -0.254353978761 -0.522694575943
979140000 -0.25824173468 -0.518259300668
979144000 -0.254829523084 -0.521194948114
979148000 -0.259223110038 -0.519672572646
979152000 -0.258346971137 -0.5204175808
979156000 -0.25955821687 -0.521428436868
979160000 -0.263870591435 -0.520897937848
979164000 -0.262831234154 -0.523299653071
979168000 -0.262873500058 -0.521772163717
979172000 -0.264152605508 -0.517630079754
979176000 -0.260742868682 -0.519363479809
979180000 -0.262883805225 -0.520967462307
979184000 -0.262600754126 -0.518449495826
979188000 -0.264055114653 -0.521358895711
979192000 -0.266372895758 -0.520095005389
979196000 -0.264147765174 -0.519271052836
979200000 -0.262044773424 -0.519632163965
979204000 -0.263715484658 -0.521751900137
979208000 -0.264576672496 -0.519164950892
979212000 -0.26610562804 -0.522948841419
979216000 -0.267132112683 -0.520589958034
979220000 -0.264400844674 -0.522029784751
979224000 -0.267281385701 -0.518146320958
979228000 -0.265519313959 -0.521008474879
979232000 -0.266100648754 -0.521854418972
979236000 -0.269028593073 -0.520307185746
979240000 -0.264729934637 -0.517265385201
979244000 -0.264358909965 -0.522057580705
979248000 -0.265931579689 -0.520158355786
979252000 -0.266097402695 -0.518522413678
979256000 -0.267018251444 -0.521690048623
979260000 -0.268796169176 -0.518308565873
979264000 -0.264001867064 -0.519461755112
979268000 -0.270901614677 -0.519994622074
979272000 -0.270455385429 -0.515809589289
979276000 -0.269148938973 -0.517241628999
979280000 -0.270080820376 -0.516694152175
979284000 -0.27179158516 -0.51780862775
979288000 -0.273831551702 -0.518672786918
979292000 -0.273076337824 -0.516971972759
979296000 -0.27425509015 -0.515857588289
979300000 -0.270791996127 -0.516358872691
979304000 -0.271217053495 -0.513745089566
979308000 -0.272504268191 -0.516229757023
979312000 -0.27308726206 -0.517898146403
979316000 -0.273490653511 -0.515385389871
979320000 -0.273544535408 -0.519390133953
979324000 -0.279353557525 -0.514759941637
979328000 -0.273355964772 -0.515878648827
979332000 -0.277073489631 -0.513519192545
979336000 -0.277458523978 -0.513728023085
979340000 -0.275177051872 -0.513723226774
979344000 -0.278112337579 -0.512433061112
979348000 -0.278471016458 -0.514486377332
979352000 -0.27814044861 -0.512147823178
979356000 -0.278724713057 -0.510957038358
979360000 -0.278477582845 -0.512499303742
979364000 -0.280023737036 -0.51138237839
979368000 -0.279958790529 -0.511584012507
979372000 -0.279010341004 -0.513015174444
979376000 -0.281473615025 -0.511087296263
979380000 -0.279741492103 -0.510639247115
979384000 -0.282526855932 -0.512693521992
979388000 -0.28257747968 -0.511725685699
979392000 -0.281458801527 -0.515339890173
979396000 -0.283666158438 -0.509667424336
979400000 -0.283368695088 -0.510636031959
979404000 -0.282914874193 -0.511347814341
979408000 -0.28148637867 -0.512585591406
979412000 -0.283529949588 -0.510362933488
979416000 -0.284146986689 -0.509626479855
979420000 -0.285941039539 -0.510669018418
979424000 -0.281569215599 -0.514604802542
979428000 -0.284042595165 -0.511676156879
979432000 -0.284422575412 -0.510122321497
979436000 -0.283608563347 -0.512363555811
979440000 -0.28614741302 -0.510614039697
979444000 -0.287289663569 -0.509160254184
979448000 -0.28799869454 -0.511256886725
979452000 -0.289664563329 -0.5098196304
979456000 -0.290005427455 -0.50848317329
979460000 -0.2900406954 -0.507769236412
979464000 -0.290704565228 -0.508577535509
979468000 -0.288136195334 -0.50867023242
979472000 -0.290573006014 -0.507335952905
979476000 -0.289623046242 -0.506800514348
979480000 -0.290069067112 -0.509050344199
979484000 -0.288021645285 -0.507937573793
979488000 -0.289061479513 -0.506493277933
979492000 -0.286045058681 -0.50696193145
979496000 -0.287879642484 -0.506131074793
979500000 -0.287446659725 -0.505840954919
979504000 -0.288868550689 -0.50496889299
979508000 -0.290170639452 -0.509579348616
979512000 -0.288186803973 -0.500059549568
979516000 -0.290028740966 -0.501954331513
979520000 -0.291738643325 -0.502594924998
979524000 -0.292956566084 -0.50220560633
979528000 -0.293066445233 -0.507550746843
979532000 -0.293393822507 -0.505234767351
979536000 -0.294224221115 -0.506535553277
979540000 -0.293826400959 -0.508120864264
979544000 -0.296506183539 -0.508571620016
979548000 -0.29414115474 -0.505975010624
979552000 -0.297707113595 -0.503887578104
979556000 -0.296840168996 -0.498676265925
979560000 -0.298842193032 -0.4987400528
979564000 -0.298308280911 -0.496079470815
979568000 -0.302783347886 -0.495167255004
979572000 -0.305434180266 -0.492042877833
979576000 -0.304253734828 -0.491927332997
979580000 -0.303015845918 -0.492529358727
979584000 -0.299546539543 -0.494856252993
979588000 -0.301226032853 -0.493254079949
979592000 -0.300432326174 -0.495314817555
979596000 -0.298460825745 -0.496989223353
979600000 -0.297535381956 -0.499840641435
979604000 -0.295884797824 -0.501631021914
979608000 -0.298012546976 -0.499868443358
979612000 -0.296234280709 -0.501679640977
979616000 -0.299332344304 -0.501673684682
979620000 -0.299804352881 -0.50258701245
979624000 -0.300762981294 -0.498650633522
979628000 -0.300401863779 -0.50005795598
979632000 -0.302081106795 -0.499594801481
979636000 -0.302248779281 -0.501390452339
979640000 -0.301323246523 -0.501082791887
979644000 -0.303275156255 -0.497776908638
979648000 -0.30438538041 -0.501282747425
979652000 -0.304408241336 -0.499906954157
979656000 -0.30215408566 -0.50028345003
979660000 -0.305443914444 -0.500046937628
979664000 -0.304145388138 -0.497517353415
979668000 -0.303754066027 -0.497493010958
979672000 -0.299221589257 -0.497581045457
979676000 -0.30352094514 -0.499556609351
979680000 -0.303789545741 -0.501048489895
979684000 -0.30192434514 -0.500340221184
979688000 -0.306091416845 -0.499959368129
979692000 -0.30613253682 -0.499003060122
979696000 -0.300244227593 -0.493764778949
979700000 -0.303657690002 -0.500375957526
979704000 -0.305059295108 -0.496330945628
979708000 -0.303474240883 -0.493687758115
979712000 -0.302883010454 -0.495717118365
979716000 -0.30472931856 -0.49367207424
979720000 -0.305105119553 -0.496378138826
979724000 -0.303097057983 -0.491158353365
979728000 -0.305834171221 -0.493087033263
979732000 -0.30629109589 -0.49527160447
979736000 -0.30906764829 -0.490897456227
979740000 -0.312096501467 -0.490892194716
979744000 -0.310922223106 -0.491265757015
979748000 -0.312793127454 -0.489734046575
979752000 -0.311462138598 -0.487225674492
979756000 -0.307067654207 -0.490997692282
979760000 -0.310680846877 -0.490294169149
979764000 -0.310883584605 -0.490409411574
979768000 -0.310146368533 -0.494518368646
979772000 -0.308738449035 -0.491420669496
979776000 -0.311546637637 -0.490562816975
979780000 -0.311770405592 -0.491314314305
979784000 -0.312032810814 -0.491285148451
979788000 -0.310849858673 -0.491178561334
979792000 -0.313233407216 -0.490032182932
979796000 -0.313363926314 -0.490015616575
979800000 -0.318646067604 -0.491240000945
979804000 -0.319585387914 -0.487755362077
979808000 -0.315168643305 -0.490587902327
979812000 -0.317430879033 -0.488955949826
979816000 -0.317165238867 -0.486641467386
979820000 -0.316393088019 -0.485231580921
979824000 -0.315274837411 -0.486115431551
979828000 -0.316798632088 -0.486472651855
979832000 -0.318130891955 -0.484144897897
979836000 -0.317924933836 -0.485170422251
979840000 -0.316183158408 -0.48358389114
979844000 -0.31687660946 -0.485275529363
979848000 -0.316543889397 -0.486699179009
979852000 -0.317655308042 -0.486998696617
979856000 -0.3177065053 -0.485286682659
979860000 -0.317575994574 -0.486204568605
979864000 -0.317961334876 -0.483671500989
979868000 -0.319413625781 -0.481794933351
979872000 -0.319600860656 -0.48101976186
979876000 -0.318637077207 -0.481918592011
979880000 -0.317194153528 -0.483215495323
979884000 -0.316684278144 -0.481869895019
979888000 -0.318189152329 -0.482336103152
979892000 -0.325448065478 -0.480505979841
979896000 -0.321004326878 -0.480626116631
979900000 -0.31918423055 -0.479916434205
979904000 -0.320441964664 -0.482022375454
979908000 -0.321182066106 -0.480005821285
979912000 -0.320721719629 -0.480929082616
979916000 -0.316645426314 -0.479750979829
979920000 -0.318360475293 -0.485516572262
979924000 -0.320811569928 -0.485261532803
979928000 -0.320328077678 -0.4831579458
979932000 -0.322291254257 -0.480030658202
979936000 -0.323385074343 -0.48134287923
979940000 -0.325793783024 -0.479424596679
979944000 -0.325224199367 -0.480009557507
979948000 -0.324869615102 -0.476842827461
979952000 -0.323000508781 -0.478871685097
979956000 -0.327070880579 -0.479753507209
979960000 -0.329196550428 -0.478644456919
979964000 -0.326917585836 -0.479285612768
979968000 -0.327167636187 -0.476457880259
979972000 -0.326759509339 -0.476375488314
979976000 -0.329061482257 -0.477803800685
979980000 -0.330672888118 -0.477688284657
979984000 -0.330518869933 -0.477075643497
979988000 -0.32554129388 -0.480360110354
979992000 -0.326913755778 -0.490114846491
979996000 -0.3324198559 -0.478776220659
980000000 -0.330787098816 -0.480095111294
