! Calibrated three-pass averaged EFHW harmonic sweep
# Hz S RI R 50
13500000 0.232680030234 -0.0126165684316
13500650 0.23281060285 -0.0122957087471
13501300 0.233350701669 -0.0120721887627
13501950 0.233242914429 -0.0117659880005
13502600 0.233230127284 -0.0118333823366
13503250 0.233426370537 -0.0116643069286
13503900 0.234195741034 -0.0117716382539
13504550 0.23431348424 -0.01148184931
13505200 0.234200538837 -0.0111260166544
13505850 0.233968745928 -0.0109594998104
13506500 0.234291628997 -0.0107911020306
13507150 0.234647371781 -0.0104180123711
13507800 0.234787292783 -0.0103216445431
13508450 0.234624599972 -0.00997055358119
13509100 0.234695793306 -0.010070381963
13509750 0.235058165016 -0.0100147576235
13510400 0.235726348323 -0.00981767916646
13511050 0.23556544787 -0.00953815491004
13511700 0.235701289345 -0.00947810027129
13512350 0.235556255993 -0.00921495263657
13513000 0.235685850898 -0.00891412430243
13513650 0.236238592252 -0.00868890351916
13514300 0.236051699318 -0.00829510950194
13514950 0.236129263508 -0.00841340093356
13515600 0.236330939062 -0.00830194453019
13516250 0.237000732814 -0.00841514384968
13516900 0.237182910535 -0.00819292883286
13517550 0.237129373069 -0.00777610467712
13518200 0.236784077019 -0.00755576937694
13518850 0.237165457237 -0.0074382109415
13519500 0.237483396803 -0.00710792279838
13520150 0.237634843813 -0.00691382962205
13520800 0.237500851867 -0.00652063897666
13521450 0.237566009411 -0.00670995336826
13522100 0.238036793125 -0.00670318504426
13522750 0.238613745205 -0.00654999460495
13523400 0.238500226108 -0.00623844627121
13524050 0.238618619344 -0.00616943688918
13524700 0.238453377226 -0.00587429871694
13525350 0.238605551378 -0.00560640462128
13526000 0.239252969247 -0.00540822067459
13526650 0.238883103284 -0.00493293267732
13527300 0.239041249784 -0.00504941695949
13527950 0.239249954698 -0.00498448530336
13528600 0.239839609963 -0.00515520462016
13529250 0.240160687541 -0.00489360489195
13529900 0.240042373387 -0.00444081414717
13530550 0.239691102839 -0.00423280397031
13531200 0.240084378828 -0.00418506608529
13531850 0.240440421756 -0.00384607772376
13532500 0.240580577628 -0.00367054813651
13533150 0.240493365612 -0.00326433152875
13533800 0.240491447843 -0.00339096237405
13534450 0.240999601526 -0.00346538181178
13535100 0.241582377012 -0.0032885559182
13535750 0.241600123531 -0.00314924129851
13536400 0.241540950828 -0.00285333054743
13537050 0.241464364525 -0.00263323827685
13537700 0.241673628285 -0.00246422001364
13538350 0.242243084125 -0.00222350251777
13539000 0.241928440197 -0.00173101621795
13539650 0.242123635576 -0.00184237629471
13540300 0.242208069181 -0.00169670165287
13540950 0.242831501409 -0.00201504241061
13541600 0.243195357205 -0.00174154354409
13542250 0.243013074509 -0.00123572326357
13542900 0.242778503336 -0.00107298268965
13543550 0.243153474885 -0.00099302744531
13544200 0.243558912251 -0.00075069843812
13544850 0.243656303967 -0.000555848320078
13545500 0.243578384579 -2.22010365099e-05
13546150 0.243537061034 -0.000209808828535
13546800 0.244030995603 -0.000321878586155
13547450 0.244635652283 -0.000274533663763
13548100 0.244714790049 -0.000146651006936
13548750 0.244602272683 0.000320800287564
13549400 0.244535492848 0.000498702240427
13550050 0.244792768371 0.000653699510386
13550700 0.245341525144 0.000860180853826
13551350 0.24509562727 0.00140414629632
13552000 0.24523019815 0.00134083129684
13552650 0.245229793239 0.00144592392277
13553300 0.245898321404 0.00107931637047
13553950 0.246351445274 0.00127327555482
13554600 0.246161871409 0.00183160983533
13555250 0.245946006752 0.00196369287419
13555900 0.246291384438 0.00208634367955
13556550 0.246658804979 0.00227651571397
13557200 0.246879016582 0.00257537473424
13557850 0.246801991385 0.00300982054436
13558500 0.246639408481 0.0029589772914
13559150 0.247150125323 0.00281344721011
13559800 0.247908239586 0.00266018932388
13560450 0.247914899036 0.00284420730546
13561100 0.247810762172 0.00337892215852
13561750 0.247721040206 0.00356681599279
13562400 0.247920104842 0.00373762696749
13563050 0.248577302604 0.00385644790233
13563700 0.248338030912 0.00439167307773
13564350 0.248372740288 0.00449110829699
13565000 0.248410903968 0.00448846466558
13565650 0.248702865033 0.00476102611742
13566300 0.248707422218 0.00472123809428
13566950 0.249282172723 0.00462152207198
13567600 0.250010033062 0.00456540611357
13568250 0.249954500337 0.00481611800265
13568900 0.249626754444 0.00522397900159
13569550 0.249462662959 0.00570043172443
13570200 0.250288610447 0.00545837295702
13570850 0.250486797098 0.006017572685
13571500 0.250368806927 0.00617958484547
13572150 0.250158602059 0.00636156618357
13572800 0.250811399852 0.00586128995763
13573450 0.251324000338 0.00584021511096
13574100 0.251638659326 0.0061280819836
13574750 0.251351007919 0.00658329773459
13575400 0.251200484573 0.00678611306805
13576050 0.251565983663 0.00695026459304
13576700 0.251883362062 0.0072390538982
13577350 0.252230444725 0.00739338918789
13578000 0.251980794753 0.00768410408783
13578650 0.252021803298 0.00756112835735
13579300 0.252497915201 0.00750861629308
13579950 0.253195881189 0.0073541253151
13580600 0.253239474071 0.00764491042754
13581250 0.252914876563 0.00801957110097
13581900 0.252744825401 0.00847243338161
13582550 0.253520495126 0.00826700630953
13583200 0.253731735677 0.00885227946984
13583850 0.253730407156 0.00899212800669
13584500 0.25351597864 0.00913506811757
13585150 0.254014625028 0.00867262141834
13585800 0.254478554722 0.00859185552501
13586450 0.254840208009 0.0090301335424
13587100 0.254652794329 0.00930710468796
13587750 0.254499705551 0.00954256554244
13588400 0.254857541805 0.0096516863759
13589050 0.255118143163 0.0100266829624
13589700 0.255575397184 0.0101789444258
13590350 0.255277603191 0.0104950438877
13591000 0.255308393388 0.0103857139645
13591650 0.255776807988 0.010264431368
13592300 0.256507406859 0.00997830093002
13592950 0.256507531464 0.0104144399052
13593600 0.256241558771 0.0107685746343
13594250 0.256200557396 0.0110998835373
13594900 0.256771712128 0.0109956669174
13595550 0.257035705878 0.011618676383
13596200 0.25712174928 0.0116770568956
13596850 0.256870091789 0.0118882528229
13597500 0.257270851327 0.0114282537222
13598150 0.257734916908 0.0113190121726
13598800 0.257958508568 0.011850039804
13599450 0.257992999556 0.0119591060713
13600100 0.257861199145 0.0122817656292
13600750 0.258224717368 0.0122780919594
13601400 0.258428450786 0.0127215667294
13602050 0.258925394105 0.0128131887468
13602700 0.258610240327 0.0132079592959
13603350 0.258666890194 0.0130996489814
13604000 0.25919521057 0.0128104626551
13604650 0.259814444477 0.0125817451806
13605300 0.259859634326 0.0130699118652
13605950 0.25962542353 0.0133835204594
13606600 0.259616037334 0.0136512601333
13607250 0.260154934708 0.0136490260557
13607900 0.260447198006 0.0142013778764
13608550 0.260475531724 0.0144343971542
13609200 0.26032469781 0.0145101654597
13609850 0.260605163688 0.0140823982892
13610500 0.261149936132 0.0137800216866
13611150 0.261392983278 0.0144114951914
13611800 0.261405678866 0.0145212828079
13612450 0.261301234618 0.0148525541606
13613100 0.261599986213 0.0148678673431
13613750 0.261864535445 0.0152574574527
13614400 0.262315269164 0.0153746603301
13615050 0.262037411083 0.0159233858372
13615700 0.262091877552 0.0156960973167
13616350 0.262660196479 0.0150998593885
13617000 0.263136373272 0.0150313475327
13617650 0.263232443418 0.0155603173544
13618300 0.263084767485 0.0158577922758
13618950 0.263077572477 0.0161593576136
13619600 0.263570715811 0.0161163575466
13620250 0.263913681311 0.0166475554508
13620900 0.263783276376 0.0170649477137
13621550 0.263791130336 0.0170070963184
13622200 0.26399690507 0.0165769578882
13622850 0.264544039026 0.0161645358415
13623500 0.264862071129 0.0169160208308
13624150 0.264895701242 0.0169182340398
13624800 0.264731106355 0.0173274748229
13625450 0.265038699981 0.0173099043582
13626100 0.265316695213 0.0175703272463
13626750 0.265821757325 0.0177861611518
13627400 0.265518271979 0.0184309238727
13628050 0.265566876901 0.0181665851526
13628700 0.266089992702 0.0174678728522
13629350 0.266556608617 0.017360969602
13630000 0.266708219956 0.0179597482033
13630650 0.266758133612 0.0178987356835
13631300 0.266984873237 0.017951236087
13631950 0.266965470743 0.0182371388991
13632600 0.267221225684 0.018506727167
13633250 0.267374509074 0.0187465737541
13633900 0.267653538268 0.0189595432822
13634550 0.267798598726 0.0192368057998
13635200 0.267809397993 0.0193639444817
13635850 0.268008821367 0.0193276462762
13636500 0.268280185572 0.0191487363415
13637150 0.268582897318 0.0193591603509
13637800 0.268745434034 0.0191584081677
13638450 0.268735373534 0.0195847649429
13639100 0.268961370069 0.0198237381817
13639750 0.269176644591 0.0200389724265
13640400 0.269624359217 0.020224358349
13641050 0.269545889106 0.020383017067
13641700 0.269663722102 0.0205426652839
13642350 0.269986577643 0.0200802002534
13643000 0.270141033944 0.0202253392955
13643650 0.270500306636 0.0202250059832
13644300 0.270447122131 0.0205028812039
13644950 0.270705054518 0.0207280885452
13645600 0.270842573798 0.0209683491022
13646250 0.271140976463 0.0213642696225
13646900 0.271266536446 0.0216208266912
13647550 0.271314352469 0.0216212718693
13648200 0.271533216354 0.0215881984562
13648850 0.271790352245 0.0213897934457
13649500 0.272095143987 0.0216002990638
13650150 0.272240704134 0.0213122600918
13650800 0.272262878086 0.0216532274281
13651450 0.272465902873 0.0220110029054
13652100 0.272719992457 0.0221806742075
13652750 0.273100801457 0.0224386631296
13653400 0.273105289807 0.0225935881519
13654050 0.273274088475 0.0226882275561
13654700 0.273573650047 0.0221874399859
13655350 0.27365862268 0.0225154783494
13656000 0.274017483869 0.022426242102
13656650 0.27400665886 0.0227036918216
13657300 0.274243343392 0.0228795129004
13657950 0.274429143614 0.0231381497782
13658600 0.274652037516 0.0234944816593
13659250 0.274814776142 0.0237787355078
13659900 0.274906915312 0.023750573282
13660550 0.275106551669 0.0236562193006
13661200 0.275327920245 0.0235200164846
13661850 0.275655211652 0.0237222522158
13662500 0.275773062607 0.0234060615808
13663150 0.27579934357 0.0237174667577
13663800 0.276102440507 0.024007026071
13664450 0.276352802741 0.0241650738499
13665100 0.276672527783 0.0246175533858
13665750 0.276693785997 0.0246101637847
13666400 0.27678162791 0.024704061987
13667050 0.277086063882 0.0242606751193
13667700 0.277135717234 0.0245501150107
13668350 0.277516486901 0.024661776265
13669000 0.277520160475 0.0248855622895
13669650 0.277797638096 0.0249053884007
13670300 0.278000557586 0.0251723460771
13670950 0.278304126047 0.0255588255929
13671600 0.278458547359 0.0258368918612
13672250 0.278522595596 0.0258037590233
13672900 0.278758994083 0.0255764055045
13673550 0.278852972737 0.0254266766423
13674200 0.279210737816 0.0255826649154
13674850 0.279357458172 0.0254191799131
13675500 0.279351063114 0.0257526020624
13676150 0.279667217469 0.0258898519202
13676800 0.279927389249 0.026075669668
13677450 0.280231097616 0.0266657436468
13678100 0.280296793494 0.0266969987588
13678750 0.280372232828 0.0268543180037
13679400 0.280595228314 0.026245952677
13680050 0.280736754386 0.0265536053618
13680700 0.281118327785 0.0266383576874
13681350 0.281047482051 0.0268113612809
13682000 0.281302763475 0.0267950068291
13682650 0.281565151322 0.026975575522
13683300 0.281774758393 0.0274391064052
13683950 0.282072787089 0.027747416167
13684600 0.282122804208 0.0277125831928
13685250 0.282284006695 0.0275365628967
13685900 0.282462785901 0.0271859851248
13686550 0.282770889172 0.0273469153771
13687200 0.282867440755 0.027472731585
13687850 0.282949729383 0.0276147203239
13688500 0.28321000307 0.027799355981
13689150 0.283451300411 0.0279627000411
13689800 0.283846418199 0.0285968823972
13690450 0.283859215199 0.0288142980013
13691100 0.283961445654 0.0288680121343
13691750 0.284131095165 0.028120688843
13692400 0.284260189423 0.0284025625167
13693050 0.284624326228 0.0284812315279
13693700 0.284638716176 0.0286305961111
13694350 0.284889250272 0.0285874798234
13695000 0.285108340262 0.028656691069
13695650 0.285400701601 0.0290235015374
13696300 0.285461808532 0.0297562922883
13696950 0.285795512969 0.0294272576956
13697600 0.286009076014 0.0294770841833
13698250 0.286402109326 0.0299448784071
13698900 0.286335310915 0.0300253546826
13699550 0.286411064524 0.0297061994869
13700200 0.286535865318 0.029286522425
13700850 0.286725781807 0.0294860905949
13701500 0.287170415498 0.0296170185071
13702150 0.287258090139 0.0298587177756
13702800 0.28743668614 0.0301810392737
13703450 0.287690202428 0.030275899563
13704100 0.287899297078 0.0304303632886
13704750 0.288239362015 0.0305084118825
13705400 0.288186190179 0.030718036034
13706050 0.288392429059 0.0310008344832
13706700 0.288454628369 0.0299963012387
13707350 0.288671867831 0.0302544200774
13708000 0.289015016824 0.0308286807268
13708650 0.289108885297 0.0315526308884
13709300 0.289374525694 0.0312084309318
13709950 0.289608376727 0.0312367016272
13710600 0.289996162169 0.0317365263845
13711250 0.289973860897 0.0315847632142
13711900 0.28998706299 0.0315061029202
13712550 0.290107332675 0.0310734560094
13713200 0.290264664777 0.0310672497848
13713850 0.290756899343 0.031274094253
13714500 0.290833941641 0.0315702428543
13715150 0.291005633299 0.0318868566155
13715800 0.291311536557 0.0323274424891
13716450 0.291471870176 0.0321080325269
13717100 0.291869194079 0.0322402191208
13717750 0.291745294142 0.0325446479818
13718400 0.291942019026 0.0327107994035
13719050 0.291908321698 0.0316630024626
13719700 0.292199321808 0.0319039819958
13720350 0.292638265985 0.0324671883953
13721000 0.292642029347 0.0331223683044
13721650 0.292962795028 0.0328412922524
13722300 0.293155773729 0.0328187390501
13722950 0.293537093719 0.0332302451313
13723600 0.293515287629 0.0329563143447
13724250 0.293551517105 0.0331278545583
13724900 0.293604386336 0.0327192013491
13725550 0.293801562824 0.032729707775
13726200 0.294240503895 0.0328340483002
13726850 0.294330614588 0.033115242706
13727500 0.294565249199 0.0335765800936
13728150 0.294887785101 0.0341754530242
13728800 0.295009832725 0.0337204406737
13729450 0.295436901587 0.0338365037007
13730100 0.29533409597 0.0341593893756
13730750 0.295520800108 0.0343810630311
13731400 0.295388406684 0.0332780264183
13732050 0.295652856529 0.0335233050556
13732700 0.296157534536 0.0340814062935
13733350 0.296173482046 0.0344386144854
13734000 0.296506808164 0.0343577771897
13734650 0.296696371506 0.0343986883256
13735300 0.297097934765 0.0346179792735
13735950 0.297114968758 0.0344767587268
13736600 0.297137544688 0.0346874273343
13737250 0.297178698227 0.0343353503104
13737900 0.297429641905 0.0345723364014
13738550 0.297783892103 0.0343650641345
13739200 0.297896959608 0.0346536700136
13739850 0.298168164552 0.03531676003
13740500 0.298523655825 0.0357873787277
13741150 0.298587473266 0.0352631338126
13741800 0.299094666478 0.0353235019817
13742450 0.298996043483 0.0356445557739
13743100 0.299154619332 0.0358553220589
13743750 0.298918179997 0.0348420584074
13744400 0.299206323564 0.0350464498507
13745050 0.299719598587 0.0354755398322
13745700 0.299784258721 0.0356759408024
13746350 0.300123082581 0.035827551197
13747000 0.300250999491 0.0358724228147
13747650 0.300683982624 0.0361549660372
13748300 0.300757785763 0.0360204161361
13748950 0.300730324893 0.0362373697497
13749600 0.300800309999 0.0360162262209
13750250 0.300947711807 0.036237404372
13750900 0.301249647684 0.0358214697685
13751550 0.301454652576 0.0361326657093
13752200 0.301730371761 0.0368045494352
13752850 0.302109382142 0.0372645017266
13753500 0.302168601336 0.0367433660584
13754150 0.302675353972 0.0367816481356
13754800 0.302550484226 0.0371234657878
13755450 0.302589386563 0.0370226887681
13756100 0.302397656728 0.0363471164269
13756750 0.302645551665 0.0365006062654
13757400 0.303211092508 0.0367333453286
13758050 0.303301135428 0.0370768986559
13758700 0.303631937029 0.0372697056714
13759350 0.303821236876 0.0373153779808
13760000 0.304268875457 0.0378932008061
13760650 0.304161324516 0.0374355418636
13761300 0.304230598518 0.0377336345721
13761950 0.304197918896 0.0373488823993
13762600 0.304908396681 0.0377783466659
13763250 0.305322187567 0.0376230950229
13763900 0.305281802242 0.03830900296
13764550 0.304925989352 0.0378035658458
13765200 0.305222708409 0.0379505156658
13765850 0.305633850936 0.0375068516937
13766500 0.306115216596 0.038157902399
13767150 0.305957539606 0.0383297994136
13767800 0.306041482177 0.0384505203484
13768450 0.306229950352 0.0379600135127
13769100 0.306889292424 0.0381782394051
13769750 0.307044739697 0.0385416779478
13770400 0.306827646717 0.0386916465382
13771050 0.306744262295 0.0383951715868
13771700 0.307071794444 0.0381152206501
13772350 0.307847406762 0.038578468791
13773000 0.307734137374 0.0387357893963
13773650 0.307968353094 0.0392824245433
13774300 0.30774864221 0.0387715638513
13774950 0.308542596915 0.0392425215033
13775600 0.308885457794 0.0388988813975
13776250 0.308871612274 0.0396734173422
13776900 0.30850809431 0.0391959353423
13777550 0.308683472879 0.0391695641192
13778200 0.309158883769 0.0388304039332
13778850 0.309683197319 0.0394259503438
13779500 0.309591271269 0.0395720514385
13780150 0.309511772962 0.0396503819863
13780800 0.309737029383 0.0393051219717
13781450 0.310393502352 0.0393667304766
13782100 0.31071041882 0.0399588558705
13782750 0.310445184792 0.0400179030571
13783400 0.310298102024 0.0398066175709
13784050 0.31052971499 0.0394753117709
13784700 0.311514896859 0.0399772116377
13785350 0.311316777035 0.0400419647943
13786000 0.311530680406 0.0406595442869
13786650 0.311282194469 0.0401244243283
13787300 0.312068959053 0.0404899096803
13787950 0.312409183097 0.0402029541837
13788600 0.312505432037 0.0408884416662
13789250 0.312103459311 0.0405292817388
13789900 0.312172230131 0.0404755711803
13790550 0.312595375368 0.0401520180797
13791200 0.313213840148 0.0405111548407
13791850 0.313160679794 0.0409473805896
13792500 0.313067442051 0.0408723722423
13793150 0.313291779075 0.0406528210768
13793800 0.313882389464 0.040699988711
13794450 0.314381167461 0.0412917783592
13795100 0.314039155961 0.0412979797652
13795750 0.313980341734 0.0412938309613
13796400 0.314059387711 0.0407579078186
13797050 0.315139278956 0.0413340137451
13797700 0.314890890123 0.0412816617675
13798350 0.31515098914 0.0419234353735
13799000 0.314872395681 0.0414549494709
13799650 0.315532919345 0.0416181712475
13800300 0.315972564459 0.0413653382057
13800950 0.316091490556 0.0419914456215
13801600 0.31569535455 0.0418508032525
13802250 0.315652450516 0.0416732419117
13802900 0.316112976051 0.0414367089015
13803550 0.316724933337 0.0416541116448
13804200 0.316880357769 0.0423134640769
13804850 0.316675397667 0.0421659369642
13805500 0.316867665095 0.0419861371549
13806150 0.317463038102 0.0418901617322
13806800 0.318100329261 0.0426518743633
13807450 0.317622267681 0.042519809141
13808100 0.317590389269 0.0425777649648
13808750 0.317611013381 0.0420585682537
13809400 0.318559667056 0.0424111938348
13810050 0.318400655084 0.0424543869966
13810700 0.318682044702 0.0431466248116
13811350 0.318371360064 0.0427251436922
13812000 0.319008479527 0.0427465845
13812650 0.319432723884 0.0425197561013
13813300 0.319460808149 0.0430241319751
13813950 0.319339521606 0.0431569140857
13814600 0.319082334572 0.0428645420739
13815250 0.319627039103 0.0426698078333
13815900 0.320265896529 0.0428058555523
13816550 0.32049836798 0.0435969882687
13817200 0.320229971338 0.0434286479592
13817850 0.320526559173 0.0434287423417
13818500 0.320940747372 0.0430780098445
13819150 0.321764530536 0.0438288019059
13819800 0.321253610151 0.0437571596617
13820450 0.321185167349 0.0438505673907
13821100 0.321096664837 0.0432970800157
13821750 0.321952853771 0.0434609143854
13822400 0.321966452166 0.0436036093851
13823050 0.322224994162 0.0442327555635
13823700 0.321931767809 0.043999803819
13824350 0.322430015035 0.0438389567133
13825000 0.323011032566 0.0436453087059
13825650 0.322577611961 0.0438527747882
13826300 0.323715544528 0.0439946755654
13826950 0.323506098761 0.0442770438263
13827600 0.323598741148 0.0447089509
13828250 0.323081695008 0.0442123610325
13828900 0.323666806474 0.0441356925446
13829550 0.324136298092 0.0439488457467
13830200 0.324400687716 0.0447882253608
13830850 0.324113004564 0.0447457751805
13831500 0.324501764133 0.044747587457
13832150 0.324886123347 0.0443112557768
13832800 0.325265735009 0.0445839740923
13833450 0.3253855894 0.044992039952
13834100 0.325191988089 0.045279211806
13834750 0.325067044132 0.0447463971873
13835400 0.325733635299 0.0444443056608
13836050 0.326155203522 0.045010722772
13836700 0.326142115877 0.0453110082245
13837350 0.326135465192 0.0454566228002
13838000 0.326166934269 0.0451321437139
13838650 0.327351318621 0.0450406376306
13839300 0.327108588243 0.0453552271464
13839950 0.327266520001 0.045792614373
13840600 0.326713082185 0.0454263482276
13841250 0.327274148666 0.0454309001305
13841900 0.327759624102 0.0450634092063
13842550 0.327864808027 0.0457773305294
13843200 0.327783811601 0.0458891001611
13843850 0.328100716288 0.0459021804501
13844500 0.328455456293 0.0455082832239
13845150 0.328909286662 0.0456053785791
13845800 0.329172765644 0.0462233752689
13846450 0.328910454645 0.0464393529307
13847100 0.328767967449 0.046035312302
13847750 0.329304113548 0.0455996098322
13848400 0.329790035456 0.0460905127464
13849050 0.329695170993 0.0463273364095
13849700 0.329758361183 0.0466083447776
13850350 0.329835150092 0.046292788103
13851000 0.330984713336 0.0461493954566
13851650 0.330776648745 0.0464257440103
13852300 0.330922635043 0.0469246493568
13852950 0.330348428619 0.0466188380015
13853600 0.330831749169 0.0465942841679
13854250 0.331389360971 0.0461730903162
13854900 0.331430765642 0.0467405520138
13855550 0.331418414389 0.0469930363654
13856200 0.331771376375 0.0470792592895
13856850 0.332086635113 0.0466601981977
13857500 0.332537589434 0.0466146719355
13858150 0.332903038829 0.0474065947516
13858800 0.332469798374 0.0474296447029
13859450 0.332468719584 0.0472165955307
13860100 0.332860438342 0.0467341350517
13860750 0.333412387828 0.0471051130653
13861400 0.333356148251 0.0474234848441
13862050 0.333433732886 0.0477363312283
13862700 0.333463450847 0.047408992969
13863350 0.33449721329 0.0471200858845
13864000 0.334424784716 0.0474732931362
13864650 0.334463234338 0.0478584525461
13865300 0.334033252902 0.0477678343404
13865950 0.334464659438 0.0477190792822
13866600 0.335000769605 0.0471608529069
13867250 0.33503306129 0.0477794579811
13867900 0.335265200336 0.0481655370495
13868550 0.335442983234 0.0481492194616
13869200 0.335839672386 0.0478541275067
13869850 0.336207791983 0.0476202702561
13870500 0.336550460749 0.0483816503507
13871150 0.336097081483 0.0484268025918
13871800 0.336167324479 0.0483345612719
13872450 0.336412283503 0.0478542866115
13873100 0.337035455612 0.0480929793619
13873750 0.33707028751 0.0484270694983
13874400 0.337145412052 0.0487892955943
13875050 0.337208649761 0.0485242129298
13875700 0.338173935413 0.0481476990185
13876350 0.338076207169 0.0484476321481
13877000 0.338163269941 0.0488182761602
13877650 0.337795177424 0.0489173932457
13878300 0.338128880659 0.0488224235722
13878950 0.338782021038 0.0482189720111
13879600 0.33875520525 0.0488037843123
13880250 0.339154196427 0.0492171495233
13880900 0.339037721386 0.0491276419517
13881550 0.33955722716 0.0489565891389
13882200 0.33989825093 0.0486096901319
13882850 0.340282270986 0.0493390729002
13883500 0.339887927761 0.0494566441966
13884150 0.339918683271 0.049383082272
13884800 0.340149662297 0.0488875211747
13885450 0.340748359137 0.0490767937211
13886100 0.340747315708 0.0494083065027
13886750 0.340717322851 0.0497453691709
13887400 0.340874285806 0.0495178929534
13888050 0.341841100608 0.0491468796652
13888700 0.341758365948 0.0494101245671
13889350 0.341857445642 0.0497492033765
13890000 0.341746362647 0.0500387210136
13890650 0.341749689813 0.049892722664
13891300 0.342090042866 0.0498376862372
13891950 0.342596024032 0.0492254172387
13892600 0.342678653448 0.0498098844988
13893250 0.342860577932 0.0500990773688
13893900 0.343155301011 0.0502013784946
13894550 0.343416700726 0.0499011986333
13895200 0.343789914112 0.049562001836
13895850 0.344227523893 0.0503283301378
13896500 0.343939022241 0.0505010952844
13897150 0.343890945386 0.0504109340972
13897800 0.344057327691 0.0498983265871
13898450 0.344674627214 0.0500380101921
13899100 0.344718945829 0.0504131627504
13899750 0.344907715245 0.0508267061024
13900400 0.34490122932 0.0505751938093
13901050 0.34578674706 0.0500365328724
13901700 0.345725374138 0.0503424254971
13902350 0.345831187467 0.0507444953429
13903000 0.345573687313 0.0509161947339
13903650 0.345927826803 0.0508429289282
13904300 0.346359200432 0.0501679989109
13904950 0.346446591854 0.0507219475468
13905600 0.346791692903 0.0510398061297
13906250 0.346964028431 0.0511849703241
13906900 0.347308600184 0.0509082609718
13907550 0.347594862889 0.0504252816252
13908200 0.348043034829 0.0511911996561
13908850 0.347666947148 0.0513702575713
13909500 0.347747189222 0.0513522460255
13910150 0.347864576253 0.0508567245259
13910800 0.348503578756 0.0509113089626
13911450 0.348550238329 0.0513129376476
13912100 0.348671246322 0.0517045143329
13912750 0.348750337947 0.0514940144538
13913400 0.349555133044 0.0509454554756
13914050 0.349557167789 0.0512247066103
13914700 0.349732271579 0.0515873822779
13915350 0.349474094752 0.0518596843428
13916000 0.349823478979 0.0518158017302
13916650 0.350274870273 0.0510577823483
13917300 0.350270506092 0.0515797354535
13917950 0.350883400404 0.0519752158935
13918600 0.350711026666 0.0520512782442
13919250 0.351087096952 0.0518366669065
13919900 0.351460274624 0.0512552319832
13920550 0.351859198511 0.0520028917214
13921200 0.351580976598 0.0522240737048
13921850 0.351635520786 0.0522644867438
13922500 0.35166590039 0.0518401863662
13923150 0.352393833147 0.05171905038
13923800 0.35239263574 0.0522096947774
13924450 0.352464304027 0.0525175564103
13925100 0.352644985122 0.0523607097431
13925750 0.353343664081 0.0518507964163
13926400 0.353440009021 0.0519803407665
13927050 0.353592929784 0.0524014368709
13927700 0.353586398047 0.0527344781074
13928350 0.353709891782 0.0526500968241
13929000 0.354182933562 0.0518767889798
13929650 0.354158481225 0.0523925057552
13930300 0.354754476298 0.0527645970079
13930950 0.354484210864 0.0529012313995
13931600 0.355020116584 0.0527585654545
13932250 0.35525102845 0.0519778233585
13932900 0.35573379297 0.0527860909143
13933550 0.355479931972 0.0530163917213
13934200 0.355355426421 0.0530864689829
13934850 0.355545830573 0.0526757515592
13935500 0.356222315818 0.0524444065921
13936150 0.35625059401 0.0529793632861
13936800 0.356416987922 0.0532625465349
13937450 0.356587540785 0.053181314771
13938100 0.357188126179 0.0526393806472
13938750 0.357499352465 0.0527617581087
13939400 0.357498853747 0.0531899123198
13940050 0.357672311191 0.0535388013619
13940700 0.357501655499 0.0534457963861
13941350 0.358072757709 0.0527212444675
13942000 0.358050826167 0.0531842732317
13942650 0.358666867373 0.0534822524775
13943300 0.358435235315 0.0536792946003
13943950 0.358910770642 0.0534984126649
13944600 0.359099219077 0.0526628230917
13945250 0.359581058647 0.0533950251243
13945900 0.35947585155 0.053722312345
13946550 0.35929967516 0.0538156582029
13947200 0.359506649234 0.0534835102894
13947850 0.360226143627 0.053078086344
13948500 0.360285130206 0.0536790168294
13949150 0.360410820065 0.0539816106829
13949800 0.360792509371 0.053925241866
13950450 0.361054180042 0.0533087580638
13951100 0.361514282442 0.053469177491
13951750 0.36151035046 0.0538607373438
13952400 0.361673322427 0.0542204575038
13953050 0.361416342622 0.0541318719284
13953700 0.361986261248 0.053437789209
13954350 0.361955839729 0.053808762684
13955000 0.36261762237 0.0541031520241
13955650 0.362483226494 0.0540904173385
13956300 0.362566633825 0.0539395581226
13956950 0.362728074472 0.0543031541442
13957600 0.363254271271 0.0542404561597
13958250 0.363414455531 0.0537739038899
13958900 0.36400830129 0.0542179776912
13959550 0.364100419053 0.0539879676747
13960200 0.364180699982 0.0544248396826
13960850 0.364163374032 0.0543206021426
13961500 0.364508310107 0.0540727451018
13962150 0.364613232981 0.0544326579909
13962800 0.364898230287 0.054423472494
13963450 0.364937081732 0.0546454067966
13964100 0.365365225846 0.0542998697368
13964750 0.365759715807 0.0542407633365
13965400 0.366177709191 0.0543663532802
13966050 0.366121086541 0.0546575762007
13966700 0.366192673774 0.0547169042536
13967350 0.366475633519 0.0542707012818
13968000 0.366382057868 0.0546593578996
13968650 0.366692324497 0.0545800713422
13969300 0.366738599096 0.054998313057
13969950 0.367100838599 0.0548785145716
13970600 0.367461026807 0.0543716885506
13971250 0.368051142058 0.0547745505503
13971900 0.368052913099 0.0545861224584
13972550 0.368356902502 0.0550324973707
13973200 0.368230167952 0.0548881489131
13973850 0.368520374149 0.0545890614071
13974500 0.368765997677 0.0549967472298
13975150 0.368989329537 0.0549124495763
13975800 0.368988536095 0.0551906442051
13976450 0.369295682714 0.0549608744272
13977100 0.369871793012 0.0547802176567
13977750 0.370027760034 0.054947077365
13978400 0.37019920156 0.055134043107
13979050 0.370240736803 0.0552966605715
13979700 0.370434828167 0.0549307175178
13980350 0.370441164396 0.0551736691705
13981000 0.370890962121 0.055088946834
13981650 0.370885873389 0.0555486976092
13982300 0.371339465845 0.0553656121808
13982950 0.371406685258 0.0549141538077
13983600 0.372062510584 0.0552904309395
13984250 0.37226004242 0.0550054608905
13984900 0.372437558402 0.0555343958415
13985550 0.372266766227 0.0554082039271
13986200 0.372474427066 0.0551752264094
13986850 0.372867473702 0.0555271773912
13987500 0.373029066366 0.0553988221157
13988150 0.373039235689 0.0556910360728
13988800 0.373325209902 0.0553825606062
13989450 0.373872085066 0.0552014989841
13990100 0.373988495432 0.0554543111847
13990750 0.374373647777 0.0555477561472
13991400 0.374329682615 0.0557393658498
13992050 0.374367117747 0.0554983439881
13992700 0.374485071114 0.0556121931517
13993350 0.374944773095 0.0555362916254
13994000 0.374966596679 0.0559943118546
13994650 0.375497300472 0.0558595908477
13995300 0.375497183993 0.0553919939965
13995950 0.376109017313 0.0557249780482
13996600 0.376480953347 0.0554929450406
13997250 0.376534514192 0.0559618302951
13997900 0.376465687524 0.055901702404
13998550 0.37634625831 0.0556629272619
13999200 0.376986664873 0.0560356902491
13999850 0.376996502824 0.0558981000509
14000500 0.377289512446 0.0560720438452
14001150 0.377391372459 0.0559824303547
14001800 0.377877505698 0.0556313967556
14002450 0.378125676898 0.0559441000663
14003100 0.378593882849 0.0558715012685
14003750 0.378554839538 0.0562016885673
14004400 0.378739817144 0.0559128860225
14005050 0.378651409347 0.0560645552993
14005700 0.379159504796 0.0560092569095
14006350 0.379274570787 0.0562774936901
14007000 0.379670325412 0.0561952364434
14007650 0.379616478867 0.0558038969169
14008300 0.380181810271 0.056072560816
14008950 0.380486723692 0.0558782969698
14009600 0.380676938511 0.0563264000235
14010250 0.380629123893 0.0562430543532
14010900 0.380538503251 0.0559303175641
14011550 0.38115122467 0.0563718466435
14012200 0.38105758181 0.0562426007807
14012850 0.381533755008 0.0564684769769
14013500 0.381614544518 0.056363111833
14014150 0.381929802555 0.0559747790646
14014800 0.382323804775 0.0562290075066
14015450 0.382804909821 0.0561261213822
14016100 0.382709288346 0.0564684584377
14016750 0.382917763685 0.0561382723026
14017400 0.382818130733 0.0563054548835
14018050 0.383321331197 0.0562666282249
14018700 0.383561420743 0.0565819326143
14019350 0.38382245271 0.056562172034
14020000 0.383803799591 0.0561006061188
14020650 0.384387129814 0.0566075606808
14021300 0.384234257123 0.0560595699634
14021950 0.384954216165 0.056403070025
14022600 0.385185048661 0.0562738908351
14023250 0.385308325375 0.0567049083574
14023900 0.385237433916 0.0566579826372
14024550 0.38519091978 0.0562696583385
14025200 0.385594639451 0.0565842724189
14025850 0.385870531425 0.056821425573
14026500 0.386142597107 0.0568272667522
14027150 0.38633708081 0.0565752346847
14027800 0.386700600325 0.0563402986648
14028450 0.386888498555 0.0563562872467
14029100 0.387527152131 0.0567301815428
14029750 0.387583202028 0.0566210748373
14030400 0.387377859346 0.0563906034337
14031050 0.387587964794 0.0567974182653
14031700 0.387969952077 0.0564529746187
14032350 0.388395298693 0.056880183403
14033000 0.388562544442 0.0567986250343
14033650 0.388400139772 0.0562833056654
14034300 0.38907830423 0.056744318351
14034950 0.38929364485 0.0563993775346
14035600 0.38943906782 0.0568872174424
14036250 0.389486465418 0.0568564805409
14036900 0.389376675794 0.0564234877277
14037550 0.38980691812 0.0567779830962
14038200 0.390054787197 0.0568572927726
14038850 0.390503896294 0.0568805447399
14039500 0.390630209918 0.0567276570123
14040150 0.390925926166 0.0564159689019
14040800 0.391064664308 0.0565633001288
14041450 0.391804861634 0.0568259189417
14042100 0.391802470177 0.0567920063339
14042750 0.391704957427 0.0565641626647
14043400 0.39178271728 0.0568362100043
14044050 0.392178694936 0.0566528231418
14044700 0.392632814754 0.0570283859047
14045350 0.392721583634 0.0569845984558
14046000 0.39261471623 0.0564520697786
14046650 0.39319146419 0.0568415278306
14047300 0.39328812807 0.0565065410867
14047950 0.393699953959 0.0569704027918
14048600 0.393880034633 0.0569331326133
14049250 0.39357088909 0.0565210658447
14049900 0.394172071331 0.0568909899665
14050550 0.394278676679 0.0569269439807
14051200 0.394816881028 0.0569175379671
14051850 0.395019805416 0.0567086851181
14052500 0.395144877393 0.0564164733788
14053150 0.39531505996 0.0565885106241
14053800 0.395988725471 0.0567747696234
14054450 0.396090284939 0.0568119615697
14055100 0.395880257955 0.0566070439961
14055750 0.396050478226 0.0568813243242
14056400 0.396279439204 0.0566682109906
14057050 0.396812625853 0.057011837082
14057700 0.396902593993 0.0569650370982
14058350 0.396850172404 0.0565596598267
14059000 0.397456637068 0.0567801515063
14059650 0.397535082365 0.0564843039144
14060300 0.397977086025 0.0569605569718
14060950 0.398219572114 0.0568634486019
14061600 0.397904198209 0.0563976723175
14062250 0.398605766636 0.0568544529781
14062900 0.39851559336 0.0569082876069
14063550 0.399138529173 0.0568960546716
14064200 0.399342505809 0.0567435197243
14064850 0.39941372282 0.0563390671381
14065500 0.399579227674 0.0566099029946
14066150 0.400203518903 0.0566619369706
14066800 0.400357596097 0.056723664278
14067450 0.400108834432 0.0567268706436
14068100 0.400267875885 0.0567452178067
14068750 0.400486976708 0.0567008371443
14069400 0.400991326868 0.057000424364
14070050 0.401190445308 0.0568704196602
14070700 0.401107853228 0.0563809928006
14071350 0.401734179277 0.0566621607421
14072000 0.40190602989 0.0563414121464
14072650 0.402302462944 0.0568167916198
14073300 0.402541583316 0.0566808072838
14073950 0.402212137653 0.0562796929101
14074600 0.402841637534 0.0567116851494
14075250 0.402762596628 0.0566929601814
14075900 0.403390699894 0.0566941647497
14076550 0.403675232168 0.0567028424006
14077200 0.403551746519 0.0561843789281
14077850 0.403875201149 0.0564504400493
14078500 0.404317595317 0.0564899276905
14079150 0.404530694961 0.0566274319697
14079800 0.404433094514 0.0566119808842
14080450 0.404575944695 0.0565270944972
14081100 0.40478875185 0.0565097048163
14081750 0.405358567505 0.0567549197447
14082400 0.405491578684 0.0566704273034
14083050 0.40553551407 0.0562248461866
14083700 0.406070971369 0.056385039776
14084350 0.406273066993 0.0561120245988
14085000 0.40664740067 0.0565784689519
14085650 0.406697485955 0.0561559944074
14086300 0.406905214279 0.056402025695
14086950 0.40697538153 0.0562573970467
14087600 0.407108183612 0.0561607555119
14088250 0.407352587874 0.0563895750821
14088900 0.407767725576 0.0564608592621
14089550 0.408089102327 0.056310229234
14090200 0.407989745131 0.055904014456
14090850 0.408489667564 0.0562690889484
14091500 0.408502734831 0.0560534463996
14092150 0.409140344379 0.0563112771629
14092800 0.409378134242 0.0561562930847
14093450 0.408831461274 0.0560033771425
14094100 0.409552269776 0.0562985549853
14094750 0.409454027991 0.056105195634
14095400 0.410174062983 0.0562553271267
14096050 0.410269668093 0.0562300161231
14096700 0.410107051875 0.0556883080593
14097350 0.410915098988 0.0559795368396
14098000 0.410822217594 0.0559762074266
14098650 0.411235378804 0.0561364614063
14099300 0.411445829133 0.055991030309
14099950 0.411365480389 0.0557923913409
14100600 0.411652928121 0.0560541613067
14101250 0.412103379412 0.0560554064638
14101900 0.412411955142 0.0559930093429
14102550 0.412525864278 0.0556207376028
14103200 0.412775877861 0.0558755782783
14103850 0.412788956894 0.0557025437204
14104500 0.413426252692 0.0559649793665
14105150 0.413625654773 0.0557758476397
14105800 0.413096740827 0.0557913132327
14106450 0.413924910783 0.0559079339253
14107100 0.413861375998 0.055743398306
14107750 0.414502764203 0.0559057982659
14108400 0.414619773776 0.0558677060514
14109050 0.414388580191 0.0553418702376
14109700 0.415241187214 0.0555644028487
14110350 0.415139010511 0.0555797875014
14111000 0.415594067777 0.0556919901553
14111650 0.415804850619 0.0555990691284
14112300 0.415597701784 0.0553103307667
14112950 0.416013070969 0.055630623399
14113600 0.416369371006 0.0556566547098
14114250 0.416684854018 0.0556297570514
14114900 0.416703737929 0.0552244441639
14115550 0.417005139921 0.0553923670243
14116200 0.417153869019 0.0553400329777
14116850 0.417767199763 0.0554733211897
14117500 0.417930090418 0.0553265037637
14118150 0.417536783362 0.0553348738334
14118800 0.418412342298 0.0553182471059
14119450 0.418237482305 0.0552364653743
14120100 0.418764494136 0.0554595550165
14120750 0.418964767532 0.0554085278562
14121400 0.418767308974 0.0548434191802
14122050 0.41960752097 0.0550396761681
14122700 0.419423470954 0.0550021266046
14123350 0.41996986384 0.055189889351
14124000 0.420102883365 0.0550619294564
14124650 0.419928656925 0.0547497513759
14125300 0.420424848795 0.0551332999219
14125950 0.420668501911 0.0551070991703
14126600 0.420988763906 0.0551275283346
14127250 0.421081403837 0.0548032622279
14127900 0.421310840652 0.054825292179
14128550 0.42156718193 0.0547548253994
14129200 0.422125375206 0.0548061765623
14129850 0.422279983604 0.0547891119137
14130500 0.421882825216 0.0548412402732
14131150 0.422733582961 0.05472149418
14131800 0.422607681561 0.0546531765263
14132450 0.423141599359 0.0549177366405
14133100 0.423323440549 0.0547799676632
14133750 0.423091648132 0.05439705784
14134400 0.424041933982 0.0543664721625
14135050 0.423744775331 0.054420122353
14135700 0.424293350882 0.0545864593359
14136350 0.424366335433 0.0545799326566
14137000 0.424199625529 0.0543042010975
14137650 0.424822506844 0.054524800874
14138300 0.424953627982 0.0544722747669
14138950 0.425368172828 0.0544733335792
14139600 0.425503212776 0.0542386136003
14140250 0.425501701213 0.054210060945
14140900 0.425976396799 0.0540803131992
14141550 0.426527900967 0.0540613201576
14142200 0.426533162884 0.0542302852053
14142850 0.426219574191 0.0542651215365
14143500 0.427004960392 0.0540666031161
14144150 0.426987281106 0.0539988512025
14144800 0.427481992965 0.0542222548231
14145450 0.4277001716 0.0540605450549
14146100 0.427435115447 0.053779442492
14146750 0.428413435859 0.0536660675255
14147400 0.428037958263 0.0538223809825
14148050 0.428627425417 0.0538875414053
14148700 0.428828349077 0.0538643199638
14149350 0.428434321906 0.0536716792582
14150000 0.429143938853 0.0538134123385
14150650 0.42946173839 0.0537791187692
14151300 0.429451783521 0.0537560626505
14151950 0.429823632043 0.0537024641682
14152600 0.42993756804 0.0534997791584
14153250 0.430207723793 0.0534028569055
14153900 0.430746772625 0.053380110654
14154550 0.430767566377 0.05337069246
14155200 0.431386595684 0.0531124328287
14155850 0.430774496111 0.0533007306515
14156500 0.431621882825 0.0532502044291
14157150 0.431728306466 0.0533544367103
14157800 0.431830410441 0.0531807698565
14158450 0.432196756291 0.053225425903
14159100 0.431972699614 0.0529538966936
14159750 0.432746821614 0.0530558930574
14160400 0.432909497241 0.0529195651343
14161050 0.432996579252 0.0529216990641
14161700 0.433406097991 0.0528739088832
14162350 0.43306061953 0.0527332887176
14163000 0.433833019926 0.0529829075352
14163650 0.43387013464 0.0529942439286
14164300 0.434172678224 0.0528692961038
14164950 0.434404890885 0.0525713807372
14165600 0.434468387582 0.0526276608734
14166250 0.43513007495 0.0525126120785
14166900 0.435073455351 0.0525804806925
14167550 0.435646125555 0.0523128955947
14168200 0.435215865776 0.052542379999
14168850 0.435875145201 0.0523436386994
14169500 0.436083003325 0.05248770665
14170150 0.436179242939 0.0523559961626
14170800 0.436595870347 0.052373444709
14171450 0.436253793558 0.0522053170935
14172100 0.437147159243 0.0520795737395
14172750 0.437255206551 0.0521210819076
14173400 0.437359519652 0.0520764333566
14174050 0.437765022962 0.0520359685446
14174700 0.437417572241 0.0519410471969
14175350 0.438173198621 0.0520438468177
14176000 0.438314463646 0.0519719553721
14176650 0.438459117881 0.0519888361562
14177300 0.438852960539 0.0515876218825
14177950 0.438653427777 0.0516495349814
14178600 0.439462133737 0.0515125562522
14179250 0.439379630483 0.051635084219
14179900 0.439930207724 0.0514292719559
14180550 0.43955346709 0.0516336030648
14181200 0.440224766032 0.0514033330322
14181850 0.440474755813 0.0515187372565
14182500 0.440496207399 0.051410965899
14183150 0.440882961013 0.0513873991591
14183800 0.440541157906 0.0513547093947
14184450 0.44153914459 0.0509830400951
14185100 0.441583793295 0.0510977302755
14185750 0.441632472799 0.0510615917381
14186400 0.442144132648 0.0510085654247
14187050 0.441722328159 0.0508535736911
14187700 0.442499789342 0.0509998049887
14188350 0.442566236739 0.0509016716887
14189000 0.442797898705 0.0509265567934
14189650 0.44310084617 0.0507150962805
14190300 0.442929771285 0.0507117357564
14190950 0.443764455557 0.0504763054695
14191600 0.443733227392 0.0505931543444
14192250 0.444243225243 0.0503692327759
14192900 0.443962902139 0.0505680175852
14193550 0.44441466082 0.0504427380289
14194200 0.44478779946 0.0503509754274
14194850 0.444757371576 0.050455269611
14195500 0.445232403716 0.0503146364791
14196150 0.44492454181 0.0504269209333
14196800 0.445843980205 0.0498845124079
14197450 0.445891471733 0.0500413503742
14198100 0.445965052853 0.0499263828881
14198750 0.446428489896 0.0499281336439
14199400 0.446130674066 0.0497980439396
14200050 0.446790715689 0.0498663034598
14200700 0.446955723767 0.0498493220603
14201350 0.447075851226 0.0498482066299
14202000 0.447375903472 0.0496549469748
14202650 0.44718327296 0.0496564576177
14203300 0.448085355884 0.0493545157269
14203950 0.447995534247 0.049445789158
14204600 0.448472986084 0.0492768002531
14205250 0.448370527043 0.0494243669624
14205900 0.448535030398 0.049398220407
14206550 0.449182915783 0.0491926622429
14207200 0.449084973743 0.0493237197984
14207850 0.449535669668 0.0491480735735
14208500 0.449245883428 0.0492646019187
14209150 0.450163649736 0.0486417055779
14209800 0.450270842298 0.0488607046113
14210450 0.450317820402 0.0487271091504
14211100 0.450720855299 0.0487028094085
14211750 0.450456255364 0.0487601086986
14212400 0.451081815869 0.0486968821174
14213050 0.451306493652 0.0485897351802
14213700 0.451403445461 0.0487039182166
14214350 0.451939084306 0.0483660562837
14215000 0.45146555501 0.0485095890822
14215650 0.451681895688 0.0485386652454
14216300 0.452522758179 0.048010276973
14216950 0.452842328725 0.0481080524847
14217600 0.453092182768 0.0479696992262
14218250 0.452787272098 0.048103486471
14218900 0.453018276769 0.0479522758459
14219550 0.453640041932 0.0479153301777
14220200 0.453921805646 0.0478565329752
14220850 0.453979889896 0.047904252941
14221500 0.453822180209 0.0479796385328
14222150 0.45414828864 0.047779151449
14222800 0.454868982914 0.0474710337259
14223450 0.455199750206 0.0472573640671
14224100 0.455010335676 0.0475008955299
14224750 0.455024839118 0.0474667635624
14225400 0.455469569998 0.0473167540986
14226050 0.45607352578 0.0470712223493
14226700 0.456149419465 0.0473046446867
14227350 0.456105111715 0.047262915849
14228000 0.456040449449 0.0473056006852
14228650 0.456744090363 0.0468250413594
14229300 0.457113787794 0.0468085502156
14229950 0.457373400656 0.0465931456829
14230600 0.457078790268 0.0467940613969
14231250 0.457273042415 0.0466855212285
14231900 0.457902578119 0.0465853367414
14232550 0.458185234724 0.0465071082273
14233200 0.458366187608 0.0464471244708
14233850 0.458152327674 0.0466049409903
14234500 0.458395813613 0.0464922777964
14235150 0.459084381391 0.0461417190292
14235800 0.459433849121 0.0458202071994
14236450 0.459343809842 0.0460671992095
14237100 0.459238419674 0.0461289404715
14237750 0.459690308888 0.0459805243715
14238400 0.460302987121 0.0456727645225
14239050 0.460378906759 0.0458278079388
14239700 0.460410282901 0.0457801176326
14240350 0.46036178211 0.0458825424281
14241000 0.460969156879 0.0454224986729
14241650 0.461392189103 0.0453525191735
14242300 0.461611699581 0.0451438194547
14242950 0.461377663809 0.0453803668537
14243600 0.46146335237 0.0453561966556
14244250 0.462172583011 0.0451410865522
14244900 0.462441038397 0.0451054923428
14245550 0.462597666825 0.044949430168
14246200 0.462301934358 0.0452873370947
14246850 0.462678802271 0.045037800306
14247500 0.463349146779 0.0447311164162
14248150 0.463714299306 0.0442986486931
14248800 0.463607782093 0.0446244124192
14249450 0.463559383693 0.0445991575912
14250100 0.463946821737 0.0445608046345
14250750 0.464487139378 0.0442960347124
14251400 0.46462551142 0.0443785997287
14252050 0.464648344161 0.0443627018451
14252700 0.464561373125 0.0444767378849
14253350 0.465120415217 0.0440184475655
14254000 0.465584303893 0.0438814776728
14254650 0.465858472843 0.0436399426107
14255300 0.465706292099 0.0437887281343
14255950 0.465705025471 0.0439424700304
14256600 0.466369267459 0.0436214598981
14257250 0.466623632002 0.0436908476499
14257900 0.466827119518 0.0433582799512
14258550 0.466616241832 0.0436903860734
14259200 0.466854587074 0.0435785029472
14259850 0.467541869789 0.0431875167329
14260500 0.467903707355 0.0428401087578
14261150 0.467920407753 0.042955535306
14261800 0.467785524484 0.0430002231413
14262450 0.468127759175 0.043027686359
14263100 0.468723696213 0.042677464179
14263750 0.468822566733 0.0428327895933
14264400 0.468904406426 0.0427596199862
14265050 0.46882920626 0.0428381887892
14265700 0.469327438358 0.042550998878
14266350 0.469802659114 0.0423230038871
14267000 0.470029832938 0.0420914788021
14267650 0.469966588944 0.0421820716701
14268300 0.469927552566 0.0424226680104
14268950 0.470521788806 0.0420148351255
14269600 0.470818011119 0.0420117877719
14270250 0.47106474897 0.0416619068257
14270900 0.470879849769 0.0421725726105
14271550 0.471091158028 0.0419119163254
14272200 0.471718514485 0.0415459169571
14272850 0.472051466049 0.0412591239093
14273500 0.472129560178 0.0413856046279
14274150 0.472066868501 0.0414397899233
14274800 0.472290244519 0.0413877394801
14275450 0.472897597972 0.0411054214955
14276100 0.473038123601 0.0412095538683
14276750 0.473154983546 0.0410764519806
14277400 0.473116366793 0.0411607287164
14278050 0.473482897049 0.0409322835663
14278700 0.473994166966 0.0406357582502
14279350 0.4742006653 0.0405073090895
14280000 0.474156057364 0.0404313369224
14280650 0.474441703458 0.0406148141105
14281300 0.474788978015 0.0403961276303
14281950 0.474703178951 0.0405555920041
14282600 0.47511428343 0.0400139530029
14283250 0.475378139488 0.0400171745082
14283900 0.475668383546 0.0398925142756
14284550 0.475782844438 0.0399504907539
14285200 0.475860907434 0.0400174843218
14285850 0.476284077053 0.0397421244373
14286500 0.476366563415 0.0399752800012
14287150 0.476791913762 0.0395052024764
14287800 0.476824089211 0.0395904151112
14288450 0.476973742527 0.0395241215186
14289100 0.477394378434 0.0391669745526
14289750 0.477522047352 0.0390478865202
14290400 0.477860748003 0.0389769266331
14291050 0.477869859422 0.0391875497434
14291700 0.478052666073 0.0391187992232
14292350 0.478446484524 0.0387906421926
14293000 0.478596866888 0.0388152486905
14293650 0.478940722187 0.038626790291
14294300 0.478889537527 0.0388076250111
14294950 0.479261517462 0.0382968204
14295600 0.479547396193 0.0382532573251
14296250 0.479766099746 0.0381202562355
14296900 0.479927557622 0.0381912088038
14297550 0.47993334981 0.0382770678445
14298200 0.480387500599 0.0379635344489
14298850 0.480520368893 0.0381629759485
14299500 0.480931203491 0.0376455113848
14300150 0.48094067641 0.0378165651063
14300800 0.481105134639 0.037736407151
14301450 0.481542294124 0.0373375572994
14302100 0.481669793252 0.0372624021593
14302750 0.482007719766 0.0370958808973
14303400 0.48202000592 0.0373969777433
14304050 0.48216391844 0.0373515474209
14304700 0.48264081904 0.0369579675736
14305350 0.482742270417 0.0370125160997
14306000 0.483052982487 0.03677925777
14306650 0.482992719991 0.0369375428883
14307300 0.483362100517 0.0365292529804
14307950 0.483690100407 0.0363758163522
14308600 0.483885359828 0.0363027042854
14309250 0.484086491187 0.0362057348142
14309900 0.484148730683 0.0364581727015
14310550 0.484482409506 0.0361138852928
14311200 0.484685760941 0.036271422371
14311850 0.485001585521 0.035788164034
14312500 0.485128022454 0.0359607806839
14313150 0.485201319074 0.0358893605457
14313800 0.48564131743 0.0354044572453
14314450 0.485797022465 0.0353204924222
14315100 0.486063304284 0.0351035626308
14315750 0.486163191341 0.0354333009059
14316400 0.486304437674 0.0354774326451
14317050 0.486754544783 0.0351129342973
14317700 0.486832497519 0.0351532750348
14318350 0.487154421312 0.0348588817695
14319000 0.487178306316 0.0349399185032
14319650 0.487458288905 0.0346184132464
14320300 0.487750010413 0.0344938930288
14320950 0.487947579863 0.0343657016371
14321600 0.488245275686 0.0341401541793
14322250 0.488230448708 0.0346715749502
14322900 0.488550769246 0.0342628000292
14323550 0.488769995285 0.034361959758
14324200 0.489057699061 0.033776100136
14324850 0.489274978618 0.033947735841
14325500 0.489326346144 0.0339976064762
14326150 0.489679020061 0.0335003452134
14326800 0.48988604631 0.0334540537712
14327450 0.490210802143 0.0331551400395
14328100 0.490231252016 0.0334640508033
14328750 0.490371325539 0.0334712980634
14329400 0.490754559362 0.0330929905834
14330050 0.490883148229 0.0332035011968
14330700 0.491207777706 0.0328755582632
14331350 0.491300727077 0.0329619242624
14332000 0.491497752137 0.0327337693386
14332650 0.491842547632 0.0325374993199
14333300 0.492040677004 0.0323939558135
14333950 0.492294006402 0.0321214137246
14334600 0.492282845237 0.0326778144876
14335250 0.492602671616 0.0322579032998
14335900 0.492840740874 0.0323170681407
14336550 0.493122242069 0.0317828141415
14337200 0.493301385434 0.0318037347404
14337850 0.493386379437 0.0319472824747
14338500 0.493777191274 0.0314305932256
14339150 0.493915076537 0.0313733619755
14339800 0.494207602112 0.0311014023194
14340450 0.494372494994 0.0313604606988
14341100 0.494470142506 0.0314151735947
14341750 0.494867258289 0.0309603427758
14342400 0.494964910515 0.0311856085402
14343050 0.495233250242 0.0307893862109
14343700 0.495391919365 0.0308032774517
14344350 0.495531026554 0.0306915952107
14345000 0.495913022083 0.0304726191918
14345650 0.496000748974 0.0302446546029
14346300 0.496182378468 0.0302709808775
14346950 0.496568790667 0.0299183463776
14347600 0.496639378071 0.0300813118913
14348250 0.496911208597 0.0298176763855
14348900 0.496995518416 0.0302398143454
14349550 0.497254791814 0.0300056614372
14350200 0.49758145403 0.0294579711364
14350850 0.497685398255 0.029597528817
14351500 0.497943272525 0.0293650090107
14352150 0.49812305773 0.0293702152166
14352800 0.498383401355 0.0288434877164
14353450 0.498645926191 0.0289466836698
14354100 0.498741715892 0.0290674335294
14354750 0.498986822155 0.0289881367668
14355400 0.499174122816 0.0288141707906
14356050 0.499394838857 0.0286408660565
14356700 0.499641115897 0.0286159851708
14357350 0.499796336978 0.0281697790701
14358000 0.500019019053 0.0282277421414
14358650 0.50019515793 0.028153809394
14359300 0.50048858718 0.0277810079001
14359950 0.500675171796 0.0279279652212
14360600 0.500884146271 0.0277038104278
14361250 0.50101720549 0.0281522546063
14361900 0.501276484527 0.0278464237653
14362550 0.501583092456 0.0272499931936
14363200 0.501675331282 0.0274729486201
14363850 0.501953601217 0.0271635257934
14364500 0.502085225351 0.0272547468757
14365150 0.502361454144 0.0266928382136
14365800 0.502606651633 0.0266828420727
14366450 0.502698166879 0.0268966398754
14367100 0.502970282765 0.0267330139088
14367750 0.503187048955 0.0266811463013
14368400 0.503399530286 0.0264313194585
14369050 0.50365956231 0.0263929516059
14369700 0.503758931807 0.0260142261268
14370350 0.503968817953 0.0259245587052
14371000 0.504202444067 0.025921177175
14371650 0.504485433383 0.0254915979096
14372300 0.504686682641 0.0256722689177
14372950 0.504833104454 0.0255205040876
14373600 0.504958249893 0.02581698734
14374250 0.505213040976 0.0256271550016
14374900 0.505519575721 0.025069966256
14375550 0.505640886575 0.0252259448457
14376200 0.50592754818 0.0248105132581
14376850 0.506025000647 0.024929816217
14377500 0.506226730455 0.0243110355932
14378150 0.506550881028 0.0244166506396
14378800 0.506646494735 0.0246205987848
14379450 0.506893923393 0.0243969940661
14380100 0.507110320986 0.0244855781225
14380750 0.50723039055 0.0241768979053
14381400 0.507589547374 0.0240042472354
14382050 0.507672495604 0.0236603229271
14382700 0.507933810175 0.0237121828311
14383350 0.508076713598 0.0235795582178
14384000 0.508319716554 0.0232354444181
14384650 0.508548531969 0.0233096737344
14385300 0.508691772655 0.0232015608044
14385950 0.508940090444 0.02335685732
14386600 0.509151457851 0.023327059022
14387250 0.509354052167 0.0226842780603
14387900 0.509571239555 0.0228840086301
14388550 0.509785160408 0.0225295880712
14389200 0.50999290003 0.0225544889752
14389850 0.510178237618 0.0221114509488
14390500 0.5104773501 0.0219969261122
14391150 0.510576699619 0.0222518524115
14391800 0.510817755487 0.0219753457409
14392450 0.510999496298 0.0221345824335
14393100 0.511216673314 0.0217949126451
14393750 0.511475422576 0.0216061260637
14394400 0.511586479511 0.0213554674011
14395050 0.511862610029 0.0213738181642
14395700 0.511958415605 0.0212165104009
14396350 0.512205083817 0.0208357857081
14397000 0.512476705168 0.0209102306556
14397650 0.512593119012 0.0208301459071
14398300 0.512865137629 0.0209184084481
14398950 0.513075756922 0.0208486671214
14399600 0.513241221819 0.0202147077844
14400250 0.513495219898 0.0205014186589
14400900 0.513634170528 0.0200675538015
14401550 0.513845843967 0.0201206484733
14402200 0.514054310076 0.0197435463807
14402850 0.514275003353 0.0195622876493
14403500 0.51452145204 0.0197832103267
14404150 0.514668117326 0.0195102026076
14404800 0.515002659972 0.0196726954809
14405450 0.515078067863 0.0194215766103
14406100 0.515373202389 0.0191379438282
14406750 0.515494169889 0.0189560316246
14407400 0.515724987805 0.018878749743
14408050 0.51593843761 0.0188152701535
14408700 0.516075366192 0.0183674630801
14409350 0.516357281777 0.0183279524284
14410000 0.516477804006 0.0183846926752
14410650 0.516850485587 0.0180664268395
14411300 0.516972324906 0.0179076378148
14411950 0.517214019199 0.0182617067536
14412600 0.517346537934 0.0182671732561
14413250 0.517595658016 0.017707578302
14413900 0.517827458742 0.01746924006
14414550 0.517956066298 0.0172738760416
14415200 0.518226344264 0.0177196502705
14415850 0.518356111471 0.0172763381965
14416500 0.518613484708 0.0168817180278
14417150 0.518812546196 0.0167959753906
14417800 0.51891690574 0.0167534239337
14418450 0.519193066008 0.0171745250837
14419100 0.519416303659 0.0166184272392
14419750 0.519634939516 0.0163179864843
14420400 0.519767209375 0.0161386198702
14421050 0.519950751739 0.0159437434493
14421700 0.52019366454 0.0164203728732
14422350 0.520346979292 0.0158127363476
14423000 0.520637067782 0.0155878160618
14423650 0.520760260887 0.0155367759095
14424300 0.521071822081 0.0157571695958
14424950 0.521198185199 0.0158374346143
14425600 0.521371112765 0.0151479725201
14426250 0.521614167877 0.014933282594
14426900 0.52168899739 0.0147799871178
14427550 0.521993418215 0.0151903400468
14428200 0.522098904307 0.0146312666047
14428850 0.522376643425 0.0142562706862
14429500 0.522576122751 0.0142438730206
14430150 0.522653809229 0.0141677312523
14430800 0.522965290336 0.014478827157
14431450 0.523184174877 0.014092019924
14432100 0.523398909451 0.0137003823109
14432750 0.523548252521 0.0135445160687
14433400 0.523709791572 0.0133921239239
14434050 0.524084850054 0.0138934038944
14434700 0.52416497392 0.0132473295642
14435350 0.524395555866 0.0129474243483
14436000 0.524567711463 0.0129366831935
14436650 0.524794297408 0.0131084414569
14437300 0.525047350853 0.0132792255899
14437950 0.525134028684 0.0124334766446
14438600 0.525390758154 0.0122780421733
14439250 0.525494208501 0.0121325569487
14439900 0.525839088044 0.0124492016146
14440550 0.52588873174 0.0120465593531
14441200 0.526123991404 0.0116346290581
14441850 0.526337299294 0.0115913238965
14442500 0.526435809625 0.0115592662079
14443150 0.526843623609 0.0118045105781
14443800 0.526946593378 0.0114812642435
14444450 0.527149994032 0.0111035772501
14445100 0.527322149167 0.010927858041
14445750 0.527467352881 0.0108426453088
14446400 0.527845530242 0.0112622516252
14447050 0.527896483507 0.0106356073733
14447700 0.528120665281 0.01026490597
14448350 0.528243754279 0.0102588674532
14449000 0.528555868418 0.0104472697845
14449650 0.528800555065 0.0106178203923
14450300 0.528835028093 0.00968526787922
14450950 0.529124550822 0.00957688123018
14451600 0.529213957982 0.00946214591782
14452250 0.529612604559 0.00975435154123
14452900 0.529623934665 0.00935083065809
14453550 0.529842249222 0.00894650265357
14454200 0.530048841228 0.00890028040259
14454850 0.530151211217 0.00886615417529
14455500 0.530545365093 0.00921087358277
14456150 0.530665301048 0.00889540971547
14456800 0.530866589806 0.00840385825714
14457450 0.530945559388 0.00823536584311
14458100 0.531163251717 0.00810227691469
14458750 0.53161954379 0.00861713811958
14459400 0.531660327687 0.00790650242649
14460050 0.531763666593 0.00744318281755
14460700 0.531909887812 0.00747395633067
14461350 0.532239005963 0.00764871111394
14462000 0.532580335785 0.00789784324567
14462650 0.532533370549 0.0069754577129
14463300 0.532782609524 0.00675161036143
14463950 0.53284256952 0.00672951736201
14464600 0.533258148114 0.00700694537824
14465250 0.53337870445 0.0067106096008
14465900 0.533474240012 0.00619338676197
14466550 0.533700792328 0.00613511350882
14467200 0.533811763374 0.00612652376299
14467850 0.534240374608 0.00652064362277
14468500 0.534400467565 0.006161108789
14469150 0.5345008943 0.00562575179453
14469800 0.534625031624 0.0054229881179
14470450 0.534750197856 0.00535150862356
14471100 0.535324295038 0.00578555398536
14471750 0.535295786295 0.00519648682071
14472400 0.535391625645 0.00459513474152
14473050 0.535604476631 0.00463607968888
14473700 0.535809771507 0.00481910882601
14474350 0.536315912001 0.00512421566148
14475000 0.536211045519 0.00424779595189
14475650 0.536680223387 0.00479240224787
14476300 0.536602096012 0.00421798217741
14476950 0.536768773544 0.00394743736722
14477600 0.537066466504 0.00384841656195
14478250 0.537224632115 0.00386395813425
14478900 0.537528025966 0.0037737377523
14479550 0.537563508549 0.00319078140406
14480200 0.537770903604 0.00312088875493
14480850 0.538031209609 0.00323480012497
14481500 0.538191751694 0.00318313692862
14482150 0.53864049818 0.00324004766989
14482800 0.538603249167 0.00264623813512
14483450 0.538688077645 0.00246387047221
14484100 0.538924194047 0.00231702033035
14484750 0.539263881293 0.00246104157024
14485400 0.539330827747 0.00208362857843
14486050 0.539438007882 0.00161324653321
14486700 0.539591778558 0.00152354425374
14487350 0.539905370952 0.0018769065972
14488000 0.540327373865 0.00189938822392
14488650 0.540285068942 0.0013121873359
14489300 0.540418896439 0.00109487439516
14489950 0.540579433024 0.000935556971841
14490600 0.540858793757 0.000990975670277
14491250 0.541209645649 0.000872077613741
14491900 0.541135708018 0.000414859792567
14492550 0.54133787607 0.000241321235607
14493200 0.541620705043 0.000330157823549
14493850 0.541776043788 0.000220296935448
14494500 0.542249182925 0.000339162932063
14495150 0.542203452843 -0.000304581425396
14495800 0.542294064008 -0.000525311276915
14496450 0.542496382592 -0.00062796581318
14497100 0.542806119724 -0.000573609690465
14497750 0.543019478464 -0.000673458245943
14498400 0.543024160419 -0.00130662954435
14499050 0.543222588547 -0.00135778630746
14499700 0.543513959287 -0.00106211381308
14500350 0.54390391912 -0.00105808059782
14501000 0.543767868182 -0.00163937227203
14501650 0.54402569376 -0.00182318818271
14502300 0.544170192879 -0.00199791154174
14502950 0.544478615753 -0.001910142159
14503600 0.54476160568 -0.00203891834621
14504250 0.544712478651 -0.00255510190883
14504900 0.544883097662 -0.00271631488184
14505550 0.545246048531 -0.00264173223291
14506200 0.545323813071 -0.00280148969605
14506850 0.545841001257 -0.00265675137184
14507500 0.545698855715 -0.0032012105619
14508150 0.545807375991 -0.00346034208806
14508800 0.54606874761 -0.00356079345455
14509450 0.546334749046 -0.00358062240738
14510100 0.546662627253 -0.00363669687195
14510750 0.546546540059 -0.00428284969929
14511400 0.546708830846 -0.00434546577288
14512050 0.547008209817 -0.00406196290188
14512700 0.547424274362 -0.00422260788607
14513350 0.547393267944 -0.00452343542466
14514000 0.547517656054 -0.00476042732756
14514650 0.547640001091 -0.00502432122043
14515300 0.547964258826 -0.00499733490004
14515950 0.548309655171 -0.0051306631197
14516600 0.54820321823 -0.00554946566291
14517250 0.548391709972 -0.00576335428158
14517900 0.54866528489 -0.00575167007789
14518550 0.548781730733 -0.00585671915831
14519200 0.549370794407 -0.00568214553362
14519850 0.549228513119 -0.00625002537645
14520500 0.549340797619 -0.00650898370523
14521150 0.549606829128 -0.00658719884463
14521800 0.549837296674 -0.00656937724633
14522450 0.550180543961 -0.00670621335769
14523100 0.550054091589 -0.00737363822008
14523750 0.550249192387 -0.00735407456765
14524400 0.550575484591 -0.00717023268951
14525050 0.550959113734 -0.00724380236496
14525700 0.5509505702 -0.00755144952045
14526350 0.551042970426 -0.00785843144482
14527000 0.551136612712 -0.00809899089142
14527650 0.551450548226 -0.0080633959253
14528300 0.55181776887 -0.00830358029267
14528950 0.551686068671 -0.00858747374183
14529600 0.551877759502 -0.00885442266581
14530250 0.552126266696 -0.00891064523442
14530900 0.552359062232 -0.00893965360148
14531550 0.552888857296 -0.00883204399369
14532200 0.552696976574 -0.00930379242541
14532850 0.552799573761 -0.00955065712951
14533500 0.553076316042 -0.00964099853218
14534150 0.553309590474 -0.00969696137888
14534800 0.55368675001 -0.00981868962619
14535450 0.553482396308 -0.0104557363934
14536100 0.553717030131 -0.010481428489
14536750 0.554008123714 -0.0103094194581
14537400 0.554344317176 -0.0104529938455
14538050 0.554429495356 -0.0107072009025
14538700 0.554491720863 -0.010984110429
14539350 0.554600181119 -0.0112405418214
14540000 0.554890778983 -0.0113146391369
14540650 0.555173046426 -0.0114155496958
14541300 0.555169651731 -0.0116635126158
14541950 0.555358102355 -0.0118585130245
14542600 0.555684618784 -0.0120137190916
14543250 0.555606435306 -0.0122793367704
14543900 0.556028507913 -0.0123344729671
14544550 0.556043311704 -0.0124908959391
14545200 0.556391787578 -0.0125314568381
14545850 0.556657727384 -0.0125806423709
14546500 0.556553880604 -0.0130270951559
14547150 0.55692338792 -0.0131780267364
14547800 0.556852990547 -0.0133889194895
14548450 0.55727226615 -0.0134853578263
14549100 0.557446140459 -0.0137473349299
14549750 0.557469473591 -0.0141287445365
14550400 0.557835641754 -0.0139583242852
14551050 0.557864606976 -0.0141186896347
14551700 0.558326761255 -0.0141436784752
14552350 0.558324224459 -0.0144348134094
14553000 0.558606193441 -0.0146222789927
14553650 0.558602077893 -0.0148126883859
14554300 0.558822812979 -0.015037641196
14554950 0.559213899375 -0.0152259211678
14555600 0.559092224455 -0.0154377317608
14556250 0.559454753935 -0.0156333408115
14556900 0.559426902649 -0.0156930218779
14557550 0.559811331702 -0.0157241676441
14558200 0.560063347104 -0.0158155965804
14558850 0.559965963937 -0.0161963273542
14559500 0.560279530191 -0.0164560411311
14560150 0.560284035621 -0.0166188074902
14560800 0.560693769596 -0.0167163354445
14561450 0.560828355695 -0.016982165799
14562100 0.560790328904 -0.0173409733847
14562750 0.561267261543 -0.0171810123629
14563400 0.561223845201 -0.0174019000263
14564050 0.561797544341 -0.0174004103035
14564700 0.56178823405 -0.0175830588508
14565350 0.561997444859 -0.0178674644922
14566000 0.562058646248 -0.0180679598076
14566650 0.562208425547 -0.018310181097
14567300 0.562553440996 -0.0184234334455
14567950 0.562489927734 -0.0186883802774
14568600 0.562799709877 -0.01892997011
14569250 0.56272785164 -0.0190707431398
14569900 0.563219875662 -0.0190215453585
14570550 0.563525223127 -0.0191062594167
14571200 0.563308965391 -0.0194233410266
14571850 0.563679794799 -0.0197142805757
14572500 0.56364134066 -0.0198991604793
14573150 0.564034551943 -0.0200150633743
14573800 0.564220579297 -0.0202718240359
14574450 0.564179752862 -0.0205873619939
14575100 0.564631325284 -0.0204844908947
14575750 0.56464226809 -0.0206524299663
14576400 0.565107601895 -0.020794455876
14577050 0.565202235837 -0.0208375686972
14577700 0.565296953916 -0.0212007621552
14578350 0.56540439404 -0.0214229889311
14579000 0.565460035428 -0.0216674295898
14579650 0.565907190419 -0.0217638279307
14580300 0.565869682291 -0.0220171457315
14580950 0.566193021458 -0.0222535865874
14581600 0.566081170784 -0.0224149417936
14582250 0.566542927032 -0.0223608630425
14582900 0.566872065261 -0.0224391936131
14583550 0.566680060795 -0.0227689390238
14584200 0.567015564742 -0.0230858955419
14584850 0.566965656184 -0.02320172299
14585500 0.567315946477 -0.0233628654833
14586150 0.567555679138 -0.0235237772301
14586800 0.567517333371 -0.02385811827
14587450 0.567975697219 -0.0238710129776
14588100 0.567935844892 -0.0240180406737
14588750 0.568379179171 -0.0241206298043
14589400 0.568532798599 -0.0242686738258
14590050 0.568566787546 -0.0245616337056
14590700 0.568715983698 -0.0248069855533
14591350 0.568681166145 -0.0251157431067
14592000 0.569200139382 -0.0251795374909
14592650 0.569157155697 -0.0253504072702
14593300 0.569391789567 -0.0256752872242
14593950 0.569433531625 -0.0258070278446
14594600 0.569763289218 -0.025775207963
14595250 0.570182191602 -0.0259299548887
14595900 0.569980514215 -0.0261063087579
14596550 0.570313021803 -0.0264592297201
14597200 0.570246110951 -0.0265748643942
14597850 0.570625308276 -0.026796025082
14598500 0.570817886704 -0.0269872852005
14599150 0.570741559388 -0.0272489673576
14599800 0.571220501222 -0.0273400448251
14600450 0.571125393631 -0.0275452704685
14601100 0.571540159216 -0.0276240659614
14601750 0.571799700926 -0.0277055358589
14602400 0.571809979432 -0.0280235341551
14603050 0.571998275642 -0.0282498598912
14603700 0.571915538794 -0.0285886087306
14604350 0.572480640888 -0.0286744873718
14605000 0.572491199394 -0.0288746102437
14605650 0.572892861249 -0.0290098308571
14606300 0.572837661212 -0.0292773370311
14606950 0.573056284528 -0.0294106046384
14607600 0.572984996181 -0.0295760048315
14608250 0.573543399892 -0.0296445022476
14608900 0.573683977712 -0.0297331818295
14609550 0.57380535986 -0.0300242322845
14610200 0.573777939464 -0.0303233312296
14610850 0.573851318451 -0.0305015942268
14611500 0.574376492445 -0.0307831299353
14612150 0.574332313578 -0.0309052068978
14612800 0.574592916251 -0.0310963106109
14613450 0.574609516377 -0.031216724443
14614100 0.574793658805 -0.0312949066314
14614750 0.575393609387 -0.0314458668317
14615400 0.575204485718 -0.0316464839353
14616050 0.575579157435 -0.0319064028832
14616700 0.575368731784 -0.0321815442173
14617350 0.575516596854 -0.0324619096534
14618000 0.57605574705 -0.0325177779605
14618650 0.575955095258 -0.0328488240534
14619300 0.576260746856 -0.0329712661124
14619950 0.576167786646 -0.0330793729645
14620600 0.57670512843 -0.0331308012276
14621250 0.57691265662 -0.0333370477099
14621900 0.57701162684 -0.0335637808553
14622550 0.577002561744 -0.0338362865528
14623200 0.577020402236 -0.0340199744794
14623850 0.577457691177 -0.0343423968634
14624500 0.577482617675 -0.0344695413321
14625150 0.577763246868 -0.0346900325282
14625800 0.577768217809 -0.0348076043153
14626450 0.577913796337 -0.0347887730214
14627100 0.57854249072 -0.0350648152443
14627750 0.578371129387 -0.0351468745892
14628400 0.578708670205 -0.0354988939127
14629050 0.57856314263 -0.0357340511489
14629700 0.578709168397 -0.0360783747153
14630350 0.579323944104 -0.0361845564327
14631000 0.579098854875 -0.0364107216611
14631650 0.579460806215 -0.036557209636
14632300 0.579448355867 -0.0366790000516
14632950 0.579871392771 -0.0367657934614
14633600 0.580108537606 -0.0369497518676
14634250 0.580163581901 -0.0372234637037
14634900 0.580190080662 -0.0374324707185
14635550 0.580196367929 -0.0376008526005
14636200 0.580702264711 -0.0379209983839
14636850 0.580641180427 -0.0381189232732
14637500 0.580919577684 -0.0382952081317
14638150 0.580925025091 -0.0383684241179
14638800 0.581059315106 -0.0384619282102
14639450 0.581661562055 -0.0387426748611
14640100 0.581569155471 -0.0387841208906
14640750 0.581777496878 -0.0391874071459
14641400 0.581702662372 -0.0393758429049
14642050 0.581843184874 -0.039643449634
14642700 0.582389918019 -0.0398123464668
14643350 0.582127787575 -0.0400206992003
14644000 0.582582704232 -0.04025150478
14644650 0.582564733127 -0.0402384216365
14645300 0.582912230137 -0.0404509735247
14645950 0.583237435654 -0.0405765373793
14646600 0.583148056821 -0.0408850047816
14647250 0.583348586837 -0.0410518935459
14647900 0.583251513511 -0.0412509190863
14648550 0.583715833013 -0.0415770572968
14649200 0.583703967991 -0.0418168463596
14649850 0.583997064238 -0.0419501965286
14650500 0.583999007594 -0.0420585512727
14651150 0.584143929616 -0.042128320955
14651800 0.584710669238 -0.0424264958568
14652450 0.584623689588 -0.0424945366801
14653100 0.584825711645 -0.0428209559353
14653750 0.584804433414 -0.0430385163807
14654400 0.584956184906 -0.0432726771365
14655050 0.585501224625 -0.043563506546
14655700 0.585250157707 -0.0437316249962
14656350 0.585661585304 -0.0439741790839
14657000 0.585619651537 -0.0439245707351
14657650 0.585979415388 -0.044114962121
14658300 0.586319100561 -0.0442805547602
14658950 0.586185269857 -0.0445576221799
14659600 0.586359279246 -0.0447858073222
14660250 0.586319155649 -0.0449892037492
14660900 0.586747939819 -0.0453634898954
14661550 0.586818733507 -0.0454638504838
14662200 0.586958346819 -0.0457488936235
14662850 0.587015707455 -0.0457879944721
14663500 0.587263999531 -0.0458070043284
14664150 0.587759355733 -0.0461907140655
14664800 0.587748213425 -0.0462316280444
14665450 0.587840255167 -0.0465784173011
14666100 0.587807417886 -0.0467741091787
14666750 0.587962852125 -0.0469657213713
14667400 0.588564282198 -0.0473379238114
14668050 0.588274368476 -0.0474136855543
14668700 0.588584637647 -0.0477769575885
14669350 0.588593681288 -0.0477090538861
14670000 0.588963306214 -0.0479227867945
14670650 0.589112135343 -0.0482073357887
14671300 0.589140570334 -0.0482746967065
14671950 0.589340465734 -0.0485094268575
14672600 0.589827378716 -0.04879512614
14673250 0.589523193496 -0.0488909307108
14673900 0.589841477002 -0.0492822958075
14674550 0.589706784691 -0.0494303534668
14675200 0.590196045421 -0.0497237828166
14675850 0.59036713741 -0.0498974454003
14676500 0.590273000882 -0.0499204635737
14677150 0.590691973997 -0.0502795559387
14677800 0.590715910934 -0.0502375352199
14678450 0.591026778647 -0.0507111536301
14679100 0.591154885475 -0.0507258054781
14679750 0.591098545006 -0.0510269456727
14680400 0.59135279337 -0.051336052096
14681050 0.591272054366 -0.0515486006776
14681700 0.591914413132 -0.0518396758846
14682350 0.591714026215 -0.0517889996538
14683000 0.592016852387 -0.0520888061765
14683650 0.592127526522 -0.0521491156303
14684300 0.592288163506 -0.0524301664336
14684950 0.592744169939 -0.0527291100763
14685600 0.592383900206 -0.0527596640707
14686250 0.592770644553 -0.0531820576447
14686900 0.592650532488 -0.0532910904107
14687550 0.593003300448 -0.0535205271805
14688200 0.593296876063 -0.053858548264
14688850 0.593193363691 -0.0537981881051
14689500 0.593574330029 -0.0542103474467
14690150 0.59359286102 -0.0540913515025
14690800 0.593965548666 -0.0545482543905
14691450 0.594092589248 -0.0546281858956
14692100 0.594014752087 -0.054835395386
14692750 0.594268646715 -0.055260977742
14693400 0.594167609505 -0.0553795117042
14694050 0.594728594247 -0.0557730393999
14694700 0.594674075629 -0.0556835548307
14695350 0.594884418899 -0.055998451013
14696000 0.59513271007 -0.0560843299485
14696650 0.595159434293 -0.0562952205754
14697300 0.595641470154 -0.0566901175089
14697950 0.595303589497 -0.0566499543057
14698600 0.595673740434 -0.0570453933726
14699250 0.595544217363 -0.0572227762405
14699900 0.595888411897 -0.0575049933737
14700550 0.596169021012 -0.0578400184096
14701200 0.596074488171 -0.057732171451
14701850 0.596466661469 -0.0580437195525
14702500 0.596475806463 -0.0580708753788
14703150 0.596829444018 -0.0585079632606
14703800 0.596942503318 -0.0585819057051
14704450 0.596890284421 -0.0587850823855
14705100 0.597119227911 -0.0592525527352
14705750 0.597052835145 -0.0592739131652
14706400 0.597552640657 -0.0597696672909
14707050 0.597545978822 -0.0596749153855
14707700 0.59767393791 -0.0599593810687
14708350 0.597923090792 -0.0600632429208
14709000 0.597909649477 -0.0602585970952
14709650 0.598433922957 -0.0606475456636
14710300 0.598145123175 -0.0606627876987
14710950 0.598440298557 -0.0610526613429
14711600 0.598421476326 -0.0611898935777
14712250 0.598641079659 -0.0614174142546
14712900 0.598973925832 -0.0618332982725
14713550 0.598849954678 -0.0616927905905
14714200 0.599291920695 -0.0620478266407
14714850 0.599303405515 -0.0620374057987
14715500 0.599586377354 -0.0624706314215
14716150 0.599700340126 -0.0626570719115
14716800 0.599635724787 -0.0627717899898
14717450 0.599909667533 -0.0632207098901
14718100 0.599875307189 -0.0632435246071
14718750 0.600305898047 -0.0637134258637
14719400 0.600365978656 -0.0637024777328
14720050 0.600361742308 -0.0639392951253
14720700 0.600753684745 -0.0641291150261
14721350 0.600712003636 -0.0642292791641
14722000 0.601204705024 -0.0647473213693
14722650 0.600896658384 -0.0646976707969
14723300 0.601270711997 -0.0650586679717
14723950 0.601243995616 -0.0652145366937
14724600 0.601423376567 -0.065487872688
14725250 0.601758356648 -0.0658537795965
14725900 0.601670600807 -0.0657277280014
14726550 0.60201909807 -0.0661251164221
14727200 0.602083523537 -0.0660768725428
14727850 0.602328829758 -0.0664800987523
14728500 0.602444345024 -0.0668128731043
14729150 0.602403618833 -0.066764639764
14729800 0.602627755013 -0.0673377904787
14730450 0.602570033069 -0.0672786133326
14731100 0.6029509384 -0.0677971686228
14731750 0.603111979885 -0.0677472321224
14732400 0.603083050359 -0.0680524236268
14733050 0.603479047923 -0.0682960486265
14733700 0.603469675258 -0.0682216036131
14734350 0.603928612524 -0.0688174971418
14735000 0.603696367494 -0.0687769989815
14735650 0.604015115407 -0.0690512665243
14736300 0.604292261103 -0.0694768174914
14736950 0.604086390253 -0.0693980542546
14737600 0.604182683704 -0.0697060704281
14738250 0.604395569395 -0.0699699918235
14738900 0.604703217642 -0.0703288293808
14739550 0.60495491077 -0.0706289469083
14740200 0.604801181587 -0.0705458971285
14740850 0.604910223032 -0.0707678424976
14741500 0.605167754906 -0.0710005126599
14742150 0.605497767767 -0.0713539815421
14742800 0.605600864479 -0.0715779298541
14743450 0.605361016641 -0.0716891302434
14744100 0.605528503324 -0.071951309249
14744750 0.605872771047 -0.0722196869701
14745400 0.606260448301 -0.072521404178
14746050 0.606104787317 -0.072584005229
14746700 0.606108422155 -0.0727124832994
14747350 0.606329725813 -0.0729555416885
14748000 0.606643217169 -0.0731954741471
14748650 0.606993027645 -0.0736530977893
14749300 0.606764854057 -0.0735007581217
14749950 0.606822853732 -0.0738292740125
14750600 0.607048692384 -0.0740555366875
14751250 0.607233326404 -0.0744328115261
14751900 0.607533495635 -0.0747747915261
14752550 0.607390295718 -0.0747038598641
14753200 0.607499296737 -0.0749057508251
14753850 0.607778652517 -0.0751769265175
14754500 0.608032838551 -0.0755414274491
14755150 0.608243400981 -0.075799032209
14755800 0.607996435816 -0.0758454596508
14756450 0.608133342546 -0.0761268372903
14757100 0.608458895525 -0.0763257756352
14757750 0.608801455344 -0.0766989884241
14758400 0.608750841624 -0.0767863394904
14759050 0.60879957303 -0.0768601424092
14759700 0.608992975623 -0.0771685314006
14760350 0.609277919855 -0.0773892423686
14761000 0.609503305334 -0.0778420338542
14761650 0.609387381198 -0.0777717577278
14762300 0.60939545716 -0.078007752863
14762950 0.609493261517 -0.078263811412
14763600 0.609794626129 -0.0785994403597
14764250 0.610091940967 -0.0790406856333
14764900 0.610024504238 -0.0789101261527
14765550 0.61005585189 -0.0791433021345
14766200 0.61030761345 -0.0794038536578
14766850 0.610563748657 -0.0797500456006
14767500 0.610820799208 -0.0800727470323
14768150 0.610553902616 -0.0800684376309
14768800 0.610690402894 -0.0802938856476
14769450 0.611009578916 -0.0805876123104
14770100 0.611341300217 -0.0809645733306
14770750 0.611393875837 -0.0810391149436
14771400 0.611314424633 -0.0811290121667
14772050 0.611490819115 -0.0813673447077
14772700 0.611738668866 -0.0816673701315
14773350 0.612001921508 -0.0821150772774
14774000 0.611905404506 -0.0820297301528
14774650 0.611952820306 -0.0822801545778
14775300 0.612060137542 -0.0825301679389
14775950 0.612344936026 -0.082920876471
14776600 0.612570340361 -0.0833012176602
14777250 0.612528009209 -0.0831447210893
14777900 0.612597465708 -0.0833732497067
14778550 0.612775109633 -0.0836909457881
14779200 0.613072258147 -0.0840422760028
14779850 0.613259038298 -0.0843973465241
14780500 0.613098202616 -0.0843078578403
14781150 0.613224165815 -0.0845738063467
14781800 0.613528480369 -0.0848824444166
14782450 0.613752122064 -0.0852368545277
14783100 0.613850808865 -0.0853716583719
14783750 0.613794406957 -0.0854410418097
14784400 0.613953679057 -0.085700990639
14785050 0.614202755734 -0.0859347888424
14785700 0.614481304413 -0.0863730400077
14786350 0.614385673674 -0.0863587272115
14787000 0.614393409409 -0.0865568090255
14787650 0.61445975604 -0.086834557011
14788300 0.614722316058 -0.0871937506212
14788950 0.615027081008 -0.0875913518239
14789600 0.615004870616 -0.087438649728
14790250 0.615032020593 -0.0876623917504
14790900 0.615281637111 -0.0879343917801
14791550 0.615473693508 -0.0883375306829
14792200 0.615724407564 -0.0887218300658
14792850 0.615557819942 -0.0885993425526
14793500 0.615654422297 -0.0889080668666
14794150 0.615858810861 -0.0891375992221
14794800 0.616179243567 -0.0895803561888
14795450 0.616230597168 -0.0897269164857
14796100 0.616124761345 -0.0897894216008
14796750 0.616328321968 -0.0900550583935
14797400 0.616552978108 -0.0903121029452
14798050 0.616803778983 -0.09077626883
14798700 0.616839833537 -0.0907038680515
14799350 0.616825899993 -0.0909360221411
14800000 0.616881030699 -0.0911970365717
