! Calibrated averaged scanner-service zoom
# Hz S RI R 50
156000000 0.57844036055 -0.258186301041
156006000 0.59657179332 -0.278461568469
156012000 0.575542655383 -0.255170886686
156018000 0.574144775116 -0.256748003833
156024000 0.573208468265 -0.258502692683
156030000 0.572923056535 -0.259195529554
156036000 0.57434821882 -0.259000415505
156042000 0.572440418224 -0.258102376401
156048000 0.572857873702 -0.258435960243
156054000 0.57133994226 -0.259283433828
156060000 0.573683786597 -0.259532367694
156066000 0.572173042896 -0.258545702403
156072000 0.572161596995 -0.258705186755
156078000 0.570531267657 -0.259636059682
156084000 0.572931564447 -0.259996726275
156090000 0.572132380559 -0.258880766521
156096000 0.571969961915 -0.258913805451
156102000 0.570037401282 -0.259692831291
156108000 0.572482903536 -0.260436422102
156114000 0.571723860891 -0.259278538469
156120000 0.571468212194 -0.259202212674
156126000 0.570430199556 -0.259746388731
156132000 0.571906330518 -0.260967619693
156138000 0.572111286096 -0.260224616311
156144000 0.571386528461 -0.259432720763
156150000 0.57090330974 -0.259775086811
156156000 0.571530866448 -0.261222087914
156162000 0.572136042338 -0.260514849987
156168000 0.570987337174 -0.259874984892
156174000 0.571257348919 -0.260059979645
156180000 0.57104051514 -0.261022212444
156186000 0.572553486437 -0.261191790886
156192000 0.570947201198 -0.260095332645
156198000 0.571334255708 -0.260182978619
156204000 0.57018357018 -0.261033986062
156210000 0.572357787905 -0.261390836713
156216000 0.57073799451 -0.260261366753
156222000 0.570966441162 -0.260614717408
156228000 0.569421277003 -0.261278259078
156234000 0.571648111707 -0.261625329362
156240000 0.570781081574 -0.260481279795
156246000 0.570896147048 -0.260445420579
156252000 0.56914721097 -0.261024608139
156258000 0.571166689722 -0.261976669145
156264000 0.570756154847 -0.260692458886
156270000 0.570670733047 -0.260436364585
156276000 0.569451332146 -0.260995037679
156282000 0.570684711583 -0.2618767051
156288000 0.571077929724 -0.261128572393
156294000 0.570234330058 -0.260335935061
156300000 0.57019361909 -0.260750839498
156306000 0.570694916025 -0.26190874871
156312000 0.571456857006 -0.261567812285
156318000 0.569965013638 -0.260610219116
156324000 0.570723407437 -0.260834623194
156330000 0.570749169246 -0.262169802724
156336000 0.572133790727 -0.261988463417
156342000 0.571199612986 -0.261569320021
156348000 0.571044949822 -0.261003792612
156354000 0.569839199356 -0.261814579833
156360000 0.571962743313 -0.26210293543
156366000 0.570606166662 -0.26079241192
156372000 0.570653874628 -0.261056963833
156378000 0.568938235601 -0.261686705817
156384000 0.571519406639 -0.262226824716
156390000 0.570706665755 -0.261036280481
156396000 0.570642334042 -0.260931030523
156402000 0.568528320129 -0.26136593342
156408000 0.570940868515 -0.262401607588
156414000 0.570474613935 -0.261218630352
156420000 0.570277321666 -0.261141780584
156426000 0.56912914371 -0.261400387793
156432000 0.570348000464 -0.262669206509
156438000 0.570653584985 -0.261921824498
156444000 0.569951672998 -0.260982307446
156450000 0.56985527356 -0.261240552775
156456000 0.570113338519 -0.262689817583
156462000 0.570991484019 -0.262264807561
156468000 0.569805858844 -0.261282163724
156474000 0.569868554716 -0.261646660694
156480000 0.569609358375 -0.262489865339
156486000 0.57106725958 -0.262664423016
156492000 0.569633470208 -0.261386943032
156498000 0.569834037432 -0.261761892423
156504000 0.56874702035 -0.262286163422
156510000 0.570855497669 -0.262894901495
156516000 0.569494053957 -0.261585962432
156522000 0.569639170915 -0.261936769377
156528000 0.568003216936 -0.262532943744
156534000 0.570122828337 -0.263188534974
156540000 0.5693675423 -0.26205482307
156546000 0.569519720786 -0.262223647073
156552000 0.567558478949 -0.262657229803
156558000 0.569495258617 -0.263806253131
156564000 0.569307746609 -0.262737632276
156570000 0.569127141803 -0.261773146201
156576000 0.567922751816 -0.262805886409
156582000 0.569045364295 -0.263876601118
156588000 0.569183831257 -0.26315454741
156594000 0.568446228737 -0.262405406574
156600000 0.568306420526 -0.262708355627
156606000 0.569008992921 -0.259884615667
156612000 0.568234470296 -0.259914129074
156618000 0.568421362424 -0.260085469866
156624000 0.568198832262 -0.260486301612
156630000 0.568308369909 -0.260349375394
156636000 0.568614048512 -0.260307914987
156642000 0.568075864381 -0.259836651575
156648000 0.568718728613 -0.260412207191
156654000 0.567824255697 -0.260465109082
156660000 0.569279549759 -0.260796713394
156666000 0.56753283018 -0.260078809465
156672000 0.569203723325 -0.261372395646
156678000 0.567181673066 -0.260930286588
156684000 0.56884019821 -0.260681356974
156690000 0.567425970911 -0.259941347211
156696000 0.569332167789 -0.260866890232
156702000 0.567100895968 -0.261107676453
156708000 0.569539694178 -0.261207642103
156714000 0.567333292874 -0.260357216915
156720000 0.569382741789 -0.261042641326
156726000 0.567403878807 -0.260933490137
156732000 0.569614805338 -0.261078810729
156738000 0.568045197614 -0.260251160108
156744000 0.569274644493 -0.260690987807
156750000 0.568406407929 -0.260739538474
156756000 0.569855917735 -0.261005234032
156762000 0.569076998269 -0.260600108406
156768000 0.569695089169 -0.26064637067
156774000 0.569790140753 -0.260945714801
156780000 0.570170828069 -0.260853253002
156786000 0.570574056773 -0.260655331834
156792000 0.570386059467 -0.260145097689
156798000 0.571055273078 -0.260569660379
156804000 0.570449599722 -0.260461650098
156810000 0.571943147522 -0.260526473665
156816000 0.570531499906 -0.259714137114
156822000 0.571842557408 -0.260592467589
156828000 0.570541637227 -0.260172839069
156834000 0.572740049551 -0.260075374795
156840000 0.571300984976 -0.258921526429
156846000 0.573139429794 -0.259642328805
156852000 0.571519605028 -0.259580287106
156858000 0.574029504886 -0.25965725827
156864000 0.572218656904 -0.258421105635
156870000 0.574242539795 -0.259210337916
156876000 0.572689032339 -0.259097071805
156882000 0.575127292371 -0.259042236954
156888000 0.574006040517 -0.257883770768
156894000 0.575353461006 -0.258296429358
156900000 0.574532873608 -0.258058377242
156906000 0.576394647748 -0.258118611079
156912000 0.575958523251 -0.25767188897
156918000 0.576550045194 -0.257539393351
156924000 0.57682302128 -0.257456283733
156930000 0.577739934069 -0.257245497769
156936000 0.578714284343 -0.256675153238
156942000 0.578830476665 -0.25587891119
156948000 0.579846271029 -0.256166004781
156954000 0.579379920147 -0.255694048745
156960000 0.581221551234 -0.255565306665
156966000 0.580196400127 -0.254303408637
156972000 0.581942728369 -0.25482417743
156978000 0.58092043883 -0.253996846307
156984000 0.583258700542 -0.254051734876
156990000 0.582010052272 -0.252461713993
156996000 0.5842087277 -0.253010034953
157002000 0.582865374549 -0.252685857357
157008000 0.585484968329 -0.252611851683
157014000 0.583353960664 -0.25004711118
157020000 0.585899240973 -0.251648793503
157026000 0.586023789247 -0.250256439354
157032000 0.587271543204 -0.251078789916
157038000 0.586141554856 -0.249877416934
157044000 0.587684147175 -0.250193185319
157050000 0.586948825232 -0.249945423404
157056000 0.588533547307 -0.250172275232
157062000 0.588178483519 -0.249625591937
157068000 0.588446733248 -0.249239507637
157074000 0.588643368635 -0.249348517011
157080000 0.588961774679 -0.249156386833
157086000 0.589859818097 -0.248757411358
157092000 0.589755682175 -0.248022585278
157098000 0.590309706493 -0.248462233117
157104000 0.58996131808 -0.248248364956
157110000 0.591284191401 -0.248301821146
157116000 0.590112406981 -0.24735970035
157122000 0.591446274527 -0.247997863748
157128000 0.589932604824 -0.247536551946
157134000 0.592096828752 -0.247468405587
157140000 0.590853673959 -0.246277246722
157146000 0.592429682639 -0.247187816156
157152000 0.590679094964 -0.246816683733
157158000 0.593089993406 -0.24715230711
157164000 0.591337515439 -0.246096388895
157170000 0.593760945922 -0.246487988312
157176000 0.591471706996 -0.246348431087
157182000 0.594953636266 -0.24713319837
157188000 0.593020883168 -0.245664586595
157194000 0.593803875135 -0.245457845359
157200000 0.592931515609 -0.246066734366
157206000 0.606197560141 -0.235930872178
157212000 0.606727843877 -0.235803617022
157218000 0.605839908443 -0.236860928513
157224000 0.606252050265 -0.236649862648
157230000 0.605840678065 -0.236706508638
157236000 0.605539524087 -0.236805466315
157242000 0.605074918515 -0.237235193378
157248000 0.60502268053 -0.237583423043
157254000 0.605195759108 -0.237899441256
157260000 0.604370176137 -0.237451582286
157266000 0.604621765572 -0.238466521961
157272000 0.603380897792 -0.238551171183
157278000 0.604478152622 -0.239115906714
157284000 0.602684304546 -0.238654712093
157290000 0.604074478578 -0.239658796356
157296000 0.602459755389 -0.239576174881
157302000 0.604056240994 -0.240318723072
157308000 0.602009668734 -0.239530880547
157314000 0.603332142162 -0.240713728246
157320000 0.601744422473 -0.240743276107
157326000 0.603242602644 -0.241602839062
157332000 0.601632709605 -0.241058492913
157338000 0.602425188579 -0.241944121003
157344000 0.600872187302 -0.242062646829
157350000 0.602334838858 -0.242715070242
157356000 0.601432751818 -0.242147978395
157362000 0.601863285561 -0.242863712796
157368000 0.600530567336 -0.243160648924
157374000 0.601228782387 -0.243648667261
157380000 0.601082106376 -0.243315712113
157386000 0.600498539233 -0.243782434152
157392000 0.59995424229 -0.244000156982
157398000 0.599884052121 -0.24475030875
157404000 0.600124019741 -0.244996907997
157410000 0.599518670102 -0.244591253489
157416000 0.599739280394 -0.245452678271
157422000 0.598833349588 -0.245583383187
157428000 0.59956573 -0.246122062797
157434000 0.597922880763 -0.245447972528
157440000 0.598714516741 -0.24649028611
157446000 0.597430471448 -0.246508034048
157452000 0.598948637706 -0.247280479833
157458000 0.596428271815 -0.246083763973
157464000 0.59815473573 -0.247354034953
157470000 0.596598967231 -0.247231616492
157476000 0.597968707924 -0.248112529124
157482000 0.596401183404 -0.24737165165
157488000 0.596840823037 -0.248297003168
157494000 0.59547572485 -0.248274310276
157500000 0.596731171535 -0.248935102611
157506000 0.595733509969 -0.248349858916
157512000 0.596148093995 -0.249069542653
157518000 0.594792627528 -0.249479713411
157524000 0.595779783835 -0.249900297202
157530000 0.595406183998 -0.25006416607
157536000 0.594909236355 -0.250054575788
157542000 0.594536802036 -0.250630779271
157548000 0.594460462825 -0.250875453468
157554000 0.594729148675 -0.251179001365
157560000 0.593819887005 -0.250540801488
157566000 0.594221317165 -0.251442348378
157572000 0.593156491071 -0.251582319668
157578000 0.594421860683 -0.25215461791
157584000 0.592473679472 -0.25132923855
157590000 0.593266268382 -0.252397191021
157596000 0.591964517708 -0.252229305861
157602000 0.593186092425 -0.253095034374
157608000 0.591774790468 -0.251981981663
157614000 0.593397786966 -0.253177488916
157620000 0.591355609329 -0.253027224107
157626000 0.592431132214 -0.253137327717
157632000 0.591125425581 -0.253281756485
157638000 0.591766240655 -0.253961169907
157644000 0.590538765903 -0.254197400082
157650000 0.59186407912 -0.254726302389
157656000 0.59109718986 -0.254079935709
157662000 0.591244735249 -0.25468553421
157668000 0.590113340443 -0.254841910218
157674000 0.590935390977 -0.255293103043
157680000 0.590626748709 -0.255410757609
157686000 0.590022428542 -0.255351203019
157692000 0.589937663719 -0.255898998269
157698000 0.589670120086 -0.255943850078
157704000 0.590059571147 -0.256340603913
157710000 0.589250140538 -0.255770113417
157716000 0.589557048243 -0.256791723106
157722000 0.588748332741 -0.25663986872
157728000 0.589512512678 -0.257228502378
157734000 0.587970756077 -0.256395877572
157740000 0.588822673961 -0.257514968107
157746000 0.587613441765 -0.257199232521
157752000 0.588868086084 -0.258012019051
157758000 0.587562508112 -0.256650586026
157764000 0.588394209966 -0.257982622291
157770000 0.586998110428 -0.25753492912
157776000 0.5884219615 -0.258463668221
157782000 0.586776416996 -0.257654524329
157788000 0.587602050549 -0.258543074063
157794000 0.586365758749 -0.258295187968
157800000 0.587540838298 -0.259029845572
157806000 0.580182417788 -0.263102899822
157812000 0.580320581816 -0.263454806466
157818000 0.580670476019 -0.263333334902
157824000 0.58002676825 -0.262912400279
157830000 0.579725141741 -0.263534500087
157836000 0.57945104106 -0.263701796608
157842000 0.580129801238 -0.263888865231
157848000 0.57953975326 -0.263228299635
157854000 0.579509439763 -0.264133267548
157860000 0.579011654283 -0.26424460765
157866000 0.57998872933 -0.264642750488
157872000 0.579611112972 -0.263890765517
157878000 0.579058126029 -0.264395881329
157884000 0.578338250686 -0.264742770623
157890000 0.579805593943 -0.265086310181
157896000 0.579279898359 -0.264428491695
157902000 0.577991743313 -0.264499454687
157908000 0.578234523117 -0.264807742303
157914000 0.579630426228 -0.265032657317
157920000 0.578867028316 -0.264860765235
157926000 0.577492993855 -0.264178878561
157932000 0.577902233411 -0.265233740428
157938000 0.578566598063 -0.265392468846
157944000 0.57863691328 -0.265310611731
157950000 0.577473067076 -0.264942876089
157956000 0.577408255851 -0.265914259399
157962000 0.578011825031 -0.265960644426
157968000 0.578192053476 -0.265970727297
157974000 0.577531126797 -0.26543534914
157980000 0.577181099568 -0.266337069458
157986000 0.576940627186 -0.266413988296
157992000 0.577873873721 -0.266702011606
157998000 0.577180545695 -0.265825251767
158004000 0.577119887744 -0.26662245016
158010000 0.576689722847 -0.266633766561
158016000 0.577807768728 -0.267040281688
158022000 0.577322944032 -0.266254657707
158028000 0.57680448594 -0.266703460732
158034000 0.576317073577 -0.267202074275
158040000 0.57776568704 -0.26725247987
158046000 0.576844568218 -0.266828219032
158052000 0.576125017521 -0.26706943005
158058000 0.575649107372 -0.267301819099
158064000 0.577082866799 -0.267699664576
158070000 0.576898962292 -0.26735328155
158076000 0.575879384452 -0.266913924067
158082000 0.575681267109 -0.267659667092
158088000 0.576780065062 -0.268015336208
158094000 0.576688148872 -0.267935167186
158100000 0.575604810188 -0.267236752389
158106000 0.575493161672 -0.268138794048
158112000 0.575865434214 -0.268220062748
158118000 0.576200059094 -0.268448825371
158124000 0.5755992005 -0.267815185894
158130000 0.575569722385 -0.268730302368
158136000 0.575324407936 -0.268715295812
158142000 0.575986225815 -0.268840546973
158148000 0.575384778924 -0.268150800063
158154000 0.574637770368 -0.266565232871
158160000 0.574907889275 -0.268987609627
158166000 0.573223033967 -0.274233313964
158172000 0.575407626862 -0.26856581348
158178000 0.574948182417 -0.26903600377
158184000 0.574296284196 -0.269148965541
158190000 0.575439235075 -0.269726755381
158196000 0.574887189378 -0.269062849192
158202000 0.574123649022 -0.26920809792
158208000 0.573869874441 -0.269594605592
158214000 0.574946534187 -0.270403311073
158220000 0.574839000752 -0.269768187262
158226000 0.573801261697 -0.269252969575
158232000 0.573681706959 -0.270107331576
158238000 0.574446830553 -0.270357538006
158244000 0.574467013997 -0.270253219038
158250000 0.573536681509 -0.269655662378
158256000 0.573461621863 -0.270495904079
158262000 0.574006828521 -0.270843451626
158268000 0.574333465045 -0.270774645905
158274000 0.573866183913 -0.269917264794
158280000 0.573540626319 -0.270799647087
158286000 0.573296137628 -0.270984012231
158292000 0.573883177406 -0.271274786326
158298000 0.573335161093 -0.270580808327
158304000 0.572854152292 -0.271261697456
158310000 0.572862107155 -0.271391807224
158316000 0.573667160561 -0.27188199689
158322000 0.573489776995 -0.271039377915
158328000 0.572835974163 -0.271499243406
158334000 0.572502835676 -0.271969486601
158340000 0.573160720253 -0.272503452442
158346000 0.57301916924 -0.271765344442
158352000 0.572308078744 -0.271720166991
158358000 0.571798179155 -0.272374536184
158364000 0.572290671419 -0.272976706781
158370000 0.572641848256 -0.27243119021
158376000 0.571617054568 -0.271967390993
158382000 0.571286751605 -0.272512249054
158388000 0.572233275301 -0.272993286827
158394000 0.572201332334 -0.272845392949
158400000 0.571109248499 -0.272284176939
158406000 0.566505968587 -0.280725162597
158412000 0.566321791719 -0.280240847989
158418000 0.565469069792 -0.279830309082
158424000 0.563459433109 -0.279783546421
158430000 0.566010928795 -0.281558463359
158436000 0.567820786159 -0.281995880455
158442000 0.565095337853 -0.280575264516
158448000 0.564953859413 -0.281924038322
158454000 0.564881408072 -0.282129492619
158460000 0.564941551084 -0.282532439895
158466000 0.56424478916 -0.281629667861
158472000 0.564260120637 -0.282769985799
158478000 0.563771338866 -0.282611843622
158484000 0.564540557817 -0.283712252769
158490000 0.563852298241 -0.282587924093
158496000 0.563667828357 -0.283745192647
158502000 0.562534425476 -0.283193167551
158508000 0.563782849196 -0.284516230899
158514000 0.563395898614 -0.283727394316
158520000 0.563084198628 -0.284367749648
158526000 0.562021260584 -0.284124510484
158532000 0.56328460163 -0.285487600808
158538000 0.562903656903 -0.284830718962
158544000 0.562319607288 -0.284850087774
158550000 0.561237521953 -0.285272252133
158556000 0.562277945885 -0.286351315655
158562000 0.562212178411 -0.286086241564
158568000 0.561301078102 -0.285822943444
158574000 0.561042674155 -0.286331963437
158580000 0.561575490586 -0.287412510147
158586000 0.561049446268 -0.287519233447
158592000 0.56059150013 -0.28657134606
158598000 0.560329034488 -0.287738204436
158604000 0.560434360832 -0.288106101597
158610000 0.560310307062 -0.288648926303
158616000 0.559695271368 -0.287618597286
158622000 0.559531732407 -0.288696202279
158628000 0.55886675987 -0.288604920018
158634000 0.559691100635 -0.289687431542
158640000 0.55914125352 -0.28878693744
158646000 0.558309826554 -0.289944307468
158652000 0.557552837148 -0.289400315666
158658000 0.558685712955 -0.29078508798
158664000 0.558319172129 -0.289997840135
158670000 0.557896375557 -0.290749621597
158676000 0.556754362344 -0.290498337442
158682000 0.558256248476 -0.291947184893
158688000 0.557638750823 -0.29131181032
158694000 0.557058362105 -0.291555997253
158700000 0.556189437246 -0.291866311699
158706000 0.557057542298 -0.292997823474
158712000 0.556720680008 -0.292769204135
158718000 0.555841265548 -0.292651449456
158724000 0.555573449123 -0.2934639681
158730000 0.555888990211 -0.294595291529
158736000 0.555805854979 -0.294657385682
158742000 0.554911416944 -0.293938870255
158748000 0.554314278204 -0.294845570502
158754000 0.554541482224 -0.295187923717
158760000 0.554451598334 -0.295791279288
158766000 0.553487802838 -0.295163505883
158772000 0.555561509293 -0.296245767646
158778000 0.552956932716 -0.296081788038
158784000 0.552238546717 -0.298104938523
158790000 0.552771016387 -0.296425138662
158796000 0.552292994132 -0.297615220383
158802000 0.551125287344 -0.297195205506
158808000 0.551891145471 -0.298764586127
158814000 0.551921601923 -0.29755462169
158820000 0.551069394299 -0.298991718005
158826000 0.550481577288 -0.298328480309
158832000 0.550754991862 -0.300341977443
158838000 0.550401215381 -0.299867835228
158844000 0.549507045095 -0.300137932935
158850000 0.548972841707 -0.300389550269
158856000 0.549275688402 -0.301670307592
158862000 0.548992327664 -0.301530086504
158868000 0.547816342808 -0.301283074834
158874000 0.547701114298 -0.302279498478
158880000 0.547805760078 -0.303233043028
158886000 0.547584016816 -0.303613909215
158892000 0.546702150967 -0.302989701725
158898000 0.546160631969 -0.304104537006
158904000 0.545817773791 -0.304677421914
158910000 0.545880983835 -0.305520966717
158916000 0.545222201149 -0.304634995714
158922000 0.544822601484 -0.306162855833
158928000 0.543936245041 -0.305908084453
158934000 0.544148844645 -0.307331854447
158940000 0.543567968387 -0.306514180628
158946000 0.542465537474 -0.307676083574
158952000 0.541810270371 -0.307510147504
158958000 0.542270672721 -0.309141681571
158964000 0.541561480966 -0.308598423059
158970000 0.541024076347 -0.309420801438
158976000 0.539535472528 -0.309156078391
158982000 0.539994580206 -0.311194603308
158988000 0.539675142692 -0.310874177736
158994000 0.538307598026 -0.311117346422
159000000 0.537358543871 -0.311494463824
159006000 0.544974349806 -0.318079340106
159012000 0.545044980186 -0.318813319055
159018000 0.544558442609 -0.318830093696
159024000 0.544846891863 -0.319140950054
159030000 0.544353480182 -0.319270592943
159036000 0.543986978995 -0.319447346678
159042000 0.544040257603 -0.320409003285
159048000 0.54418384718 -0.320462299296
159054000 0.543667700411 -0.320733349217
159060000 0.542785449721 -0.32013463121
159066000 0.54332292429 -0.32175403345
159072000 0.543040613444 -0.321119717951
159078000 0.542780102731 -0.321846064671
159084000 0.541919195675 -0.320876636287
159090000 0.542372684151 -0.322721968538
159096000 0.542559134532 -0.321928843882
159102000 0.542288282129 -0.323073319914
159108000 0.541292409349 -0.322040441769
159114000 0.541962273848 -0.323629097619
159120000 0.541242721773 -0.322891525109
159126000 0.541474762407 -0.323844104765
159132000 0.540941179667 -0.323342944521
159138000 0.540696362555 -0.325211874714
159144000 0.540413682473 -0.324108238615
159150000 0.541525061135 -0.325229256709
159156000 0.540333534262 -0.324962966697
159162000 0.539931226334 -0.325774603078
159168000 0.53990234006 -0.32555654092
159174000 0.540070830615 -0.32563732214
159180000 0.539583387113 -0.325938803678
159186000 0.539337215531 -0.325919765417
159192000 0.539579926983 -0.326794047403
159198000 0.539678184241 -0.326812902554
159204000 0.539441867865 -0.327212486187
159210000 0.538534749646 -0.326345764991
159216000 0.538828172965 -0.327754831488
159222000 0.538805580416 -0.327089928164
159228000 0.538593736466 -0.327758362189
159234000 0.537789553885 -0.326646573649
159240000 0.539894933237 -0.329437302729
159246000 0.537840630162 -0.327559372573
159252000 0.537317218324 -0.32873054068
159258000 0.537005835558 -0.327429090319
159264000 0.537305844883 -0.329158802058
159270000 0.536923145831 -0.328039461095
159276000 0.537117368479 -0.328852170596
159282000 0.536528045724 -0.328448731304
159288000 0.536578140122 -0.329602847542
159294000 0.536259714095 -0.328896202167
159300000 0.536499482621 -0.32975809624
159306000 0.535871072553 -0.329520310252
159312000 0.535652241284 -0.330030919508
159318000 0.535197528962 -0.3299894267
159324000 0.5353729343 -0.330284928605
159330000 0.534940196361 -0.330302955277
159336000 0.534592283424 -0.330301986176
159342000 0.534600831379 -0.331073014717
159348000 0.534623311848 -0.331121303112
159354000 0.534398717298 -0.331483970834
159360000 0.533526130626 -0.330652687865
159366000 0.533658396238 -0.332244005492
159372000 0.533592843384 -0.331421123883
159378000 0.533402883221 -0.331736139445
159384000 0.532246742223 -0.330886260639
159390000 0.532465884511 -0.33276348063
159396000 0.532177881868 -0.331998421602
159402000 0.532186997937 -0.332944877745
159408000 0.530950020191 -0.331996278807
159414000 0.531282293041 -0.333544476886
159420000 0.530912770275 -0.332550925891
159426000 0.530691080067 -0.333411227401
159432000 0.53019131989 -0.332963019312
159438000 0.530118191574 -0.334213388408
159444000 0.52982217373 -0.33368839278
159450000 0.52979292739 -0.334525114973
159456000 0.52905518083 -0.334366404089
159462000 0.528891984628 -0.334939229829
159468000 0.528415344346 -0.33487889978
159474000 0.5284763629 -0.335100394172
159480000 0.5277669495 -0.335249111422
159486000 0.527624903538 -0.335307207387
159492000 0.527286959897 -0.336083424329
159498000 0.527200396431 -0.336285494328
159504000 0.526629510966 -0.336479608628
159510000 0.52580660973 -0.335908222942
159516000 0.525712456154 -0.337406973263
159522000 0.525796339408 -0.336923693789
159528000 0.525171442996 -0.337671475161
159534000 0.52394805743 -0.339872466048
159540000 0.524036233544 -0.338589069902
159546000 0.524401171463 -0.336391009154
159552000 0.523741423601 -0.339134188243
159558000 0.522674231347 -0.33827450879
159564000 0.522687465569 -0.339883417912
159570000 0.522275444289 -0.338941713203
159576000 0.522069470422 -0.340131141099
159582000 0.521523215456 -0.339594739753
159588000 0.521521795725 -0.340916862677
159594000 0.521247705435 -0.340326471047
159600000 0.521212983307 -0.341338284678
159606000 0.516368992205 -0.347641008263
159612000 0.516149572168 -0.347509376447
159618000 0.514995520867 -0.347242600441
159624000 0.514387499279 -0.347547670385
159630000 0.51418186301 -0.348360119152
159636000 0.513908115062 -0.34794472273
159642000 0.513284815685 -0.348052090447
159648000 0.512467489955 -0.348360599186
159654000 0.512359435444 -0.349524969835
159660000 0.512278423363 -0.349115444118
159666000 0.511727079072 -0.349275228607
159672000 0.510631347524 -0.348788216132
159678000 0.51077969559 -0.349614615842
159684000 0.510612450621 -0.349587590682
159690000 0.510021899045 -0.349508481962
159696000 0.509164920073 -0.348929849572
159702000 0.507354597291 -0.351299671016
159708000 0.509126779225 -0.350488026319
159714000 0.508204380019 -0.351400534263
159720000 0.507238268969 -0.34980923851
159726000 0.506795260429 -0.350271029671
159732000 0.506840596212 -0.351079326216
159738000 0.506293941769 -0.350682274471
159744000 0.505023536676 -0.350710085112
159750000 0.504184617768 -0.351724483059
159756000 0.503544884315 -0.352885706592
159762000 0.503045968203 -0.353547894503
159768000 0.501569485669 -0.353144397835
159774000 0.500721381829 -0.353479629475
159780000 0.500222420488 -0.354881563494
159786000 0.499603080615 -0.354533623958
159792000 0.498734468571 -0.354619449845
159798000 0.497812449354 -0.354999779801
159804000 0.497406158934 -0.356139021868
159810000 0.496986840933 -0.356341976421
159816000 0.496067022701 -0.356441165268
159822000 0.494692950138 -0.356105433631
159828000 0.494412741401 -0.357341112445
159834000 0.493962453287 -0.357497139703
159840000 0.493502287137 -0.357420120308
159846000 0.49269860276 -0.356893392095
159852000 0.492445942602 -0.358169742034
159858000 0.49215268145 -0.35855356674
159864000 0.491776769543 -0.358518894736
159870000 0.490585598122 -0.357654579309
159876000 0.490174591109 -0.358146384199
159882000 0.489935734372 -0.358859698348
159888000 0.489868129421 -0.358652109651
159894000 0.488822615028 -0.358273598045
159900000 0.488546933307 -0.358956870017
159906000 0.488424057778 -0.359903112418
159912000 0.488251324994 -0.359665314777
159918000 0.487247710101 -0.359371173963
159924000 0.486640875527 -0.359351823557
159930000 0.48664535353 -0.360185604355
159936000 0.486414787862 -0.359835892244
159942000 0.485682469528 -0.359737196414
159948000 0.485349469995 -0.359949322642
159954000 0.485408789635 -0.361171772085
159960000 0.484982229456 -0.360895391305
159966000 0.48428027784 -0.361401304801
159972000 0.483914376454 -0.360383940118
159978000 0.48387152501 -0.361298180838
159984000 0.48398738408 -0.361396900686
159990000 0.483189356028 -0.361244358233
159996000 0.482338722524 -0.360625587831
160002000 0.482380497775 -0.361829842812
160008000 0.482444261872 -0.362139146497
160014000 0.482010011136 -0.362210786907
160020000 0.481171509465 -0.361209086964
160026000 0.48071476871 -0.361689149865
160032000 0.481148350024 -0.362593424672
160038000 0.480805707023 -0.362552617945
160044000 0.479974847764 -0.362008678381
160050000 0.47994581391 -0.363101189498
160056000 0.479885921715 -0.363607362201
160062000 0.479690500618 -0.363470449671
160068000 0.478763752004 -0.36319807969
160074000 0.478397402433 -0.363365552015
160080000 0.478376422486 -0.364279395705
160086000 0.478165868078 -0.363869062932
160092000 0.477485573856 -0.363850875411
160098000 0.47696753253 -0.363921887244
160104000 0.476980064606 -0.364711530156
160110000 0.477034226726 -0.364736787105
160116000 0.476133441975 -0.364759168038
160122000 0.475632492255 -0.36398748503
160128000 0.475490048152 -0.364997856364
160134000 0.475390648353 -0.365133198368
160140000 0.474724975932 -0.365153103873
160146000 0.474115475672 -0.364442982201
160152000 0.474025580625 -0.365485448209
160158000 0.474149209969 -0.366119711311
160164000 0.473844595793 -0.366029317565
160170000 0.472898876792 -0.365114221005
160176000 0.472787590814 -0.365685570009
160182000 0.472779415046 -0.366507518401
160188000 0.472562502028 -0.366302663895
160194000 0.471575683232 -0.366486692863
160200000 0.471484288393 -0.36635510762
160206000 0.434185499837 -0.380811783858
160212000 0.433521092702 -0.382125893458
160218000 0.433449513999 -0.381988483211
160224000 0.432846994142 -0.382055019764
160230000 0.432649840213 -0.381545397932
160236000 0.432415902446 -0.382575766225
160242000 0.43239752942 -0.381945746781
160248000 0.431635413283 -0.382313542626
160254000 0.431382423558 -0.381305603695
160260000 0.431092916021 -0.38254986991
160266000 0.431383722036 -0.382182337683
160272000 0.430635102035 -0.382595361276
160278000 0.430194927136 -0.381712783004
160284000 0.429926908304 -0.382802514452
160290000 0.429704011736 -0.381874897199
160296000 0.429399954277 -0.382633512125
160302000 0.428825427224 -0.381584673095
160308000 0.428816058402 -0.382678437112
160314000 0.428465944648 -0.382003333989
160320000 0.427654105773 -0.382653446802
160326000 0.427508574044 -0.382049569354
160332000 0.428311495166 -0.382168903865
160338000 0.427301762717 -0.382060560058
160344000 0.427059411049 -0.382455094395
160350000 0.426231894138 -0.382243114012
160356000 0.426244804616 -0.382089118413
160362000 0.426171207145 -0.382656711731
160368000 0.425830347973 -0.382654628928
160374000 0.425299196331 -0.382726353161
160380000 0.425244846435 -0.382106708669
160386000 0.424866086509 -0.382993339684
160392000 0.424769211881 -0.382446370422
160398000 0.424233410199 -0.382641666342
160404000 0.424063941201 -0.381951853584
160410000 0.423660393776 -0.382931899566
160416000 0.42336745884 -0.382154999086
160422000 0.422868314751 -0.382887712175
160428000 0.422561788974 -0.381975808751
160434000 0.422347161723 -0.382979538528
160440000 0.42208408479 -0.382170720782
160446000 0.42153106551 -0.383006664352
160452000 0.421065900314 -0.382365672364
160458000 0.420959745061 -0.383209068327
160464000 0.420771219228 -0.382478526305
160470000 0.420521494275 -0.382950586091
160476000 0.420219441818 -0.382298938573
160482000 0.420150534352 -0.382755164838
160488000 0.420040216926 -0.382456068361
160494000 0.419835700714 -0.382705717706
160500000 0.419099299846 -0.382466367923
160506000 0.418992728643 -0.382406357124
160512000 0.41876557143 -0.382745582975
160518000 0.418548377406 -0.382668652785
160524000 0.418100306191 -0.382722616764
160530000 0.417788078685 -0.382000252916
160536000 0.417603109623 -0.382833959755
160542000 0.417421409021 -0.382317743696
160548000 0.416825024156 -0.382639598057
160554000 0.416536897127 -0.381744382559
160560000 0.416392125464 -0.382900193223
160566000 0.416407905728 -0.382269963192
160572000 0.416057863518 -0.382746840242
160578000 0.415645344783 -0.3818954304
160584000 0.415348651091 -0.382985766551
160590000 0.415298259589 -0.381836908635
160596000 0.414903243585 -0.382680780471
160602000 0.414482102697 -0.381820346902
160608000 0.414534675055 -0.383150751619
160614000 0.414877287812 -0.382858384363
160620000 0.414789297258 -0.383926923209
160626000 0.414873353711 -0.383837827391
160632000 0.414786638664 -0.384308223229
160638000 0.414388100219 -0.383641617167
160644000 0.413762095757 -0.383399934473
160650000 0.412936832921 -0.382710879165
160656000 0.412480131474 -0.382047459711
160662000 0.412207936687 -0.382275738415
160668000 0.411950999824 -0.382175815885
160674000 0.411719838877 -0.382451886995
160680000 0.411512331756 -0.381779575782
160686000 0.411453601224 -0.382492454823
160692000 0.411185876568 -0.382029241235
160698000 0.410548760668 -0.382259562093
160704000 0.410447621056 -0.381440967131
160710000 0.410172640028 -0.382345846724
160716000 0.410346047464 -0.381558847222
160722000 0.409697072741 -0.382122073267
160728000 0.409709871553 -0.38132790635
160734000 0.40976574532 -0.382441432614
160740000 0.41003906092 -0.381408112938
160746000 0.409459151504 -0.382181901067
160752000 0.409404655484 -0.381213237161
160758000 0.409445656199 -0.382022308177
160764000 0.40956111972 -0.381341684488
160770000 0.409507408541 -0.381917571757
160776000 0.409403505579 -0.381332512226
160782000 0.409401307415 -0.381881950724
160788000 0.40944567274 -0.381519020715
160794000 0.409404769903 -0.381779970194
160800000 0.409102679827 -0.381409768656
160806000 0.41122851149 -0.382358968155
160812000 0.411081540621 -0.381980125924
160818000 0.410833087384 -0.381684110942
160824000 0.41084888805 -0.383219952427
160830000 0.410930721134 -0.383108861321
160836000 0.410596187424 -0.382709745408
160842000 0.411047807143 -0.382182027695
160848000 0.411568526782 -0.383533209511
160854000 0.411955963726 -0.38325193339
160860000 0.414796748904 -0.385215101677
160866000 0.410007564608 -0.383003679441
160872000 0.412191579067 -0.383292994324
160878000 0.407751133412 -0.383429399536
160884000 0.409279853968 -0.383259352389
160890000 0.408569444979 -0.383033400258
160896000 0.408763072741 -0.383137818326
160902000 0.409050641185 -0.383517208977
160908000 0.40832109116 -0.38322025785
160914000 0.408110054738 -0.382880137947
160920000 0.408235080542 -0.383168448851
160926000 0.408192025444 -0.384035097911
160932000 0.407686517558 -0.383786126726
160938000 0.407610224853 -0.383182175219
160944000 0.407531548498 -0.383028189258
160950000 0.407606720643 -0.38404261553
160956000 0.407485481524 -0.38375502738
160962000 0.407136535054 -0.383365599741
160968000 0.407040905921 -0.383287783521
160974000 0.406882924067 -0.384718533992
160980000 0.406799069914 -0.384517188087
160986000 0.406302232502 -0.383923067807
160992000 0.40625911564 -0.383709640471
160998000 0.406325157371 -0.384586677866
161004000 0.406490034507 -0.3843791774
161010000 0.405907992514 -0.384027845269
161016000 0.40552132862 -0.383797136345
161022000 0.405750794103 -0.384662245609
161028000 0.405707949852 -0.384891707968
161034000 0.405016119986 -0.384418149682
161040000 0.404833241738 -0.384008807846
161046000 0.405007253885 -0.384385166279
161052000 0.405152175923 -0.384747126007
161058000 0.404586841372 -0.384267208651
161064000 0.404204276695 -0.384092973006
161070000 0.404359426459 -0.384342513549
161076000 0.404361441806 -0.385296726544
161082000 0.403849575868 -0.385040554325
161088000 0.403588314102 -0.384371980609
161094000 0.403817846671 -0.384208882392
161100000 0.403896313593 -0.385412612388
161106000 0.40362831197 -0.384843671654
161112000 0.403339191425 -0.384487375459
161118000 0.403003453534 -0.384256990093
161124000 0.403044865811 -0.385514526427
161130000 0.402928085456 -0.38543532446
161136000 0.402476703661 -0.385052669001
161142000 0.402378741556 -0.384613605586
161148000 0.402604090259 -0.385663518402
161154000 0.402790101652 -0.385462041506
161160000 0.402291794238 -0.385071134637
161166000 0.401940307839 -0.385053581505
161172000 0.401943382283 -0.385833838271
161178000 0.402064335542 -0.386029095756
161184000 0.401092771001 -0.385482036342
161190000 0.40080657319 -0.385111966059
161196000 0.401337266864 -0.385492484076
161202000 0.401584096611 -0.385874968343
161208000 0.400597599912 -0.38531161903
161214000 0.400440285131 -0.385043793222
161220000 0.400483478675 -0.385132298273
161226000 0.400628103493 -0.386258407833
161232000 0.400101986209 -0.385914358344
161238000 0.399807637046 -0.385193280899
161244000 0.400055586033 -0.385156735441
161250000 0.400238271625 -0.386069204803
161256000 0.399800604418 -0.385646703046
161262000 0.399040729917 -0.38569478617
161268000 0.399217297557 -0.385147928619
161274000 0.399291684726 -0.386325007675
161280000 0.399074698837 -0.386203427083
161286000 0.398376782036 -0.385671534733
161292000 0.398343063499 -0.385412434279
161298000 0.398666854102 -0.386418611135
161304000 0.398713259901 -0.38613180562
161310000 0.397960426679 -0.385712290144
161316000 0.397712983206 -0.385543728103
161322000 0.397866808003 -0.386593114794
161328000 0.397923016241 -0.386782933451
161334000 0.397234119215 -0.386088597713
161340000 0.396852071975 -0.385709577067
161346000 0.397399370643 -0.386173280953
161352000 0.397469095483 -0.38655617377
161358000 0.396762515492 -0.385838960412
161364000 0.396482487286 -0.38550440403
161370000 0.396783418189 -0.38591870641
161376000 0.396689377713 -0.386910930658
161382000 0.395939589536 -0.386262755573
161388000 0.395842450694 -0.38566724899
161394000 0.396246070319 -0.38566868094
161400000 0.396403043775 -0.386771782751
161406000 0.399791717733 -0.385831550927
161412000 0.399802248835 -0.38631106524
161418000 0.40005905718 -0.38633138116
161424000 0.399297438376 -0.386593438037
161430000 0.398649189487 -0.386019056213
161436000 0.398740104117 -0.386259671002
161442000 0.398699081355 -0.386714809572
161448000 0.398416404687 -0.386623846821
161454000 0.397991567601 -0.386383154772
161460000 0.398109125863 -0.385873982187
161466000 0.398015191591 -0.386469547655
161472000 0.397302966449 -0.386349496345
161478000 0.397087007154 -0.386208635404
161484000 0.396898916706 -0.386076838982
161490000 0.396950059246 -0.386629547316
161496000 0.396719344452 -0.386331165265
161502000 0.396333020718 -0.38615820952
161508000 0.396099276985 -0.385541709627
161514000 0.396249945792 -0.38633605477
161520000 0.39618335146 -0.386086664335
161526000 0.39559866855 -0.386052364001
161532000 0.395267011038 -0.385295117462
161538000 0.395148531567 -0.386176063199
161544000 0.395384008498 -0.38593583156
161550000 0.394826374574 -0.385920919591
161556000 0.394363029971 -0.384905565663
161562000 0.394840630115 -0.385801452463
161568000 0.395006039171 -0.38556868217
161574000 0.394845288777 -0.385907309725
161580000 0.393858889337 -0.384894328025
161586000 0.393838364877 -0.385306924781
161592000 0.393944555062 -0.385643809781
161598000 0.393641148284 -0.385647300054
161604000 0.393216530469 -0.385311640298
161610000 0.393408874902 -0.384965140138
161616000 0.393509169227 -0.385332108258
161622000 0.393125872834 -0.385208763458
161628000 0.392779659132 -0.384932893849
161634000 0.392617096709 -0.384478432464
161640000 0.392611908453 -0.385234671757
161646000 0.392441726791 -0.385094516179
161652000 0.392452743356 -0.385107319703
161658000 0.392203407626 -0.384081844143
161664000 0.392253993064 -0.384737238838
161670000 0.392325373926 -0.384676804696
161676000 0.391963058402 -0.384481451524
161682000 0.391346933236 -0.383609320492
161688000 0.391501033911 -0.384723404313
161694000 0.391671122245 -0.384337252593
161700000 0.391362733959 -0.384353628711
161706000 0.390853727004 -0.383380838914
161712000 0.391097216528 -0.38395475748
161718000 0.391437142358 -0.383821439851
161724000 0.390908632039 -0.384055341508
161730000 0.390714419224 -0.383031363408
161736000 0.391460937299 -0.383622878339
161742000 0.390608148422 -0.383634970601
161748000 0.390741334824 -0.38340555488
161754000 0.390764826067 -0.383319090615
161760000 0.390906176776 -0.382682188259
161766000 0.391189511677 -0.382616647271
161772000 0.390827409113 -0.382910719885
161778000 0.391951078752 -0.382288310468
161784000 0.390579096515 -0.382096006463
161790000 0.39074696246 -0.382594639916
161796000 0.390851305758 -0.382419323866
161802000 0.390740769186 -0.381982758471
161808000 0.390917746134 -0.381016583831
161814000 0.391336943542 -0.38181053523
161820000 0.391335966009 -0.381510772851
161826000 0.391101575633 -0.38123903812
161832000 0.390997398197 -0.380238563265
161838000 0.391527869222 -0.381142087586
161844000 0.391802383895 -0.380744455701
161850000 0.391846944562 -0.380598426871
161856000 0.39160667057 -0.37935935861
161862000 0.392380035505 -0.380087511623
161868000 0.39271533069 -0.379842241299
161874000 0.392674456254 -0.379684259233
161880000 0.392378091166 -0.378883769374
161886000 0.392967848951 -0.379273629137
161892000 0.393483858196 -0.379462333748
161898000 0.393422392375 -0.379137692998
161904000 0.393490106908 -0.378614637
161910000 0.393978936132 -0.378188670471
161916000 0.394428550327 -0.378679852814
161922000 0.394486098713 -0.378386984167
161928000 0.394484032803 -0.37791163972
161934000 0.394737184624 -0.377296474492
161940000 0.394947972468 -0.377887809146
161946000 0.395064497043 -0.377273059155
161952000 0.395242988338 -0.377191775337
161958000 0.395466566047 -0.376254547641
161964000 0.395815109623 -0.376825089411
161970000 0.396093305305 -0.376321097093
161976000 0.396222686154 -0.376081175525
161982000 0.395871606959 -0.374886038078
161988000 0.396208946705 -0.375697005842
161994000 0.396752565902 -0.375465923425
162000000 0.396598499678 -0.375271872967
